# vtk DataFile Version 3.0
vtk output at time 0.7
ASCII
DATASET UNSTRUCTURED_GRID
POINTS 2586 float
-1.84029e-05 0.000489375 0 1.84029e-05 0.000489375 0 -0.000414597 0.000260625 0 
-0.00041175 0.00025 0 -0.000433 0.00022875 0 -0.000433 -0.00022875 0 
-0.00041175 -0.00025 0 -0.000414597 -0.000260625 0 -1.84029e-05 -0.000489375 0 
1.84029e-05 -0.000489375 0 0.000414597 -0.000260625 0 0.000433 -0.00022875 0 
0.000433 0.00022875 0 0.000414597 0.000260625 0 4.25e-05 0 0 
2.125e-05 0.0005 0 5.90898e-17 0.00052125 0 5.90919e-17 0.00097875 0 
2.125e-05 0.001 0 1.84029e-05 0.00101063 0 0.000414597 0.00123937 0 
0.000451403 0.00123937 0 0.000847597 0.00101063 0 0.000866 0.00097875 0 
0.000866 0.00052125 0 0.000847597 0.000489375 0 0.000451403 0.000260625 0 
0.0004755 0.00075 0 0.00045425 0.00025 0 0.000884403 0.000489375 0 
0.0012806 0.000260625 0 0.001299 0.00022875 0 0.001299 -0.00022875 0 
0.0012806 -0.000260625 0 0.000884403 -0.000489375 0 0.000847597 -0.000489375 0 
0.000451403 -0.000260625 0 0.00045425 -0.00025 0 0.0009085 0 0 
0.000866 -0.00052125 0 0.000866 -0.00097875 0 0.000847597 -0.00101063 0 
0.000451403 -0.00123937 0 0.000414597 -0.00123937 0 1.84029e-05 -0.00101063 0 
2.125e-05 -0.001 0 5.90898e-17 -0.00097875 0 5.90919e-17 -0.00052125 0 
2.125e-05 -0.0005 0 0.0004755 -0.00075 0 -1.84029e-05 -0.00101063 0 
-0.000414597 -0.00123937 0 -0.000451403 -0.00123937 0 -0.000847597 -0.00101063 0 
-0.00084475 -0.001 0 -0.000866 -0.00097875 0 -0.000866 -0.00052125 0 
-0.00084475 -0.0005 0 -0.000847597 -0.000489375 0 -0.000451403 -0.000260625 0 
-0.0003905 -0.00075 0 -0.000884403 -0.000489375 0 -0.0012806 -0.000260625 0 
-0.00127775 -0.00025 0 -0.001299 -0.00022875 0 -0.001299 0.00022875 0 
-0.00127775 0.00025 0 -0.0012806 0.000260625 0 -0.000884403 0.000489375 0 
-0.000847597 0.000489375 0 -0.000451403 0.000260625 0 -0.0008235 0 0 
-0.00084475 0.0005 0 -0.000866 0.00052125 0 -0.000866 0.00097875 0 
-0.00084475 0.001 0 -0.000847597 0.00101063 0 -0.000451403 0.00123937 0 
-0.000414597 0.00123937 0 -1.84029e-05 0.00101063 0 -0.0003905 0.00075 0 
-1.84029e-05 0.000489375 -0.0005 1.84029e-05 0.000489375 -0.0005 -0.000414597 0.000260625 -0.0005 
-0.00041175 0.00025 -0.0005 -0.000433 0.00022875 -0.0005 -0.000433 -0.00022875 -0.0005 
-0.00041175 -0.00025 -0.0005 -0.000414597 -0.000260625 -0.0005 -1.84029e-05 -0.000489375 -0.0005 
1.84029e-05 -0.000489375 -0.0005 0.000414597 -0.000260625 -0.0005 0.000433 -0.00022875 -0.0005 
0.000433 0.00022875 -0.0005 0.000414597 0.000260625 -0.0005 4.25e-05 0 -0.0005 
2.125e-05 0.0005 -0.0005 5.90898e-17 0.00052125 -0.0005 5.90919e-17 0.00097875 -0.0005 
2.125e-05 0.001 -0.0005 1.84029e-05 0.00101063 -0.0005 0.000414597 0.00123937 -0.0005 
0.000451403 0.00123937 -0.0005 0.000847597 0.00101063 -0.0005 0.000866 0.00097875 -0.0005 
0.000866 0.00052125 -0.0005 0.000847597 0.000489375 -0.0005 0.000451403 0.000260625 -0.0005 
0.0004755 0.00075 -0.0005 0.00045425 0.00025 -0.0005 0.000884403 0.000489375 -0.0005 
0.0012806 0.000260625 -0.0005 0.001299 0.00022875 -0.0005 0.001299 -0.00022875 -0.0005 
0.0012806 -0.000260625 -0.0005 0.000884403 -0.000489375 -0.0005 0.000847597 -0.000489375 -0.0005 
0.000451403 -0.000260625 -0.0005 0.00045425 -0.00025 -0.0005 0.0009085 0 -0.0005 
0.000866 -0.00052125 -0.0005 0.000866 -0.00097875 -0.0005 0.000847597 -0.00101063 -0.0005 
0.000451403 -0.00123937 -0.0005 0.000414597 -0.00123937 -0.0005 1.84029e-05 -0.00101063 -0.0005 
2.125e-05 -0.001 -0.0005 5.90898e-17 -0.00097875 -0.0005 5.90919e-17 -0.00052125 -0.0005 
2.125e-05 -0.0005 -0.0005 0.0004755 -0.00075 -0.0005 -1.84029e-05 -0.00101063 -0.0005 
-0.000414597 -0.00123937 -0.0005 -0.000451403 -0.00123937 -0.0005 -0.000847597 -0.00101063 -0.0005 
-0.00084475 -0.001 -0.0005 -0.000866 -0.00097875 -0.0005 -0.000866 -0.00052125 -0.0005 
-0.00084475 -0.0005 -0.0005 -0.000847597 -0.000489375 -0.0005 -0.000451403 -0.000260625 -0.0005 
-0.0003905 -0.00075 -0.0005 -0.000884403 -0.000489375 -0.0005 -0.0012806 -0.000260625 -0.0005 
-0.00127775 -0.00025 -0.0005 -0.001299 -0.00022875 -0.0005 -0.001299 0.00022875 -0.0005 
-0.00127775 0.00025 -0.0005 -0.0012806 0.000260625 -0.0005 -0.000884403 0.000489375 -0.0005 
-0.000847597 0.000489375 -0.0005 -0.000451403 0.000260625 -0.0005 -0.0008235 0 -0.0005 
-0.00084475 0.0005 -0.0005 -0.000866 0.00052125 -0.0005 -0.000866 0.00097875 -0.0005 
-0.00084475 0.001 -0.0005 -0.000847597 0.00101063 -0.0005 -0.000451403 0.00123937 -0.0005 
-0.000414597 0.00123937 -0.0005 -1.84029e-05 0.00101063 -0.0005 -0.0003905 0.00075 -0.0005 
-9.82724e-20 0.00047875 0 -0.000335358 0.000306375 0 -0.000256119 0.000352125 0 
-0.000176881 0.000397875 0 -9.76417e-05 0.000443625 0 -0.000412474 0.0002555 0 
-0.000417974 0.000234974 0 -0.000433 -0.00013725 0 -0.000433 -4.575e-05 0 
-0.000433 4.575e-05 0 -0.000433 0.00013725 0 -0.000417974 -0.000234974 0 
-0.000412474 -0.0002555 0 -9.76417e-05 -0.000443625 0 -0.000176881 -0.000397875 0 
-0.000256119 -0.000352125 0 -0.000335358 -0.000306375 0 -1.07223e-19 -0.00047875 0 
0.000335358 -0.000306375 0 0.000256119 -0.000352125 0 0.000176881 -0.000397875 0 
9.76417e-05 -0.000443625 0 0.000414597 -0.000239375 0 0.000433 0.00013725 0 
0.000433 4.575e-05 0 0.000433 -4.575e-05 0 0.000433 -0.00013725 0 
0.000414597 0.000239375 0 9.76417e-05 0.000443625 0 0.000176881 0.000397875 0 
0.000256119 0.000352125 0 0.000335358 0.000306375 0 -1.29514e-19 4.25e-05 0 
-4.25e-05 -3.53397e-19 0 4.07417e-19 -4.25e-05 0 2.05259e-05 0.0004945 0 
1.5026e-05 0.000515026 0 0 0.00061275 0 0 0.00070425 0 
0 0.00079575 0 0 0.00088725 0 1.5026e-05 0.000984974 0 
2.05259e-05 0.0010055 0 9.76417e-05 0.00105638 0 0.000176881 0.00110213 0 
0.000256119 0.00114787 0 0.000335358 0.00119362 0 0.000433 0.00122875 0 
0.000530642 0.00119362 0 0.000609881 0.00114787 0 0.000689119 0.00110213 0 
0.000768358 0.00105638 0 0.000847597 0.000989375 0 0.000866 0.00088725 0 
0.000866 0.00079575 0 0.000866 0.00070425 0 0.000866 0.00061275 0 
0.000847597 0.000510625 0 0.000530642 0.000306375 0 0.000609881 0.000352125 0 
0.000689119 0.000397875 0 0.000768358 0.000443625 0 0.000433 0.00027125 0 
0.000433 0.0007925 0 0.0003905 0.00075 0 0.000433 0.0007075 0 
0.000448026 0.000234974 0 0.000453526 0.0002555 0 0.000866 0.00047875 0 
0.000963642 0.000443625 0 0.00104288 0.000397875 0 0.00112212 0.000352125 0 
0.00120136 0.000306375 0 0.0012806 0.000239375 0 0.001299 0.00013725 0 
0.001299 4.575e-05 0 0.001299 -4.575e-05 0 0.001299 -0.00013725 0 
0.0012806 -0.000239375 0 0.00120136 -0.000306375 0 0.00112212 -0.000352125 0 
0.00104288 -0.000397875 0 0.000963642 -0.000443625 0 0.000866 -0.00047875 0 
0.000530642 -0.000306375 0 0.000609881 -0.000352125 0 0.000689119 -0.000397875 0 
0.000768358 -0.000443625 0 0.000453526 -0.0002555 0 0.000448026 -0.000234974 0 
0.000866 4.25e-05 0 0.0008235 -3.53397e-19 0 0.000866 -4.25e-05 0 
0.000433 -0.00027125 0 0.000847597 -0.000510625 0 0.000866 -0.00061275 0 
0.000866 -0.00070425 0 0.000866 -0.00079575 0 0.000866 -0.00088725 0 
0.000847597 -0.000989375 0 0.000768358 -0.00105638 0 0.000689119 -0.00110213 0 
0.000609881 -0.00114787 0 0.000530642 -0.00119362 0 0.000433 -0.00122875 0 
0.000335358 -0.00119362 0 0.000256119 -0.00114787 0 0.000176881 -0.00110213 0 
9.76417e-05 -0.00105638 0 2.05259e-05 -0.0010055 0 1.5026e-05 -0.000984974 0 
0 -0.00061275 0 0 -0.00070425 0 0 -0.00079575 0 
0 -0.00088725 0 1.5026e-05 -0.000515026 0 2.05259e-05 -0.0004945 0 
0.000433 -0.0007075 0 0.0003905 -0.00075 0 0.000433 -0.0007925 0 
-1.84031e-05 -0.000510625 0 -1.84031e-05 -0.000989375 0 -9.76417e-05 -0.00105638 0 
-0.000176881 -0.00110213 0 -0.000256119 -0.00114787 0 -0.000335358 -0.00119362 0 
-0.000433 -0.00122875 0 -0.000530642 -0.00119362 0 -0.000609881 -0.00114787 0 
-0.000689119 -0.00110213 0 -0.000768358 -0.00105638 0 -0.000845474 -0.0010055 0 
-0.000850974 -0.000984974 0 -0.000866 -0.00088725 0 -0.000866 -0.00079575 0 
-0.000866 -0.00070425 0 -0.000866 -0.00061275 0 -0.000850974 -0.000515026 0 
-0.000845474 -0.0004945 0 -0.000530642 -0.000306375 0 -0.000609881 -0.000352125 0 
-0.000689119 -0.000397875 0 -0.000768358 -0.000443625 0 -0.000433 -0.00027125 0 
-0.000433 -0.0007075 0 -0.0004755 -0.00075 0 -0.000433 -0.0007925 0 
-0.000451403 -0.000239375 0 -0.000866 -0.00047875 0 -0.000963642 -0.000443625 0 
-0.00104288 -0.000397875 0 -0.00112212 -0.000352125 0 -0.00120136 -0.000306375 0 
-0.00127847 -0.0002555 0 -0.00128397 -0.000234974 0 -0.001299 -0.00013725 0 
-0.001299 -4.575e-05 0 -0.001299 4.575e-05 0 -0.001299 0.00013725 0 
-0.00128397 0.000234974 0 -0.00127847 0.0002555 0 -0.00120136 0.000306375 0 
-0.00112212 0.000352125 0 -0.00104288 0.000397875 0 -0.000963642 0.000443625 0 
-0.000866 0.00047875 0 -0.000530642 0.000306375 0 -0.000609881 0.000352125 0 
-0.000689119 0.000397875 0 -0.000768358 0.000443625 0 -0.000451403 0.000239375 0 
-0.000866 4.25e-05 0 -0.0009085 -3.53397e-19 0 -0.000866 -4.25e-05 0 
-0.000433 0.00027125 0 -0.000845474 0.0004945 0 -0.000850974 0.000515026 0 
-0.000866 0.00061275 0 -0.000866 0.00070425 0 -0.000866 0.00079575 0 
-0.000866 0.00088725 0 -0.000850974 0.000984974 0 -0.000845474 0.0010055 0 
-0.000768358 0.00105638 0 -0.000689119 0.00110213 0 -0.000609881 0.00114787 0 
-0.000530642 0.00119362 0 -0.000433 0.00122875 0 -0.000335358 0.00119362 0 
-0.000256119 0.00114787 0 -0.000176881 0.00110213 0 -9.76417e-05 0.00105638 0 
-1.84031e-05 0.000989375 0 -1.84031e-05 0.000510625 0 -0.000433 0.0007925 0 
-0.0004755 0.00075 0 -0.000433 0.0007075 0 -9.82724e-20 0.00047875 -0.0005 
-0.000335358 0.000306375 -0.0005 -0.000256119 0.000352125 -0.0005 -0.000176881 0.000397875 -0.0005 
-9.76417e-05 0.000443625 -0.0005 -0.000412474 0.0002555 -0.0005 -0.000417974 0.000234974 -0.0005 
-0.000433 -0.00013725 -0.0005 -0.000433 -4.575e-05 -0.0005 -0.000433 4.575e-05 -0.0005 
-0.000433 0.00013725 -0.0005 -0.000417974 -0.000234974 -0.0005 -0.000412474 -0.0002555 -0.0005 
-9.76417e-05 -0.000443625 -0.0005 -0.000176881 -0.000397875 -0.0005 -0.000256119 -0.000352125 -0.0005 
-0.000335358 -0.000306375 -0.0005 -1.07223e-19 -0.00047875 -0.0005 0.000335358 -0.000306375 -0.0005 
0.000256119 -0.000352125 -0.0005 0.000176881 -0.000397875 -0.0005 9.76417e-05 -0.000443625 -0.0005 
0.000414597 -0.000239375 -0.0005 0.000433 0.00013725 -0.0005 0.000433 4.575e-05 -0.0005 
0.000433 -4.575e-05 -0.0005 0.000433 -0.00013725 -0.0005 0.000414597 0.000239375 -0.0005 
9.76417e-05 0.000443625 -0.0005 0.000176881 0.000397875 -0.0005 0.000256119 0.000352125 -0.0005 
0.000335358 0.000306375 -0.0005 -1.29514e-19 4.25e-05 -0.0005 -4.25e-05 -3.53397e-19 -0.0005 
4.07417e-19 -4.25e-05 -0.0005 2.05259e-05 0.0004945 -0.0005 1.5026e-05 0.000515026 -0.0005 
0 0.00061275 -0.0005 0 0.00070425 -0.0005 0 0.00079575 -0.0005 
0 0.00088725 -0.0005 1.5026e-05 0.000984974 -0.0005 2.05259e-05 0.0010055 -0.0005 
9.76417e-05 0.00105638 -0.0005 0.000176881 0.00110213 -0.0005 0.000256119 0.00114787 -0.0005 
0.000335358 0.00119362 -0.0005 0.000433 0.00122875 -0.0005 0.000530642 0.00119362 -0.0005 
0.000609881 0.00114787 -0.0005 0.000689119 0.00110213 -0.0005 0.000768358 0.00105638 -0.0005 
0.000847597 0.000989375 -0.0005 0.000866 0.00088725 -0.0005 0.000866 0.00079575 -0.0005 
0.000866 0.00070425 -0.0005 0.000866 0.00061275 -0.0005 0.000847597 0.000510625 -0.0005 
0.000530642 0.000306375 -0.0005 0.000609881 0.000352125 -0.0005 0.000689119 0.000397875 -0.0005 
0.000768358 0.000443625 -0.0005 0.000433 0.00027125 -0.0005 0.000433 0.0007925 -0.0005 
0.0003905 0.00075 -0.0005 0.000433 0.0007075 -0.0005 0.000448026 0.000234974 -0.0005 
0.000453526 0.0002555 -0.0005 0.000866 0.00047875 -0.0005 0.000963642 0.000443625 -0.0005 
0.00104288 0.000397875 -0.0005 0.00112212 0.000352125 -0.0005 0.00120136 0.000306375 -0.0005 
0.0012806 0.000239375 -0.0005 0.001299 0.00013725 -0.0005 0.001299 4.575e-05 -0.0005 
0.001299 -4.575e-05 -0.0005 0.001299 -0.00013725 -0.0005 0.0012806 -0.000239375 -0.0005 
0.00120136 -0.000306375 -0.0005 0.00112212 -0.000352125 -0.0005 0.00104288 -0.000397875 -0.0005 
0.000963642 -0.000443625 -0.0005 0.000866 -0.00047875 -0.0005 0.000530642 -0.000306375 -0.0005 
0.000609881 -0.000352125 -0.0005 0.000689119 -0.000397875 -0.0005 0.000768358 -0.000443625 -0.0005 
0.000453526 -0.0002555 -0.0005 0.000448026 -0.000234974 -0.0005 0.000866 4.25e-05 -0.0005 
0.0008235 -3.53397e-19 -0.0005 0.000866 -4.25e-05 -0.0005 0.000433 -0.00027125 -0.0005 
0.000847597 -0.000510625 -0.0005 0.000866 -0.00061275 -0.0005 0.000866 -0.00070425 -0.0005 
0.000866 -0.00079575 -0.0005 0.000866 -0.00088725 -0.0005 0.000847597 -0.000989375 -0.0005 
0.000768358 -0.00105638 -0.0005 0.000689119 -0.00110213 -0.0005 0.000609881 -0.00114787 -0.0005 
0.000530642 -0.00119362 -0.0005 0.000433 -0.00122875 -0.0005 0.000335358 -0.00119362 -0.0005 
0.000256119 -0.00114787 -0.0005 0.000176881 -0.00110213 -0.0005 9.76417e-05 -0.00105638 -0.0005 
2.05259e-05 -0.0010055 -0.0005 1.5026e-05 -0.000984974 -0.0005 0 -0.00061275 -0.0005 
0 -0.00070425 -0.0005 0 -0.00079575 -0.0005 0 -0.00088725 -0.0005 
1.5026e-05 -0.000515026 -0.0005 2.05259e-05 -0.0004945 -0.0005 0.000433 -0.0007075 -0.0005 
0.0003905 -0.00075 -0.0005 0.000433 -0.0007925 -0.0005 -1.84031e-05 -0.000510625 -0.0005 
-1.84031e-05 -0.000989375 -0.0005 -9.76417e-05 -0.00105638 -0.0005 -0.000176881 -0.00110213 -0.0005 
-0.000256119 -0.00114787 -0.0005 -0.000335358 -0.00119362 -0.0005 -0.000433 -0.00122875 -0.0005 
-0.000530642 -0.00119362 -0.0005 -0.000609881 -0.00114787 -0.0005 -0.000689119 -0.00110213 -0.0005 
-0.000768358 -0.00105638 -0.0005 -0.000845474 -0.0010055 -0.0005 -0.000850974 -0.000984974 -0.0005 
-0.000866 -0.00088725 -0.0005 -0.000866 -0.00079575 -0.0005 -0.000866 -0.00070425 -0.0005 
-0.000866 -0.00061275 -0.0005 -0.000850974 -0.000515026 -0.0005 -0.000845474 -0.0004945 -0.0005 
-0.000530642 -0.000306375 -0.0005 -0.000609881 -0.000352125 -0.0005 -0.000689119 -0.000397875 -0.0005 
-0.000768358 -0.000443625 -0.0005 -0.000433 -0.00027125 -0.0005 -0.000433 -0.0007075 -0.0005 
-0.0004755 -0.00075 -0.0005 -0.000433 -0.0007925 -0.0005 -0.000451403 -0.000239375 -0.0005 
-0.000866 -0.00047875 -0.0005 -0.000963642 -0.000443625 -0.0005 -0.00104288 -0.000397875 -0.0005 
-0.00112212 -0.000352125 -0.0005 -0.00120136 -0.000306375 -0.0005 -0.00127847 -0.0002555 -0.0005 
-0.00128397 -0.000234974 -0.0005 -0.001299 -0.00013725 -0.0005 -0.001299 -4.575e-05 -0.0005 
-0.001299 4.575e-05 -0.0005 -0.001299 0.00013725 -0.0005 -0.00128397 0.000234974 -0.0005 
-0.00127847 0.0002555 -0.0005 -0.00120136 0.000306375 -0.0005 -0.00112212 0.000352125 -0.0005 
-0.00104288 0.000397875 -0.0005 -0.000963642 0.000443625 -0.0005 -0.000866 0.00047875 -0.0005 
-0.000530642 0.000306375 -0.0005 -0.000609881 0.000352125 -0.0005 -0.000689119 0.000397875 -0.0005 
-0.000768358 0.000443625 -0.0005 -0.000451403 0.000239375 -0.0005 -0.000866 4.25e-05 -0.0005 
-0.0009085 -3.53397e-19 -0.0005 -0.000866 -4.25e-05 -0.0005 -0.000433 0.00027125 -0.0005 
-0.000845474 0.0004945 -0.0005 -0.000850974 0.000515026 -0.0005 -0.000866 0.00061275 -0.0005 
-0.000866 0.00070425 -0.0005 -0.000866 0.00079575 -0.0005 -0.000866 0.00088725 -0.0005 
-0.000850974 0.000984974 -0.0005 -0.000845474 0.0010055 -0.0005 -0.000768358 0.00105638 -0.0005 
-0.000689119 0.00110213 -0.0005 -0.000609881 0.00114787 -0.0005 -0.000530642 0.00119362 -0.0005 
-0.000433 0.00122875 -0.0005 -0.000335358 0.00119362 -0.0005 -0.000256119 0.00114787 -0.0005 
-0.000176881 0.00110213 -0.0005 -9.76417e-05 0.00105638 -0.0005 -1.84031e-05 0.000989375 -0.0005 
-1.84031e-05 0.000510625 -0.0005 -0.000433 0.0007925 -0.0005 -0.0004755 0.00075 -0.0005 
-0.000433 0.0007075 -0.0005 0.000166833 -0.000159585 0 0.000165961 0.000165961 0 
-0.000162277 0.000168837 0 -0.000162539 -0.000168697 0 -0.000316174 -0.000207462 0 
-0.000316174 0.000207462 0 -1.7625e-06 0.00020878 0 -0.000200494 5.10348e-06 0 
0.000198022 -6.49099e-06 0 -3.82827e-06 -0.000208798 0 -0.0003642 0.000214286 0 
-0.0003642 -0.000214286 0 0.000301049 0.000166193 0 0.000312424 -0.000170987 0 
-7.30908e-06 -0.00035148 0 7.30908e-06 0.00035148 0 0.000109232 0.000285545 0 
-0.000107519 -0.000286192 0 -0.000304808 7.69979e-05 0 -0.000308572 -7.52569e-05 0 
0.000106639 -0.000294843 0 -0.00010493 0.000296588 0 8.50608e-05 -8.41794e-05 0 
8.82006e-05 9.78925e-05 0 -9.29688e-05 8.1944e-05 0 -9.5784e-05 -8.5049e-05 0 
-0.00037448 0.000247295 0 -0.00037448 -0.000247295 0 -0.000226807 0.000247375 0 
-0.00022696 -0.000246565 0 0.000318161 -5.24395e-05 0 0.00030573 6.09258e-05 0 
-0.000251653 -0.000142326 0 -0.000251653 0.000142326 0 3.07451e-05 -0.00041094 0 
-3.07451e-05 0.00041094 0 0.00022921 -0.000246251 0 0.000229478 0.000241816 0 
2.27436e-05 0.000133221 0 1.86722e-05 -0.000131409 0 -0.000131489 -2.16615e-05 0 
0.00013003 -1.62999e-05 0 -0.00037383 0.000149154 0 -0.00037383 -0.000149154 0 
0.000234918 -9.03863e-05 0 0.000328799 0.000234244 0 0.000330695 -0.000235043 0 
0.000223602 9.28059e-05 0 -8.24081e-05 0.000181543 0 -7.93229e-05 -0.000178683 0 
-0.000174487 7.88274e-05 0 9.06107e-05 -0.000168878 0 9.31592e-05 0.000169495 0 
-0.000165177 -7.38619e-05 0 -9.20929e-05 -0.000358769 0 9.20929e-05 0.000358769 0 
3.47644e-05 0.000422113 0 -3.47644e-05 -0.000422113 0 -0.00039524 0.000187946 0 
-0.00039524 -0.000187946 0 -0.00036071 1.92365e-06 0 0.000388959 -0.000188051 0 
0.000390003 0.000186364 0 6.43444e-05 -0.000355671 0 -6.37768e-05 0.000356891 0 
2.80563e-05 -0.000283426 0 -2.80563e-05 0.000283426 0 0.000158032 5.64575e-05 0 
4.0579e-05 0.000286843 0 -4.0579e-05 -0.000286843 0 0.000187449 0.000307262 0 
0.000159892 -7.91024e-05 0 -0.000184905 -0.00030951 0 0.000358611 0.000105752 0 
0.000363074 -0.00011688 0 -0.000325009 0.000251333 0 -0.000325009 -0.000251333 0 
-0.000240838 -7.12684e-05 0 -0.000314691 -0.000147697 0 -0.000314417 0.000147824 0 
-0.000404578 0.00024054 0 -0.000403308 0.000218831 0 -0.000404578 -0.00024054 0 
-0.000403308 -0.000218831 0 0.000191925 -0.0003084 0 -0.000260053 0.000200474 0 
-0.000260078 -0.000200417 0 -2.84262e-05 0.000450764 0 2.84262e-05 -0.000450764 0 
-0.000189066 0.000311072 0 -0.000240999 7.45278e-05 0 -0.000278935 4.78174e-06 0 
0.000354779 1.89656e-05 0 0.000162497 0.000232229 0 0.000376671 0.000245397 0 
0.000376841 -0.000245894 0 0.000157204 -0.000230896 0 0.000234792 0.000171119 0 
-0.000151291 -0.000232673 0 -2.32986e-05 8.92785e-05 0 -3.11926e-05 -8.95957e-05 0 
-9.03847e-05 2.2115e-05 0 9.12302e-05 3.30279e-05 0 -0.000152334 0.000235849 0 
0.000239556 -0.000175069 0 -0.000374753 9.03378e-05 0 -0.000376425 -8.91537e-05 0 
4.61669e-05 -4.59906e-05 0 6.62281e-05 0.000232832 0 3.85868e-05 8.10868e-05 0 
-7.69579e-05 -3.79434e-05 0 0.000127486 -0.000360083 0 7.07506e-05 -0.00023716 0 
0.000272535 3.89675e-06 0 -7.65081e-05 -0.000238638 0 0.00014561 0.000112396 0 
-0.000352537 0.000183264 0 -0.000352576 -0.000183245 0 -0.000270615 -0.000285639 0 
-0.000269954 0.000283517 0 -7.38981e-05 0.000241237 0 0.00028245 0.000113194 0 
-0.000128597 0.00035529 0 0.000277733 0.00021912 0 0.000279019 -0.000221334 0 
0.000293419 -0.000117053 0 -4.98304e-05 4.71675e-05 0 -3.82924e-05 0.000144636 0 
-3.82924e-05 -0.000144636 0 -0.000137965 3.32657e-05 0 -0.00012318 0.000133204 0 
-0.000120047 -0.000136339 0 -0.000206789 -0.00019438 0 0.000125599 -0.000122936 0 
-0.000206748 0.000194842 0 -0.000279599 0.000238032 0 -0.000279767 -0.000238283 0 
-0.000195529 0.000130609 0 -0.000197761 -0.000129013 0 2.37414e-05 -7.8735e-05 0 
7.89976e-05 -2.26884e-05 0 0.000279552 0.000278672 0 0.000279873 -0.000279044 0 
4.48012e-06 0.00044547 0 -4.48012e-06 -0.00044547 0 0.000598961 0.000584039 0 
0.000602744 0.00091226 0 0.000270474 0.000918651 0 0.000270149 0.000581615 0 
0.000116826 0.000957462 0 0.000116826 0.000542538 0 0.000429172 0.000958798 0 
0.000232505 0.000755103 0 0.000636012 0.000747201 0 0.000434763 0.00054122 0 
6.87997e-05 0.000964286 0 6.87997e-05 0.000535714 0 0.000745424 0.000920987 0 
0.000734049 0.000583807 0 0.000425691 0.00039852 0 0.000425691 0.00110148 0 
0.000325481 0.00103619 0 0.00032556 0.000464273 0 0.000128192 0.000826998 0 
0.000124428 0.000674743 0 0.000539639 0.00104484 0 0.000539618 0.000454793 0 
0.000520463 0.000653783 0 0.000521988 0.00084822 0 0.000340031 0.000831944 0 
0.00034624 0.000661734 0 5.85195e-05 0.000997295 0 5.85195e-05 0.000502705 0 
0.00020604 0.000996565 0 0.00020604 0.000503435 0 0.000751161 0.00080244 0 
0.00073873 0.000689074 0 0.000181347 0.000607674 0 0.000181347 0.000892326 0 
0.000463745 0.00033906 0 0.000463745 0.00116094 0 0.00066221 0.000996251 0 
0.000655871 0.000515061 0 0.000455531 0.000883279 0 0.0004137 0.000617913 0 
0.000302544 0.000731006 0 0.000569409 0.000742828 0 5.91695e-05 0.000899154 0 
5.91695e-05 0.000600846 0 0.000666622 0.000847886 0 0.000763695 0.000985043 0 
0.000761799 0.000515756 0 0.000662952 0.000664982 0 0.000353677 0.000928683 0 
0.000512323 0.000571317 0 0.000258513 0.000828827 0 0.000526529 0.000920143 0 
0.000348994 0.000575642 0 0.000269055 0.00067649 0 0.000340907 0.000391231 0 
0.000340907 0.00110877 0 0.000398236 0.00117211 0 0.000398236 0.000327887 0 
3.77595e-05 0.000937946 0 3.77595e-05 0.000562054 0 7.22902e-05 0.000751924 0 
0.000821959 0.000938051 0 0.000823003 0.000563636 0 0.000497344 0.00110567 0 
0.000497341 0.000394268 0 0.000595975 0.000808208 0 0.000461056 0.000466574 0 
0.000461056 0.00103343 0 0.000392421 0.00103684 0 0.000392458 0.000463164 0 
0.000248106 0.000440556 0 0.000248095 0.00105951 0 0.000791611 0.000644248 0 
0.000796074 0.00086688 0 0.000107991 0.00100133 0 0.000107991 0.000498667 0 
0.000192237 0.000678753 0 0.000118309 0.000602303 0 0.000118584 0.000897824 0 
2.84222e-05 0.00099054 0 2.96921e-05 0.000968831 0 2.84222e-05 0.00050946 0 
2.96921e-05 0.000531169 0 0.000584827 0.000674445 0 0.000624925 0.0010584 0 
0.000620086 0.000439056 0 0.000172934 0.000950423 0 0.000172922 0.000549583 0 
0.000461426 0.00120076 0 0.000461426 0.000299236 0 0.000192001 0.000824528 0 
0.000154074 0.000754784 0 0.000787779 0.000731034 0 0.000809841 0.000995894 0 
0.000809671 0.000504603 0 0.000589469 0.00097835 0 0.000571747 0.000512487 0 
0.000673596 0.000588147 0 0.000281249 0.000518091 0 0.00028171 0.000982668 0 
0.000409676 0.000839285 0 0.000465934 0.000658411 0 0.000524589 0.000782934 0 
0.000342119 0.000777068 0 0.000672682 0.000926159 0 5.82468e-05 0.000840338 0 
5.65752e-05 0.000660846 0 0.000386493 0.000703192 0 0.000361584 0.000514775 0 
0.000471587 0.000831087 0 0.000510532 0.000709986 0 0.000559513 0.000389323 0 
0.000560486 0.00111008 0 0.000503751 0.00098716 0 0.000707209 0.000747103 0 
0.000356492 0.000988637 0 8.04633e-05 0.000933264 0 8.04241e-05 0.000566755 0 
0.000162386 0.000464369 0 0.000162385 0.00103564 0 0.000578393 0.000862613 0 
0.000503901 0.000509278 0 0.000714127 0.000640342 0 0.000712044 0.000971552 0 
0.000710619 0.000533186 0 0.000726252 0.00086828 0 0.000383065 0.000798159 0 
0.000471292 0.000605364 0 0.000394708 0.000894636 0 0.000295143 0.00078479 0 
0.000311567 0.000884914 0 0.000544105 0.000613927 0 0.000226145 0.000555712 0 
0.000226234 0.0009443 0 0.000307419 0.000615421 0 0.000153235 0.000988284 0 
0.000153233 0.000511718 0 0.000237647 0.000880726 0 0.000238317 0.000620115 0 
0.000410377 0.000668704 0 0.000352297 0.000726325 0 0.000712874 0.00102905 0 
0.000708438 0.00047242 0 0.00042852 0.00030453 0 0.00042852 0.00119547 0 
0.00103283 -0.000159585 0 0.00103196 0.000165961 0 0.00070371 0.000168883 0 
0.000703474 -0.000168651 0 0.000549826 0.000207462 0 0.000549826 -0.000207462 0 
0.000864237 0.00020878 0 0.000665505 -1.75358e-06 0 0.00106402 -6.49099e-06 0 
0.000862172 -0.000208798 0 0.0005018 0.000214286 0 0.0005018 -0.000214286 0 
0.00117842 -0.000170987 0 0.00116705 0.000166193 0 0.000858691 -0.00035148 0 
0.000873309 0.00035148 0 0.000975232 0.000285545 0 0.000758481 -0.000286192 0 
0.000561503 7.6703e-05 0 0.000555269 -7.65899e-05 0 0.000972639 -0.000294843 0 
0.00076107 0.000296588 0 0.000951061 -8.41794e-05 0 0.000954201 9.78925e-05 0 
0.000770216 8.5049e-05 0 0.000773031 -8.1944e-05 0 0.00049152 0.000247295 0 
0.00049152 -0.000247295 0 0.000639193 0.000247375 0 0.00063904 -0.000246565 0 
0.00118416 -5.24395e-05 0 0.00117173 6.09258e-05 0 0.000614347 -0.000142326 0 
0.000614347 0.000142326 0 0.000896745 -0.00041094 0 0.000835255 0.00041094 0 
0.00109521 -0.000246251 0 0.00109548 0.000241816 0 0.000888744 0.000133221 0 
0.000884672 -0.000131409 0 0.000734511 2.22198e-05 0 0.00099603 -1.62999e-05 0 
0.00049217 0.000149154 0 0.00049217 -0.000149154 0 0.00110092 -9.03863e-05 0 
0.0011967 -0.000235043 0 0.0011948 0.000234244 0 0.0010896 9.28059e-05 0 
0.000783591 0.000181545 0 0.000786677 -0.000178683 0 0.000691513 -7.86239e-05 0 
0.000956611 -0.000168878 0 0.000959159 0.000169495 0 0.000700823 7.45132e-05 0 
0.000773907 -0.000358769 0 0.000958093 0.000358769 0 0.000900764 0.000422113 0 
0.000831236 -0.000422113 0 0.00047076 0.000187946 0 0.00047076 -0.000187946 0 
0.000506327 1.20793e-06 0 0.00125496 -0.000188051 0 0.001256 0.000186364 0 
0.000930344 -0.000355671 0 0.000802223 0.000356891 0 0.000894056 -0.000283426 0 
0.000837944 0.000283426 0 0.00102403 5.64575e-05 0 0.000906579 0.000286843 0 
0.000825421 -0.000286843 0 0.00105345 0.000307262 0 0.00102589 -7.91024e-05 0 
0.000681095 -0.00030951 0 0.00122461 0.000105752 0 0.00122907 -0.00011688 0 
0.000540991 0.000251333 0 0.000540991 -0.000251333 0 0.000624479 7.32103e-05 0 
0.000551152 -0.000147794 0 0.000551606 0.000147802 0 0.000461422 0.00024054 0 
0.000462692 0.000218831 0 0.000461422 -0.00024054 0 0.000462692 -0.000218831 0 
0.00105793 -0.0003084 0 0.000605948 0.000200473 0 0.000605915 -0.000200421 0 
0.000894426 -0.000450764 0 0.000837574 0.000450764 0 0.000676934 0.000311072 0 
0.000626182 -7.08972e-05 0 0.000584992 5.90258e-06 0 0.00122078 1.89656e-05 0 
0.0010285 0.000232229 0 0.00124284 -0.000245894 0 0.00124267 0.000245397 0 
0.0010232 -0.000230896 0 0.00110079 0.000171119 0 0.00071471 -0.000232668 0 
0.000834965 9.05283e-05 0 0.000842673 -8.85226e-05 0 0.00095723 3.30279e-05 0 
0.000775615 -2.20485e-05 0 0.000713665 0.000235853 0 0.00110556 -0.000175069 0 
0.000491363 9.025e-05 0 0.000488571 -8.87482e-05 0 0.000912167 -4.59906e-05 0 
0.000932228 0.000232832 0 0.000904587 8.10868e-05 0 0.000789049 3.8011e-05 0 
0.000993486 -0.000360083 0 0.000936751 -0.00023716 0 0.00113854 3.89675e-06 0 
0.000789492 -0.000238637 0 0.00101161 0.000112396 0 0.000513466 0.00018326 0 
0.000513402 -0.000183259 0 0.000596046 0.000283517 0 0.000595385 -0.000285639 0 
0.000792102 0.000241238 0 0.00114845 0.000113194 0 0.000737403 0.00035529 0 
0.00114502 -0.000221334 0 0.00114373 0.00021912 0 0.00115942 -0.000117053 0 
0.000816164 -4.7003e-05 0 0.000827708 0.000144636 0 0.000827708 -0.000144636 0 
0.000728035 -3.243e-05 0 0.00074578 0.000136564 0 0.000744567 -0.000134897 0 
0.000659232 -0.0001943 0 0.000991599 -0.000122936 0 0.00065923 0.000194923 0 
0.000586401 0.000238032 0 0.000586231 -0.000238284 0 0.000670788 -0.000130267 0 
0.000668203 0.000129229 0 0.000889614 -8.00602e-05 0 0.000944998 -2.26884e-05 0 
0.00114587 -0.000279044 0 0.00114555 0.000278672 0 0.00087048 0.00044547 0 
0.00086152 -0.00044547 0 0.000598961 -0.000915961 0 0.000603317 -0.000588209 0 
0.000270723 -0.000581163 0 0.000270149 -0.000918385 0 0.000116826 -0.000542538 0 
0.000116826 -0.000957462 0 0.000431238 -0.00054122 0 0.000232505 -0.000744897 0 
0.000636012 -0.000752799 0 0.000434763 -0.00095878 0 6.87997e-05 -0.000535714 0 
6.87997e-05 -0.000964286 0 0.000745424 -0.000579013 0 0.000734049 -0.000916193 0 
0.000425691 -0.00110148 0 0.000440309 -0.00039852 0 0.000542232 -0.000464455 0 
0.00032556 -0.00103573 0 0.000128192 -0.000673002 0 0.000124428 -0.000825257 0 
0.000539618 -0.00104521 0 0.00032807 -0.000453412 0 0.000520463 -0.000846217 0 
0.000521988 -0.00065178 0 0.000340031 -0.000668056 0 0.00034624 -0.000838266 0 
5.85195e-05 -0.000502705 0 5.85195e-05 -0.000997295 0 0.000206193 -0.000502625 0 
0.00020604 -0.000996565 0 0.000751161 -0.00069756 0 0.00073873 -0.000810926 0 
0.000181347 -0.000892326 0 0.000181347 -0.000607674 0 0.000463745 -0.00116094 0 
0.000402255 -0.00033906 0 0.000662471 -0.000504287 0 0.000655871 -0.000984939 0 
0.000455875 -0.000616724 0 0.0004137 -0.000882087 0 0.000302544 -0.000768994 0 
0.000569409 -0.000757172 0 5.91695e-05 -0.000600846 0 5.91695e-05 -0.000899154 0 
0.000666622 -0.000652114 0 0.000763695 -0.000514957 0 0.000761799 -0.000984244 0 
0.000662952 -0.000835018 0 0.000350592 -0.000568457 0 0.000512323 -0.000928683 0 
0.000258513 -0.000671173 0 0.000526882 -0.000581015 0 0.000348994 -0.000924358 0 
0.000269055 -0.00082351 0 0.000340907 -0.00110877 0 0.000525093 -0.000391231 0 
0.000398236 -0.00117211 0 0.000467764 -0.000327887 0 3.77595e-05 -0.000562054 0 
3.77595e-05 -0.000937946 0 7.22902e-05 -0.000748076 0 0.000821959 -0.000561949 0 
0.000823003 -0.000936364 0 0.000497341 -0.00110573 0 0.000369223 -0.000393109 0 
0.000595975 -0.000691792 0 0.000461056 -0.00103343 0 0.000404944 -0.000466574 0 
0.000473579 -0.000463157 0 0.000392458 -0.00103684 0 0.000620449 -0.000442181 0 
0.000248106 -0.00105944 0 0.000791611 -0.000855752 0 0.000796074 -0.00063312 0 
0.000107991 -0.000498667 0 0.000107991 -0.00100133 0 0.000192237 -0.000821247 0 
0.000118309 -0.000897697 0 0.000118584 -0.000602176 0 2.84222e-05 -0.00050946 0 
2.96921e-05 -0.000531169 0 2.84222e-05 -0.00099054 0 2.96921e-05 -0.000968831 0 
0.000584827 -0.000825555 0 0.000620086 -0.00106094 0 0.000172947 -0.000549526 0 
0.000172922 -0.000950417 0 0.000461426 -0.00120076 0 0.000404574 -0.000299236 0 
0.000243934 -0.000438928 0 0.000192001 -0.000675472 0 0.000154074 -0.000745216 0 
0.000787779 -0.000768966 0 0.000588723 -0.000523989 0 0.000809841 -0.000504106 0 
0.000809671 -0.000995397 0 0.000571747 -0.000987513 0 0.000673596 -0.000911853 0 
0.000281249 -0.000981909 0 0.000409717 -0.000660715 0 0.000465934 -0.000841589 0 
0.000524589 -0.000717066 0 0.000342119 -0.000722933 0 0.000280666 -0.000514151 0 
0.000672694 -0.000574319 0 5.82468e-05 -0.000659662 0 5.65752e-05 -0.000839154 0 
0.000386493 -0.000796808 0 0.000361584 -0.000985225 0 0.000499228 -0.000517168 0 
0.000471587 -0.000668913 0 0.000510532 -0.000790014 0 0.000559513 -0.00111068 0 
0.000707209 -0.000752897 0 8.04633e-05 -0.000566736 0 8.04241e-05 -0.000933245 0 
0.000163046 -0.000466483 0 0.000162386 -0.00103563 0 0.000578393 -0.000637387 0 
0.000503901 -0.000990722 0 0.000359102 -0.000508763 0 0.000714127 -0.000859658 0 
0.000304403 -0.00039471 0 0.000712099 -0.000528651 0 0.000710619 -0.000966814 0 
0.000726254 -0.000631789 0 0.000383073 -0.000701841 0 0.000471292 -0.000894636 0 
0.000394708 -0.000605364 0 0.000295143 -0.00071521 0 0.000544105 -0.000886073 0 
0.00030982 -0.000616796 0 0.000226145 -0.000944288 0 0.000307419 -0.000884579 0 
0.000226252 -0.000555158 0 0.000153401 -0.000511968 0 0.000153233 -0.000988282 0 
0.000237471 -0.000619391 0 0.000238317 -0.000879885 0 0.000410377 -0.000831296 0 
0.000352297 -0.000773675 0 0.00071621 -0.000470678 0 0.000708438 -0.00102758 0 
0.00043748 -0.00030453 0 0.00042852 -0.00119547 0 -0.000266167 -0.000909585 0 
-0.00026339 -0.000582669 0 -0.000595526 -0.000581349 0 -0.000595539 -0.000918697 0 
-0.000749174 -0.000957462 0 -0.000749174 -0.000542538 0 -0.000436828 -0.000541202 0 
-0.000633495 -0.000748246 0 -0.000234978 -0.000756491 0 -0.000436828 -0.000958798 0 
-0.0007972 -0.000964286 0 -0.0007972 -0.000535714 0 -0.000131951 -0.000583807 0 
-0.000120576 -0.000920987 0 -0.000440309 -0.00110148 0 -0.000440309 -0.00039852 0 
-0.000540519 -0.000463808 0 -0.000540519 -0.00103619 0 -0.000737497 -0.000826703 0 
-0.000743731 -0.00067341 0 -0.000326361 -0.000455157 0 -0.000326361 -0.00104484 0 
-0.000347939 -0.000834179 0 -0.000344799 -0.000652107 0 -0.000525969 -0.000668056 0 
-0.000528784 -0.000835049 0 -0.00080748 -0.000997295 0 -0.00080748 -0.000502705 0 
-0.00065996 -0.000996565 0 -0.00065996 -0.000503435 0 -0.000114839 -0.00080244 0 
-0.00012727 -0.000689074 0 -0.000684653 -0.000892326 0 -0.000684653 -0.000607674 0 
-0.000402255 -0.00033906 0 -0.000402255 -0.00116094 0 -0.00020379 -0.000996251 0 
-0.000209694 -0.000514898 0 -0.000410601 -0.000616776 0 -0.000414328 -0.000881409 0 
-0.000564489 -0.00077222 0 -0.00030297 -0.0007663 0 -0.000806831 -0.000899154 0 
-0.000806831 -0.000600846 0 -0.000198082 -0.000840386 0 -0.000104201 -0.000515756 0 
-0.000102305 -0.000985043 0 -0.000210482 -0.000662469 0 -0.000512323 -0.000571317 0 
-0.000512323 -0.000928683 0 -0.000607487 -0.000671376 0 -0.000342389 -0.000918878 0 
-0.000339591 -0.000579218 0 -0.000598177 -0.000824513 0 -0.000525093 -0.00110877 0 
-0.000525093 -0.000391231 0 -0.000467764 -0.00117211 0 -0.000467764 -0.000327887 0 
-0.00082824 -0.000937946 0 -0.00082824 -0.000562054 0 -0.000792673 -0.000751208 0 
-4.40406e-05 -0.000938051 0 -4.29968e-05 -0.000563636 0 -0.000368656 -0.000394329 0 
-0.000368656 -0.00110567 0 -0.000404944 -0.000466574 0 -0.000404944 -0.00103343 0 
-0.000274968 -0.000693542 0 -0.000473579 -0.000463157 0 -0.000473579 -0.00103684 0 
-0.000273108 -0.000829102 0 -0.000617905 -0.00105951 0 -0.000617905 -0.00044049 0 
-7.4389e-05 -0.000644248 0 -6.99258e-05 -0.00086688 0 -0.000758009 -0.00100133 0 
-0.000758009 -0.000498667 0 -0.000674521 -0.00082321 0 -0.000747394 -0.000897802 0 
-0.000747848 -0.000602206 0 -0.000837578 -0.00099054 0 -0.000836308 -0.000968831 0 
-0.000837578 -0.00050946 0 -0.000836308 -0.000531169 0 -0.00024589 -0.000439066 0 
-0.000241075 -0.0010584 0 -0.000693065 -0.000950422 0 -0.000693085 -0.000549579 0 
-0.000404574 -0.00120076 0 -0.000404574 -0.000299236 0 -0.000672818 -0.000679103 0 
-0.000714008 -0.000755903 0 -7.82213e-05 -0.000731034 0 -5.6329e-05 -0.000504603 0 
-5.61586e-05 -0.000995894 0 -0.000275796 -0.000980896 0 -0.000285676 -0.000513219 0 
-0.000186165 -0.000585602 0 -0.000584291 -0.000982673 0 -0.00058429 -0.000517332 0 
-0.00045634 -0.000660721 0 -0.000464193 -0.000839596 0 -0.00034177 -0.000716972 0 
-0.000523385 -0.000727952 0 -0.000193444 -0.000925069 0 -0.000807637 -0.00084025 0 
-0.000810429 -0.000661252 0 -0.000386833 -0.000795991 0 -0.000394413 -0.000668913 0 
-0.000509958 -0.000787971 0 -0.000305514 -0.00111008 0 -0.000306477 -0.00038941 0 
-0.000362249 -0.00098716 0 -0.00035868 -0.000511074 0 -0.000160645 -0.000746982 0 
-0.000509508 -0.000511363 0 -0.000509508 -0.000988638 0 -0.00028739 -0.000637604 0 
-0.000785534 -0.00093326 0 -0.000785598 -0.000566741 0 -0.000703615 -0.00103564 0 
-0.000703615 -0.000464361 0 -0.000148903 -0.000636616 0 -0.00015636 -0.000534148 0 
-0.000153981 -0.000971334 0 -0.000139581 -0.000867053 0 -0.000482839 -0.000702846 0 
-0.000471292 -0.000605364 0 -0.000471292 -0.000894636 0 -0.000570965 -0.00071757 0 
-0.000554433 -0.000615103 0 -0.000553903 -0.000884892 0 -0.000639788 -0.00094438 0 
-0.000639768 -0.0005557 0 -0.000307401 -0.000872936 0 -0.000712765 -0.000988284 0 
-0.000712769 -0.000511716 0 -0.000628213 -0.000619733 0 -0.000630855 -0.000879083 0 
-0.000409259 -0.000828735 0 -0.000354002 -0.000772688 0 -0.000155373 -0.000471972 0 
-0.000153127 -0.00102904 0 -0.00043748 -0.00030453 0 -0.00043748 -0.00119547 0 
-0.000699167 -0.000159585 0 -0.00102828 0.000168837 0 -0.000700039 0.000165961 0 
-0.00102854 -0.000168697 0 -0.00118217 0.000207462 0 -0.00118217 -0.000207462 0 
-0.000867762 0.00020878 0 -0.00106649 5.10348e-06 0 -0.000667978 -6.49099e-06 0 
-0.000869828 -0.000208798 0 -0.0012302 0.000214286 0 -0.0012302 -0.000214286 0 
-0.000564951 0.000166193 0 -0.000553576 -0.000170987 0 -0.000873309 -0.00035148 0 
-0.000858691 0.00035148 0 -0.000756768 0.000285545 0 -0.000973519 -0.000286192 0 
-0.00117081 7.69979e-05 0 -0.00117457 -7.52569e-05 0 -0.000759361 -0.000294843 0 
-0.00097093 0.000296588 0 -0.000780939 -8.41794e-05 0 -0.000958969 8.1944e-05 0 
-0.000777799 9.78925e-05 0 -0.000961784 -8.5049e-05 0 -0.00124048 0.000247295 0 
-0.00124048 -0.000247295 0 -0.00109281 0.000247375 0 -0.00109296 -0.000246565 0 
-0.000547839 -5.24395e-05 0 -0.00056027 6.09258e-05 0 -0.00111765 0.000142326 0 
-0.00111765 -0.000142326 0 -0.000835255 -0.00041094 0 -0.000896745 0.00041094 0 
-0.00063679 -0.000246251 0 -0.000636522 0.000241816 0 -0.000843256 0.000133221 0 
-0.000847328 -0.000131409 0 -0.000997489 -2.16615e-05 0 -0.00073597 -1.62999e-05 0 
-0.00123983 0.000149154 0 -0.00123983 -0.000149154 0 -0.000631082 -9.03863e-05 0 
-0.000535305 -0.000235043 0 -0.000537201 0.000234244 0 -0.000642398 9.28059e-05 0 
-0.000948408 0.000181543 0 -0.000945323 -0.000178683 0 -0.00104049 7.88274e-05 0 
-0.000775389 -0.000168878 0 -0.000772841 0.000169495 0 -0.00103118 -7.38619e-05 0 
-0.000958093 -0.000358769 0 -0.000773907 0.000358769 0 -0.000900764 -0.000422113 0 
-0.000831236 0.000422113 0 -0.00126124 0.000187946 0 -0.00126124 -0.000187946 0 
-0.00122671 1.92365e-06 0 -0.000477041 -0.000188051 0 -0.000475997 0.000186364 0 
-0.000801656 -0.000355671 0 -0.000929777 0.000356891 0 -0.000837944 -0.000283426 0 
-0.000894056 0.000283426 0 -0.000707968 5.64575e-05 0 -0.000825421 0.000286843 0 
-0.000906579 -0.000286843 0 -0.000678551 0.000307262 0 -0.000706108 -7.91024e-05 0 
-0.0010509 -0.00030951 0 -0.000507389 0.000105752 0 -0.000502926 -0.00011688 0 
-0.00119101 0.000251333 0 -0.00119101 -0.000251333 0 -0.00110684 -7.12684e-05 0 
-0.00118042 0.000147824 0 -0.00118069 -0.000147697 0 -0.00127058 0.00024054 0 
-0.00126931 0.000218831 0 -0.00127058 -0.00024054 0 -0.00126931 -0.000218831 0 
-0.000674075 -0.0003084 0 -0.00112605 0.000200474 0 -0.00112608 -0.000200417 0 
-0.000837574 -0.000450764 0 -0.000894426 0.000450764 0 -0.00105507 0.000311072 0 
-0.001107 7.45278e-05 0 -0.00114494 4.78174e-06 0 -0.000511221 1.89656e-05 0 
-0.000703503 0.000232229 0 -0.000489329 0.000245397 0 -0.000489159 -0.000245894 0 
-0.000708796 -0.000230896 0 -0.000631208 0.000171119 0 -0.00101729 -0.000232673 0 
-0.000889299 8.92785e-05 0 -0.000897193 -8.95957e-05 0 -0.00077477 3.30279e-05 0 
-0.000956385 2.2115e-05 0 -0.00101833 0.000235849 0 -0.000626444 -0.000175069 0 
-0.00124075 9.03378e-05 0 -0.00124242 -8.91537e-05 0 -0.000819833 -4.59906e-05 0 
-0.000799772 0.000232832 0 -0.000827413 8.10868e-05 0 -0.000942958 -3.79434e-05 0 
-0.000738514 -0.000360083 0 -0.000795249 -0.00023716 0 -0.000593465 3.89675e-06 0 
-0.000942508 -0.000238638 0 -0.00072039 0.000112396 0 -0.00121854 0.000183264 0 
-0.00121858 -0.000183245 0 -0.00113595 0.000283517 0 -0.00113662 -0.000285639 0 
-0.000939898 0.000241237 0 -0.00058355 0.000113194 0 -0.000994597 0.00035529 0 
-0.000586981 -0.000221334 0 -0.000588267 0.00021912 0 -0.000572581 -0.000117053 0 
-0.00091583 4.71675e-05 0 -0.000904292 -0.000144636 0 -0.000904292 0.000144636 0 
-0.00100396 3.32657e-05 0 -0.00098918 0.000133204 0 -0.000986047 -0.000136339 0 
-0.00107279 -0.00019438 0 -0.000740401 -0.000122936 0 -0.00107275 0.000194842 0 
-0.0011456 0.000238032 0 -0.00114577 -0.000238283 0 -0.00106153 0.000130609 0 
-0.00106376 -0.000129013 0 -0.000842259 -7.8735e-05 0 -0.000787002 -2.26884e-05 0 
-0.000586448 0.000278672 0 -0.000586127 -0.000279044 0 -0.00087048 -0.00044547 0 
-0.00086152 0.00044547 0 -0.000266167 0.000590415 0 -0.000267039 0.000915961 0 
-0.000595277 0.000918837 0 -0.000595539 0.000581303 0 -0.000749174 0.000542538 0 
-0.000749174 0.000957462 0 -0.000434763 0.00095878 0 -0.000633495 0.000751754 0 
-0.000234978 0.000743509 0 -0.000436828 0.000541202 0 -0.0007972 0.000535714 0 
-0.0007972 0.000964286 0 -0.000131951 0.000916193 0 -0.000120576 0.000579013 0 
-0.000440309 0.00039852 0 -0.000425691 0.00110148 0 -0.000323768 0.00103554 0 
-0.000540519 0.000463808 0 -0.000737497 0.000673297 0 -0.000743731 0.00082659 0 
-0.000326361 0.000455157 0 -0.00053793 0.00104659 0 -0.000347939 0.000665821 0 
-0.000344799 0.000847893 0 -0.000525969 0.000831944 0 -0.000528784 0.000664951 0 
-0.00080748 0.000502705 0 -0.00080748 0.000997295 0 -0.00065996 0.000503435 0 
-0.000659807 0.000997375 0 -0.000114839 0.00069756 0 -0.00012727 0.000810926 0 
-0.000684653 0.000607674 0 -0.000684653 0.000892326 0 -0.000402255 0.00033906 0 
-0.000463745 0.00116094 0 -0.00020379 0.000503749 0 -0.000203522 0.000991815 0 
-0.000410256 0.000883221 0 -0.000414328 0.000618591 0 -0.000564489 0.00072778 0 
-0.00030297 0.0007337 0 -0.000806831 0.000600846 0 -0.000806831 0.000899154 0 
-0.000198082 0.000659614 0 -0.000104201 0.000984244 0 -0.000102305 0.000514957 0 
-0.000209398 0.000842806 0 -0.000515408 0.000931543 0 -0.000512323 0.000571317 0 
-0.000607487 0.000828624 0 -0.000342389 0.000581122 0 -0.000339841 0.000919495 0 
-0.000598177 0.000675487 0 -0.000525093 0.000391231 0 -0.000340907 0.00110877 0 
-0.000398236 0.00117211 0 -0.000467764 0.000327887 0 -0.00082824 0.000562054 0 
-0.00082824 0.000937946 0 -0.000792673 0.000748792 0 -4.40406e-05 0.000561949 0 
-4.29968e-05 0.000936364 0 -0.000368656 0.000394329 0 -0.000496777 0.00110689 0 
-0.000404944 0.000466574 0 -0.000461056 0.00103343 0 -0.000274968 0.000806458 0 
-0.000392421 0.00103684 0 -0.000473579 0.000463157 0 -0.000245551 0.00105726 0 
-0.000273108 0.000670898 0 -0.000617905 0.00044049 0 -7.4389e-05 0.000855752 0 
-6.99258e-05 0.00063312 0 -0.000758009 0.000498667 0 -0.000758009 0.00100133 0 
-0.000674521 0.00067679 0 -0.000747394 0.000602198 0 -0.000747848 0.000897794 0 
-0.000837578 0.00050946 0 -0.000836308 0.000531169 0 -0.000837578 0.00099054 0 
-0.000836308 0.000968831 0 -0.000241075 0.0004416 0 -0.000693065 0.000549578 0 
-0.000693072 0.000950473 0 -0.000404574 0.000299236 0 -0.000461426 0.00120076 0 
-0.000622066 0.00106107 0 -0.000672818 0.000820897 0 -0.000714008 0.000744097 0 
-7.82213e-05 0.000768966 0 -0.000270503 0.000982229 0 -5.6329e-05 0.000995397 0 
-5.61586e-05 0.000504106 0 -0.000275796 0.000519104 0 -0.000198208 0.000921119 0 
-0.000584291 0.000517327 0 -0.000456299 0.000839279 0 -0.000464193 0.000660404 0 
-0.00034177 0.000783028 0 -0.000523385 0.000772048 0 -0.000585334 0.000985849 0 
-0.000193444 0.000574931 0 -0.000807637 0.00065975 0 -0.000810429 0.000838748 0 
-0.000386833 0.000704009 0 -0.000366772 0.000982832 0 -0.000394413 0.000831087 0 
-0.000509958 0.000712029 0 -0.000305514 0.000389917 0 -0.000362249 0.00051284 0 
-0.000160465 0.000753897 0 -0.000509508 0.000511362 0 -0.00028739 0.000862396 0 
-0.000785534 0.00056674 0 -0.000785598 0.000933259 0 -0.000703615 0.000464361 0 
-0.000702954 0.00103352 0 -0.000506898 0.000991237 0 -0.00015055 0.000863194 0 
-0.000561597 0.00110529 0 -0.000153981 0.000528666 0 -0.000155267 0.00096912 0 
-0.000139581 0.000632947 0 -0.00048283 0.000797154 0 -0.000471292 0.000894636 0 
-0.000471292 0.000605364 0 -0.000570965 0.00078243 0 -0.00055618 0.00088318 0 
-0.000553903 0.000615108 0 -0.000639788 0.00055562 0 -0.000307401 0.000627064 0 
-0.00063975 0.000944842 0 -0.000712765 0.000511716 0 -0.000712603 0.000988032 0 
-0.000628389 0.00088015 0 -0.000630855 0.000620917 0 -0.000409259 0.000671265 0 
-0.000354002 0.000727312 0 -0.000153448 0.00102867 0 -0.000153127 0.000470956 0 
-0.00042852 0.00119547 0 -0.00043748 0.00030453 0 0.000166833 -0.000159585 -0.0005 
0.000165961 0.000165961 -0.0005 -0.000162277 0.000168837 -0.0005 -0.000162539 -0.000168697 -0.0005 
-0.000316174 -0.000207462 -0.0005 -0.000316174 0.000207462 -0.0005 -1.7625e-06 0.00020878 -0.0005 
-0.000200494 5.10348e-06 -0.0005 0.000198022 -6.49099e-06 -0.0005 -3.82827e-06 -0.000208798 -0.0005 
-0.0003642 0.000214286 -0.0005 -0.0003642 -0.000214286 -0.0005 0.000301049 0.000166193 -0.0005 
0.000312424 -0.000170987 -0.0005 -7.30908e-06 -0.00035148 -0.0005 7.30908e-06 0.00035148 -0.0005 
0.000109232 0.000285545 -0.0005 -0.000107519 -0.000286192 -0.0005 -0.000304808 7.69979e-05 -0.0005 
-0.000308572 -7.52569e-05 -0.0005 0.000106639 -0.000294843 -0.0005 -0.00010493 0.000296588 -0.0005 
8.50608e-05 -8.41794e-05 -0.0005 8.82006e-05 9.78925e-05 -0.0005 -9.29688e-05 8.1944e-05 -0.0005 
-9.5784e-05 -8.5049e-05 -0.0005 -0.00037448 0.000247295 -0.0005 -0.00037448 -0.000247295 -0.0005 
-0.000226807 0.000247375 -0.0005 -0.00022696 -0.000246565 -0.0005 0.000318161 -5.24395e-05 -0.0005 
0.00030573 6.09258e-05 -0.0005 -0.000251653 -0.000142326 -0.0005 -0.000251653 0.000142326 -0.0005 
3.07451e-05 -0.00041094 -0.0005 -3.07451e-05 0.00041094 -0.0005 0.00022921 -0.000246251 -0.0005 
0.000229478 0.000241816 -0.0005 2.27436e-05 0.000133221 -0.0005 1.86722e-05 -0.000131409 -0.0005 
-0.000131489 -2.16615e-05 -0.0005 0.00013003 -1.62999e-05 -0.0005 -0.00037383 0.000149154 -0.0005 
-0.00037383 -0.000149154 -0.0005 0.000234918 -9.03863e-05 -0.0005 0.000328799 0.000234244 -0.0005 
0.000330695 -0.000235043 -0.0005 0.000223602 9.28059e-05 -0.0005 -8.24081e-05 0.000181543 -0.0005 
-7.93229e-05 -0.000178683 -0.0005 -0.000174487 7.88274e-05 -0.0005 9.06107e-05 -0.000168878 -0.0005 
9.31592e-05 0.000169495 -0.0005 -0.000165177 -7.38619e-05 -0.0005 -9.20929e-05 -0.000358769 -0.0005 
9.20929e-05 0.000358769 -0.0005 3.47644e-05 0.000422113 -0.0005 -3.47644e-05 -0.000422113 -0.0005 
-0.00039524 0.000187946 -0.0005 -0.00039524 -0.000187946 -0.0005 -0.00036071 1.92365e-06 -0.0005 
0.000388959 -0.000188051 -0.0005 0.000390003 0.000186364 -0.0005 6.43444e-05 -0.000355671 -0.0005 
-6.37768e-05 0.000356891 -0.0005 2.80563e-05 -0.000283426 -0.0005 -2.80563e-05 0.000283426 -0.0005 
0.000158032 5.64575e-05 -0.0005 4.0579e-05 0.000286843 -0.0005 -4.0579e-05 -0.000286843 -0.0005 
0.000187449 0.000307262 -0.0005 0.000159892 -7.91024e-05 -0.0005 -0.000184905 -0.00030951 -0.0005 
0.000358611 0.000105752 -0.0005 0.000363074 -0.00011688 -0.0005 -0.000325009 0.000251333 -0.0005 
-0.000325009 -0.000251333 -0.0005 -0.000240838 -7.12684e-05 -0.0005 -0.000314691 -0.000147697 -0.0005 
-0.000314417 0.000147824 -0.0005 -0.000404578 0.00024054 -0.0005 -0.000403308 0.000218831 -0.0005 
-0.000404578 -0.00024054 -0.0005 -0.000403308 -0.000218831 -0.0005 0.000191925 -0.0003084 -0.0005 
-0.000260053 0.000200474 -0.0005 -0.000260078 -0.000200417 -0.0005 -2.84262e-05 0.000450764 -0.0005 
2.84262e-05 -0.000450764 -0.0005 -0.000189066 0.000311072 -0.0005 -0.000240999 7.45278e-05 -0.0005 
-0.000278935 4.78174e-06 -0.0005 0.000354779 1.89656e-05 -0.0005 0.000162497 0.000232229 -0.0005 
0.000376671 0.000245397 -0.0005 0.000376841 -0.000245894 -0.0005 0.000157204 -0.000230896 -0.0005 
0.000234792 0.000171119 -0.0005 -0.000151291 -0.000232673 -0.0005 -2.32986e-05 8.92785e-05 -0.0005 
-3.11926e-05 -8.95957e-05 -0.0005 -9.03847e-05 2.2115e-05 -0.0005 9.12302e-05 3.30279e-05 -0.0005 
-0.000152334 0.000235849 -0.0005 0.000239556 -0.000175069 -0.0005 -0.000374753 9.03378e-05 -0.0005 
-0.000376425 -8.91537e-05 -0.0005 4.61669e-05 -4.59906e-05 -0.0005 6.62281e-05 0.000232832 -0.0005 
3.85868e-05 8.10868e-05 -0.0005 -7.69579e-05 -3.79434e-05 -0.0005 0.000127486 -0.000360083 -0.0005 
7.07506e-05 -0.00023716 -0.0005 0.000272535 3.89675e-06 -0.0005 -7.65081e-05 -0.000238638 -0.0005 
0.00014561 0.000112396 -0.0005 -0.000352537 0.000183264 -0.0005 -0.000352576 -0.000183245 -0.0005 
-0.000270615 -0.000285639 -0.0005 -0.000269954 0.000283517 -0.0005 -7.38981e-05 0.000241237 -0.0005 
0.00028245 0.000113194 -0.0005 -0.000128597 0.00035529 -0.0005 0.000277733 0.00021912 -0.0005 
0.000279019 -0.000221334 -0.0005 0.000293419 -0.000117053 -0.0005 -4.98304e-05 4.71675e-05 -0.0005 
-3.82924e-05 0.000144636 -0.0005 -3.82924e-05 -0.000144636 -0.0005 -0.000137965 3.32657e-05 -0.0005 
-0.00012318 0.000133204 -0.0005 -0.000120047 -0.000136339 -0.0005 -0.000206789 -0.00019438 -0.0005 
0.000125599 -0.000122936 -0.0005 -0.000206748 0.000194842 -0.0005 -0.000279599 0.000238032 -0.0005 
-0.000279767 -0.000238283 -0.0005 -0.000195529 0.000130609 -0.0005 -0.000197761 -0.000129013 -0.0005 
2.37414e-05 -7.8735e-05 -0.0005 7.89976e-05 -2.26884e-05 -0.0005 0.000279552 0.000278672 -0.0005 
0.000279873 -0.000279044 -0.0005 4.48012e-06 0.00044547 -0.0005 -4.48012e-06 -0.00044547 -0.0005 
0.000598961 0.000584039 -0.0005 0.000602744 0.00091226 -0.0005 0.000270474 0.000918651 -0.0005 
0.000270149 0.000581615 -0.0005 0.000116826 0.000957462 -0.0005 0.000116826 0.000542538 -0.0005 
0.000429172 0.000958798 -0.0005 0.000232505 0.000755103 -0.0005 0.000636012 0.000747201 -0.0005 
0.000434763 0.00054122 -0.0005 6.87997e-05 0.000964286 -0.0005 6.87997e-05 0.000535714 -0.0005 
0.000745424 0.000920987 -0.0005 0.000734049 0.000583807 -0.0005 0.000425691 0.00039852 -0.0005 
0.000425691 0.00110148 -0.0005 0.000325481 0.00103619 -0.0005 0.00032556 0.000464273 -0.0005 
0.000128192 0.000826998 -0.0005 0.000124428 0.000674743 -0.0005 0.000539639 0.00104484 -0.0005 
0.000539618 0.000454793 -0.0005 0.000520463 0.000653783 -0.0005 0.000521988 0.00084822 -0.0005 
0.000340031 0.000831944 -0.0005 0.00034624 0.000661734 -0.0005 5.85195e-05 0.000997295 -0.0005 
5.85195e-05 0.000502705 -0.0005 0.00020604 0.000996565 -0.0005 0.00020604 0.000503435 -0.0005 
0.000751161 0.00080244 -0.0005 0.00073873 0.000689074 -0.0005 0.000181347 0.000607674 -0.0005 
0.000181347 0.000892326 -0.0005 0.000463745 0.00033906 -0.0005 0.000463745 0.00116094 -0.0005 
0.00066221 0.000996251 -0.0005 0.000655871 0.000515061 -0.0005 0.000455531 0.000883279 -0.0005 
0.0004137 0.000617913 -0.0005 0.000302544 0.000731006 -0.0005 0.000569409 0.000742828 -0.0005 
5.91695e-05 0.000899154 -0.0005 5.91695e-05 0.000600846 -0.0005 0.000666622 0.000847886 -0.0005 
0.000763695 0.000985043 -0.0005 0.000761799 0.000515756 -0.0005 0.000662952 0.000664982 -0.0005 
0.000353677 0.000928683 -0.0005 0.000512323 0.000571317 -0.0005 0.000258513 0.000828827 -0.0005 
0.000526529 0.000920143 -0.0005 0.000348994 0.000575642 -0.0005 0.000269055 0.00067649 -0.0005 
0.000340907 0.000391231 -0.0005 0.000340907 0.00110877 -0.0005 0.000398236 0.00117211 -0.0005 
0.000398236 0.000327887 -0.0005 3.77595e-05 0.000937946 -0.0005 3.77595e-05 0.000562054 -0.0005 
7.22902e-05 0.000751924 -0.0005 0.000821959 0.000938051 -0.0005 0.000823003 0.000563636 -0.0005 
0.000497344 0.00110567 -0.0005 0.000497341 0.000394268 -0.0005 0.000595975 0.000808208 -0.0005 
0.000461056 0.000466574 -0.0005 0.000461056 0.00103343 -0.0005 0.000392421 0.00103684 -0.0005 
0.000392458 0.000463164 -0.0005 0.000248106 0.000440556 -0.0005 0.000248095 0.00105951 -0.0005 
0.000791611 0.000644248 -0.0005 0.000796074 0.00086688 -0.0005 0.000107991 0.00100133 -0.0005 
0.000107991 0.000498667 -0.0005 0.000192237 0.000678753 -0.0005 0.000118309 0.000602303 -0.0005 
0.000118584 0.000897824 -0.0005 2.84222e-05 0.00099054 -0.0005 2.96921e-05 0.000968831 -0.0005 
2.84222e-05 0.00050946 -0.0005 2.96921e-05 0.000531169 -0.0005 0.000584827 0.000674445 -0.0005 
0.000624925 0.0010584 -0.0005 0.000620086 0.000439056 -0.0005 0.000172934 0.000950423 -0.0005 
0.000172922 0.000549583 -0.0005 0.000461426 0.00120076 -0.0005 0.000461426 0.000299236 -0.0005 
0.000192001 0.000824528 -0.0005 0.000154074 0.000754784 -0.0005 0.000787779 0.000731034 -0.0005 
0.000809841 0.000995894 -0.0005 0.000809671 0.000504603 -0.0005 0.000589469 0.00097835 -0.0005 
0.000571747 0.000512487 -0.0005 0.000673596 0.000588147 -0.0005 0.000281249 0.000518091 -0.0005 
0.00028171 0.000982668 -0.0005 0.000409676 0.000839285 -0.0005 0.000465934 0.000658411 -0.0005 
0.000524589 0.000782934 -0.0005 0.000342119 0.000777068 -0.0005 0.000672682 0.000926159 -0.0005 
5.82468e-05 0.000840338 -0.0005 5.65752e-05 0.000660846 -0.0005 0.000386493 0.000703192 -0.0005 
0.000361584 0.000514775 -0.0005 0.000471587 0.000831087 -0.0005 0.000510532 0.000709986 -0.0005 
0.000559513 0.000389323 -0.0005 0.000560486 0.00111008 -0.0005 0.000503751 0.00098716 -0.0005 
0.000707209 0.000747103 -0.0005 0.000356492 0.000988637 -0.0005 8.04633e-05 0.000933264 -0.0005 
8.04241e-05 0.000566755 -0.0005 0.000162386 0.000464369 -0.0005 0.000162385 0.00103564 -0.0005 
0.000578393 0.000862613 -0.0005 0.000503901 0.000509278 -0.0005 0.000714127 0.000640342 -0.0005 
0.000712044 0.000971552 -0.0005 0.000710619 0.000533186 -0.0005 0.000726252 0.00086828 -0.0005 
0.000383065 0.000798159 -0.0005 0.000471292 0.000605364 -0.0005 0.000394708 0.000894636 -0.0005 
0.000295143 0.00078479 -0.0005 0.000311567 0.000884914 -0.0005 0.000544105 0.000613927 -0.0005 
0.000226145 0.000555712 -0.0005 0.000226234 0.0009443 -0.0005 0.000307419 0.000615421 -0.0005 
0.000153235 0.000988284 -0.0005 0.000153233 0.000511718 -0.0005 0.000237647 0.000880726 -0.0005 
0.000238317 0.000620115 -0.0005 0.000410377 0.000668704 -0.0005 0.000352297 0.000726325 -0.0005 
0.000712874 0.00102905 -0.0005 0.000708438 0.00047242 -0.0005 0.00042852 0.00030453 -0.0005 
0.00042852 0.00119547 -0.0005 0.00103283 -0.000159585 -0.0005 0.00103196 0.000165961 -0.0005 
0.00070371 0.000168883 -0.0005 0.000703474 -0.000168651 -0.0005 0.000549826 0.000207462 -0.0005 
0.000549826 -0.000207462 -0.0005 0.000864237 0.00020878 -0.0005 0.000665505 -1.75358e-06 -0.0005 
0.00106402 -6.49099e-06 -0.0005 0.000862172 -0.000208798 -0.0005 0.0005018 0.000214286 -0.0005 
0.0005018 -0.000214286 -0.0005 0.00117842 -0.000170987 -0.0005 0.00116705 0.000166193 -0.0005 
0.000858691 -0.00035148 -0.0005 0.000873309 0.00035148 -0.0005 0.000975232 0.000285545 -0.0005 
0.000758481 -0.000286192 -0.0005 0.000561503 7.6703e-05 -0.0005 0.000555269 -7.65899e-05 -0.0005 
0.000972639 -0.000294843 -0.0005 0.00076107 0.000296588 -0.0005 0.000951061 -8.41794e-05 -0.0005 
0.000954201 9.78925e-05 -0.0005 0.000770216 8.5049e-05 -0.0005 0.000773031 -8.1944e-05 -0.0005 
0.00049152 0.000247295 -0.0005 0.00049152 -0.000247295 -0.0005 0.000639193 0.000247375 -0.0005 
0.00063904 -0.000246565 -0.0005 0.00118416 -5.24395e-05 -0.0005 0.00117173 6.09258e-05 -0.0005 
0.000614347 -0.000142326 -0.0005 0.000614347 0.000142326 -0.0005 0.000896745 -0.00041094 -0.0005 
0.000835255 0.00041094 -0.0005 0.00109521 -0.000246251 -0.0005 0.00109548 0.000241816 -0.0005 
0.000888744 0.000133221 -0.0005 0.000884672 -0.000131409 -0.0005 0.000734511 2.22198e-05 -0.0005 
0.00099603 -1.62999e-05 -0.0005 0.00049217 0.000149154 -0.0005 0.00049217 -0.000149154 -0.0005 
0.00110092 -9.03863e-05 -0.0005 0.0011967 -0.000235043 -0.0005 0.0011948 0.000234244 -0.0005 
0.0010896 9.28059e-05 -0.0005 0.000783591 0.000181545 -0.0005 0.000786677 -0.000178683 -0.0005 
0.000691513 -7.86239e-05 -0.0005 0.000956611 -0.000168878 -0.0005 0.000959159 0.000169495 -0.0005 
0.000700823 7.45132e-05 -0.0005 0.000773907 -0.000358769 -0.0005 0.000958093 0.000358769 -0.0005 
0.000900764 0.000422113 -0.0005 0.000831236 -0.000422113 -0.0005 0.00047076 0.000187946 -0.0005 
0.00047076 -0.000187946 -0.0005 0.000506327 1.20793e-06 -0.0005 0.00125496 -0.000188051 -0.0005 
0.001256 0.000186364 -0.0005 0.000930344 -0.000355671 -0.0005 0.000802223 0.000356891 -0.0005 
0.000894056 -0.000283426 -0.0005 0.000837944 0.000283426 -0.0005 0.00102403 5.64575e-05 -0.0005 
0.000906579 0.000286843 -0.0005 0.000825421 -0.000286843 -0.0005 0.00105345 0.000307262 -0.0005 
0.00102589 -7.91024e-05 -0.0005 0.000681095 -0.00030951 -0.0005 0.00122461 0.000105752 -0.0005 
0.00122907 -0.00011688 -0.0005 0.000540991 0.000251333 -0.0005 0.000540991 -0.000251333 -0.0005 
0.000624479 7.32103e-05 -0.0005 0.000551152 -0.000147794 -0.0005 0.000551606 0.000147802 -0.0005 
0.000461422 0.00024054 -0.0005 0.000462692 0.000218831 -0.0005 0.000461422 -0.00024054 -0.0005 
0.000462692 -0.000218831 -0.0005 0.00105793 -0.0003084 -0.0005 0.000605948 0.000200473 -0.0005 
0.000605915 -0.000200421 -0.0005 0.000894426 -0.000450764 -0.0005 0.000837574 0.000450764 -0.0005 
0.000676934 0.000311072 -0.0005 0.000626182 -7.08972e-05 -0.0005 0.000584992 5.90258e-06 -0.0005 
0.00122078 1.89656e-05 -0.0005 0.0010285 0.000232229 -0.0005 0.00124284 -0.000245894 -0.0005 
0.00124267 0.000245397 -0.0005 0.0010232 -0.000230896 -0.0005 0.00110079 0.000171119 -0.0005 
0.00071471 -0.000232668 -0.0005 0.000834965 9.05283e-05 -0.0005 0.000842673 -8.85226e-05 -0.0005 
0.00095723 3.30279e-05 -0.0005 0.000775615 -2.20485e-05 -0.0005 0.000713665 0.000235853 -0.0005 
0.00110556 -0.000175069 -0.0005 0.000491363 9.025e-05 -0.0005 0.000488571 -8.87482e-05 -0.0005 
0.000912167 -4.59906e-05 -0.0005 0.000932228 0.000232832 -0.0005 0.000904587 8.10868e-05 -0.0005 
0.000789049 3.8011e-05 -0.0005 0.000993486 -0.000360083 -0.0005 0.000936751 -0.00023716 -0.0005 
0.00113854 3.89675e-06 -0.0005 0.000789492 -0.000238637 -0.0005 0.00101161 0.000112396 -0.0005 
0.000513466 0.00018326 -0.0005 0.000513402 -0.000183259 -0.0005 0.000596046 0.000283517 -0.0005 
0.000595385 -0.000285639 -0.0005 0.000792102 0.000241238 -0.0005 0.00114845 0.000113194 -0.0005 
0.000737403 0.00035529 -0.0005 0.00114502 -0.000221334 -0.0005 0.00114373 0.00021912 -0.0005 
0.00115942 -0.000117053 -0.0005 0.000816164 -4.7003e-05 -0.0005 0.000827708 0.000144636 -0.0005 
0.000827708 -0.000144636 -0.0005 0.000728035 -3.243e-05 -0.0005 0.00074578 0.000136564 -0.0005 
0.000744567 -0.000134897 -0.0005 0.000659232 -0.0001943 -0.0005 0.000991599 -0.000122936 -0.0005 
0.00065923 0.000194923 -0.0005 0.000586401 0.000238032 -0.0005 0.000586231 -0.000238284 -0.0005 
0.000670788 -0.000130267 -0.0005 0.000668203 0.000129229 -0.0005 0.000889614 -8.00602e-05 -0.0005 
0.000944998 -2.26884e-05 -0.0005 0.00114587 -0.000279044 -0.0005 0.00114555 0.000278672 -0.0005 
0.00087048 0.00044547 -0.0005 0.00086152 -0.00044547 -0.0005 0.000598961 -0.000915961 -0.0005 
0.000603317 -0.000588209 -0.0005 0.000270723 -0.000581163 -0.0005 0.000270149 -0.000918385 -0.0005 
0.000116826 -0.000542538 -0.0005 0.000116826 -0.000957462 -0.0005 0.000431238 -0.00054122 -0.0005 
0.000232505 -0.000744897 -0.0005 0.000636012 -0.000752799 -0.0005 0.000434763 -0.00095878 -0.0005 
6.87997e-05 -0.000535714 -0.0005 6.87997e-05 -0.000964286 -0.0005 0.000745424 -0.000579013 -0.0005 
0.000734049 -0.000916193 -0.0005 0.000425691 -0.00110148 -0.0005 0.000440309 -0.00039852 -0.0005 
0.000542232 -0.000464455 -0.0005 0.00032556 -0.00103573 -0.0005 0.000128192 -0.000673002 -0.0005 
0.000124428 -0.000825257 -0.0005 0.000539618 -0.00104521 -0.0005 0.00032807 -0.000453412 -0.0005 
0.000520463 -0.000846217 -0.0005 0.000521988 -0.00065178 -0.0005 0.000340031 -0.000668056 -0.0005 
0.00034624 -0.000838266 -0.0005 5.85195e-05 -0.000502705 -0.0005 5.85195e-05 -0.000997295 -0.0005 
0.000206193 -0.000502625 -0.0005 0.00020604 -0.000996565 -0.0005 0.000751161 -0.00069756 -0.0005 
0.00073873 -0.000810926 -0.0005 0.000181347 -0.000892326 -0.0005 0.000181347 -0.000607674 -0.0005 
0.000463745 -0.00116094 -0.0005 0.000402255 -0.00033906 -0.0005 0.000662471 -0.000504287 -0.0005 
0.000655871 -0.000984939 -0.0005 0.000455875 -0.000616724 -0.0005 0.0004137 -0.000882087 -0.0005 
0.000302544 -0.000768994 -0.0005 0.000569409 -0.000757172 -0.0005 5.91695e-05 -0.000600846 -0.0005 
5.91695e-05 -0.000899154 -0.0005 0.000666622 -0.000652114 -0.0005 0.000763695 -0.000514957 -0.0005 
0.000761799 -0.000984244 -0.0005 0.000662952 -0.000835018 -0.0005 0.000350592 -0.000568457 -0.0005 
0.000512323 -0.000928683 -0.0005 0.000258513 -0.000671173 -0.0005 0.000526882 -0.000581015 -0.0005 
0.000348994 -0.000924358 -0.0005 0.000269055 -0.00082351 -0.0005 0.000340907 -0.00110877 -0.0005 
0.000525093 -0.000391231 -0.0005 0.000398236 -0.00117211 -0.0005 0.000467764 -0.000327887 -0.0005 
3.77595e-05 -0.000562054 -0.0005 3.77595e-05 -0.000937946 -0.0005 7.22902e-05 -0.000748076 -0.0005 
0.000821959 -0.000561949 -0.0005 0.000823003 -0.000936364 -0.0005 0.000497341 -0.00110573 -0.0005 
0.000369223 -0.000393109 -0.0005 0.000595975 -0.000691792 -0.0005 0.000461056 -0.00103343 -0.0005 
0.000404944 -0.000466574 -0.0005 0.000473579 -0.000463157 -0.0005 0.000392458 -0.00103684 -0.0005 
0.000620449 -0.000442181 -0.0005 0.000248106 -0.00105944 -0.0005 0.000791611 -0.000855752 -0.0005 
0.000796074 -0.00063312 -0.0005 0.000107991 -0.000498667 -0.0005 0.000107991 -0.00100133 -0.0005 
0.000192237 -0.000821247 -0.0005 0.000118309 -0.000897697 -0.0005 0.000118584 -0.000602176 -0.0005 
2.84222e-05 -0.00050946 -0.0005 2.96921e-05 -0.000531169 -0.0005 2.84222e-05 -0.00099054 -0.0005 
2.96921e-05 -0.000968831 -0.0005 0.000584827 -0.000825555 -0.0005 0.000620086 -0.00106094 -0.0005 
0.000172947 -0.000549526 -0.0005 0.000172922 -0.000950417 -0.0005 0.000461426 -0.00120076 -0.0005 
0.000404574 -0.000299236 -0.0005 0.000243934 -0.000438928 -0.0005 0.000192001 -0.000675472 -0.0005 
0.000154074 -0.000745216 -0.0005 0.000787779 -0.000768966 -0.0005 0.000588723 -0.000523989 -0.0005 
0.000809841 -0.000504106 -0.0005 0.000809671 -0.000995397 -0.0005 0.000571747 -0.000987513 -0.0005 
0.000673596 -0.000911853 -0.0005 0.000281249 -0.000981909 -0.0005 0.000409717 -0.000660715 -0.0005 
0.000465934 -0.000841589 -0.0005 0.000524589 -0.000717066 -0.0005 0.000342119 -0.000722933 -0.0005 
0.000280666 -0.000514151 -0.0005 0.000672694 -0.000574319 -0.0005 5.82468e-05 -0.000659662 -0.0005 
5.65752e-05 -0.000839154 -0.0005 0.000386493 -0.000796808 -0.0005 0.000361584 -0.000985225 -0.0005 
0.000499228 -0.000517168 -0.0005 0.000471587 -0.000668913 -0.0005 0.000510532 -0.000790014 -0.0005 
0.000559513 -0.00111068 -0.0005 0.000707209 -0.000752897 -0.0005 8.04633e-05 -0.000566736 -0.0005 
8.04241e-05 -0.000933245 -0.0005 0.000163046 -0.000466483 -0.0005 0.000162386 -0.00103563 -0.0005 
0.000578393 -0.000637387 -0.0005 0.000503901 -0.000990722 -0.0005 0.000359102 -0.000508763 -0.0005 
0.000714127 -0.000859658 -0.0005 0.000304403 -0.00039471 -0.0005 0.000712099 -0.000528651 -0.0005 
0.000710619 -0.000966814 -0.0005 0.000726254 -0.000631789 -0.0005 0.000383073 -0.000701841 -0.0005 
0.000471292 -0.000894636 -0.0005 0.000394708 -0.000605364 -0.0005 0.000295143 -0.00071521 -0.0005 
0.000544105 -0.000886073 -0.0005 0.00030982 -0.000616796 -0.0005 0.000226145 -0.000944288 -0.0005 
0.000307419 -0.000884579 -0.0005 0.000226252 -0.000555158 -0.0005 0.000153401 -0.000511968 -0.0005 
0.000153233 -0.000988282 -0.0005 0.000237471 -0.000619391 -0.0005 0.000238317 -0.000879885 -0.0005 
0.000410377 -0.000831296 -0.0005 0.000352297 -0.000773675 -0.0005 0.00071621 -0.000470678 -0.0005 
0.000708438 -0.00102758 -0.0005 0.00043748 -0.00030453 -0.0005 0.00042852 -0.00119547 -0.0005 
-0.000266167 -0.000909585 -0.0005 -0.00026339 -0.000582669 -0.0005 -0.000595526 -0.000581349 -0.0005 
-0.000595539 -0.000918697 -0.0005 -0.000749174 -0.000957462 -0.0005 -0.000749174 -0.000542538 -0.0005 
-0.000436828 -0.000541202 -0.0005 -0.000633495 -0.000748246 -0.0005 -0.000234978 -0.000756491 -0.0005 
-0.000436828 -0.000958798 -0.0005 -0.0007972 -0.000964286 -0.0005 -0.0007972 -0.000535714 -0.0005 
-0.000131951 -0.000583807 -0.0005 -0.000120576 -0.000920987 -0.0005 -0.000440309 -0.00110148 -0.0005 
-0.000440309 -0.00039852 -0.0005 -0.000540519 -0.000463808 -0.0005 -0.000540519 -0.00103619 -0.0005 
-0.000737497 -0.000826703 -0.0005 -0.000743731 -0.00067341 -0.0005 -0.000326361 -0.000455157 -0.0005 
-0.000326361 -0.00104484 -0.0005 -0.000347939 -0.000834179 -0.0005 -0.000344799 -0.000652107 -0.0005 
-0.000525969 -0.000668056 -0.0005 -0.000528784 -0.000835049 -0.0005 -0.00080748 -0.000997295 -0.0005 
-0.00080748 -0.000502705 -0.0005 -0.00065996 -0.000996565 -0.0005 -0.00065996 -0.000503435 -0.0005 
-0.000114839 -0.00080244 -0.0005 -0.00012727 -0.000689074 -0.0005 -0.000684653 -0.000892326 -0.0005 
-0.000684653 -0.000607674 -0.0005 -0.000402255 -0.00033906 -0.0005 -0.000402255 -0.00116094 -0.0005 
-0.00020379 -0.000996251 -0.0005 -0.000209694 -0.000514898 -0.0005 -0.000410601 -0.000616776 -0.0005 
-0.000414328 -0.000881409 -0.0005 -0.000564489 -0.00077222 -0.0005 -0.00030297 -0.0007663 -0.0005 
-0.000806831 -0.000899154 -0.0005 -0.000806831 -0.000600846 -0.0005 -0.000198082 -0.000840386 -0.0005 
-0.000104201 -0.000515756 -0.0005 -0.000102305 -0.000985043 -0.0005 -0.000210482 -0.000662469 -0.0005 
-0.000512323 -0.000571317 -0.0005 -0.000512323 -0.000928683 -0.0005 -0.000607487 -0.000671376 -0.0005 
-0.000342389 -0.000918878 -0.0005 -0.000339591 -0.000579218 -0.0005 -0.000598177 -0.000824513 -0.0005 
-0.000525093 -0.00110877 -0.0005 -0.000525093 -0.000391231 -0.0005 -0.000467764 -0.00117211 -0.0005 
-0.000467764 -0.000327887 -0.0005 -0.00082824 -0.000937946 -0.0005 -0.00082824 -0.000562054 -0.0005 
-0.000792673 -0.000751208 -0.0005 -4.40406e-05 -0.000938051 -0.0005 -4.29968e-05 -0.000563636 -0.0005 
-0.000368656 -0.000394329 -0.0005 -0.000368656 -0.00110567 -0.0005 -0.000404944 -0.000466574 -0.0005 
-0.000404944 -0.00103343 -0.0005 -0.000274968 -0.000693542 -0.0005 -0.000473579 -0.000463157 -0.0005 
-0.000473579 -0.00103684 -0.0005 -0.000273108 -0.000829102 -0.0005 -0.000617905 -0.00105951 -0.0005 
-0.000617905 -0.00044049 -0.0005 -7.4389e-05 -0.000644248 -0.0005 -6.99258e-05 -0.00086688 -0.0005 
-0.000758009 -0.00100133 -0.0005 -0.000758009 -0.000498667 -0.0005 -0.000674521 -0.00082321 -0.0005 
-0.000747394 -0.000897802 -0.0005 -0.000747848 -0.000602206 -0.0005 -0.000837578 -0.00099054 -0.0005 
-0.000836308 -0.000968831 -0.0005 -0.000837578 -0.00050946 -0.0005 -0.000836308 -0.000531169 -0.0005 
-0.00024589 -0.000439066 -0.0005 -0.000241075 -0.0010584 -0.0005 -0.000693065 -0.000950422 -0.0005 
-0.000693085 -0.000549579 -0.0005 -0.000404574 -0.00120076 -0.0005 -0.000404574 -0.000299236 -0.0005 
-0.000672818 -0.000679103 -0.0005 -0.000714008 -0.000755903 -0.0005 -7.82213e-05 -0.000731034 -0.0005 
-5.6329e-05 -0.000504603 -0.0005 -5.61586e-05 -0.000995894 -0.0005 -0.000275796 -0.000980896 -0.0005 
-0.000285676 -0.000513219 -0.0005 -0.000186165 -0.000585602 -0.0005 -0.000584291 -0.000982673 -0.0005 
-0.00058429 -0.000517332 -0.0005 -0.00045634 -0.000660721 -0.0005 -0.000464193 -0.000839596 -0.0005 
-0.00034177 -0.000716972 -0.0005 -0.000523385 -0.000727952 -0.0005 -0.000193444 -0.000925069 -0.0005 
-0.000807637 -0.00084025 -0.0005 -0.000810429 -0.000661252 -0.0005 -0.000386833 -0.000795991 -0.0005 
-0.000394413 -0.000668913 -0.0005 -0.000509958 -0.000787971 -0.0005 -0.000305514 -0.00111008 -0.0005 
-0.000306477 -0.00038941 -0.0005 -0.000362249 -0.00098716 -0.0005 -0.00035868 -0.000511074 -0.0005 
-0.000160645 -0.000746982 -0.0005 -0.000509508 -0.000511363 -0.0005 -0.000509508 -0.000988638 -0.0005 
-0.00028739 -0.000637604 -0.0005 -0.000785534 -0.00093326 -0.0005 -0.000785598 -0.000566741 -0.0005 
-0.000703615 -0.00103564 -0.0005 -0.000703615 -0.000464361 -0.0005 -0.000148903 -0.000636616 -0.0005 
-0.00015636 -0.000534148 -0.0005 -0.000153981 -0.000971334 -0.0005 -0.000139581 -0.000867053 -0.0005 
-0.000482839 -0.000702846 -0.0005 -0.000471292 -0.000605364 -0.0005 -0.000471292 -0.000894636 -0.0005 
-0.000570965 -0.00071757 -0.0005 -0.000554433 -0.000615103 -0.0005 -0.000553903 -0.000884892 -0.0005 
-0.000639788 -0.00094438 -0.0005 -0.000639768 -0.0005557 -0.0005 -0.000307401 -0.000872936 -0.0005 
-0.000712765 -0.000988284 -0.0005 -0.000712769 -0.000511716 -0.0005 -0.000628213 -0.000619733 -0.0005 
-0.000630855 -0.000879083 -0.0005 -0.000409259 -0.000828735 -0.0005 -0.000354002 -0.000772688 -0.0005 
-0.000155373 -0.000471972 -0.0005 -0.000153127 -0.00102904 -0.0005 -0.00043748 -0.00030453 -0.0005 
-0.00043748 -0.00119547 -0.0005 -0.000699167 -0.000159585 -0.0005 -0.00102828 0.000168837 -0.0005 
-0.000700039 0.000165961 -0.0005 -0.00102854 -0.000168697 -0.0005 -0.00118217 0.000207462 -0.0005 
-0.00118217 -0.000207462 -0.0005 -0.000867762 0.00020878 -0.0005 -0.00106649 5.10348e-06 -0.0005 
-0.000667978 -6.49099e-06 -0.0005 -0.000869828 -0.000208798 -0.0005 -0.0012302 0.000214286 -0.0005 
-0.0012302 -0.000214286 -0.0005 -0.000564951 0.000166193 -0.0005 -0.000553576 -0.000170987 -0.0005 
-0.000873309 -0.00035148 -0.0005 -0.000858691 0.00035148 -0.0005 -0.000756768 0.000285545 -0.0005 
-0.000973519 -0.000286192 -0.0005 -0.00117081 7.69979e-05 -0.0005 -0.00117457 -7.52569e-05 -0.0005 
-0.000759361 -0.000294843 -0.0005 -0.00097093 0.000296588 -0.0005 -0.000780939 -8.41794e-05 -0.0005 
-0.000958969 8.1944e-05 -0.0005 -0.000777799 9.78925e-05 -0.0005 -0.000961784 -8.5049e-05 -0.0005 
-0.00124048 0.000247295 -0.0005 -0.00124048 -0.000247295 -0.0005 -0.00109281 0.000247375 -0.0005 
-0.00109296 -0.000246565 -0.0005 -0.000547839 -5.24395e-05 -0.0005 -0.00056027 6.09258e-05 -0.0005 
-0.00111765 0.000142326 -0.0005 -0.00111765 -0.000142326 -0.0005 -0.000835255 -0.00041094 -0.0005 
-0.000896745 0.00041094 -0.0005 -0.00063679 -0.000246251 -0.0005 -0.000636522 0.000241816 -0.0005 
-0.000843256 0.000133221 -0.0005 -0.000847328 -0.000131409 -0.0005 -0.000997489 -2.16615e-05 -0.0005 
-0.00073597 -1.62999e-05 -0.0005 -0.00123983 0.000149154 -0.0005 -0.00123983 -0.000149154 -0.0005 
-0.000631082 -9.03863e-05 -0.0005 -0.000535305 -0.000235043 -0.0005 -0.000537201 0.000234244 -0.0005 
-0.000642398 9.28059e-05 -0.0005 -0.000948408 0.000181543 -0.0005 -0.000945323 -0.000178683 -0.0005 
-0.00104049 7.88274e-05 -0.0005 -0.000775389 -0.000168878 -0.0005 -0.000772841 0.000169495 -0.0005 
-0.00103118 -7.38619e-05 -0.0005 -0.000958093 -0.000358769 -0.0005 -0.000773907 0.000358769 -0.0005 
-0.000900764 -0.000422113 -0.0005 -0.000831236 0.000422113 -0.0005 -0.00126124 0.000187946 -0.0005 
-0.00126124 -0.000187946 -0.0005 -0.00122671 1.92365e-06 -0.0005 -0.000477041 -0.000188051 -0.0005 
-0.000475997 0.000186364 -0.0005 -0.000801656 -0.000355671 -0.0005 -0.000929777 0.000356891 -0.0005 
-0.000837944 -0.000283426 -0.0005 -0.000894056 0.000283426 -0.0005 -0.000707968 5.64575e-05 -0.0005 
-0.000825421 0.000286843 -0.0005 -0.000906579 -0.000286843 -0.0005 -0.000678551 0.000307262 -0.0005 
-0.000706108 -7.91024e-05 -0.0005 -0.0010509 -0.00030951 -0.0005 -0.000507389 0.000105752 -0.0005 
-0.000502926 -0.00011688 -0.0005 -0.00119101 0.000251333 -0.0005 -0.00119101 -0.000251333 -0.0005 
-0.00110684 -7.12684e-05 -0.0005 -0.00118042 0.000147824 -0.0005 -0.00118069 -0.000147697 -0.0005 
-0.00127058 0.00024054 -0.0005 -0.00126931 0.000218831 -0.0005 -0.00127058 -0.00024054 -0.0005 
-0.00126931 -0.000218831 -0.0005 -0.000674075 -0.0003084 -0.0005 -0.00112605 0.000200474 -0.0005 
-0.00112608 -0.000200417 -0.0005 -0.000837574 -0.000450764 -0.0005 -0.000894426 0.000450764 -0.0005 
-0.00105507 0.000311072 -0.0005 -0.001107 7.45278e-05 -0.0005 -0.00114494 4.78174e-06 -0.0005 
-0.000511221 1.89656e-05 -0.0005 -0.000703503 0.000232229 -0.0005 -0.000489329 0.000245397 -0.0005 
-0.000489159 -0.000245894 -0.0005 -0.000708796 -0.000230896 -0.0005 -0.000631208 0.000171119 -0.0005 
-0.00101729 -0.000232673 -0.0005 -0.000889299 8.92785e-05 -0.0005 -0.000897193 -8.95957e-05 -0.0005 
-0.00077477 3.30279e-05 -0.0005 -0.000956385 2.2115e-05 -0.0005 -0.00101833 0.000235849 -0.0005 
-0.000626444 -0.000175069 -0.0005 -0.00124075 9.03378e-05 -0.0005 -0.00124242 -8.91537e-05 -0.0005 
-0.000819833 -4.59906e-05 -0.0005 -0.000799772 0.000232832 -0.0005 -0.000827413 8.10868e-05 -0.0005 
-0.000942958 -3.79434e-05 -0.0005 -0.000738514 -0.000360083 -0.0005 -0.000795249 -0.00023716 -0.0005 
-0.000593465 3.89675e-06 -0.0005 -0.000942508 -0.000238638 -0.0005 -0.00072039 0.000112396 -0.0005 
-0.00121854 0.000183264 -0.0005 -0.00121858 -0.000183245 -0.0005 -0.00113595 0.000283517 -0.0005 
-0.00113662 -0.000285639 -0.0005 -0.000939898 0.000241237 -0.0005 -0.00058355 0.000113194 -0.0005 
-0.000994597 0.00035529 -0.0005 -0.000586981 -0.000221334 -0.0005 -0.000588267 0.00021912 -0.0005 
-0.000572581 -0.000117053 -0.0005 -0.00091583 4.71675e-05 -0.0005 -0.000904292 -0.000144636 -0.0005 
-0.000904292 0.000144636 -0.0005 -0.00100396 3.32657e-05 -0.0005 -0.00098918 0.000133204 -0.0005 
-0.000986047 -0.000136339 -0.0005 -0.00107279 -0.00019438 -0.0005 -0.000740401 -0.000122936 -0.0005 
-0.00107275 0.000194842 -0.0005 -0.0011456 0.000238032 -0.0005 -0.00114577 -0.000238283 -0.0005 
-0.00106153 0.000130609 -0.0005 -0.00106376 -0.000129013 -0.0005 -0.000842259 -7.8735e-05 -0.0005 
-0.000787002 -2.26884e-05 -0.0005 -0.000586448 0.000278672 -0.0005 -0.000586127 -0.000279044 -0.0005 
-0.00087048 -0.00044547 -0.0005 -0.00086152 0.00044547 -0.0005 -0.000266167 0.000590415 -0.0005 
-0.000267039 0.000915961 -0.0005 -0.000595277 0.000918837 -0.0005 -0.000595539 0.000581303 -0.0005 
-0.000749174 0.000542538 -0.0005 -0.000749174 0.000957462 -0.0005 -0.000434763 0.00095878 -0.0005 
-0.000633495 0.000751754 -0.0005 -0.000234978 0.000743509 -0.0005 -0.000436828 0.000541202 -0.0005 
-0.0007972 0.000535714 -0.0005 -0.0007972 0.000964286 -0.0005 -0.000131951 0.000916193 -0.0005 
-0.000120576 0.000579013 -0.0005 -0.000440309 0.00039852 -0.0005 -0.000425691 0.00110148 -0.0005 
-0.000323768 0.00103554 -0.0005 -0.000540519 0.000463808 -0.0005 -0.000737497 0.000673297 -0.0005 
-0.000743731 0.00082659 -0.0005 -0.000326361 0.000455157 -0.0005 -0.00053793 0.00104659 -0.0005 
-0.000347939 0.000665821 -0.0005 -0.000344799 0.000847893 -0.0005 -0.000525969 0.000831944 -0.0005 
-0.000528784 0.000664951 -0.0005 -0.00080748 0.000502705 -0.0005 -0.00080748 0.000997295 -0.0005 
-0.00065996 0.000503435 -0.0005 -0.000659807 0.000997375 -0.0005 -0.000114839 0.00069756 -0.0005 
-0.00012727 0.000810926 -0.0005 -0.000684653 0.000607674 -0.0005 -0.000684653 0.000892326 -0.0005 
-0.000402255 0.00033906 -0.0005 -0.000463745 0.00116094 -0.0005 -0.00020379 0.000503749 -0.0005 
-0.000203522 0.000991815 -0.0005 -0.000410256 0.000883221 -0.0005 -0.000414328 0.000618591 -0.0005 
-0.000564489 0.00072778 -0.0005 -0.00030297 0.0007337 -0.0005 -0.000806831 0.000600846 -0.0005 
-0.000806831 0.000899154 -0.0005 -0.000198082 0.000659614 -0.0005 -0.000104201 0.000984244 -0.0005 
-0.000102305 0.000514957 -0.0005 -0.000209398 0.000842806 -0.0005 -0.000515408 0.000931543 -0.0005 
-0.000512323 0.000571317 -0.0005 -0.000607487 0.000828624 -0.0005 -0.000342389 0.000581122 -0.0005 
-0.000339841 0.000919495 -0.0005 -0.000598177 0.000675487 -0.0005 -0.000525093 0.000391231 -0.0005 
-0.000340907 0.00110877 -0.0005 -0.000398236 0.00117211 -0.0005 -0.000467764 0.000327887 -0.0005 
-0.00082824 0.000562054 -0.0005 -0.00082824 0.000937946 -0.0005 -0.000792673 0.000748792 -0.0005 
-4.40406e-05 0.000561949 -0.0005 -4.29968e-05 0.000936364 -0.0005 -0.000368656 0.000394329 -0.0005 
-0.000496777 0.00110689 -0.0005 -0.000404944 0.000466574 -0.0005 -0.000461056 0.00103343 -0.0005 
-0.000274968 0.000806458 -0.0005 -0.000392421 0.00103684 -0.0005 -0.000473579 0.000463157 -0.0005 
-0.000245551 0.00105726 -0.0005 -0.000273108 0.000670898 -0.0005 -0.000617905 0.00044049 -0.0005 
-7.4389e-05 0.000855752 -0.0005 -6.99258e-05 0.00063312 -0.0005 -0.000758009 0.000498667 -0.0005 
-0.000758009 0.00100133 -0.0005 -0.000674521 0.00067679 -0.0005 -0.000747394 0.000602198 -0.0005 
-0.000747848 0.000897794 -0.0005 -0.000837578 0.00050946 -0.0005 -0.000836308 0.000531169 -0.0005 
-0.000837578 0.00099054 -0.0005 -0.000836308 0.000968831 -0.0005 -0.000241075 0.0004416 -0.0005 
-0.000693065 0.000549578 -0.0005 -0.000693072 0.000950473 -0.0005 -0.000404574 0.000299236 -0.0005 
-0.000461426 0.00120076 -0.0005 -0.000622066 0.00106107 -0.0005 -0.000672818 0.000820897 -0.0005 
-0.000714008 0.000744097 -0.0005 -7.82213e-05 0.000768966 -0.0005 -0.000270503 0.000982229 -0.0005 
-5.6329e-05 0.000995397 -0.0005 -5.61586e-05 0.000504106 -0.0005 -0.000275796 0.000519104 -0.0005 
-0.000198208 0.000921119 -0.0005 -0.000584291 0.000517327 -0.0005 -0.000456299 0.000839279 -0.0005 
-0.000464193 0.000660404 -0.0005 -0.00034177 0.000783028 -0.0005 -0.000523385 0.000772048 -0.0005 
-0.000585334 0.000985849 -0.0005 -0.000193444 0.000574931 -0.0005 -0.000807637 0.00065975 -0.0005 
-0.000810429 0.000838748 -0.0005 -0.000386833 0.000704009 -0.0005 -0.000366772 0.000982832 -0.0005 
-0.000394413 0.000831087 -0.0005 -0.000509958 0.000712029 -0.0005 -0.000305514 0.000389917 -0.0005 
-0.000362249 0.00051284 -0.0005 -0.000160465 0.000753897 -0.0005 -0.000509508 0.000511362 -0.0005 
-0.00028739 0.000862396 -0.0005 -0.000785534 0.00056674 -0.0005 -0.000785598 0.000933259 -0.0005 
-0.000703615 0.000464361 -0.0005 -0.000702954 0.00103352 -0.0005 -0.000506898 0.000991237 -0.0005 
-0.00015055 0.000863194 -0.0005 -0.000561597 0.00110529 -0.0005 -0.000153981 0.000528666 -0.0005 
-0.000155267 0.00096912 -0.0005 -0.000139581 0.000632947 -0.0005 -0.00048283 0.000797154 -0.0005 
-0.000471292 0.000894636 -0.0005 -0.000471292 0.000605364 -0.0005 -0.000570965 0.00078243 -0.0005 
-0.00055618 0.00088318 -0.0005 -0.000553903 0.000615108 -0.0005 -0.000639788 0.00055562 -0.0005 
-0.000307401 0.000627064 -0.0005 -0.00063975 0.000944842 -0.0005 -0.000712765 0.000511716 -0.0005 
-0.000712603 0.000988032 -0.0005 -0.000628389 0.00088015 -0.0005 -0.000630855 0.000620917 -0.0005 
-0.000409259 0.000671265 -0.0005 -0.000354002 0.000727312 -0.0005 -0.000153448 0.00102867 -0.0005 
-0.000153127 0.000470956 -0.0005 -0.00042852 0.00119547 -0.0005 -0.00043748 0.00030453 -0.0005 

CELLS 2380 16660
6 649 608 664 1664 1623 1679 
6 570 610 625 1585 1625 1640 
6 571 611 624 1586 1626 1639 
6 603 587 669 1618 1602 1684 
6 564 603 669 1579 1618 1684 
6 610 570 613 1625 1585 1628 
6 611 571 612 1626 1586 1627 
6 600 564 669 1615 1579 1684 
6 586 187 630 1601 384 1645 
6 579 594 608 1594 1609 1623 
6 595 578 607 1610 1593 1622 
6 596 581 609 1611 1596 1624 
6 183 590 619 380 1605 1634 
6 166 591 620 363 1606 1635 
6 572 649 664 1587 1664 1679 
6 572 611 626 1587 1626 1641 
6 590 570 619 1605 1585 1634 
6 591 571 620 1606 1586 1635 
6 633 575 647 1648 1590 1662 
6 594 562 608 1609 1577 1623 
6 565 595 607 1580 1610 1622 
6 563 596 609 1578 1611 1624 
6 557 608 649 1572 1623 1664 
6 564 600 627 1579 1615 1642 
6 557 649 653 1572 1664 1668 
6 654 605 670 1669 1620 1685 
6 586 600 669 1601 1615 1684 
6 594 579 665 1609 1594 1680 
6 587 629 648 1602 1644 1663 
6 581 596 666 1596 1611 1681 
6 570 590 613 1585 1605 1628 
6 571 591 612 1586 1606 1627 
6 189 618 650 386 1633 1665 
6 617 184 651 1632 381 1666 
6 597 564 627 1612 1579 1642 
6 649 593 653 1664 1608 1668 
6 568 601 618 1583 1616 1633 
6 602 569 617 1617 1584 1632 
6 629 186 648 1644 383 1663 
6 559 605 654 1574 1620 1669 
6 600 556 627 1615 1571 1642 
6 187 586 648 384 1601 1663 
6 607 556 652 1622 1571 1667 
6 607 652 668 1622 1667 1683 
6 573 610 628 1588 1625 1643 
6 627 556 689 1642 1571 1704 
6 14 194 665 95 391 1680 
6 195 196 666 392 393 1681 
6 183 619 667 380 1634 1682 
6 196 656 666 393 1671 1681 
6 658 14 665 1673 95 1680 
6 561 566 631 1576 1581 1646 
6 567 560 632 1582 1575 1647 
6 575 616 647 1590 1631 1662 
6 566 561 672 1581 1576 1687 
6 560 567 673 1575 1582 1688 
6 573 654 670 1588 1669 1685 
6 12 185 618 93 382 1633 
6 188 11 617 385 92 1632 
6 635 561 641 1650 1576 1656 
6 560 634 642 1575 1649 1657 
6 578 597 627 1593 1612 1642 
6 8 175 613 89 372 1628 
6 1 190 612 82 387 1627 
6 604 558 659 1619 1573 1674 
6 578 595 695 1593 1610 1710 
6 597 578 696 1612 1593 1711 
6 610 573 625 1625 1588 1640 
6 611 572 624 1626 1587 1639 
6 168 3 636 365 84 1651 
6 6 173 638 87 370 1653 
6 611 191 626 1626 388 1641 
6 575 588 634 1590 1603 1649 
6 589 574 635 1604 1589 1650 
6 593 626 697 1608 1641 1712 
6 166 620 678 363 1635 1693 
6 564 597 623 1579 1612 1638 
6 603 564 623 1618 1579 1638 
6 568 618 629 1583 1633 1644 
6 11 184 617 92 381 1632 
6 189 12 618 386 93 1633 
6 579 608 671 1594 1623 1686 
6 556 600 660 1571 1615 1675 
6 588 575 633 1603 1590 1648 
6 8 613 700 89 1628 1715 
6 1 612 699 82 1627 1714 
6 617 569 630 1632 1584 1645 
6 619 570 621 1634 1585 1636 
6 620 571 622 1635 1586 1637 
6 574 616 661 1589 1631 1676 
6 616 575 662 1631 1590 1677 
6 580 606 686 1595 1621 1701 
6 563 633 647 1578 1648 1662 
6 598 635 661 1613 1650 1676 
6 634 599 662 1649 1614 1677 
6 574 589 646 1589 1604 1661 
6 604 659 676 1619 1674 1691 
6 635 574 661 1650 1589 1676 
6 575 634 662 1590 1649 1677 
6 600 586 681 1615 1601 1696 
6 585 628 674 1600 1643 1689 
6 557 603 671 1572 1618 1686 
6 626 192 697 1641 389 1712 
6 610 176 628 1625 373 1643 
6 563 609 633 1578 1624 1648 
6 569 660 681 1584 1675 1696 
6 587 603 677 1602 1618 1692 
6 608 557 671 1623 1572 1686 
6 603 557 653 1618 1572 1668 
6 622 571 624 1637 1586 1639 
6 621 570 625 1636 1585 1640 
6 606 580 685 1621 1595 1700 
6 640 592 698 1655 1607 1713 
6 558 604 686 1573 1619 1701 
6 605 559 687 1620 1574 1702 
6 660 600 681 1675 1615 1696 
6 187 188 630 384 385 1645 
6 185 186 629 382 383 1644 
6 608 562 664 1623 1577 1679 
6 652 556 660 1667 1571 1675 
6 562 594 683 1577 1609 1698 
6 595 565 684 1610 1580 1699 
6 596 563 685 1611 1578 1700 
6 609 581 687 1624 1596 1702 
6 686 606 693 1701 1621 1708 
6 162 1 699 359 82 1714 
6 179 8 700 376 89 1715 
6 606 563 646 1621 1578 1661 
6 573 628 654 1588 1643 1669 
6 616 574 647 1631 1589 1662 
6 565 607 668 1580 1622 1683 
6 175 176 610 372 373 1625 
6 190 191 611 387 388 1626 
6 645 584 675 1660 1599 1690 
6 628 177 674 1643 374 1689 
6 572 626 649 1587 1641 1664 
6 170 171 616 367 368 1631 
6 609 687 694 1624 1702 1709 
6 181 640 698 378 1655 1713 
6 687 559 694 1702 1574 1709 
6 607 578 689 1622 1593 1704 
6 592 652 660 1607 1667 1675 
6 604 562 683 1619 1577 1698 
6 565 605 684 1580 1620 1699 
6 563 606 685 1578 1621 1700 
6 558 686 693 1573 1701 1708 
6 565 621 625 1580 1636 1640 
6 562 622 624 1577 1637 1639 
6 683 580 686 1698 1595 1701 
6 581 684 687 1596 1699 1702 
6 616 171 661 1631 368 1676 
6 170 616 662 367 1631 1677 
6 628 585 654 1643 1600 1669 
6 182 183 667 379 380 1682 
6 653 593 679 1668 1608 1694 
6 579 623 658 1594 1638 1673 
6 605 565 670 1620 1580 1685 
6 634 560 673 1649 1575 1688 
6 561 635 672 1576 1650 1687 
6 589 635 641 1604 1650 1656 
6 634 588 642 1649 1603 1657 
6 194 655 665 391 1670 1680 
6 657 195 666 1672 392 1681 
6 562 604 676 1577 1619 1691 
6 566 614 637 1581 1629 1652 
6 615 567 639 1630 1582 1654 
6 688 588 694 1703 1603 1709 
6 623 597 658 1638 1612 1673 
6 646 563 647 1661 1578 1662 
6 576 619 621 1591 1634 1636 
6 577 620 622 1592 1635 1637 
6 556 607 689 1571 1622 1704 
6 164 645 675 361 1660 1690 
6 589 690 693 1604 1705 1708 
6 191 192 626 388 389 1641 
6 175 610 613 372 1625 1628 
6 190 611 612 387 1626 1627 
6 584 645 659 1599 1660 1674 
6 626 593 649 1641 1608 1664 
6 603 623 671 1618 1638 1686 
6 176 177 628 373 374 1643 
6 652 576 668 1667 1591 1683 
6 562 624 664 1577 1639 1679 
6 642 588 688 1657 1603 1703 
6 565 625 670 1580 1640 1685 
6 165 166 678 362 363 1693 
6 663 578 695 1678 1593 1710 
6 578 663 696 1593 1678 1711 
6 589 641 690 1604 1656 1705 
6 574 646 647 1589 1661 1662 
6 638 173 639 1653 370 1654 
6 168 636 637 365 1651 1652 
6 645 577 659 1660 1592 1674 
6 618 601 650 1633 1616 1665 
6 602 617 651 1617 1632 1666 
6 587 648 669 1602 1663 1684 
6 181 182 640 378 379 1655 
6 656 581 666 1671 1596 1681 
6 579 658 665 1594 1673 1680 
6 655 580 683 1670 1595 1698 
6 581 656 684 1596 1671 1699 
6 580 657 685 1595 1672 1700 
6 164 165 645 361 362 1660 
6 655 594 665 1670 1609 1680 
6 596 657 666 1611 1672 1681 
6 590 183 644 1605 380 1659 
6 591 166 643 1606 363 1658 
6 568 629 677 1583 1644 1692 
6 186 187 648 383 384 1663 
6 604 683 686 1619 1698 1701 
6 684 605 687 1699 1620 1702 
6 648 586 669 1663 1601 1684 
6 659 577 676 1674 1592 1691 
6 614 566 672 1629 1581 1687 
6 567 615 673 1582 1630 1688 
6 568 653 679 1583 1668 1694 
6 592 640 652 1607 1655 1667 
6 629 587 677 1644 1602 1692 
6 623 579 671 1638 1594 1686 
6 640 576 652 1655 1591 1667 
6 196 14 663 393 95 1678 
6 621 565 668 1636 1580 1683 
6 622 562 676 1637 1577 1691 
6 612 591 699 1627 1606 1714 
6 613 590 700 1628 1605 1715 
6 171 172 661 368 369 1676 
6 169 170 662 366 367 1677 
6 569 602 680 1584 1617 1695 
6 601 568 679 1616 1583 1694 
6 180 602 651 377 1617 1666 
6 601 193 650 1616 390 1665 
6 583 638 639 1598 1653 1654 
6 636 582 637 1651 1597 1652 
6 163 164 675 360 361 1690 
6 177 178 674 374 375 1689 
6 588 633 694 1603 1648 1709 
6 576 621 668 1591 1636 1683 
6 577 622 676 1592 1637 1691 
6 578 627 689 1593 1642 1704 
6 646 589 693 1661 1604 1708 
6 624 572 664 1639 1587 1679 
6 559 688 694 1574 1703 1709 
6 180 181 698 377 378 1713 
6 192 193 697 389 390 1712 
6 690 558 693 1705 1573 1708 
6 630 569 681 1645 1584 1696 
6 9 179 644 90 376 1659 
6 0 162 643 81 359 1658 
6 620 577 678 1635 1592 1693 
6 653 568 677 1668 1583 1692 
6 618 185 629 1633 382 1644 
6 580 655 682 1595 1670 1697 
6 657 580 682 1672 1595 1697 
6 172 598 661 369 1613 1676 
6 599 169 662 1614 366 1677 
6 188 617 630 385 1632 1645 
6 625 573 670 1640 1588 1685 
6 633 609 694 1648 1624 1709 
6 641 561 691 1656 1576 1706 
6 560 642 692 1575 1657 1707 
6 184 10 651 381 91 1666 
6 13 189 650 94 386 1665 
6 577 645 678 1592 1660 1693 
6 603 653 677 1618 1668 1692 
6 599 634 673 1614 1649 1688 
6 635 598 672 1650 1613 1687 
6 619 576 667 1634 1591 1682 
6 640 182 667 1655 379 1682 
6 194 195 682 391 392 1697 
6 193 601 697 390 1616 1712 
6 602 180 698 1617 377 1713 
6 576 640 667 1591 1655 1682 
6 606 646 693 1621 1661 1708 
6 660 569 680 1675 1584 1695 
6 601 679 697 1616 1694 1712 
6 680 602 698 1695 1617 1713 
6 586 630 681 1601 1645 1696 
6 169 599 615 366 1614 1630 
6 598 172 614 1613 369 1629 
6 644 179 700 1659 376 1715 
6 643 162 699 1658 359 1714 
6 656 196 695 1671 393 1710 
6 14 658 696 95 1673 1711 
6 675 584 691 1690 1599 1706 
6 585 674 692 1600 1689 1707 
6 645 165 678 1660 362 1693 
6 655 194 682 1670 391 1697 
6 195 657 682 392 1672 1697 
6 4 168 637 85 365 1652 
6 173 5 639 370 86 1654 
6 592 660 680 1607 1675 1695 
6 659 558 690 1674 1573 1705 
6 584 641 691 1599 1656 1706 
6 642 585 692 1657 1600 1707 
6 584 659 690 1599 1674 1705 
6 559 654 688 1574 1669 1703 
6 594 655 683 1609 1670 1698 
6 656 595 684 1671 1610 1699 
6 657 596 685 1672 1611 1700 
6 654 585 688 1669 1600 1703 
6 595 656 695 1610 1671 1710 
6 658 597 696 1673 1612 1711 
6 631 675 691 1646 1690 1706 
6 674 632 692 1689 1647 1707 
6 561 631 691 1576 1646 1706 
6 632 560 692 1647 1575 1707 
6 196 663 695 393 1678 1710 
6 663 14 696 1678 95 1711 
6 585 642 688 1600 1657 1703 
6 641 584 690 1656 1599 1705 
6 590 644 700 1605 1659 1715 
6 591 643 699 1606 1658 1714 
6 631 163 675 1646 360 1690 
6 178 632 674 375 1647 1689 
6 598 614 672 1613 1629 1687 
6 615 599 673 1630 1614 1688 
6 679 593 697 1694 1608 1712 
6 592 680 698 1607 1695 1713 
6 166 0 643 363 81 1658 
6 172 4 614 369 85 1629 
6 614 4 637 1629 85 1652 
6 5 169 615 86 366 1630 
6 5 615 639 86 1630 1654 
6 183 9 644 380 90 1659 
6 10 180 651 91 377 1666 
6 193 13 650 390 94 1665 
6 2 163 167 83 360 364 
6 3 167 636 84 364 1651 
6 174 6 638 371 87 1653 
6 174 178 7 371 375 88 
6 167 163 582 364 360 1597 
6 582 163 631 1597 360 1646 
6 167 582 636 364 1597 1651 
6 178 174 583 375 371 1598 
6 583 174 638 1598 371 1653 
6 178 583 632 375 1598 1647 
6 566 582 631 1581 1597 1646 
6 582 566 637 1597 1581 1652 
6 583 567 632 1598 1582 1647 
6 567 583 639 1582 1598 1654 
6 715 755 770 1730 1770 1785 
6 756 716 769 1771 1731 1784 
6 732 748 815 1747 1763 1830 
6 748 709 815 1763 1724 1830 
6 755 715 758 1770 1730 1773 
6 716 756 757 1731 1771 1772 
6 709 745 815 1724 1760 1830 
6 216 731 774 413 1746 1789 
6 724 739 752 1739 1754 1767 
6 726 740 753 1741 1755 1768 
6 741 726 754 1756 1741 1769 
6 736 210 764 1751 407 1779 
6 220 735 765 417 1750 1780 
6 738 701 798 1753 1716 1813 
6 716 736 764 1731 1751 1779 
6 735 715 765 1750 1730 1780 
6 777 720 792 1792 1735 1807 
6 739 707 752 1754 1722 1767 
6 740 710 753 1755 1725 1768 
6 708 741 754 1723 1756 1769 
6 799 753 809 1814 1768 1824 
6 749 800 816 1764 1815 1831 
6 745 731 815 1760 1746 1830 
6 739 724 810 1754 1739 1825 
6 773 732 793 1788 1747 1808 
6 715 735 758 1730 1750 1773 
6 736 716 757 1751 1731 1772 
6 214 762 794 411 1777 1809 
6 763 219 795 1778 416 1810 
6 701 738 797 1716 1753 1812 
6 750 701 797 1765 1716 1812 
6 742 709 784 1757 1724 1799 
6 713 746 762 1728 1761 1777 
6 747 714 763 1762 1729 1778 
6 217 773 793 414 1788 1808 
6 749 703 800 1764 1718 1815 
6 731 216 793 1746 413 1808 
6 748 701 784 1763 1716 1799 
6 702 752 796 1717 1767 1811 
6 745 709 766 1760 1724 1781 
6 709 748 784 1724 1763 1799 
6 796 752 814 1811 1767 1829 
6 756 717 772 1771 1732 1787 
6 718 755 771 1733 1770 1786 
6 750 797 822 1765 1812 1837 
6 704 753 799 1719 1768 1814 
6 27 225 810 108 422 1825 
6 227 27 811 424 108 1826 
6 764 210 813 1779 407 1828 
6 220 765 812 417 1780 1827 
6 718 799 809 1733 1814 1824 
6 802 227 811 1817 424 1826 
6 803 27 810 1818 108 1825 
6 705 711 775 1720 1726 1790 
6 712 706 776 1727 1721 1791 
6 720 761 792 1735 1776 1807 
6 711 705 817 1726 1720 1832 
6 706 712 818 1721 1727 1833 
6 800 717 816 1815 1732 1831 
6 23 215 762 104 412 1777 
6 218 24 763 415 105 1778 
6 779 705 787 1794 1720 1802 
6 706 778 788 1721 1793 1803 
6 208 20 757 405 101 1772 
6 13 193 758 94 390 1773 
6 740 726 840 1755 1741 1855 
6 726 741 841 1741 1756 1856 
6 755 718 770 1770 1733 1785 
6 717 756 769 1732 1771 1784 
6 203 18 780 400 99 1795 
6 15 198 782 96 395 1797 
6 702 745 821 1717 1760 1836 
6 720 733 778 1735 1748 1793 
6 734 719 779 1749 1734 1794 
6 763 714 773 1778 1729 1788 
6 709 742 766 1724 1757 1781 
6 24 219 763 105 416 1778 
6 214 23 762 411 104 1777 
6 745 702 805 1760 1717 1820 
6 733 720 777 1748 1735 1792 
6 724 752 821 1739 1767 1836 
6 757 20 845 1772 101 1860 
6 13 758 844 94 1773 1859 
6 713 762 774 1728 1777 1789 
6 765 715 767 1780 1730 1782 
6 716 764 768 1731 1779 1783 
6 719 761 806 1734 1776 1821 
6 761 720 807 1776 1735 1822 
6 725 751 831 1740 1766 1846 
6 708 777 792 1723 1792 1807 
6 778 744 807 1793 1759 1822 
6 743 779 806 1758 1794 1821 
6 719 734 791 1734 1749 1806 
6 779 719 806 1794 1734 1821 
6 720 778 807 1735 1793 1822 
6 731 745 826 1746 1760 1841 
6 784 701 832 1799 1716 1847 
6 730 771 819 1745 1786 1834 
6 772 729 820 1787 1744 1835 
6 207 756 772 404 1771 1787 
6 755 192 771 1770 389 1786 
6 708 754 777 1723 1769 1792 
6 784 723 811 1799 1738 1826 
6 805 713 826 1820 1728 1841 
6 748 732 823 1763 1747 1838 
6 742 784 811 1757 1799 1826 
6 701 748 798 1716 1763 1813 
6 716 768 769 1731 1783 1784 
6 767 715 770 1782 1730 1785 
6 752 702 821 1767 1717 1836 
6 751 725 830 1766 1740 1845 
6 737 785 842 1752 1800 1857 
6 786 738 843 1801 1753 1858 
6 703 749 831 1718 1764 1846 
6 701 750 832 1716 1765 1847 
6 745 805 826 1760 1820 1841 
6 215 216 774 412 413 1789 
6 217 218 773 414 415 1788 
6 753 710 809 1768 1725 1824 
6 702 796 805 1717 1811 1820 
6 707 739 829 1722 1754 1844 
6 710 740 828 1725 1755 1843 
6 741 708 830 1756 1723 1845 
6 831 751 838 1846 1766 1853 
6 224 13 844 421 94 1859 
6 20 209 845 101 406 1860 
6 745 766 821 1760 1781 1836 
6 751 708 791 1766 1723 1806 
6 724 766 803 1739 1781 1818 
6 772 717 800 1787 1732 1815 
6 718 771 799 1733 1786 1814 
6 761 719 792 1776 1734 1807 
6 752 707 814 1767 1722 1829 
6 207 208 756 404 405 1771 
6 193 192 755 390 389 1770 
6 726 753 835 1741 1768 1850 
6 754 726 835 1769 1741 1850 
6 766 742 803 1781 1757 1818 
6 771 191 819 1786 388 1834 
6 206 772 820 403 1787 1835 
6 200 201 761 397 398 1776 
6 785 212 842 1800 409 1857 
6 222 786 843 419 1801 1858 
6 796 737 805 1811 1752 1820 
6 749 707 829 1764 1722 1844 
6 750 710 828 1765 1725 1843 
6 708 751 830 1723 1766 1845 
6 703 831 838 1718 1846 1853 
6 710 767 770 1725 1782 1785 
6 768 707 769 1783 1722 1784 
6 828 723 832 1843 1738 1847 
6 829 725 831 1844 1740 1846 
6 200 761 807 397 1776 1822 
6 761 201 806 1776 398 1821 
6 729 772 800 1744 1787 1815 
6 771 730 799 1786 1745 1814 
6 210 211 813 407 408 1828 
6 221 220 812 418 417 1827 
6 738 798 825 1753 1813 1840 
6 707 749 816 1722 1764 1831 
6 778 706 818 1793 1721 1833 
6 705 779 817 1720 1794 1832 
6 734 834 838 1749 1849 1853 
6 734 779 787 1749 1794 1802 
6 778 733 788 1793 1748 1803 
6 225 801 810 422 1816 1825 
6 753 704 835 1768 1719 1850 
6 27 803 811 108 1818 1826 
6 710 750 822 1725 1765 1837 
6 711 759 781 1726 1774 1796 
6 760 712 783 1775 1727 1798 
6 833 733 839 1848 1748 1854 
6 791 708 792 1806 1723 1807 
6 754 835 839 1769 1850 1854 
6 764 721 768 1779 1736 1783 
6 722 765 767 1737 1780 1782 
6 193 755 758 390 1770 1773 
6 756 208 757 1771 405 1772 
6 192 191 771 389 388 1786 
6 206 207 772 403 404 1787 
6 721 796 814 1736 1811 1829 
6 710 770 809 1725 1785 1824 
6 734 787 834 1749 1802 1849 
6 788 733 833 1803 1748 1848 
6 835 704 839 1850 1719 1854 
6 797 722 822 1812 1737 1837 
6 769 707 816 1784 1722 1831 
6 726 808 840 1741 1823 1855 
6 808 726 841 1823 1741 1856 
6 723 784 832 1738 1799 1847 
6 719 791 792 1734 1806 1807 
6 203 780 781 400 1795 1796 
6 782 198 783 1797 395 1798 
6 762 746 794 1777 1761 1809 
6 747 763 795 1762 1778 1810 
6 793 732 815 1808 1747 1830 
6 222 221 786 419 418 1801 
6 211 212 785 408 409 1800 
6 723 802 811 1738 1817 1826 
6 724 803 810 1739 1818 1825 
6 801 725 829 1816 1740 1844 
6 802 723 828 1817 1738 1843 
6 725 804 830 1740 1819 1845 
6 766 724 821 1781 1739 1836 
6 801 739 810 1816 1754 1825 
6 803 742 811 1818 1757 1826 
6 210 736 789 407 1751 1804 
6 735 220 790 1750 417 1805 
6 773 714 823 1788 1729 1838 
6 216 217 793 413 414 1808 
6 750 828 832 1765 1843 1847 
6 749 829 831 1764 1844 1846 
6 731 793 815 1746 1808 1830 
6 759 711 817 1774 1726 1832 
6 712 760 818 1727 1775 1833 
6 798 714 825 1813 1729 1840 
6 785 737 796 1800 1752 1811 
6 738 786 797 1753 1801 1812 
6 732 773 823 1747 1788 1838 
6 721 785 796 1736 1800 1811 
6 786 722 797 1801 1737 1812 
6 226 227 808 423 424 1823 
6 707 768 814 1722 1783 1829 
6 767 710 822 1782 1725 1837 
6 736 757 845 1751 1772 1860 
6 758 735 844 1773 1750 1859 
6 201 202 806 398 399 1821 
6 199 200 807 396 397 1822 
6 746 713 824 1761 1728 1839 
6 714 747 825 1729 1762 1840 
6 746 213 794 1761 410 1809 
6 223 747 795 420 1762 1810 
6 728 782 783 1743 1797 1798 
6 780 727 781 1795 1742 1796 
6 191 190 819 388 387 1834 
6 205 206 820 402 403 1835 
6 733 777 839 1748 1792 1854 
6 768 721 814 1783 1736 1829 
6 834 703 838 1849 1718 1853 
6 722 767 822 1737 1782 1837 
6 791 734 838 1806 1749 1853 
6 770 718 809 1785 1733 1824 
6 704 833 839 1719 1848 1854 
6 212 213 842 409 410 1857 
6 223 222 843 420 419 1858 
6 713 774 826 1728 1789 1841 
6 209 21 789 406 102 1804 
6 26 224 790 107 421 1805 
6 714 798 823 1729 1813 1838 
6 218 763 773 415 1778 1788 
6 725 801 827 1740 1816 1842 
6 804 725 827 1819 1740 1842 
6 202 743 806 399 1758 1821 
6 744 199 807 1759 396 1822 
6 762 215 774 1777 412 1789 
6 717 769 816 1732 1784 1831 
6 777 754 839 1792 1769 1854 
6 787 705 836 1802 1720 1851 
6 706 788 837 1721 1803 1852 
6 22 214 794 103 411 1809 
6 219 25 795 416 106 1810 
6 798 748 823 1813 1763 1838 
6 744 778 818 1759 1793 1833 
6 779 743 817 1794 1758 1832 
6 765 722 812 1780 1737 1827 
6 721 764 813 1736 1779 1828 
6 211 785 813 408 1800 1828 
6 786 221 812 1801 418 1827 
6 225 226 827 422 423 1842 
6 213 746 842 410 1761 1857 
6 747 223 843 1762 420 1858 
6 785 721 813 1800 1736 1828 
6 722 786 812 1737 1801 1827 
6 751 791 838 1766 1806 1853 
6 713 805 824 1728 1820 1839 
6 746 824 842 1761 1839 1857 
6 825 747 843 1840 1762 1858 
6 774 731 826 1789 1746 1841 
6 743 202 759 1758 399 1774 
6 199 744 760 396 1759 1775 
6 790 224 844 1805 421 1859 
6 209 789 845 406 1804 1860 
6 227 802 840 424 1817 1855 
6 804 226 841 1819 423 1856 
6 730 819 837 1745 1834 1852 
6 820 729 836 1835 1744 1851 
6 801 225 827 1816 422 1842 
6 226 804 827 423 1819 1842 
6 17 203 781 98 400 1796 
6 198 16 783 395 97 1798 
6 805 737 824 1820 1752 1839 
6 788 730 837 1803 1745 1852 
6 729 787 836 1744 1802 1851 
6 704 799 833 1719 1814 1848 
6 800 703 834 1815 1718 1849 
6 739 801 829 1754 1816 1844 
6 740 802 828 1755 1817 1843 
6 804 741 830 1819 1756 1845 
6 799 730 833 1814 1745 1848 
6 729 800 834 1744 1815 1849 
6 802 740 840 1817 1755 1855 
6 741 804 841 1756 1819 1856 
6 775 820 836 1790 1835 1851 
6 819 776 837 1834 1791 1852 
6 705 775 836 1720 1790 1851 
6 776 706 837 1791 1721 1852 
6 808 227 840 1823 424 1855 
6 226 808 841 423 1823 1856 
6 730 788 833 1745 1803 1848 
6 787 729 834 1802 1744 1849 
6 789 736 845 1804 1751 1860 
6 735 790 844 1750 1805 1859 
6 775 205 820 1790 402 1835 
6 190 776 819 387 1791 1834 
6 743 759 817 1758 1774 1832 
6 760 744 818 1775 1759 1833 
6 824 737 842 1839 1752 1857 
6 738 825 843 1753 1840 1858 
6 16 199 760 97 396 1775 
6 16 760 783 97 1775 1798 
6 202 17 759 399 98 1774 
6 759 17 781 1774 98 1796 
6 21 210 789 102 407 1804 
6 213 22 794 410 103 1809 
6 25 223 795 106 420 1810 
6 220 26 790 417 107 1805 
6 1 197 190 82 394 387 
6 197 15 782 394 96 1797 
6 18 204 780 99 401 1795 
6 19 205 204 100 402 401 
6 190 197 728 387 394 1743 
6 190 728 776 387 1743 1791 
6 728 197 782 1743 394 1797 
6 204 205 727 401 402 1742 
6 204 727 780 401 1742 1795 
6 727 205 775 1742 402 1790 
6 711 727 775 1726 1742 1790 
6 727 711 781 1742 1726 1796 
6 728 712 776 1743 1727 1791 
6 712 728 783 1727 1743 1798 
6 939 898 954 1954 1913 1969 
6 860 900 915 1875 1915 1930 
6 861 901 914 1876 1916 1929 
6 893 877 959 1908 1892 1974 
6 854 893 959 1869 1908 1974 
6 900 860 903 1915 1875 1918 
6 901 861 902 1916 1876 1917 
6 890 854 959 1905 1869 1974 
6 876 238 920 1891 435 1935 
6 869 884 898 1884 1899 1913 
6 885 868 897 1900 1883 1912 
6 870 886 899 1885 1901 1914 
6 244 880 909 441 1895 1924 
6 223 881 910 420 1896 1925 
6 862 939 954 1877 1954 1969 
6 862 901 916 1877 1916 1931 
6 880 860 909 1895 1875 1924 
6 881 861 910 1896 1876 1925 
6 936 865 937 1951 1880 1952 
6 884 852 898 1899 1867 1913 
6 855 885 897 1870 1900 1912 
6 886 853 899 1901 1868 1914 
6 847 898 939 1862 1913 1954 
6 854 890 917 1869 1905 1932 
6 847 939 943 1862 1954 1958 
6 944 895 960 1959 1910 1975 
6 876 890 959 1891 1905 1974 
6 884 869 955 1899 1884 1970 
6 877 919 938 1892 1934 1953 
6 886 870 956 1901 1885 1971 
6 860 880 903 1875 1895 1918 
6 861 881 902 1876 1896 1917 
6 907 240 940 1922 437 1955 
6 235 908 941 432 1923 1956 
6 887 854 917 1902 1869 1932 
6 939 883 943 1954 1898 1958 
6 891 858 907 1906 1873 1922 
6 859 892 908 1874 1907 1923 
6 919 237 938 1934 434 1953 
6 849 895 944 1864 1910 1959 
6 890 846 917 1905 1861 1932 
6 238 876 938 435 1891 1953 
6 897 846 942 1912 1861 1957 
6 897 942 958 1912 1957 1973 
6 863 900 918 1878 1915 1933 
6 917 846 979 1932 1861 1994 
6 38 252 955 119 449 1970 
6 252 253 956 449 450 1971 
6 244 909 957 441 1924 1972 
6 945 252 956 1960 449 1971 
6 947 38 955 1962 119 1970 
6 850 856 921 1865 1871 1936 
6 857 851 922 1872 1866 1937 
6 865 906 937 1880 1921 1952 
6 856 850 962 1871 1865 1977 
6 851 857 963 1866 1872 1978 
6 863 944 960 1878 1959 1975 
6 239 32 907 436 113 1922 
6 31 236 908 112 433 1923 
6 925 850 931 1940 1865 1946 
6 851 924 932 1866 1939 1947 
6 868 887 917 1883 1902 1932 
6 29 231 902 110 428 1917 
6 35 249 903 116 446 1918 
6 894 848 949 1909 1863 1964 
6 868 885 985 1883 1900 2000 
6 887 868 986 1902 1883 2001 
6 900 863 915 1915 1878 1930 
6 901 862 914 1916 1877 1929 
6 228 28 926 425 109 1941 
6 37 251 928 118 448 1943 
6 901 232 916 1916 429 1931 
6 865 878 924 1880 1893 1939 
6 879 864 925 1894 1879 1940 
6 883 916 988 1898 1931 2003 
6 223 910 968 420 1925 1983 
6 854 887 913 1869 1902 1928 
6 853 936 937 1868 1951 1952 
6 893 854 913 1908 1869 1928 
6 859 908 919 1874 1923 1934 
6 235 31 908 432 112 1923 
6 32 240 907 113 437 1922 
6 869 898 961 1884 1913 1976 
6 846 890 950 1861 1905 1965 
6 864 879 923 1879 1894 1938 
6 29 902 989 110 1917 2004 
6 35 903 990 116 1918 2005 
6 907 858 920 1922 1873 1935 
6 909 860 911 1924 1875 1926 
6 910 861 912 1925 1876 1927 
6 864 906 951 1879 1921 1966 
6 906 865 952 1921 1880 1967 
6 896 871 977 1911 1886 1992 
6 888 925 951 1903 1940 1966 
6 924 889 952 1939 1904 1967 
6 878 865 936 1893 1880 1951 
6 894 949 966 1909 1964 1981 
6 925 864 951 1940 1879 1966 
6 865 924 952 1880 1939 1967 
6 890 876 971 1905 1891 1986 
6 875 918 965 1890 1933 1980 
6 847 893 961 1862 1908 1976 
6 916 233 988 1931 430 2003 
6 900 248 918 1915 445 1933 
6 899 853 923 1914 1868 1938 
6 858 950 971 1873 1965 1986 
6 877 893 967 1892 1908 1982 
6 898 847 961 1913 1862 1976 
6 893 847 943 1908 1862 1958 
6 912 861 914 1927 1876 1929 
6 911 860 915 1926 1875 1930 
6 871 896 975 1886 1911 1990 
6 930 882 987 1945 1897 2002 
6 848 894 976 1863 1909 1991 
6 895 849 977 1910 1864 1992 
6 950 890 971 1965 1905 1986 
6 238 239 920 435 436 1935 
6 236 237 919 433 434 1934 
6 898 852 954 1913 1867 1969 
6 942 846 950 1957 1861 1965 
6 852 884 973 1867 1899 1988 
6 885 855 974 1900 1870 1989 
6 853 886 975 1868 1901 1990 
6 870 899 976 1885 1914 1991 
6 896 977 983 1911 1992 1998 
6 245 35 990 442 116 2005 
6 230 29 989 427 110 2004 
6 853 896 936 1868 1911 1951 
6 863 918 944 1878 1933 1959 
6 906 864 937 1921 1879 1952 
6 855 897 958 1870 1912 1973 
6 231 232 901 428 429 1916 
6 249 248 900 446 445 1915 
6 935 874 964 1950 1889 1979 
6 918 247 965 1933 444 1980 
6 862 916 939 1877 1931 1954 
6 187 186 906 384 383 1921 
6 976 899 984 1991 1914 1999 
6 242 930 987 439 1945 2002 
6 848 976 984 1863 1991 1999 
6 897 868 979 1912 1883 1994 
6 882 942 950 1897 1957 1965 
6 894 852 973 1909 1867 1988 
6 855 895 974 1870 1910 1989 
6 896 853 975 1911 1868 1990 
6 977 849 983 1992 1864 1998 
6 855 911 915 1870 1926 1930 
6 852 912 914 1867 1927 1929 
6 973 870 976 1988 1885 1991 
6 871 974 977 1886 1989 1992 
6 906 186 951 1921 383 1966 
6 187 906 952 384 1921 1967 
6 918 875 944 1933 1890 1959 
6 243 244 957 440 441 1972 
6 943 883 970 1958 1898 1985 
6 869 913 947 1884 1928 1962 
6 895 855 960 1910 1870 1975 
6 924 851 963 1939 1866 1978 
6 850 925 962 1865 1940 1977 
6 978 878 983 1993 1893 1998 
6 879 925 931 1894 1940 1946 
6 924 878 932 1939 1893 1947 
6 252 945 955 449 1960 1970 
6 253 948 956 450 1963 1971 
6 852 894 966 1867 1909 1981 
6 856 904 927 1871 1919 1942 
6 905 857 929 1920 1872 1944 
6 913 887 947 1928 1902 1962 
6 866 909 911 1881 1924 1926 
6 867 910 912 1882 1925 1927 
6 846 897 979 1861 1912 1994 
6 221 935 964 418 1950 1979 
6 232 233 916 429 430 1931 
6 249 900 903 446 1915 1918 
6 231 901 902 428 1916 1917 
6 874 935 949 1889 1950 1964 
6 916 883 939 1931 1898 1954 
6 879 980 984 1894 1995 1999 
6 893 913 961 1908 1928 1976 
6 923 853 937 1938 1868 1952 
6 248 247 918 445 444 1933 
6 942 866 958 1957 1881 1973 
6 852 914 954 1867 1929 1969 
6 932 878 978 1947 1893 1993 
6 855 915 960 1870 1930 1975 
6 222 223 968 419 420 1983 
6 953 868 985 1968 1883 2000 
6 868 953 986 1883 1968 2001 
6 864 923 937 1879 1938 1952 
6 879 931 980 1894 1946 1995 
6 228 926 927 425 1941 1942 
6 928 251 929 1943 448 1944 
6 935 867 949 1950 1882 1964 
6 891 907 940 1906 1922 1955 
6 908 892 941 1923 1907 1956 
6 877 938 959 1892 1953 1974 
6 242 243 930 439 440 1945 
6 870 945 956 1885 1960 1971 
6 869 947 955 1884 1962 1970 
6 945 870 973 1960 1885 1988 
6 871 946 974 1886 1961 1989 
6 948 871 975 1963 1886 1990 
6 221 222 935 418 419 1950 
6 945 884 955 1960 1899 1970 
6 948 886 956 1963 1901 1971 
6 880 244 933 1895 441 1948 
6 881 223 934 1896 420 1949 
6 859 919 967 1874 1934 1982 
6 237 238 938 434 435 1953 
6 974 895 977 1989 1910 1992 
6 894 973 976 1909 1988 1991 
6 938 876 959 1953 1891 1974 
6 949 867 966 1964 1882 1981 
6 904 856 962 1919 1871 1977 
6 857 905 963 1872 1920 1978 
6 859 943 970 1874 1958 1985 
6 882 930 942 1897 1945 1957 
6 919 877 967 1934 1892 1982 
6 913 869 961 1928 1884 1976 
6 930 866 942 1945 1881 1957 
6 254 38 953 451 119 1968 
6 911 855 958 1926 1870 1973 
6 912 852 966 1927 1867 1981 
6 902 881 989 1917 1896 2004 
6 903 880 990 1918 1895 2005 
6 186 185 951 383 382 1966 
6 188 187 952 385 384 1967 
6 858 891 969 1873 1906 1984 
6 892 859 970 1907 1874 1985 
6 241 891 940 438 1906 1955 
6 892 234 941 1907 431 1956 
6 926 872 927 1941 1887 1942 
6 873 928 929 1888 1943 1944 
6 220 221 964 417 418 1979 
6 247 246 965 444 443 1980 
6 923 879 984 1938 1894 1999 
6 866 911 958 1881 1926 1973 
6 849 978 983 1864 1993 1998 
6 867 912 966 1882 1927 1981 
6 868 917 979 1883 1932 1994 
6 878 936 983 1893 1951 1998 
6 914 862 954 1929 1877 1969 
6 241 242 987 438 439 2002 
6 233 234 988 430 431 2003 
6 920 858 971 1935 1873 1986 
6 34 245 933 115 442 1948 
6 25 230 934 106 427 1949 
6 910 867 968 1925 1882 1983 
6 943 859 967 1958 1874 1982 
6 908 236 919 1923 433 1934 
6 980 848 984 1995 1863 1999 
6 946 871 972 1961 1886 1987 
6 871 948 972 1886 1963 1987 
6 185 888 951 382 1903 1966 
6 889 188 952 1904 385 1967 
6 239 907 920 436 1922 1935 
6 915 863 960 1930 1878 1975 
6 899 923 984 1914 1938 1999 
6 931 850 981 1946 1865 1996 
6 851 932 982 1866 1947 1997 
6 240 33 940 437 114 1955 
6 30 235 941 111 432 1956 
6 867 935 968 1882 1950 1983 
6 893 943 967 1908 1958 1982 
6 889 924 963 1904 1939 1978 
6 925 888 962 1940 1903 1977 
6 909 866 957 1924 1881 1972 
6 930 243 957 1945 440 1972 
6 253 254 972 450 451 1987 
6 891 241 987 1906 438 2002 
6 234 892 988 431 1907 2003 
6 866 930 957 1881 1945 1972 
6 936 896 983 1951 1911 1998 
6 950 858 969 1965 1873 1984 
6 969 891 987 1984 1906 2002 
6 892 970 988 1907 1985 2003 
6 876 920 971 1891 1935 1986 
6 888 185 904 1903 382 1919 
6 188 889 905 385 1904 1920 
6 933 245 990 1948 442 2005 
6 934 230 989 1949 427 2004 
6 946 254 985 1961 451 2000 
6 38 947 986 119 1962 2001 
6 875 965 982 1890 1980 1997 
6 964 874 981 1979 1889 1996 
6 935 222 968 1950 419 1983 
6 254 946 972 451 1961 1987 
6 948 253 972 1963 450 1987 
6 251 11 929 448 92 1944 
6 12 228 927 93 425 1942 
6 882 950 969 1897 1965 1984 
6 949 848 980 1964 1863 1995 
6 932 875 982 1947 1890 1997 
6 874 931 981 1889 1946 1996 
6 874 949 980 1889 1964 1995 
6 849 944 978 1864 1959 1993 
6 884 945 973 1899 1960 1988 
6 946 885 974 1961 1900 1989 
6 886 948 975 1901 1963 1990 
6 944 875 978 1959 1890 1993 
6 885 946 985 1900 1961 2000 
6 947 887 986 1962 1902 2001 
6 921 964 981 1936 1979 1996 
6 965 922 982 1980 1937 1997 
6 850 921 981 1865 1936 1996 
6 922 851 982 1937 1866 1997 
6 254 953 985 451 1968 2000 
6 953 38 986 1968 119 2001 
6 875 932 978 1890 1947 1993 
6 931 874 980 1946 1889 1995 
6 880 933 990 1895 1948 2005 
6 881 934 989 1896 1949 2004 
6 921 220 964 1936 417 1979 
6 246 922 965 443 1937 1980 
6 888 904 962 1903 1919 1977 
6 905 889 963 1920 1904 1978 
6 882 969 987 1897 1984 2002 
6 970 883 988 1985 1898 2003 
6 11 188 905 92 385 1920 
6 11 905 929 92 1920 1944 
6 185 12 904 382 93 1919 
6 904 12 927 1919 93 1942 
6 223 25 934 420 106 1949 
6 234 30 941 431 111 1956 
6 33 241 940 114 438 1955 
6 244 34 933 441 115 1948 
6 26 220 229 107 417 426 
6 28 229 926 109 426 1941 
6 36 250 246 117 447 443 
6 250 37 928 447 118 1943 
6 229 220 872 426 417 1887 
6 872 220 921 1887 417 1936 
6 229 872 926 426 1887 1941 
6 246 250 873 443 447 1888 
6 246 873 922 443 1888 1937 
6 873 250 928 1888 447 1943 
6 856 872 921 1871 1887 1936 
6 872 856 927 1887 1871 1942 
6 873 857 922 1888 1872 1937 
6 857 873 929 1872 1888 1944 
6 1084 1042 1100 2099 2057 2115 
6 1005 1045 1060 2020 2060 2075 
6 1006 1046 1059 2021 2061 2074 
6 1022 1038 1104 2037 2053 2119 
6 1038 999 1104 2053 2014 2119 
6 1045 1005 1047 2060 2020 2062 
6 1046 1006 1048 2061 2021 2063 
6 999 1035 1104 2014 2050 2119 
6 258 1021 1064 455 2036 2079 
6 1014 1029 1042 2029 2044 2057 
6 1016 1030 1043 2031 2045 2058 
6 1031 1016 1044 2046 2031 2059 
6 180 1026 1055 377 2041 2070 
6 265 1025 1054 462 2040 2069 
6 1028 991 1088 2043 2006 2103 
6 1007 1084 1100 2022 2099 2115 
6 1007 1046 1061 2022 2061 2076 
6 1026 1006 1055 2041 2021 2070 
6 1025 1005 1054 2040 2020 2069 
6 1067 1010 1082 2082 2025 2097 
6 1029 997 1042 2044 2012 2057 
6 1030 1000 1043 2045 2015 2058 
6 998 1031 1044 2013 2046 2059 
6 1089 1043 1099 2104 2058 2114 
6 992 1042 1084 2007 2057 2099 
6 1035 1021 1104 2050 2036 2119 
6 1029 1014 1101 2044 2029 2116 
6 1063 1022 1083 2078 2037 2098 
6 1005 1025 1047 2020 2040 2062 
6 1006 1026 1048 2021 2041 2063 
6 256 1052 1085 453 2067 2100 
6 1053 261 1086 2068 458 2101 
6 991 1028 1087 2006 2043 2102 
6 1040 991 1087 2055 2006 2102 
6 1032 999 1074 2047 2014 2089 
6 1003 1036 1052 2018 2051 2067 
6 1037 1004 1053 2052 2019 2068 
6 259 1063 1083 456 2078 2098 
6 1021 258 1083 2036 455 2098 
6 1038 991 1074 2053 2006 2089 
6 1035 999 1056 2050 2014 2071 
6 999 1038 1074 2014 2053 2089 
6 1008 1045 1062 2023 2060 2077 
6 1040 1087 1110 2055 2102 2125 
6 994 1043 1089 2009 2058 2104 
6 49 279 1101 130 476 2116 
6 281 49 1102 478 130 2117 
6 265 1054 1103 462 2069 2118 
6 1008 1089 1099 2023 2104 2114 
6 1091 281 1102 2106 478 2117 
6 1092 49 1101 2107 130 2116 
6 995 1001 1065 2010 2016 2080 
6 1002 996 1066 2017 2011 2081 
6 1010 1051 1082 2025 2066 2097 
6 1001 995 1105 2016 2010 2120 
6 996 1002 1106 2011 2017 2121 
6 39 257 1052 120 454 2067 
6 260 40 1053 457 121 2068 
6 1069 995 1076 2084 2010 2091 
6 996 1068 1077 2011 2083 2092 
6 43 267 1047 124 464 2062 
6 36 246 1048 117 443 2063 
6 1039 993 1094 2054 2008 2109 
6 1030 1016 1130 2045 2031 2145 
6 1016 1031 1131 2031 2046 2146 
6 1045 1008 1060 2060 2023 2075 
6 1046 1007 1059 2061 2022 2074 
6 277 48 1070 474 129 2085 
6 45 272 1072 126 469 2087 
6 992 1035 1109 2007 2050 2124 
6 1046 247 1061 2061 444 2076 
6 1010 1023 1068 2025 2038 2083 
6 1024 1009 1069 2039 2024 2084 
6 1027 1061 1132 2042 2076 2147 
6 180 1055 1113 377 2070 2128 
6 1053 1004 1063 2068 2019 2078 
6 999 1032 1056 2014 2047 2071 
6 40 261 1053 121 458 2068 
6 256 39 1052 453 120 2067 
6 1035 992 1095 2050 2007 2110 
6 1023 1010 1067 2038 2025 2082 
6 1014 1042 1109 2029 2057 2124 
6 36 1048 1134 117 2063 2149 
6 43 1047 1135 124 2062 2150 
6 1003 1052 1064 2018 2067 2079 
6 1054 1005 1057 2069 2020 2072 
6 1055 1006 1058 2070 2021 2073 
6 1051 1010 1097 2066 2025 2112 
6 1009 1051 1096 2024 2066 2111 
6 1015 1041 1122 2030 2056 2137 
6 998 1067 1082 2013 2082 2097 
6 1033 1069 1096 2048 2084 2111 
6 1068 1034 1097 2083 2049 2112 
6 1009 1024 1081 2024 2039 2096 
6 1039 1094 1111 2054 2109 2126 
6 1069 1009 1096 2084 2024 2111 
6 1010 1068 1097 2025 2083 2112 
6 1021 1035 1116 2036 2050 2131 
6 1074 991 1121 2089 2006 2136 
6 1020 1062 1108 2035 2077 2123 
6 1061 248 1132 2076 445 2147 
6 1045 268 1062 2060 465 2077 
6 998 1044 1067 2013 2059 2082 
6 1074 1013 1102 2089 2028 2117 
6 1095 1003 1116 2110 2018 2131 
6 1038 1022 1112 2053 2037 2127 
6 1032 1074 1102 2047 2089 2117 
6 991 1038 1088 2006 2053 2103 
6 1058 1006 1059 2073 2021 2074 
6 1057 1005 1060 2072 2020 2075 
6 1042 992 1109 2057 2007 2124 
6 1041 1015 1120 2056 2030 2135 
6 1075 1028 1133 2090 2043 2148 
6 993 1039 1122 2008 2054 2137 
6 991 1040 1121 2006 2055 2136 
6 1035 1095 1116 2050 2110 2131 
6 257 258 1064 454 455 2079 
6 259 260 1063 456 457 2078 
6 1042 997 1100 2057 2012 2115 
6 1043 1000 1099 2058 2015 2114 
6 997 1029 1119 2012 2044 2134 
6 1000 1030 1118 2015 2045 2133 
6 1031 998 1120 2046 2013 2135 
6 1122 1041 1128 2137 2056 2143 
6 255 36 1134 452 117 2149 
6 266 43 1135 463 124 2150 
6 1035 1056 1109 2050 2071 2124 
6 1041 998 1081 2056 2013 2096 
6 1014 1056 1092 2029 2071 2107 
6 1008 1062 1089 2023 2077 2104 
6 1051 1009 1082 2066 2024 2097 
6 246 247 1046 443 444 2061 
6 267 268 1045 464 465 2060 
6 1016 1043 1124 2031 2058 2139 
6 1044 1016 1124 2059 2031 2139 
6 1080 1019 1107 2095 2034 2122 
6 1056 1032 1092 2071 2047 2107 
6 1062 269 1108 2077 466 2123 
6 1007 1061 1084 2022 2076 2099 
6 275 274 1051 472 471 2066 
6 263 1075 1133 460 2090 2148 
6 992 1084 1095 2007 2099 2110 
6 1039 997 1119 2054 2012 2134 
6 1040 1000 1118 2055 2015 2133 
6 998 1041 1120 2013 2056 2135 
6 993 1122 1128 2008 2137 2143 
6 1000 1057 1060 2015 2072 2075 
6 997 1058 1059 2012 2073 2074 
6 1119 1015 1122 2134 2030 2137 
6 1118 1013 1121 2133 2028 2136 
6 275 1051 1097 472 2066 2112 
6 1051 274 1096 2066 471 2111 
6 1062 1020 1089 2077 2035 2104 
6 264 265 1103 461 462 2118 
6 1028 1088 1115 2043 2103 2130 
6 1068 996 1106 2083 2011 2121 
6 995 1069 1105 2010 2084 2120 
6 1024 1069 1076 2039 2084 2091 
6 1068 1023 1077 2083 2038 2092 
6 279 1090 1101 476 2105 2116 
6 1043 994 1124 2058 2009 2139 
6 49 1092 1102 130 2107 2117 
6 1084 1027 1095 2099 2042 2110 
6 997 1039 1111 2012 2054 2126 
6 1000 1040 1110 2015 2055 2125 
6 1001 1049 1071 2016 2064 2086 
6 1050 1002 1073 2065 2017 2088 
6 1123 1023 1129 2138 2038 2144 
6 1081 998 1082 2096 2013 2097 
6 1044 1124 1129 2059 2139 2144 
6 1011 1054 1057 2026 2069 2072 
6 1012 1055 1058 2027 2070 2073 
6 182 1080 1107 379 2095 2122 
6 1024 1125 1128 2039 2140 2143 
6 247 248 1061 444 445 2076 
6 267 1045 1047 464 2060 2062 
6 246 1046 1048 443 2061 2063 
6 1019 1080 1094 2034 2095 2109 
6 1061 1027 1084 2076 2042 2099 
6 268 269 1062 465 466 2077 
6 1000 1060 1099 2015 2075 2114 
6 997 1059 1100 2012 2074 2115 
6 1077 1023 1123 2092 2038 2138 
6 1124 994 1129 2139 2009 2144 
6 1087 1011 1110 2102 2026 2125 
6 181 180 1113 378 377 2128 
6 1016 1098 1130 2031 2113 2145 
6 1098 1016 1131 2113 2031 2146 
6 1013 1074 1121 2028 2089 2136 
6 1024 1076 1125 2039 2091 2140 
6 1009 1081 1082 2024 2096 2097 
6 1072 272 1073 2087 469 2088 
6 277 1070 1071 474 2085 2086 
6 1080 1012 1094 2095 2027 2109 
6 1052 1036 1085 2067 2051 2100 
6 1037 1053 1086 2052 2068 2101 
6 1083 1022 1104 2098 2037 2119 
6 263 264 1075 460 461 2090 
6 1013 1091 1102 2028 2106 2117 
6 1014 1092 1101 2029 2107 2116 
6 1090 1015 1119 2105 2030 2134 
6 1091 1013 1118 2106 2028 2133 
6 1015 1093 1120 2030 2108 2135 
6 1056 1014 1109 2071 2029 2124 
6 182 181 1080 379 378 2095 
6 1090 1029 1101 2105 2044 2116 
6 1092 1032 1102 2107 2047 2117 
6 1025 265 1078 2040 462 2093 
6 1026 180 1079 2041 377 2094 
6 1063 1004 1112 2078 2019 2127 
6 258 259 1083 455 456 2098 
6 1040 1118 1121 2055 2133 2136 
6 1039 1119 1122 2054 2134 2137 
6 1021 1083 1104 2036 2098 2119 
6 1094 1012 1111 2109 2027 2126 
6 1049 1001 1105 2064 2016 2120 
6 1002 1050 1106 2017 2065 2121 
6 1088 1004 1115 2103 2019 2130 
6 1028 1075 1087 2043 2090 2102 
6 1022 1063 1112 2037 2078 2127 
6 1075 1011 1087 2090 2026 2102 
6 280 281 1098 477 478 2113 
6 1058 997 1111 2073 2012 2126 
6 1057 1000 1110 2072 2015 2125 
6 1047 1025 1135 2062 2040 2150 
6 1048 1026 1134 2063 2041 2149 
6 274 273 1096 471 470 2111 
6 276 275 1097 473 472 2112 
6 1036 1003 1114 2051 2018 2129 
6 1004 1037 1115 2019 2052 2130 
6 1036 249 1085 2051 446 2100 
6 262 1037 1086 459 2052 2101 
6 1070 1017 1071 2085 2032 2086 
6 1018 1072 1073 2033 2087 2088 
6 183 182 1107 380 379 2122 
6 269 270 1108 466 467 2123 
6 1023 1067 1129 2038 2082 2144 
6 1011 1057 1110 2026 2072 2125 
6 1012 1058 1111 2027 2073 2126 
6 1081 1024 1128 2096 2039 2143 
6 1059 1007 1100 2074 2022 2115 
6 1060 1008 1099 2075 2023 2114 
6 994 1123 1129 2009 2138 2144 
6 248 249 1132 445 446 2147 
6 262 263 1133 459 460 2148 
6 1125 993 1128 2140 2008 2143 
6 1003 1064 1116 2018 2079 2131 
6 42 266 1078 123 463 2093 
6 10 255 1079 91 452 2094 
6 1055 1012 1113 2070 2027 2128 
6 1004 1088 1112 2019 2103 2127 
6 260 1053 1063 457 2068 2078 
6 1015 1090 1117 2030 2105 2132 
6 1093 1015 1117 2108 2030 2132 
6 273 1033 1096 470 2048 2111 
6 1034 276 1097 2049 473 2112 
6 1052 257 1064 2067 454 2079 
6 1067 1044 1129 2082 2059 2144 
6 1076 995 1126 2091 2010 2141 
6 996 1077 1127 2011 2092 2142 
6 35 256 1085 116 453 2100 
6 261 41 1086 458 122 2101 
6 1012 1080 1113 2027 2095 2128 
6 1088 1038 1112 2103 2053 2127 
6 1034 1068 1106 2049 2083 2121 
6 1069 1033 1105 2084 2048 2120 
6 1054 1011 1103 2069 2026 2118 
6 1075 264 1103 2090 461 2118 
6 279 280 1117 476 477 2132 
6 249 1036 1132 446 2051 2147 
6 1037 262 1133 2052 459 2148 
6 1011 1075 1103 2026 2090 2118 
6 1041 1081 1128 2056 2096 2143 
6 1003 1095 1114 2018 2110 2129 
6 1036 1114 1132 2051 2129 2147 
6 1115 1037 1133 2130 2052 2148 
6 1064 1021 1116 2079 2036 2131 
6 276 1034 1050 473 2049 2065 
6 1033 273 1049 2048 470 2064 
6 1078 266 1135 2093 463 2150 
6 1079 255 1134 2094 452 2149 
6 281 1091 1130 478 2106 2145 
6 1093 280 1131 2108 477 2146 
6 1107 1019 1126 2122 2034 2141 
6 1020 1108 1127 2035 2123 2142 
6 1080 181 1113 2095 378 2128 
6 1090 279 1117 2105 476 2132 
6 280 1093 1117 477 2108 2132 
6 272 46 1073 469 127 2088 
6 47 277 1071 128 474 2086 
6 1095 1027 1114 2110 2042 2129 
6 1094 993 1125 2109 2008 2140 
6 1019 1076 1126 2034 2091 2141 
6 1077 1020 1127 2092 2035 2142 
6 1019 1094 1125 2034 2109 2140 
6 994 1089 1123 2009 2104 2138 
6 1030 1091 1118 2045 2106 2133 
6 1029 1090 1119 2044 2105 2134 
6 1093 1031 1120 2108 2046 2135 
6 1089 1020 1123 2104 2035 2138 
6 1091 1030 1130 2106 2045 2145 
6 1031 1093 1131 2046 2108 2146 
6 1065 1107 1126 2080 2122 2141 
6 1108 1066 1127 2123 2081 2142 
6 995 1065 1126 2010 2080 2141 
6 1066 996 1127 2081 2011 2142 
6 1098 281 1130 2113 478 2145 
6 280 1098 1131 477 2113 2146 
6 1020 1077 1123 2035 2092 2138 
6 1076 1019 1125 2091 2034 2140 
6 1025 1078 1135 2040 2093 2150 
6 1026 1079 1134 2041 2094 2149 
6 1065 183 1107 2080 380 2122 
6 270 1066 1108 467 2081 2123 
6 1033 1049 1105 2048 2064 2120 
6 1050 1034 1106 2065 2049 2121 
6 1114 1027 1132 2129 2042 2147 
6 1028 1115 1133 2043 2130 2148 
6 180 10 1079 377 91 2094 
6 249 35 1085 446 116 2100 
6 41 262 1086 122 459 2101 
6 265 42 1078 462 123 2093 
6 46 276 1050 127 473 2065 
6 46 1050 1073 127 2065 2088 
6 273 47 1049 470 128 2064 
6 1049 47 1071 2064 128 2086 
6 9 183 278 90 380 475 
6 44 271 270 125 468 467 
6 271 45 1072 468 126 2087 
6 48 278 1070 129 475 2085 
6 278 183 1017 475 380 2032 
6 1017 183 1065 2032 380 2080 
6 270 271 1018 467 468 2033 
6 270 1018 1066 467 2033 2081 
6 1018 271 1072 2033 468 2087 
6 278 1017 1070 475 2032 2085 
6 1001 1017 1065 2016 2032 2080 
6 1017 1001 1071 2032 2016 2086 
6 1018 1002 1066 2033 2017 2081 
6 1002 1018 1073 2017 2033 2088 
6 1150 1190 1205 2165 2205 2220 
6 1191 1151 1204 2206 2166 2219 
6 1183 1167 1250 2198 2182 2265 
6 1144 1183 1250 2159 2198 2265 
6 1190 1150 1192 2205 2165 2207 
6 1151 1191 1193 2166 2206 2208 
6 1180 1144 1250 2195 2159 2265 
6 1166 275 1210 2181 472 2225 
6 1175 1158 1187 2190 2173 2202 
6 1159 1174 1188 2174 2189 2203 
6 1176 1161 1189 2191 2176 2204 
6 1170 178 1199 2185 375 2214 
6 287 1171 1200 484 2186 2215 
6 1137 1173 1233 2152 2188 2248 
6 1151 1170 1199 2166 2185 2214 
6 1171 1150 1200 2186 2165 2215 
6 1155 1226 1227 2170 2241 2242 
6 1174 1142 1188 2189 2157 2203 
6 1145 1175 1187 2160 2190 2202 
6 1143 1176 1189 2158 2191 2204 
6 1144 1180 1206 2159 2195 2221 
6 1234 1185 1252 2249 2200 2267 
6 1184 1235 1251 2199 2250 2266 
6 1166 1180 1250 2181 2195 2265 
6 1174 1159 1244 2189 2174 2259 
6 1167 1209 1228 2182 2224 2243 
6 1161 1176 1245 2176 2191 2260 
6 1150 1171 1192 2165 2186 2207 
6 1170 1151 1193 2185 2166 2208 
6 1197 283 1230 2212 480 2245 
6 282 1198 1229 479 2213 2244 
6 1177 1144 1206 2192 2159 2221 
6 1173 1137 1232 2188 2152 2247 
6 1148 1181 1198 2163 2196 2213 
6 1182 1149 1197 2197 2164 2212 
6 1209 274 1228 2224 471 2243 
6 1139 1185 1234 2154 2200 2249 
6 1184 1138 1235 2199 2153 2250 
6 1180 1136 1206 2195 2151 2221 
6 275 1166 1228 472 2181 2243 
6 1137 1188 1232 2152 2203 2247 
6 1187 1136 1231 2202 2151 2246 
6 1232 1188 1249 2247 2203 2264 
6 1187 1231 1248 2202 2246 2263 
6 1191 1152 1208 2206 2167 2223 
6 1153 1190 1207 2168 2205 2222 
6 1206 1136 1270 2221 2151 2285 
6 60 306 1244 141 503 2259 
6 307 308 1245 504 505 2260 
6 1199 178 1247 2214 375 2262 
6 287 1200 1246 484 2215 2261 
6 308 1237 1245 505 2252 2260 
6 1238 60 1244 2253 141 2259 
6 1146 1140 1211 2161 2155 2226 
6 1141 1147 1212 2156 2162 2227 
6 1196 1155 1227 2211 2170 2242 
6 1140 1146 1254 2155 2161 2269 
6 1147 1141 1255 2162 2156 2270 
6 1153 1234 1252 2168 2249 2267 
6 1235 1152 1251 2250 2167 2266 
6 47 273 1198 128 470 2213 
6 276 46 1197 473 127 2212 
6 1140 1214 1222 2155 2229 2237 
6 1215 1141 1223 2230 2156 2238 
6 1158 1177 1206 2173 2192 2221 
6 52 289 1192 133 486 2207 
6 301 59 1193 498 140 2208 
6 1158 1175 1275 2173 2190 2290 
6 1177 1158 1276 2192 2173 2291 
6 1190 1153 1205 2205 2168 2220 
6 1152 1191 1204 2167 2206 2219 
6 54 294 1216 135 491 2231 
6 299 57 1218 496 138 2233 
6 1154 1168 1214 2169 2183 2229 
6 1169 1155 1215 2184 2170 2230 
6 1144 1177 1203 2159 2192 2218 
6 1226 1143 1227 2241 2158 2242 
6 1183 1144 1203 2198 2159 2218 
6 1148 1198 1209 2163 2213 2224 
6 46 283 1197 127 480 2212 
6 282 47 1198 479 128 2213 
6 1159 1188 1253 2174 2203 2268 
6 1136 1180 1240 2151 2195 2255 
6 1168 1154 1213 2183 2169 2228 
6 1193 59 1279 2208 140 2294 
6 52 1192 1280 133 2207 2295 
6 1197 1149 1210 2212 2164 2225 
6 1151 1199 1201 2166 2214 2216 
6 1200 1150 1202 2215 2165 2217 
6 1196 1154 1241 2211 2169 2256 
6 1155 1196 1242 2170 2211 2257 
6 1160 1186 1266 2175 2201 2281 
6 1214 1178 1241 2229 2193 2256 
6 1179 1215 1242 2194 2230 2257 
6 1155 1169 1226 2170 2184 2241 
6 1154 1214 1241 2169 2229 2256 
6 1215 1155 1242 2230 2170 2257 
6 1180 1166 1261 2195 2181 2276 
6 1164 1207 1256 2179 2222 2271 
6 1208 1165 1257 2223 2180 2272 
6 1137 1183 1253 2152 2198 2268 
6 302 1191 1208 499 2206 2223 
6 1190 290 1207 2205 487 2222 
6 1143 1189 1213 2158 2204 2228 
6 1149 1240 1261 2164 2255 2276 
6 1167 1183 1258 2182 2198 2273 
6 1188 1137 1253 2203 2152 2268 
6 1183 1137 1233 2198 2152 2248 
6 1151 1201 1204 2166 2216 2219 
6 1202 1150 1205 2217 2165 2220 
6 1186 1160 1265 2201 2175 2280 
6 1221 1172 1278 2236 2187 2293 
6 1173 1220 1277 2188 2235 2292 
6 1138 1184 1266 2153 2199 2281 
6 1185 1139 1267 2200 2154 2282 
6 1240 1180 1261 2255 2195 2276 
6 275 276 1210 472 473 2225 
6 273 274 1209 470 471 2224 
6 1231 1136 1240 2246 2151 2255 
6 1142 1174 1263 2157 2189 2278 
6 1175 1145 1264 2190 2160 2279 
6 1176 1143 1265 2191 2158 2280 
6 1189 1161 1267 2204 2176 2282 
6 1266 1186 1273 2281 2201 2288 
6 59 305 1279 140 502 2294 
6 288 52 1280 485 133 2295 
6 1186 1143 1226 2201 2158 2241 
6 1153 1207 1234 2168 2222 2249 
6 1208 1152 1235 2223 2167 2250 
6 1154 1196 1227 2169 2211 2242 
6 1188 1142 1249 2203 2157 2264 
6 1145 1187 1248 2160 2202 2263 
6 289 290 1190 486 487 2205 
6 302 301 1191 499 498 2206 
6 1207 291 1256 2222 488 2271 
6 303 1208 1257 500 2223 2272 
6 296 297 1196 493 494 2211 
6 1189 1267 1274 2204 2282 2289 
6 1220 176 1277 2235 373 2292 
6 285 1221 1278 482 2236 2293 
6 1267 1139 1274 2282 2154 2289 
6 1187 1158 1270 2202 2173 2285 
6 1172 1231 1240 2187 2246 2255 
6 1184 1142 1263 2199 2157 2278 
6 1145 1185 1264 2160 2200 2279 
6 1143 1186 1265 2158 2201 2280 
6 1138 1266 1273 2153 2281 2288 
6 1145 1202 1205 2160 2217 2220 
6 1201 1142 1204 2216 2157 2219 
6 1263 1160 1266 2278 2175 2281 
6 1161 1264 1267 2176 2279 2282 
6 296 1196 1241 493 2211 2256 
6 1196 297 1242 2211 494 2257 
6 1207 1164 1234 2222 2179 2249 
6 1165 1208 1235 2180 2223 2250 
6 178 177 1247 375 374 2262 
6 286 287 1246 483 484 2261 
6 1233 1173 1259 2248 2188 2274 
6 1159 1203 1238 2174 2218 2253 
6 1142 1184 1251 2157 2199 2266 
6 1185 1145 1252 2200 2160 2267 
6 1214 1140 1254 2229 2155 2269 
6 1141 1215 1255 2156 2230 2270 
6 1169 1269 1273 2184 2284 2288 
6 1214 1168 1222 2229 2183 2237 
6 1169 1215 1223 2184 2230 2238 
6 306 1236 1244 503 2251 2259 
6 1239 307 1245 2254 504 2260 
6 1194 1146 1217 2209 2161 2232 
6 1147 1195 1219 2162 2210 2234 
6 1268 1168 1274 2283 2183 2289 
6 1203 1177 1238 2218 2192 2253 
6 1199 1156 1201 2214 2171 2216 
6 1157 1200 1202 2172 2215 2217 
6 1136 1187 1270 2151 2202 2285 
6 289 1190 1192 486 2205 2207 
6 1191 301 1193 2206 498 2208 
6 1183 1203 1253 2198 2218 2268 
6 1143 1213 1227 2158 2228 2242 
6 290 291 1207 487 488 2222 
6 303 302 1208 500 499 2223 
6 1156 1232 1249 2171 2247 2264 
6 1231 1157 1248 2246 2172 2263 
6 1222 1168 1268 2237 2183 2283 
6 1169 1223 1269 2184 2238 2284 
6 1145 1205 1252 2160 2220 2267 
6 1204 1142 1251 2219 2157 2266 
6 1243 1158 1275 2258 2173 2290 
6 1158 1243 1276 2173 2258 2291 
6 1213 1154 1227 2228 2169 2242 
6 1216 294 1217 2231 491 2232 
6 299 1218 1219 496 2233 2234 
6 1182 1197 1230 2197 2212 2245 
6 1198 1181 1229 2213 2196 2244 
6 1167 1228 1250 2182 2243 2265 
6 177 176 1220 374 373 2235 
6 285 286 1221 482 483 2236 
6 1237 1161 1245 2252 2176 2260 
6 1159 1238 1244 2174 2253 2259 
6 1236 1160 1263 2251 2175 2278 
6 1161 1237 1264 2176 2252 2279 
6 1160 1239 1265 2175 2254 2280 
6 1236 1174 1244 2251 2189 2259 
6 1176 1239 1245 2191 2254 2260 
6 1171 287 1224 2186 484 2239 
6 178 1170 1225 375 2185 2240 
6 1148 1209 1258 2163 2224 2273 
6 274 275 1228 471 472 2243 
6 1184 1263 1266 2199 2278 2281 
6 1264 1185 1267 2279 2200 2282 
6 1228 1166 1250 2243 2181 2265 
6 1146 1194 1254 2161 2209 2269 
6 1195 1147 1255 2210 2162 2270 
6 1148 1233 1259 2163 2248 2274 
6 1172 1221 1231 2187 2236 2246 
6 1220 1173 1232 2235 2188 2247 
6 1209 1167 1258 2224 2182 2273 
6 1203 1159 1253 2218 2174 2268 
6 1221 1157 1231 2236 2172 2246 
6 1156 1220 1232 2171 2235 2247 
6 308 60 1243 505 141 2258 
6 1202 1145 1248 2217 2160 2263 
6 1142 1201 1249 2157 2216 2264 
6 1192 1171 1280 2207 2186 2295 
6 1170 1193 1279 2185 2208 2294 
6 295 296 1241 492 493 2256 
6 297 298 1242 494 495 2257 
6 1181 1148 1259 2196 2163 2274 
6 1149 1182 1260 2164 2197 2275 
6 1181 175 1229 2196 372 2244 
6 284 1182 1230 481 2197 2245 
6 1162 1216 1217 2177 2231 2232 
6 1218 1163 1219 2233 2178 2234 
6 291 292 1256 488 489 2271 
6 304 303 1257 501 500 2272 
6 1168 1213 1274 2183 2228 2289 
6 1201 1156 1249 2216 2171 2264 
6 1157 1202 1248 2172 2217 2263 
6 1269 1138 1273 2284 2153 2288 
6 1158 1206 1270 2173 2221 2285 
6 1226 1169 1273 2241 2184 2288 
6 1139 1268 1274 2154 2283 2289 
6 284 285 1278 481 482 2293 
6 176 175 1277 373 372 2292 
6 1210 1149 1261 2225 2164 2276 
6 51 288 1224 132 485 2239 
6 305 7 1225 502 88 2240 
6 1233 1148 1258 2248 2163 2273 
6 1198 273 1209 2213 470 2224 
6 1160 1236 1262 2175 2251 2277 
6 1239 1160 1262 2254 2175 2277 
6 1178 295 1241 2193 492 2256 
6 298 1179 1242 495 2194 2257 
6 276 1197 1210 473 2212 2225 
6 1152 1204 1251 2167 2219 2266 
6 1205 1153 1252 2220 2168 2267 
6 1213 1189 1274 2228 2204 2289 
6 1140 1222 1271 2155 2237 2286 
6 1223 1141 1272 2238 2156 2287 
6 8 282 1229 89 479 2244 
6 283 50 1230 480 131 2245 
6 1183 1233 1258 2198 2248 2273 
6 1178 1214 1254 2193 2229 2269 
6 1215 1179 1255 2230 2194 2270 
6 1200 1157 1246 2215 2172 2261 
6 1156 1199 1247 2171 2214 2262 
6 177 1220 1247 374 2235 2262 
6 1221 286 1246 2236 483 2261 
6 306 307 1262 503 504 2277 
6 175 1181 1277 372 2196 2292 
6 1182 284 1278 2197 481 2293 
6 1157 1221 1246 2172 2236 2261 
6 1220 1156 1247 2235 2171 2262 
6 1186 1226 1273 2201 2241 2288 
6 1240 1149 1260 2255 2164 2275 
6 1181 1259 1277 2196 2274 2292 
6 1260 1182 1278 2275 2197 2293 
6 1166 1210 1261 2181 2225 2276 
6 295 1178 1194 492 2193 2209 
6 1179 298 1195 2194 495 2210 
6 1224 288 1280 2239 485 2295 
6 305 1225 1279 502 2240 2294 
6 1237 308 1275 2252 505 2290 
6 60 1238 1276 141 2253 2291 
6 1164 1256 1271 2179 2271 2286 
6 1257 1165 1272 2272 2180 2287 
6 1236 306 1262 2251 503 2277 
6 307 1239 1262 504 2254 2277 
6 56 299 1219 137 496 2234 
6 294 55 1217 491 136 2232 
6 1172 1240 1260 2187 2255 2275 
6 1222 1164 1271 2237 2179 2286 
6 1165 1223 1272 2180 2238 2287 
6 1139 1234 1268 2154 2249 2283 
6 1235 1138 1269 2250 2153 2284 
6 1174 1236 1263 2189 2251 2278 
6 1237 1175 1264 2252 2190 2279 
6 1239 1176 1265 2254 2191 2280 
6 1234 1164 1268 2249 2179 2283 
6 1165 1235 1269 2180 2250 2284 
6 1175 1237 1275 2190 2252 2290 
6 1238 1177 1276 2253 2192 2291 
6 1256 1211 1271 2271 2226 2286 
6 1212 1257 1272 2227 2272 2287 
6 1211 1140 1271 2226 2155 2286 
6 1141 1212 1272 2156 2227 2287 
6 308 1243 1275 505 2258 2290 
6 1243 60 1276 2258 141 2291 
6 1164 1222 1268 2179 2237 2283 
6 1223 1165 1269 2238 2180 2284 
6 1225 1170 1279 2240 2185 2294 
6 1171 1224 1280 2186 2239 2295 
6 292 1211 1256 489 2226 2271 
6 1212 304 1257 2227 501 2272 
6 1194 1178 1254 2209 2193 2269 
6 1179 1195 1255 2194 2210 2270 
6 1259 1173 1277 2274 2188 2292 
6 1172 1260 1278 2187 2275 2293 
6 7 178 1225 88 375 2240 
6 175 8 1229 372 89 2244 
6 50 284 1230 131 481 2245 
6 287 51 1224 484 132 2239 
6 55 295 1194 136 492 2209 
6 55 1194 1217 136 2209 2232 
6 298 56 1195 495 137 2210 
6 1195 56 1219 2210 137 2234 
6 53 293 292 134 490 489 
6 293 54 1216 490 135 2231 
6 57 300 1218 138 497 2233 
6 58 304 300 139 501 497 
6 292 293 1162 489 490 2177 
6 292 1162 1211 489 2177 2226 
6 1162 293 1216 2177 490 2231 
6 300 304 1163 497 501 2178 
6 300 1163 1218 497 2178 2233 
6 1163 304 1212 2178 501 2227 
6 1162 1146 1211 2177 2161 2226 
6 1146 1162 1217 2161 2177 2232 
6 1147 1163 1212 2162 2178 2227 
6 1163 1147 1219 2178 2162 2234 
6 1374 1333 1389 2389 2348 2404 
6 1295 1335 1350 2310 2350 2365 
6 1296 1336 1349 2311 2351 2364 
6 1328 1312 1394 2343 2327 2409 
6 1289 1328 1394 2304 2343 2409 
6 1335 1295 1337 2350 2310 2352 
6 1336 1296 1338 2351 2311 2353 
6 1325 1289 1394 2340 2304 2409 
6 1311 170 1355 2326 367 2370 
6 1305 1319 1333 2320 2334 2348 
6 1320 1303 1332 2335 2318 2347 
6 1321 1306 1334 2336 2321 2349 
6 304 1315 1344 501 2330 2359 
6 326 1316 1345 523 2331 2360 
6 1297 1374 1389 2312 2389 2404 
6 1297 1336 1351 2312 2351 2366 
6 1315 1295 1344 2330 2310 2359 
6 1316 1296 1345 2331 2311 2360 
6 1358 1300 1372 2373 2315 2387 
6 1319 1287 1333 2334 2302 2348 
6 1290 1320 1332 2305 2335 2347 
6 1288 1321 1334 2303 2336 2349 
6 1283 1333 1374 2298 2348 2389 
6 1289 1325 1352 2304 2340 2367 
6 1283 1374 1378 2298 2389 2393 
6 1379 1330 1395 2394 2345 2410 
6 1311 1325 1394 2326 2340 2409 
6 1319 1305 1390 2334 2320 2405 
6 1312 1354 1373 2327 2369 2388 
6 1306 1321 1391 2321 2336 2406 
6 1295 1315 1337 2310 2330 2352 
6 1296 1316 1338 2311 2331 2353 
6 332 1343 1375 529 2358 2390 
6 1342 309 1376 2357 506 2391 
6 1322 1289 1352 2337 2304 2367 
6 1374 1318 1378 2389 2333 2393 
6 1293 1327 1343 2308 2342 2358 
6 1326 1294 1342 2341 2309 2357 
6 1354 171 1373 2369 368 2388 
6 1284 1330 1379 2299 2345 2394 
6 1325 1281 1352 2340 2296 2367 
6 170 1311 1373 367 2326 2388 
6 1332 1281 1377 2347 2296 2392 
6 1332 1377 1393 2347 2392 2408 
6 1298 1335 1353 2313 2350 2368 
6 1352 1281 1414 2367 2296 2429 
6 71 333 1390 152 530 2405 
6 334 335 1391 531 532 2406 
6 304 1344 1392 501 2359 2407 
6 335 1381 1391 532 2396 2406 
6 1382 71 1390 2397 152 2405 
6 1285 1291 1356 2300 2306 2371 
6 1292 1286 1357 2307 2301 2372 
6 1300 1341 1372 2315 2356 2387 
6 1291 1285 1397 2306 2300 2412 
6 1286 1292 1398 2301 2307 2413 
6 1298 1379 1395 2313 2394 2410 
6 4 172 1343 85 369 2358 
6 169 5 1342 366 86 2357 
6 1359 1285 1366 2374 2300 2381 
6 1286 1360 1367 2301 2375 2382 
6 1303 1322 1352 2318 2337 2367 
6 69 331 1338 150 528 2353 
6 61 311 1337 142 508 2352 
6 1329 1282 1384 2344 2297 2399 
6 1303 1320 1420 2318 2335 2435 
6 1322 1303 1421 2337 2318 2436 
6 1335 1298 1350 2350 2313 2365 
6 1336 1297 1349 2351 2312 2364 
6 321 66 1361 518 147 2376 
6 63 316 1363 144 513 2378 
6 1336 330 1351 2351 527 2366 
6 1313 1299 1359 2328 2314 2374 
6 1300 1314 1360 2315 2329 2375 
6 1318 1351 1422 2333 2366 2437 
6 326 1345 1403 523 2360 2418 
6 1289 1322 1348 2304 2337 2363 
6 1328 1289 1348 2343 2304 2363 
6 1293 1343 1354 2308 2358 2369 
6 5 309 1342 86 506 2357 
6 332 4 1343 529 85 2358 
6 1305 1333 1396 2320 2348 2411 
6 1281 1325 1385 2296 2340 2400 
6 1314 1300 1358 2329 2315 2373 
6 61 1337 1424 142 2352 2439 
6 69 1338 1425 150 2353 2440 
6 1342 1294 1355 2357 2309 2370 
6 1344 1295 1346 2359 2310 2361 
6 1345 1296 1347 2360 2311 2362 
6 1299 1341 1386 2314 2356 2401 
6 1341 1300 1387 2356 2315 2402 
6 1304 1331 1411 2319 2346 2426 
6 1288 1358 1372 2303 2373 2387 
6 1323 1359 1386 2338 2374 2401 
6 1360 1324 1387 2375 2339 2402 
6 1299 1313 1371 2314 2328 2386 
6 1329 1384 1401 2344 2399 2416 
6 1359 1299 1386 2374 2314 2401 
6 1300 1360 1387 2315 2375 2402 
6 1325 1311 1406 2340 2326 2421 
6 1310 1353 1400 2325 2368 2415 
6 1283 1328 1396 2298 2343 2411 
6 1351 329 1422 2366 526 2437 
6 1335 312 1353 2350 509 2368 
6 1288 1334 1358 2303 2349 2373 
6 1294 1385 1406 2309 2400 2421 
6 1312 1328 1402 2327 2343 2417 
6 1333 1283 1396 2348 2298 2411 
6 1328 1283 1378 2343 2298 2393 
6 1347 1296 1349 2362 2311 2364 
6 1346 1295 1350 2361 2310 2365 
6 1331 1304 1410 2346 2319 2425 
6 1365 1317 1423 2380 2332 2438 
6 1282 1329 1411 2297 2344 2426 
6 1330 1284 1412 2345 2299 2427 
6 1385 1325 1406 2400 2340 2421 
6 170 169 1355 367 366 2370 
6 172 171 1354 369 368 2369 
6 1333 1287 1389 2348 2302 2404 
6 1377 1281 1385 2392 2296 2400 
6 1287 1319 1409 2302 2334 2424 
6 1320 1290 1408 2335 2305 2423 
6 1321 1288 1410 2336 2303 2425 
6 1334 1306 1412 2349 2321 2427 
6 1411 1331 1418 2426 2346 2433 
6 310 61 1424 507 142 2439 
6 327 69 1425 524 150 2440 
6 1331 1288 1371 2346 2303 2386 
6 1298 1353 1379 2313 2368 2394 
6 1341 1299 1372 2356 2314 2387 
6 1290 1332 1393 2305 2347 2408 
6 311 312 1335 508 509 2350 
6 331 330 1336 528 527 2351 
6 1370 1309 1399 2385 2324 2414 
6 1353 313 1400 2368 510 2415 
6 1297 1351 1374 2312 2366 2389 
6 318 319 1341 515 516 2356 
6 1334 1412 1419 2349 2427 2434 
6 302 1365 1423 499 2380 2438 
6 1412 1284 1419 2427 2299 2434 
6 1332 1303 1414 2347 2318 2429 
6 1317 1377 1385 2332 2392 2400 
6 1329 1287 1409 2344 2302 2424 
6 1290 1330 1408 2305 2345 2423 
6 1288 1331 1410 2303 2346 2425 
6 1282 1411 1418 2297 2426 2433 
6 1290 1346 1350 2305 2361 2365 
6 1287 1347 1349 2302 2362 2364 
6 1409 1304 1411 2424 2319 2426 
6 1306 1408 1412 2321 2423 2427 
6 1341 319 1386 2356 516 2401 
6 318 1341 1387 515 2356 2402 
6 1353 1310 1379 2368 2325 2394 
6 303 304 1392 500 501 2407 
6 1378 1318 1405 2393 2333 2420 
6 1305 1348 1382 2320 2363 2397 
6 1330 1290 1395 2345 2305 2410 
6 1285 1359 1397 2300 2374 2412 
6 1360 1286 1398 2375 2301 2413 
6 1313 1359 1366 2328 2374 2381 
6 1360 1314 1367 2375 2329 2382 
6 333 1380 1390 530 2395 2405 
6 1383 334 1391 2398 531 2406 
6 1287 1329 1401 2302 2344 2416 
6 1291 1339 1362 2306 2354 2377 
6 1340 1292 1364 2355 2307 2379 
6 1413 1314 1419 2428 2329 2434 
6 1348 1322 1382 2363 2337 2397 
6 1371 1288 1372 2386 2303 2387 
6 1301 1344 1346 2316 2359 2361 
6 1302 1345 1347 2317 2360 2362 
6 1281 1332 1414 2296 2347 2429 
6 324 1370 1399 521 2385 2414 
6 1313 1415 1418 2328 2430 2433 
6 330 329 1351 527 526 2366 
6 311 1335 1337 508 2350 2352 
6 331 1336 1338 528 2351 2353 
6 1309 1370 1384 2324 2385 2399 
6 1351 1318 1374 2366 2333 2389 
6 1328 1348 1396 2343 2363 2411 
6 312 313 1353 509 510 2368 
6 1377 1301 1393 2392 2316 2408 
6 1287 1349 1389 2302 2364 2404 
6 1367 1314 1413 2382 2329 2428 
6 1290 1350 1395 2305 2365 2410 
6 325 326 1403 522 523 2418 
6 1388 1303 1420 2403 2318 2435 
6 1303 1388 1421 2318 2403 2436 
6 1313 1366 1415 2328 2381 2430 
6 1299 1371 1372 2314 2386 2387 
6 321 1361 1362 518 2376 2377 
6 1363 316 1364 2378 513 2379 
6 1370 1302 1384 2385 2317 2399 
6 1343 1327 1375 2358 2342 2390 
6 1326 1342 1376 2341 2357 2391 
6 1312 1373 1394 2327 2388 2409 
6 302 303 1365 499 500 2380 
6 1381 1306 1391 2396 2321 2406 
6 1305 1382 1390 2320 2397 2405 
6 1380 1304 1409 2395 2319 2424 
6 1306 1381 1408 2321 2396 2423 
6 1304 1383 1410 2319 2398 2425 
6 324 325 1370 521 522 2385 
6 1380 1319 1390 2395 2334 2405 
6 1321 1383 1391 2336 2398 2406 
6 1315 304 1368 2330 501 2383 
6 1316 326 1369 2331 523 2384 
6 1293 1354 1402 2308 2369 2417 
6 171 170 1373 368 367 2388 
6 1408 1330 1412 2423 2345 2427 
6 1329 1409 1411 2344 2424 2426 
6 1373 1311 1394 2388 2326 2409 
6 1384 1302 1401 2399 2317 2416 
6 1339 1291 1397 2354 2306 2412 
6 1292 1340 1398 2307 2355 2413 
6 1293 1378 1405 2308 2393 2420 
6 1317 1365 1377 2332 2380 2392 
6 1354 1312 1402 2369 2327 2417 
6 1348 1305 1396 2363 2320 2411 
6 1365 1301 1377 2380 2316 2392 
6 335 71 1388 532 152 2403 
6 1346 1290 1393 2361 2305 2408 
6 1347 1287 1401 2362 2302 2416 
6 1337 1315 1424 2352 2330 2439 
6 1338 1316 1425 2353 2331 2440 
6 319 320 1386 516 517 2401 
6 317 318 1387 514 515 2402 
6 1327 1293 1405 2342 2308 2420 
6 1294 1326 1404 2309 2341 2419 
6 1327 328 1375 2342 525 2390 
6 301 1326 1376 498 2341 2391 
6 1361 1307 1362 2376 2322 2377 
6 1308 1363 1364 2323 2378 2379 
6 323 324 1399 520 521 2414 
6 313 314 1400 510 511 2415 
6 1314 1358 1419 2329 2373 2434 
6 1301 1346 1393 2316 2361 2408 
6 1302 1347 1401 2317 2362 2416 
6 1303 1352 1414 2318 2367 2429 
6 1371 1313 1418 2386 2328 2433 
6 1349 1297 1389 2364 2312 2404 
6 1284 1413 1419 2299 2428 2434 
6 301 302 1423 498 499 2438 
6 329 328 1422 526 525 2437 
6 1415 1282 1418 2430 2297 2433 
6 1355 1294 1406 2370 2309 2421 
6 58 310 1368 139 507 2383 
6 68 327 1369 149 524 2384 
6 1345 1302 1403 2360 2317 2418 
6 1378 1293 1402 2393 2308 2417 
6 1343 172 1354 2358 369 2369 
6 1304 1380 1407 2319 2395 2422 
6 1383 1304 1407 2398 2319 2422 
6 320 1323 1386 517 2338 2401 
6 1324 317 1387 2339 514 2402 
6 169 1342 1355 366 2357 2370 
6 1350 1298 1395 2365 2313 2410 
6 1358 1334 1419 2373 2349 2434 
6 1366 1285 1416 2381 2300 2431 
6 1286 1367 1417 2301 2382 2432 
6 70 332 1375 151 529 2390 
6 309 59 1376 506 140 2391 
6 1302 1370 1403 2317 2385 2418 
6 1328 1378 1402 2343 2393 2417 
6 1359 1323 1397 2374 2338 2412 
6 1324 1360 1398 2339 2375 2413 
6 1344 1301 1392 2359 2316 2407 
6 1365 303 1392 2380 500 2407 
6 333 334 1407 530 531 2422 
6 328 1327 1422 525 2342 2437 
6 1326 301 1423 2341 498 2438 
6 1301 1365 1392 2316 2380 2407 
6 1331 1371 1418 2346 2386 2433 
6 1385 1294 1404 2400 2309 2419 
6 1327 1405 1422 2342 2420 2437 
6 1404 1326 1423 2419 2341 2438 
6 1311 1355 1406 2326 2370 2421 
6 1323 320 1339 2338 517 2354 
6 317 1324 1340 514 2339 2355 
6 1368 310 1424 2383 507 2439 
6 1369 327 1425 2384 524 2440 
6 1381 335 1420 2396 532 2435 
6 71 1382 1421 152 2397 2436 
6 1399 1309 1416 2414 2324 2431 
6 1310 1400 1417 2325 2415 2432 
6 1370 325 1403 2385 522 2418 
6 1380 333 1407 2395 530 2422 
6 334 1383 1407 531 2398 2422 
6 316 64 1364 513 145 2379 
6 65 321 1362 146 518 2377 
6 1317 1385 1404 2332 2400 2419 
6 1384 1282 1415 2399 2297 2430 
6 1309 1366 1416 2324 2381 2431 
6 1367 1310 1417 2382 2325 2432 
6 1309 1384 1415 2324 2399 2430 
6 1284 1379 1413 2299 2394 2428 
6 1319 1380 1409 2334 2395 2424 
6 1381 1320 1408 2396 2335 2423 
6 1383 1321 1410 2398 2336 2425 
6 1379 1310 1413 2394 2325 2428 
6 1320 1381 1420 2335 2396 2435 
6 1382 1322 1421 2397 2337 2436 
6 1356 1399 1416 2371 2414 2431 
6 1400 1357 1417 2415 2372 2432 
6 1285 1356 1416 2300 2371 2431 
6 1357 1286 1417 2372 2301 2432 
6 335 1388 1420 532 2403 2435 
6 1388 71 1421 2403 152 2436 
6 1310 1367 1413 2325 2382 2428 
6 1366 1309 1415 2381 2324 2430 
6 1315 1368 1424 2330 2383 2439 
6 1316 1369 1425 2331 2384 2440 
6 1356 323 1399 2371 520 2414 
6 314 1357 1400 511 2372 2415 
6 1323 1339 1397 2338 2354 2412 
6 1340 1324 1398 2355 2339 2413 
6 1317 1404 1423 2332 2419 2438 
6 1405 1318 1422 2420 2333 2437 
6 304 58 1368 501 139 2383 
6 59 301 1376 140 498 2391 
6 64 317 1340 145 514 2355 
6 64 1340 1364 145 2355 2379 
6 320 65 1339 517 146 2354 
6 1339 65 1362 2354 146 2377 
6 326 68 1369 523 149 2384 
6 328 70 1375 525 151 2390 
6 62 315 314 143 512 511 
6 315 63 1363 512 144 2378 
6 66 322 1361 147 519 2376 
6 67 323 322 148 520 519 
6 314 315 1308 511 512 2323 
6 314 1308 1357 511 2323 2372 
6 1308 315 1363 2323 512 2378 
6 322 323 1307 519 520 2322 
6 322 1307 1361 519 2322 2376 
6 1307 323 1356 2322 520 2371 
6 1291 1307 1356 2306 2322 2371 
6 1307 1291 1362 2322 2306 2377 
6 1308 1292 1357 2323 2307 2372 
6 1292 1308 1364 2307 2323 2379 
6 1519 1478 1534 2534 2493 2549 
6 1440 1480 1495 2455 2495 2510 
6 1441 1481 1494 2456 2496 2509 
6 1473 1457 1539 2488 2472 2554 
6 1434 1473 1539 2449 2488 2554 
6 1480 1440 1483 2495 2455 2498 
6 1481 1441 1482 2496 2456 2497 
6 1470 1434 1539 2485 2449 2554 
6 1456 200 1500 2471 397 2515 
6 1449 1464 1478 2464 2479 2493 
6 1465 1448 1477 2480 2463 2492 
6 1466 1451 1479 2481 2466 2494 
6 163 1460 1489 360 2475 2504 
6 348 1461 1490 545 2476 2505 
6 1442 1519 1534 2457 2534 2549 
6 1442 1481 1496 2457 2496 2511 
6 1461 1441 1490 2476 2456 2505 
6 1460 1440 1489 2475 2455 2504 
6 1445 1516 1517 2460 2531 2532 
6 1464 1432 1478 2479 2447 2493 
6 1435 1465 1477 2450 2480 2492 
6 1433 1466 1479 2448 2481 2494 
6 1427 1478 1519 2442 2493 2534 
6 1434 1470 1497 2449 2485 2512 
6 1427 1519 1523 2442 2534 2538 
6 1524 1475 1540 2539 2490 2555 
6 1456 1470 1539 2471 2485 2554 
6 1464 1449 1535 2479 2464 2550 
6 1457 1499 1518 2472 2514 2533 
6 1451 1466 1536 2466 2481 2551 
6 1440 1460 1483 2455 2475 2498 
6 1441 1461 1482 2456 2476 2497 
6 1487 355 1521 2502 552 2536 
6 354 1488 1520 551 2503 2535 
6 1467 1434 1497 2482 2449 2512 
6 1519 1463 1523 2534 2478 2538 
6 1438 1471 1488 2453 2486 2503 
6 1472 1439 1487 2487 2454 2502 
6 1499 201 1518 2514 398 2533 
6 1429 1475 1524 2444 2490 2539 
6 1470 1426 1497 2485 2441 2512 
6 200 1456 1518 397 2471 2533 
6 1477 1426 1522 2492 2441 2537 
6 1477 1522 1538 2492 2537 2553 
6 1443 1480 1498 2458 2495 2513 
6 1497 1426 1559 2512 2441 2574 
6 80 356 1535 161 553 2550 
6 357 358 1536 554 555 2551 
6 163 1489 1537 360 2504 2552 
6 358 1526 1536 555 2541 2551 
6 1527 80 1535 2542 161 2550 
6 1436 1430 1501 2451 2445 2516 
6 1431 1437 1502 2446 2452 2517 
6 1486 1445 1517 2501 2460 2532 
6 1430 1436 1542 2445 2451 2557 
6 1437 1431 1543 2452 2446 2558 
6 1443 1524 1540 2458 2539 2555 
6 199 16 1487 396 97 2502 
6 17 202 1488 98 399 2503 
6 1430 1504 1511 2445 2519 2526 
6 1505 1431 1512 2520 2446 2527 
6 1448 1467 1497 2463 2482 2512 
6 70 328 1483 151 525 2498 
6 78 350 1482 159 547 2497 
6 1474 1428 1529 2489 2443 2544 
6 1448 1465 1565 2463 2480 2580 
6 1467 1448 1566 2482 2463 2581 
6 1480 1443 1495 2495 2458 2510 
6 1481 1442 1494 2496 2457 2509 
6 72 338 1506 153 535 2521 
6 343 75 1508 540 156 2523 
6 1481 351 1496 2496 548 2511 
6 1444 1458 1504 2459 2473 2519 
6 1459 1445 1505 2474 2460 2520 
6 1463 1496 1567 2478 2511 2582 
6 348 1490 1548 545 2505 2563 
6 1434 1467 1493 2449 2482 2508 
6 1516 1433 1517 2531 2448 2532 
6 1473 1434 1493 2488 2449 2508 
6 1438 1488 1499 2453 2503 2514 
6 354 17 1488 551 98 2503 
6 16 355 1487 97 552 2502 
6 1449 1478 1541 2464 2493 2556 
6 1426 1470 1530 2441 2485 2545 
6 1458 1444 1503 2473 2459 2518 
6 78 1482 1569 159 2497 2584 
6 70 1483 1570 151 2498 2585 
6 1487 1439 1500 2502 2454 2515 
6 1489 1440 1491 2504 2455 2506 
6 1490 1441 1492 2505 2456 2507 
6 1486 1444 1531 2501 2459 2546 
6 1445 1486 1532 2460 2501 2547 
6 1450 1476 1556 2465 2491 2571 
6 1504 1468 1531 2519 2483 2546 
6 1469 1505 1532 2484 2520 2547 
6 1445 1459 1516 2460 2474 2531 
6 1474 1529 1546 2489 2544 2561 
6 1444 1504 1531 2459 2519 2546 
6 1505 1445 1532 2520 2460 2547 
6 1470 1456 1551 2485 2471 2566 
6 1454 1498 1544 2469 2513 2559 
6 1427 1473 1541 2442 2488 2556 
6 1496 352 1567 2511 549 2582 
6 1480 329 1498 2495 526 2513 
6 1433 1479 1503 2448 2494 2518 
6 1439 1530 1551 2454 2545 2566 
6 1457 1473 1547 2472 2488 2562 
6 1478 1427 1541 2493 2442 2556 
6 1473 1427 1523 2488 2442 2538 
6 1492 1441 1494 2507 2456 2509 
6 1491 1440 1495 2506 2455 2510 
6 1476 1450 1555 2491 2465 2570 
6 1510 1462 1568 2525 2477 2583 
6 1428 1474 1556 2443 2489 2571 
6 1475 1429 1557 2490 2444 2572 
6 1530 1470 1551 2545 2485 2566 
6 200 199 1500 397 396 2515 
6 202 201 1499 399 398 2514 
6 1478 1432 1534 2493 2447 2549 
6 1522 1426 1530 2537 2441 2545 
6 1432 1464 1553 2447 2479 2568 
6 1465 1435 1554 2480 2450 2569 
6 1466 1433 1555 2481 2448 2570 
6 1479 1451 1557 2494 2466 2572 
6 1556 1476 1563 2571 2491 2578 
6 349 78 1569 546 159 2584 
6 336 70 1570 533 151 2585 
6 1476 1433 1516 2491 2448 2531 
6 1443 1498 1524 2458 2513 2539 
6 1444 1486 1517 2459 2501 2532 
6 1435 1477 1538 2450 2492 2553 
6 350 351 1481 547 548 2496 
6 328 329 1480 525 526 2495 
6 1515 1455 1545 2530 2470 2560 
6 1498 330 1544 2513 527 2559 
6 1442 1496 1519 2457 2511 2534 
6 340 341 1486 537 538 2501 
6 1479 1557 1564 2494 2572 2579 
6 165 1510 1568 362 2525 2583 
6 1557 1429 1564 2572 2444 2579 
6 1477 1448 1559 2492 2463 2574 
6 1462 1522 1530 2477 2537 2545 
6 1474 1432 1553 2489 2447 2568 
6 1435 1475 1554 2450 2490 2569 
6 1433 1476 1555 2448 2491 2570 
6 1428 1556 1563 2443 2571 2578 
6 1432 1492 1494 2447 2507 2509 
6 1435 1491 1495 2450 2506 2510 
6 1553 1450 1556 2568 2465 2571 
6 1451 1554 1557 2466 2569 2572 
6 340 1486 1531 537 2501 2546 
6 1486 341 1532 2501 538 2547 
6 1498 1454 1524 2513 2469 2539 
6 164 163 1537 361 360 2552 
6 1523 1463 1550 2538 2478 2565 
6 1449 1493 1527 2464 2508 2542 
6 1475 1435 1540 2490 2450 2555 
6 1504 1430 1542 2519 2445 2557 
6 1431 1505 1543 2446 2520 2558 
6 1504 1458 1511 2519 2473 2526 
6 1459 1505 1512 2474 2520 2527 
6 356 1525 1535 553 2540 2550 
6 1528 357 1536 2543 554 2551 
6 1432 1474 1546 2447 2489 2561 
6 1484 1436 1507 2499 2451 2522 
6 1437 1485 1509 2452 2500 2524 
6 1558 1458 1564 2573 2473 2579 
6 1493 1467 1527 2508 2482 2542 
6 1446 1489 1491 2461 2504 2506 
6 1447 1490 1492 2462 2505 2507 
6 1426 1477 1559 2441 2492 2574 
6 346 1515 1545 543 2530 2560 
6 1459 1560 1563 2474 2575 2578 
6 351 352 1496 548 549 2511 
6 328 1480 1483 525 2495 2498 
6 350 1481 1482 547 2496 2497 
6 1455 1515 1529 2470 2530 2544 
6 1496 1463 1519 2511 2478 2534 
6 1473 1493 1541 2488 2508 2556 
6 1433 1503 1517 2448 2518 2532 
6 329 330 1498 526 527 2513 
6 1522 1446 1538 2537 2461 2553 
6 1432 1494 1534 2447 2509 2549 
6 1511 1458 1558 2526 2473 2573 
6 1435 1495 1540 2450 2510 2555 
6 347 348 1548 544 545 2563 
6 1533 1448 1565 2548 2463 2580 
6 1448 1533 1566 2463 2548 2581 
6 1503 1444 1517 2518 2459 2532 
6 1459 1512 1560 2474 2527 2575 
6 1506 338 1507 2521 535 2522 
6 343 1508 1509 540 2523 2524 
6 1515 1447 1529 2530 2462 2544 
6 1472 1487 1521 2487 2502 2536 
6 1488 1471 1520 2503 2486 2535 
6 1457 1518 1539 2472 2533 2554 
6 165 164 1510 362 361 2525 
6 1526 1451 1536 2541 2466 2551 
6 1449 1527 1535 2464 2542 2550 
6 1525 1450 1553 2540 2465 2568 
6 1451 1526 1554 2466 2541 2569 
6 1450 1528 1555 2465 2543 2570 
6 346 347 1515 543 544 2530 
6 1525 1464 1535 2540 2479 2550 
6 1466 1528 1536 2481 2543 2551 
6 1461 348 1514 2476 545 2529 
6 1460 163 1513 2475 360 2528 
6 1438 1499 1547 2453 2514 2562 
6 201 200 1518 398 397 2533 
6 1474 1553 1556 2489 2568 2571 
6 1554 1475 1557 2569 2490 2572 
6 1518 1456 1539 2533 2471 2554 
6 1529 1447 1546 2544 2462 2561 
6 1436 1484 1542 2451 2499 2557 
6 1485 1437 1543 2500 2452 2558 
6 1438 1523 1550 2453 2538 2565 
6 1462 1510 1522 2477 2525 2537 
6 1499 1457 1547 2514 2472 2562 
6 1493 1449 1541 2508 2464 2556 
6 1510 1446 1522 2525 2461 2537 
6 358 80 1533 555 161 2548 
6 1491 1435 1538 2506 2450 2553 
6 1492 1432 1546 2507 2447 2561 
6 1482 1461 1569 2497 2476 2584 
6 1483 1460 1570 2498 2475 2585 
6 339 340 1531 536 537 2546 
6 341 342 1532 538 539 2547 
6 1471 1438 1550 2486 2453 2565 
6 1439 1472 1549 2454 2487 2564 
6 1471 353 1520 2486 550 2535 
6 166 1472 1521 363 2487 2536 
6 1452 1506 1507 2467 2521 2522 
6 1508 1453 1509 2523 2468 2524 
6 330 331 1544 527 528 2559 
6 345 346 1545 542 543 2560 
6 1458 1503 1564 2473 2518 2579 
6 1446 1491 1538 2461 2506 2553 
6 1447 1492 1546 2462 2507 2561 
6 1448 1497 1559 2463 2512 2574 
6 1516 1459 1563 2531 2474 2578 
6 1494 1442 1534 2509 2457 2549 
6 1429 1558 1564 2444 2573 2579 
6 352 353 1567 549 550 2582 
6 166 165 1568 363 362 2583 
6 1560 1428 1563 2575 2443 2578 
6 1500 1439 1551 2515 2454 2566 
6 2 336 1513 83 533 2528 
6 77 349 1514 158 546 2529 
6 1490 1447 1548 2505 2462 2563 
6 1523 1438 1547 2538 2453 2562 
6 1488 202 1499 2503 399 2514 
6 1450 1525 1552 2465 2540 2567 
6 1528 1450 1552 2543 2465 2567 
6 1468 339 1531 2483 536 2546 
6 342 1469 1532 539 2484 2547 
6 199 1487 1500 396 2502 2515 
6 1495 1443 1540 2510 2458 2555 
6 1503 1479 1564 2518 2494 2579 
6 1430 1511 1561 2445 2526 2576 
6 1512 1431 1562 2527 2446 2577 
6 355 0 1521 552 81 2536 
6 79 354 1520 160 551 2535 
6 1447 1515 1548 2462 2530 2563 
6 1473 1523 1547 2488 2538 2562 
6 1468 1504 1542 2483 2519 2557 
6 1505 1469 1543 2520 2484 2558 
6 1489 1446 1537 2504 2461 2552 
6 1510 164 1537 2525 361 2552 
6 356 357 1552 553 554 2567 
6 353 1471 1567 550 2486 2582 
6 1472 166 1568 2487 363 2583 
6 1446 1510 1537 2461 2525 2552 
6 1476 1516 1563 2491 2531 2578 
6 1530 1439 1549 2545 2454 2564 
6 1471 1550 1567 2486 2565 2582 
6 1549 1472 1568 2564 2487 2583 
6 1456 1500 1551 2471 2515 2566 
6 339 1468 1484 536 2483 2499 
6 1469 342 1485 2484 539 2500 
6 1513 336 1570 2528 533 2585 
6 1514 349 1569 2529 546 2584 
6 1526 358 1565 2541 555 2580 
6 80 1527 1566 161 2542 2581 
6 1454 1544 1561 2469 2559 2576 
6 1545 1455 1562 2560 2470 2577 
6 1515 347 1548 2530 544 2563 
6 1525 356 1552 2540 553 2567 
6 357 1528 1552 554 2543 2567 
6 74 343 1509 155 540 2524 
6 338 73 1507 535 154 2522 
6 1462 1530 1549 2477 2545 2564 
6 1529 1428 1560 2544 2443 2575 
6 1511 1454 1561 2526 2469 2576 
6 1455 1512 1562 2470 2527 2577 
6 1455 1529 1560 2470 2544 2575 
6 1429 1524 1558 2444 2539 2573 
6 1464 1525 1553 2479 2540 2568 
6 1526 1465 1554 2541 2480 2569 
6 1528 1466 1555 2543 2481 2570 
6 1524 1454 1558 2539 2469 2573 
6 1465 1526 1565 2480 2541 2580 
6 1527 1467 1566 2542 2482 2581 
6 1544 1501 1561 2559 2516 2576 
6 1502 1545 1562 2517 2560 2577 
6 1501 1430 1561 2516 2445 2576 
6 1431 1502 1562 2446 2517 2577 
6 358 1533 1565 555 2548 2580 
6 1533 80 1566 2548 161 2581 
6 1454 1511 1558 2469 2526 2573 
6 1512 1455 1560 2527 2470 2575 
6 1460 1513 1570 2475 2528 2585 
6 1461 1514 1569 2476 2529 2584 
6 331 1501 1544 528 2516 2559 
6 1502 345 1545 2517 542 2560 
6 1484 1468 1542 2499 2483 2557 
6 1469 1485 1543 2484 2500 2558 
6 1550 1463 1567 2565 2478 2582 
6 1462 1549 1568 2477 2564 2583 
6 0 166 1521 81 363 2536 
6 163 2 1513 360 83 2528 
6 73 339 1484 154 536 2499 
6 73 1484 1507 154 2499 2522 
6 342 74 1485 539 155 2500 
6 1485 74 1509 2500 155 2524 
6 348 77 1514 545 158 2529 
6 353 79 1520 550 160 2535 
6 69 337 331 150 534 528 
6 337 72 1506 534 153 2521 
6 75 344 1508 156 541 2523 
6 76 345 344 157 542 541 
6 331 337 1452 528 534 2467 
6 331 1452 1501 528 2467 2516 
6 1452 337 1506 2467 534 2521 
6 344 345 1453 541 542 2468 
6 344 1453 1508 541 2468 2523 
6 1453 345 1502 2468 542 2517 
6 1452 1436 1501 2467 2451 2516 
6 1436 1452 1507 2451 2467 2522 
6 1437 1453 1502 2452 2468 2517 
6 1453 1437 1509 2468 2452 2524 

CELL_TYPES 2380
13
13
13
13
13
13
13
13
13
13
13
13
13
13
13
13
13
13
13
13
13
13
13
13
13
13
13
13
13
13
13
13
13
13
13
13
13
13
13
13
13
13
13
13
13
13
13
13
13
13
13
13
13
13
13
13
13
13
13
13
13
13
13
13
13
13
13
13
13
13
13
13
13
13
13
13
13
13
13
13
13
13
13
13
13
13
13
13
13
13
13
13
13
13
13
13
13
13
13
13
13
13
13
13
13
13
13
13
13
13
13
13
13
13
13
13
13
13
13
13
13
13
13
13
13
13
13
13
13
13
13
13
13
13
13
13
13
13
13
13
13
13
13
13
13
13
13
13
13
13
13
13
13
13
13
13
13
13
13
13
13
13
13
13
13
13
13
13
13
13
13
13
13
13
13
13
13
13
13
13
13
13
13
13
13
13
13
13
13
13
13
13
13
13
13
13
13
13
13
13
13
13
13
13
13
13
13
13
13
13
13
13
13
13
13
13
13
13
13
13
13
13
13
13
13
13
13
13
13
13
13
13
13
13
13
13
13
13
13
13
13
13
13
13
13
13
13
13
13
13
13
13
13
13
13
13
13
13
13
13
13
13
13
13
13
13
13
13
13
13
13
13
13
13
13
13
13
13
13
13
13
13
13
13
13
13
13
13
13
13
13
13
13
13
13
13
13
13
13
13
13
13
13
13
13
13
13
13
13
13
13
13
13
13
13
13
13
13
13
13
13
13
13
13
13
13
13
13
13
13
13
13
13
13
13
13
13
13
13
13
13
13
13
13
13
13
13
13
13
13
13
13
13
13
13
13
13
13
13
13
13
13
13
13
13
13
13
13
13
13
13
13
13
13
13
13
13
13
13
13
13
13
13
13
13
13
13
13
13
13
13
13
13
13
13
13
13
13
13
13
13
13
13
13
13
13
13
13
13
13
13
13
13
13
13
13
13
13
13
13
13
13
13
13
13
13
13
13
13
13
13
13
13
13
13
13
13
13
13
13
13
13
13
13
13
13
13
13
13
13
13
13
13
13
13
13
13
13
13
13
13
13
13
13
13
13
13
13
13
13
13
13
13
13
13
13
13
13
13
13
13
13
13
13
13
13
13
13
13
13
13
13
13
13
13
13
13
13
13
13
13
13
13
13
13
13
13
13
13
13
13
13
13
13
13
13
13
13
13
13
13
13
13
13
13
13
13
13
13
13
13
13
13
13
13
13
13
13
13
13
13
13
13
13
13
13
13
13
13
13
13
13
13
13
13
13
13
13
13
13
13
13
13
13
13
13
13
13
13
13
13
13
13
13
13
13
13
13
13
13
13
13
13
13
13
13
13
13
13
13
13
13
13
13
13
13
13
13
13
13
13
13
13
13
13
13
13
13
13
13
13
13
13
13
13
13
13
13
13
13
13
13
13
13
13
13
13
13
13
13
13
13
13
13
13
13
13
13
13
13
13
13
13
13
13
13
13
13
13
13
13
13
13
13
13
13
13
13
13
13
13
13
13
13
13
13
13
13
13
13
13
13
13
13
13
13
13
13
13
13
13
13
13
13
13
13
13
13
13
13
13
13
13
13
13
13
13
13
13
13
13
13
13
13
13
13
13
13
13
13
13
13
13
13
13
13
13
13
13
13
13
13
13
13
13
13
13
13
13
13
13
13
13
13
13
13
13
13
13
13
13
13
13
13
13
13
13
13
13
13
13
13
13
13
13
13
13
13
13
13
13
13
13
13
13
13
13
13
13
13
13
13
13
13
13
13
13
13
13
13
13
13
13
13
13
13
13
13
13
13
13
13
13
13
13
13
13
13
13
13
13
13
13
13
13
13
13
13
13
13
13
13
13
13
13
13
13
13
13
13
13
13
13
13
13
13
13
13
13
13
13
13
13
13
13
13
13
13
13
13
13
13
13
13
13
13
13
13
13
13
13
13
13
13
13
13
13
13
13
13
13
13
13
13
13
13
13
13
13
13
13
13
13
13
13
13
13
13
13
13
13
13
13
13
13
13
13
13
13
13
13
13
13
13
13
13
13
13
13
13
13
13
13
13
13
13
13
13
13
13
13
13
13
13
13
13
13
13
13
13
13
13
13
13
13
13
13
13
13
13
13
13
13
13
13
13
13
13
13
13
13
13
13
13
13
13
13
13
13
13
13
13
13
13
13
13
13
13
13
13
13
13
13
13
13
13
13
13
13
13
13
13
13
13
13
13
13
13
13
13
13
13
13
13
13
13
13
13
13
13
13
13
13
13
13
13
13
13
13
13
13
13
13
13
13
13
13
13
13
13
13
13
13
13
13
13
13
13
13
13
13
13
13
13
13
13
13
13
13
13
13
13
13
13
13
13
13
13
13
13
13
13
13
13
13
13
13
13
13
13
13
13
13
13
13
13
13
13
13
13
13
13
13
13
13
13
13
13
13
13
13
13
13
13
13
13
13
13
13
13
13
13
13
13
13
13
13
13
13
13
13
13
13
13
13
13
13
13
13
13
13
13
13
13
13
13
13
13
13
13
13
13
13
13
13
13
13
13
13
13
13
13
13
13
13
13
13
13
13
13
13
13
13
13
13
13
13
13
13
13
13
13
13
13
13
13
13
13
13
13
13
13
13
13
13
13
13
13
13
13
13
13
13
13
13
13
13
13
13
13
13
13
13
13
13
13
13
13
13
13
13
13
13
13
13
13
13
13
13
13
13
13
13
13
13
13
13
13
13
13
13
13
13
13
13
13
13
13
13
13
13
13
13
13
13
13
13
13
13
13
13
13
13
13
13
13
13
13
13
13
13
13
13
13
13
13
13
13
13
13
13
13
13
13
13
13
13
13
13
13
13
13
13
13
13
13
13
13
13
13
13
13
13
13
13
13
13
13
13
13
13
13
13
13
13
13
13
13
13
13
13
13
13
13
13
13
13
13
13
13
13
13
13
13
13
13
13
13
13
13
13
13
13
13
13
13
13
13
13
13
13
13
13
13
13
13
13
13
13
13
13
13
13
13
13
13
13
13
13
13
13
13
13
13
13
13
13
13
13
13
13
13
13
13
13
13
13
13
13
13
13
13
13
13
13
13
13
13
13
13
13
13
13
13
13
13
13
13
13
13
13
13
13
13
13
13
13
13
13
13
13
13
13
13
13
13
13
13
13
13
13
13
13
13
13
13
13
13
13
13
13
13
13
13
13
13
13
13
13
13
13
13
13
13
13
13
13
13
13
13
13
13
13
13
13
13
13
13
13
13
13
13
13
13
13
13
13
13
13
13
13
13
13
13
13
13
13
13
13
13
13
13
13
13
13
13
13
13
13
13
13
13
13
13
13
13
13
13
13
13
13
13
13
13
13
13
13
13
13
13
13
13
13
13
13
13
13
13
13
13
13
13
13
13
13
13
13
13
13
13
13
13
13
13
13
13
13
13
13
13
13
13
13
13
13
13
13
13
13
13
13
13
13
13
13
13
13
13
13
13
13
13
13
13
13
13
13
13
13
13
13
13
13
13
13
13
13
13
13
13
13
13
13
13
13
13
13
13
13
13
13
13
13
13
13
13
13
13
13
13
13
13
13
13
13
13
13
13
13
13
13
13
13
13
13
13
13
13
13
13
13
13
13
13
13
13
13
13
13
13
13
13
13
13
13
13
13
13
13
13
13
13
13
13
13
13
13
13
13
13
13
13
13
13
13
13
13
13
13
13
13
13
13
13
13
13
13
13
13
13
13
13
13
13
13
13
13
13
13
13
13
13
13
13
13
13
13
13
13
13
13
13
13
13
13
13
13
13
13
13
13
13
13
13
13
13
13
13
13
13
13
13
13
13
13
13
13
13
13
13
13
13
13
13
13
13
13
13
13
13
13
13
13
13
13
13
13
13
13
13
13
13
13
13
13
13
13
13
13
13
13
13
13
13
13
13
13
13
13
13
13
13
13
13
13
13
13
13
13
13
13
13
13
13
13
13
13
13
13
13
13
13
13
13
13
13
13
13
13
13
13
13
13
13
13
13
13
13
13
13
13
13
13
13
13
13
13
13
13
13
13
13
13
13
13
13
13
13
13
13
13
13
13
13
13
13
13
13
13
13
13
13
13
13
13
13
13
13
13
13
13
13
13
13
13
13
13
13
13
13
13
13
13
13
13
13
13
13
13
13
13
13
13
13
13
13
13
13
13
13
13
13
13
13
13
13
13
13
13
13
13
13
13
13
13
13
13
13
13
13
13
13
13
13
13
13
13
13
13
13
13
13
13
13
13
13
13
13
13
13
13
13
13
13
13
13
13
13
13
13
13
13
13
13
13
13
13
13
13
13
13
13
13
13
13
13
13
13
13
13
13
13
13
13
13
13
13
13
13
13
13
13
13
13
13
13
13
13
13
13
13
13
13
13
13
13
13
13
13
13
13
13
13
13
13
13
13
13
13
13
13
13
13
13
13
13
13
13
13
13
13
13
13
13
13
13
13
13
13
13
13
13
13
13
13
13
13
13
13
13
13
13
13
13
13
13
13
13
13
13
13
13
13
13
13
13
13
13
13
13
13
13
13
13
13
13
13
13
13
13
13
13
13
13
13
13
13
13
13
13
13
13
13
13
13
13
13
13
13
13
13
13
13
13
13
13
13
13
13
13
13
13
13
13
13
13
13
13
13
13
13
13
13
13
13
13
13
13
13
13
13
13
13
13
13
13
13
13
13
13
13
13
13
13
13
13
13
13
13
13
13
13
13
13
13
13
13
13
13
13
13
13
13
13
13
13
13
13
13
13
13
13
13
13
13
13
13
13
13
13
13
13
13
13
13
13
13
13
13
13
13
13
13
13
13
13
13
13
13
13
13
13
13
13
13
13
13
13
13
13
13
13
13
13
13
13
13
13
13
13
13
13
13
13
13
13
13
13
13
13
13
13
13
13
13
13
13
13
13
13
13
13
13
13
13
13
13
13
13
13
13
13
13
13
13
13
13
13
13
13
13
13
13
13
13
13
13
13
13
13
13
13
13
13
13
13
13
13
13
13
13
13
13
13
13
13
13
13
13
13
13
13
13
13
13
13
13
13
13
13
13
13
13
13
13
13
13
13
13
13
13
13
13
13
13
13
13
13
13
13
13
13
13
13
13
13
13
13
13
13
13
13
13
13
13
13
13
13
13
13
13
13
13
13
13
13
13
13
13
13
13
13
13
13
13
13
13
13
13
13
13
13
13
13
13
13
13
13
13
13
13
13
13
13
13
13
13
13
13
13
13
13
13
13
13
13
13
13
13
13
13
13
13
13
13
13
13
13
13
13
13
13
13
13
13
13
13
13
13
13
13
13
13
13
13
13
13
13
13
13
13
13
13
13
13
13
13
13
13
13
13
13
13
13
13
13
13
13
13
13
13
13
13
13
13
13
13
13
13
13

POINT_DATA 2586
VECTORS displacement float
-2.30579e-09 1.79518e-07 1.12242e-07
1.39305e-08 1.78323e-07 1.12347e-07
-1.49783e-07 1.11638e-07 1.17956e-07
-1.48358e-07 1.06397e-07 1.18011e-07
-1.5727e-07 9.79608e-08 1.21424e-07
-1.57433e-07 -9.80563e-08 1.21436e-07
-1.48523e-07 -1.06497e-07 1.18031e-07
-1.49947e-07 -1.11738e-07 1.17977e-07
-2.31909e-09 -1.79164e-07 1.12577e-07
1.38879e-08 -1.78499e-07 1.12049e-07
1.48314e-07 -9.26891e-08 1.11943e-07
1.56391e-07 -7.8795e-08 1.12231e-07
1.56593e-07 7.88932e-08 1.12281e-07
1.48465e-07 9.30151e-08 1.12276e-07
0 0 0
1.52402e-08 1.82927e-07 1.1208e-07
6.95347e-09 1.93393e-07 1.12495e-07
2.31745e-08 3.57588e-07 1.12585e-07
3.01171e-08 3.69078e-07 1.11826e-07
2.91055e-08 3.75265e-07 1.11987e-07
1.65505e-07 4.46107e-07 1.11235e-07
1.8708e-07 4.45472e-07 1.10719e-07
3.21384e-07 3.58346e-07 1.10809e-07
3.31481e-07 3.39362e-07 1.10956e-07
3.21571e-07 1.85514e-07 1.1217e-07
3.0939e-07 1.71405e-07 1.12033e-07
1.64864e-07 9.25567e-08 1.11959e-07
1.74917e-07 2.62593e-07 4.46999e-08
1.65804e-07 8.8147e-08 1.11786e-07
3.27928e-07 1.74311e-07 1.12401e-07
4.62392e-07 9.88604e-08 1.1091e-07
4.73186e-07 8.03032e-08 1.11055e-07
4.73066e-07 -8.04654e-08 1.10975e-07
4.62268e-07 -9.90543e-08 1.10846e-07
3.27806e-07 -1.74685e-07 1.11712e-07
3.09376e-07 -1.71318e-07 1.12219e-07
1.64738e-07 -9.27907e-08 1.1226e-07
1.65637e-07 -8.82979e-08 1.11985e-07
3.19765e-07 6.93734e-11 4.45742e-08
3.21509e-07 -1.85521e-07 1.12175e-07
3.31427e-07 -3.39486e-07 1.11089e-07
3.21297e-07 -3.5844e-07 1.1093e-07
1.86962e-07 -4.45447e-07 1.10704e-07
1.65386e-07 -4.46088e-07 1.11224e-07
2.89659e-08 -3.75197e-07 1.11959e-07
2.99732e-08 -3.69009e-07 1.11795e-07
2.29937e-08 -3.57501e-07 1.12536e-07
6.99861e-09 -1.93269e-07 1.1255e-07
1.52371e-08 -1.83024e-07 1.11884e-07
1.74731e-07 -2.63901e-07 4.47037e-08
1.83999e-08 -3.75774e-07 1.12403e-07
-9.62555e-08 -4.78395e-07 1.112e-07
-1.17784e-07 -4.81096e-07 1.11701e-07
-2.73067e-07 -4.32766e-07 1.11603e-07
-2.73229e-07 -4.26396e-07 1.11436e-07
-2.86914e-07 -4.14658e-07 1.11962e-07
-3.32819e-07 -2.62597e-07 1.1962e-07
-3.25909e-07 -2.4838e-07 1.21844e-07
-3.29794e-07 -2.43976e-07 1.23428e-07
-1.66865e-07 -1.15246e-07 1.21451e-07
-1.28038e-07 -2.91766e-07 4.50915e-08
-3.52911e-07 -2.51053e-07 1.27329e-07
-5.84748e-07 -1.44074e-07 1.34886e-07
-5.8348e-07 -1.38061e-07 1.34869e-07
-5.95867e-07 -1.26266e-07 1.34991e-07
-5.9584e-07 1.26211e-07 1.34992e-07
-5.83448e-07 1.38004e-07 1.3487e-07
-5.84714e-07 1.44018e-07 1.34888e-07
-3.52496e-07 2.509e-07 1.27175e-07
-3.30086e-07 2.43861e-07 1.23636e-07
-1.66721e-07 1.15129e-07 1.21437e-07
-3.50702e-07 -3.94981e-11 1.27386e-07
-3.2614e-07 2.48267e-07 1.22005e-07
-3.32956e-07 2.62512e-07 1.19712e-07
-2.86735e-07 4.14537e-07 1.11968e-07
-2.73054e-07 4.26271e-07 1.11444e-07
-2.72892e-07 4.32642e-07 1.11612e-07
-1.1848e-07 4.80989e-07 1.11227e-07
-9.69551e-08 4.7843e-07 1.11733e-07
1.8545e-08 3.7584e-07 1.12462e-07
-1.27939e-07 2.92096e-07 4.50676e-08
-2.30579e-09 1.79518e-07 -1.12242e-07
1.39305e-08 1.78323e-07 -1.12347e-07
-1.49783e-07 1.11638e-07 -1.17956e-07
-1.48358e-07 1.06397e-07 -1.18011e-07
-1.5727e-07 9.79608e-08 -1.21424e-07
-1.57433e-07 -9.80563e-08 -1.21436e-07
-1.48523e-07 -1.06497e-07 -1.18031e-07
-1.49947e-07 -1.11738e-07 -1.17977e-07
-2.31909e-09 -1.79164e-07 -1.12577e-07
1.38879e-08 -1.78499e-07 -1.12049e-07
1.48314e-07 -9.26891e-08 -1.11943e-07
1.56391e-07 -7.8795e-08 -1.12231e-07
1.56593e-07 7.88932e-08 -1.12281e-07
1.48465e-07 9.30151e-08 -1.12276e-07
0 0 0
1.52402e-08 1.82927e-07 -1.1208e-07
6.95347e-09 1.93393e-07 -1.12495e-07
2.31745e-08 3.57588e-07 -1.12585e-07
3.01171e-08 3.69078e-07 -1.11826e-07
2.91055e-08 3.75265e-07 -1.11987e-07
1.65505e-07 4.46107e-07 -1.11235e-07
1.8708e-07 4.45472e-07 -1.10719e-07
3.21384e-07 3.58346e-07 -1.10809e-07
3.31481e-07 3.39362e-07 -1.10956e-07
3.21571e-07 1.85514e-07 -1.1217e-07
3.0939e-07 1.71405e-07 -1.12033e-07
1.64864e-07 9.25567e-08 -1.11959e-07
1.74917e-07 2.62593e-07 -4.46999e-08
1.65804e-07 8.8147e-08 -1.11786e-07
3.27928e-07 1.74311e-07 -1.12401e-07
4.62392e-07 9.88604e-08 -1.1091e-07
4.73186e-07 8.03032e-08 -1.11055e-07
4.73066e-07 -8.04654e-08 -1.10975e-07
4.62268e-07 -9.90543e-08 -1.10846e-07
3.27806e-07 -1.74685e-07 -1.11712e-07
3.09376e-07 -1.71318e-07 -1.12219e-07
1.64738e-07 -9.27907e-08 -1.1226e-07
1.65637e-07 -8.82979e-08 -1.11985e-07
3.19765e-07 6.93734e-11 -4.45742e-08
3.21509e-07 -1.85521e-07 -1.12175e-07
3.31427e-07 -3.39486e-07 -1.11089e-07
3.21297e-07 -3.5844e-07 -1.1093e-07
1.86962e-07 -4.45447e-07 -1.10704e-07
1.65386e-07 -4.46088e-07 -1.11224e-07
2.89659e-08 -3.75197e-07 -1.11959e-07
2.99732e-08 -3.69009e-07 -1.11795e-07
2.29937e-08 -3.57501e-07 -1.12536e-07
6.99861e-09 -1.93269e-07 -1.1255e-07
1.52371e-08 -1.83024e-07 -1.11884e-07
1.74731e-07 -2.63901e-07 -4.47037e-08
1.83999e-08 -3.75774e-07 -1.12403e-07
-9.62555e-08 -4.78395e-07 -1.112e-07
-1.17784e-07 -4.81096e-07 -1.11701e-07
-2.73067e-07 -4.32766e-07 -1.11603e-07
-2.73229e-07 -4.26396e-07 -1.11436e-07
-2.86914e-07 -4.14658e-07 -1.11962e-07
-3.32819e-07 -2.62597e-07 -1.1962e-07
-3.25909e-07 -2.4838e-07 -1.21844e-07
-3.29794e-07 -2.43976e-07 -1.23428e-07
-1.66865e-07 -1.15246e-07 -1.21451e-07
-1.28038e-07 -2.91766e-07 -4.50915e-08
-3.52911e-07 -2.51053e-07 -1.27329e-07
-5.84748e-07 -1.44074e-07 -1.34886e-07
-5.8348e-07 -1.38061e-07 -1.34869e-07
-5.95867e-07 -1.26266e-07 -1.34991e-07
-5.9584e-07 1.26211e-07 -1.34992e-07
-5.83448e-07 1.38004e-07 -1.3487e-07
-5.84714e-07 1.44018e-07 -1.34888e-07
-3.52496e-07 2.509e-07 -1.27175e-07
-3.30086e-07 2.43861e-07 -1.23636e-07
-1.66721e-07 1.15129e-07 -1.21437e-07
-3.50702e-07 -3.94981e-11 -1.27386e-07
-3.2614e-07 2.48267e-07 -1.22005e-07
-3.32956e-07 2.62512e-07 -1.19712e-07
-2.86735e-07 4.14537e-07 -1.11968e-07
-2.73054e-07 4.26271e-07 -1.11444e-07
-2.72892e-07 4.32642e-07 -1.11612e-07
-1.1848e-07 4.80989e-07 -1.11227e-07
-9.69551e-08 4.7843e-07 -1.11733e-07
1.8545e-08 3.7584e-07 -1.12462e-07
-1.27939e-07 2.92096e-07 -4.50676e-08
5.64736e-09 1.74748e-07 1.11805e-07
-1.15152e-07 1.27876e-07 1.08253e-07
-8.79588e-08 1.39466e-07 1.00522e-07
-6.28154e-08 1.50442e-07 9.96214e-08
-3.62295e-08 1.62453e-07 1.05392e-07
-1.48612e-07 1.08951e-07 1.18028e-07
-1.50933e-07 1.00161e-07 1.19264e-07
-1.57625e-07 -5.53142e-08 1.18002e-07
-1.57036e-07 -1.80275e-08 1.14995e-07
-1.56959e-07 1.7953e-08 1.14886e-07
-1.57524e-07 5.52237e-08 1.18036e-07
-1.51097e-07 -1.00259e-07 1.1928e-07
-1.48778e-07 -1.09051e-07 1.18048e-07
-3.61788e-08 -1.6247e-07 1.05357e-07
-6.29198e-08 -1.50392e-07 9.99555e-08
-8.8115e-08 -1.39499e-07 1.0058e-07
-1.15317e-07 -1.27956e-07 1.08285e-07
5.48332e-09 -1.74645e-07 1.11825e-07
1.16205e-07 -1.12138e-07 1.04622e-07
9.18759e-08 -1.26963e-07 9.81871e-08
6.94872e-08 -1.41381e-07 9.82035e-08
4.55049e-08 -1.57085e-07 1.04708e-07
1.48346e-07 -8.36353e-08 1.11796e-07
1.55265e-07 4.15136e-08 1.04538e-07
1.55023e-07 1.31227e-08 9.82955e-08
1.54919e-07 -1.31058e-08 9.85344e-08
1.55239e-07 -4.14512e-08 1.04444e-07
1.48548e-07 8.3833e-08 1.11947e-07
4.55128e-08 1.5729e-07 1.04618e-07
6.95703e-08 1.41535e-07 9.85095e-08
9.20312e-08 1.27163e-07 9.85059e-08
1.16434e-07 1.12149e-07 1.04572e-07
0 0 0
0 0 0
0 0 0
1.51469e-08 1.80743e-07 1.12364e-07
1.25418e-08 1.89341e-07 1.11883e-07
9.28074e-09 2.31461e-07 1.04877e-07
1.24262e-08 2.60651e-07 9.90801e-08
1.58241e-08 2.87915e-07 9.88765e-08
1.91051e-08 3.17802e-07 1.05036e-07
2.78322e-08 3.61287e-07 1.11859e-07
2.98572e-08 3.72227e-07 1.12029e-07
6.67656e-08 3.83941e-07 1.05345e-07
9.30727e-08 3.88826e-07 1.0007e-07
1.13844e-07 3.99971e-07 1.00113e-07
1.34854e-07 4.19083e-07 1.04793e-07
1.75688e-07 4.41025e-07 1.10527e-07
2.15642e-07 4.15901e-07 1.04945e-07
2.35586e-07 3.94044e-07 9.95399e-08
2.5589e-07 3.80473e-07 9.96446e-08
2.82779e-07 3.7178e-07 1.04541e-07
3.22288e-07 3.46359e-07 1.10611e-07
3.20198e-07 2.99289e-07 1.04652e-07
3.10338e-07 2.71959e-07 1.00294e-07
3.08431e-07 2.48203e-07 1.00105e-07
3.13784e-07 2.22067e-07 1.05563e-07
3.11461e-07 1.80339e-07 1.11834e-07
1.9824e-07 1.11367e-07 1.04775e-07
2.23855e-07 1.24943e-07 9.83713e-08
2.47933e-07 1.37851e-07 9.84543e-08
2.74366e-07 1.52008e-07 1.0484e-07
1.56746e-07 9.6724e-08 1.11645e-07
1.67111e-07 2.74672e-07 4.53547e-08
1.54198e-07 2.64263e-07 4.4843e-08
1.63869e-07 2.53e-07 4.4253e-08
1.62483e-07 8.23377e-08 1.11679e-07
1.65935e-07 9.01865e-08 1.12017e-07
3.18082e-07 1.6853e-07 1.1172e-07
3.5475e-07 1.47903e-07 1.05539e-07
3.7418e-07 1.28927e-07 1.0043e-07
3.95007e-07 1.17363e-07 9.99425e-08
4.22809e-07 1.10575e-07 1.04684e-07
4.63742e-07 8.68946e-08 1.10719e-07
4.63847e-07 4.01699e-08 1.0474e-07
4.56501e-07 1.20758e-08 9.96287e-08
4.56167e-07 -1.25533e-08 1.0006e-07
4.63859e-07 -4.02807e-08 1.04587e-07
4.63636e-07 -8.70649e-08 1.10641e-07
4.22648e-07 -1.10778e-07 1.04673e-07
3.94819e-07 -1.17514e-07 9.99247e-08
3.73969e-07 -1.28828e-07 1.00042e-07
3.54578e-07 -1.47927e-07 1.05743e-07
3.17554e-07 -1.68873e-07 1.11521e-07
1.98045e-07 -1.11264e-07 1.04699e-07
2.2371e-07 -1.24957e-07 9.86972e-08
2.4783e-07 -1.37873e-07 9.8747e-08
2.74279e-07 -1.52031e-07 1.04697e-07
1.65782e-07 -9.03838e-08 1.12278e-07
1.62277e-07 -8.23433e-08 1.11713e-07
3.09822e-07 9.89919e-09 4.495e-08
2.97455e-07 6.96261e-10 4.52761e-08
3.08747e-07 -1.04697e-08 4.50169e-08
1.56792e-07 -9.66579e-08 1.11631e-07
3.11411e-07 -1.80308e-07 1.1187e-07
3.13774e-07 -2.22135e-07 1.05411e-07
3.08047e-07 -2.48015e-07 1.00566e-07
3.10591e-07 -2.71672e-07 9.98805e-08
3.20063e-07 -2.99427e-07 1.04848e-07
3.22209e-07 -3.46467e-07 1.10745e-07
2.82631e-07 -3.7174e-07 1.04649e-07
2.55714e-07 -3.80479e-07 9.96922e-08
2.3542e-07 -3.94003e-07 9.94689e-08
2.15513e-07 -4.15868e-07 1.04908e-07
1.75569e-07 -4.41003e-07 1.10515e-07
1.34717e-07 -4.19071e-07 1.04801e-07
1.13698e-07 -3.99917e-07 1.00129e-07
9.29487e-08 -3.88743e-07 1.00076e-07
6.66496e-08 -3.83865e-07 1.05336e-07
2.97163e-08 -3.72159e-07 1.12e-07
2.76725e-08 -3.6121e-07 1.1182e-07
9.19312e-09 -2.31386e-07 1.04971e-07
1.24353e-08 -2.60651e-07 9.88522e-08
1.56411e-08 -2.87889e-07 9.91109e-08
1.90501e-08 -3.17738e-07 1.0495e-07
1.25827e-08 -1.89307e-07 1.11853e-07
1.51305e-08 -1.80884e-07 1.12106e-07
1.64617e-07 -2.52446e-07 4.5179e-08
1.54086e-07 -2.63656e-07 4.48405e-08
1.66141e-07 -2.74174e-07 4.44383e-08
-1.35854e-09 -1.88698e-07 1.12306e-07
1.6824e-08 -3.64181e-07 1.1222e-07
-1.48193e-08 -3.90118e-07 1.0591e-07
-3.71568e-08 -4.01255e-07 1.00713e-07
-5.37589e-08 -4.18393e-07 1.00353e-07
-7.05408e-08 -4.44474e-07 1.05559e-07
-1.08222e-07 -4.74981e-07 1.11006e-07
-1.50876e-07 -4.58591e-07 1.05308e-07
-1.74583e-07 -4.44233e-07 1.00638e-07
-1.98678e-07 -4.37899e-07 1.00473e-07
-2.29477e-07 -4.37483e-07 1.05412e-07
-2.72738e-07 -4.29586e-07 1.11642e-07
-2.78628e-07 -4.18219e-07 1.11379e-07
-2.84365e-07 -3.74744e-07 1.0622e-07
-2.84363e-07 -3.47718e-07 1.02498e-07
-2.92605e-07 -3.24266e-07 1.03869e-07
-3.09742e-07 -2.98929e-07 1.10384e-07
-3.2619e-07 -2.56087e-07 1.19703e-07
-3.27467e-07 -2.46017e-07 1.22808e-07
-2.02142e-07 -1.416e-07 1.18443e-07
-2.33018e-07 -1.65397e-07 1.15616e-07
-2.6335e-07 -1.88759e-07 1.15766e-07
-2.95059e-07 -2.13374e-07 1.1935e-07
-1.58471e-07 -1.18105e-07 1.18836e-07
-1.4005e-07 -2.83586e-07 4.66114e-08
-1.49951e-07 -2.99317e-07 4.66227e-08
-1.36641e-07 -3.062e-07 4.5287e-08
-1.65959e-07 -1.04992e-07 1.22369e-07
-3.43229e-07 -2.42707e-07 1.26074e-07
-4.02444e-07 -2.32389e-07 1.2943e-07
-4.49012e-07 -2.11603e-07 1.30596e-07
-4.94449e-07 -1.89769e-07 1.31919e-07
-5.39429e-07 -1.67265e-07 1.33549e-07
-5.83713e-07 -1.41166e-07 1.34897e-07
-5.87386e-07 -1.29655e-07 1.3489e-07
-5.96774e-07 -7.5397e-08 1.34256e-07
-5.97263e-07 -2.51333e-08 1.33709e-07
-5.97262e-07 2.50688e-08 1.33706e-07
-5.9676e-07 7.53352e-08 1.34257e-07
-5.87358e-07 1.29598e-07 1.34891e-07
-5.8368e-07 1.4111e-07 1.34898e-07
-5.39379e-07 1.67197e-07 1.33551e-07
-4.94386e-07 1.89667e-07 1.31908e-07
-4.48984e-07 2.11522e-07 1.30541e-07
-4.02437e-07 2.32409e-07 1.29455e-07
-3.42791e-07 2.42549e-07 1.25966e-07
-2.02012e-07 1.41444e-07 1.18443e-07
-2.32906e-07 1.65214e-07 1.15641e-07
-2.63252e-07 1.88566e-07 1.15898e-07
-2.94962e-07 2.13247e-07 1.19348e-07
-1.65834e-07 1.04882e-07 1.22359e-07
-3.7143e-07 2.12954e-08 1.284e-07
-3.92816e-07 -2.21453e-11 1.29515e-07
-3.71403e-07 -2.13794e-08 1.2845e-07
-1.58316e-07 1.17996e-07 1.18816e-07
-3.2774e-07 2.45893e-07 1.22996e-07
-3.26343e-07 2.55987e-07 1.19807e-07
-3.09796e-07 2.9883e-07 1.10438e-07
-2.92589e-07 3.24257e-07 1.03884e-07
-2.84254e-07 3.47696e-07 1.02531e-07
-2.84213e-07 3.74642e-07 1.06222e-07
-2.78452e-07 4.18095e-07 1.11385e-07
-2.72563e-07 4.29461e-07 1.11651e-07
-2.29319e-07 4.37316e-07 1.05438e-07
-1.98523e-07 4.37728e-07 1.00468e-07
-1.74515e-07 4.43734e-07 1.00256e-07
-1.50806e-07 4.58383e-07 1.05559e-07
-1.08034e-07 4.74944e-07 1.11036e-07
-7.04906e-08 4.44565e-07 1.05367e-07
-5.36991e-08 4.18827e-07 1.00781e-07
-3.7023e-08 4.01408e-07 1.00777e-07
-1.46516e-08 3.90202e-07 1.05953e-07
1.69486e-08 3.64258e-07 1.12285e-07
-1.40808e-09 1.88919e-07 1.12149e-07
-1.35353e-07 3.06569e-07 4.60183e-08
-1.49842e-07 2.97819e-07 4.66403e-08
-1.41063e-07 2.84032e-07 4.58673e-08
5.64736e-09 1.74748e-07 -1.11805e-07
-1.15152e-07 1.27876e-07 -1.08253e-07
-8.79588e-08 1.39466e-07 -1.00522e-07
-6.28154e-08 1.50442e-07 -9.96214e-08
-3.62295e-08 1.62453e-07 -1.05392e-07
-1.48612e-07 1.08951e-07 -1.18028e-07
-1.50933e-07 1.00161e-07 -1.19264e-07
-1.57625e-07 -5.53142e-08 -1.18002e-07
-1.57036e-07 -1.80275e-08 -1.14995e-07
-1.56959e-07 1.7953e-08 -1.14886e-07
-1.57524e-07 5.52237e-08 -1.18036e-07
-1.51097e-07 -1.00259e-07 -1.1928e-07
-1.48778e-07 -1.09051e-07 -1.18048e-07
-3.61788e-08 -1.6247e-07 -1.05357e-07
-6.29198e-08 -1.50392e-07 -9.99555e-08
-8.8115e-08 -1.39499e-07 -1.0058e-07
-1.15317e-07 -1.27956e-07 -1.08285e-07
5.48332e-09 -1.74645e-07 -1.11825e-07
1.16205e-07 -1.12138e-07 -1.04622e-07
9.18759e-08 -1.26963e-07 -9.81871e-08
6.94872e-08 -1.41381e-07 -9.82035e-08
4.55049e-08 -1.57085e-07 -1.04708e-07
1.48346e-07 -8.36353e-08 -1.11796e-07
1.55265e-07 4.15136e-08 -1.04538e-07
1.55023e-07 1.31227e-08 -9.82955e-08
1.54919e-07 -1.31058e-08 -9.85344e-08
1.55239e-07 -4.14512e-08 -1.04444e-07
1.48548e-07 8.3833e-08 -1.11947e-07
4.55128e-08 1.5729e-07 -1.04618e-07
6.95703e-08 1.41535e-07 -9.85095e-08
9.20312e-08 1.27163e-07 -9.85059e-08
1.16434e-07 1.12149e-07 -1.04572e-07
0 0 0
0 0 0
0 0 0
1.51469e-08 1.80743e-07 -1.12364e-07
1.25418e-08 1.89341e-07 -1.11883e-07
9.28074e-09 2.31461e-07 -1.04877e-07
1.24262e-08 2.60651e-07 -9.90801e-08
1.58241e-08 2.87915e-07 -9.88765e-08
1.91051e-08 3.17802e-07 -1.05036e-07
2.78322e-08 3.61287e-07 -1.11859e-07
2.98572e-08 3.72227e-07 -1.12029e-07
6.67656e-08 3.83941e-07 -1.05345e-07
9.30727e-08 3.88826e-07 -1.0007e-07
1.13844e-07 3.99971e-07 -1.00113e-07
1.34854e-07 4.19083e-07 -1.04793e-07
1.75688e-07 4.41025e-07 -1.10527e-07
2.15642e-07 4.15901e-07 -1.04945e-07
2.35586e-07 3.94044e-07 -9.95399e-08
2.5589e-07 3.80473e-07 -9.96446e-08
2.82779e-07 3.7178e-07 -1.04541e-07
3.22288e-07 3.46359e-07 -1.10611e-07
3.20198e-07 2.99289e-07 -1.04652e-07
3.10338e-07 2.71959e-07 -1.00294e-07
3.08431e-07 2.48203e-07 -1.00105e-07
3.13784e-07 2.22067e-07 -1.05563e-07
3.11461e-07 1.80339e-07 -1.11834e-07
1.9824e-07 1.11367e-07 -1.04775e-07
2.23855e-07 1.24943e-07 -9.83713e-08
2.47933e-07 1.37851e-07 -9.84543e-08
2.74366e-07 1.52008e-07 -1.0484e-07
1.56746e-07 9.6724e-08 -1.11645e-07
1.67111e-07 2.74672e-07 -4.53547e-08
1.54198e-07 2.64263e-07 -4.4843e-08
1.63869e-07 2.53e-07 -4.4253e-08
1.62483e-07 8.23377e-08 -1.11679e-07
1.65935e-07 9.01865e-08 -1.12017e-07
3.18082e-07 1.6853e-07 -1.1172e-07
3.5475e-07 1.47903e-07 -1.05539e-07
3.7418e-07 1.28927e-07 -1.0043e-07
3.95007e-07 1.17363e-07 -9.99425e-08
4.22809e-07 1.10575e-07 -1.04684e-07
4.63742e-07 8.68946e-08 -1.10719e-07
4.63847e-07 4.01699e-08 -1.0474e-07
4.56501e-07 1.20758e-08 -9.96287e-08
4.56167e-07 -1.25533e-08 -1.0006e-07
4.63859e-07 -4.02807e-08 -1.04587e-07
4.63636e-07 -8.70649e-08 -1.10641e-07
4.22648e-07 -1.10778e-07 -1.04673e-07
3.94819e-07 -1.17514e-07 -9.99247e-08
3.73969e-07 -1.28828e-07 -1.00042e-07
3.54578e-07 -1.47927e-07 -1.05743e-07
3.17554e-07 -1.68873e-07 -1.11521e-07
1.98045e-07 -1.11264e-07 -1.04699e-07
2.2371e-07 -1.24957e-07 -9.86972e-08
2.4783e-07 -1.37873e-07 -9.8747e-08
2.74279e-07 -1.52031e-07 -1.04697e-07
1.65782e-07 -9.03838e-08 -1.12278e-07
1.62277e-07 -8.23433e-08 -1.11713e-07
3.09822e-07 9.89919e-09 -4.495e-08
2.97455e-07 6.96261e-10 -4.52761e-08
3.08747e-07 -1.04697e-08 -4.50169e-08
1.56792e-07 -9.66579e-08 -1.11631e-07
3.11411e-07 -1.80308e-07 -1.1187e-07
3.13774e-07 -2.22135e-07 -1.05411e-07
3.08047e-07 -2.48015e-07 -1.00566e-07
3.10591e-07 -2.71672e-07 -9.98805e-08
3.20063e-07 -2.99427e-07 -1.04848e-07
3.22209e-07 -3.46467e-07 -1.10745e-07
2.82631e-07 -3.7174e-07 -1.04649e-07
2.55714e-07 -3.80479e-07 -9.96922e-08
2.3542e-07 -3.94003e-07 -9.94689e-08
2.15513e-07 -4.15868e-07 -1.04908e-07
1.75569e-07 -4.41003e-07 -1.10515e-07
1.34717e-07 -4.19071e-07 -1.04801e-07
1.13698e-07 -3.99917e-07 -1.00129e-07
9.29487e-08 -3.88743e-07 -1.00076e-07
6.66496e-08 -3.83865e-07 -1.05336e-07
2.97163e-08 -3.72159e-07 -1.12e-07
2.76725e-08 -3.6121e-07 -1.1182e-07
9.19312e-09 -2.31386e-07 -1.04971e-07
1.24353e-08 -2.60651e-07 -9.88522e-08
1.56411e-08 -2.87889e-07 -9.91109e-08
1.90501e-08 -3.17738e-07 -1.0495e-07
1.25827e-08 -1.89307e-07 -1.11853e-07
1.51305e-08 -1.80884e-07 -1.12106e-07
1.64617e-07 -2.52446e-07 -4.5179e-08
1.54086e-07 -2.63656e-07 -4.48405e-08
1.66141e-07 -2.74174e-07 -4.44383e-08
-1.35854e-09 -1.88698e-07 -1.12306e-07
1.6824e-08 -3.64181e-07 -1.1222e-07
-1.48193e-08 -3.90118e-07 -1.0591e-07
-3.71568e-08 -4.01255e-07 -1.00713e-07
-5.37589e-08 -4.18393e-07 -1.00353e-07
-7.05408e-08 -4.44474e-07 -1.05559e-07
-1.08222e-07 -4.74981e-07 -1.11006e-07
-1.50876e-07 -4.58591e-07 -1.05308e-07
-1.74583e-07 -4.44233e-07 -1.00638e-07
-1.98678e-07 -4.37899e-07 -1.00473e-07
-2.29477e-07 -4.37483e-07 -1.05412e-07
-2.72738e-07 -4.29586e-07 -1.11642e-07
-2.78628e-07 -4.18219e-07 -1.11379e-07
-2.84365e-07 -3.74744e-07 -1.0622e-07
-2.84363e-07 -3.47718e-07 -1.02498e-07
-2.92605e-07 -3.24266e-07 -1.03869e-07
-3.09742e-07 -2.98929e-07 -1.10384e-07
-3.2619e-07 -2.56087e-07 -1.19703e-07
-3.27467e-07 -2.46017e-07 -1.22808e-07
-2.02142e-07 -1.416e-07 -1.18443e-07
-2.33018e-07 -1.65397e-07 -1.15616e-07
-2.6335e-07 -1.88759e-07 -1.15766e-07
-2.95059e-07 -2.13374e-07 -1.1935e-07
-1.58471e-07 -1.18105e-07 -1.18836e-07
-1.4005e-07 -2.83586e-07 -4.66114e-08
-1.49951e-07 -2.99317e-07 -4.66227e-08
-1.36641e-07 -3.062e-07 -4.5287e-08
-1.65959e-07 -1.04992e-07 -1.22369e-07
-3.43229e-07 -2.42707e-07 -1.26074e-07
-4.02444e-07 -2.32389e-07 -1.2943e-07
-4.49012e-07 -2.11603e-07 -1.30596e-07
-4.94449e-07 -1.89769e-07 -1.31919e-07
-5.39429e-07 -1.67265e-07 -1.33549e-07
-5.83713e-07 -1.41166e-07 -1.34897e-07
-5.87386e-07 -1.29655e-07 -1.3489e-07
-5.96774e-07 -7.5397e-08 -1.34256e-07
-5.97263e-07 -2.51333e-08 -1.33709e-07
-5.97262e-07 2.50688e-08 -1.33706e-07
-5.9676e-07 7.53352e-08 -1.34257e-07
-5.87358e-07 1.29598e-07 -1.34891e-07
-5.8368e-07 1.4111e-07 -1.34898e-07
-5.39379e-07 1.67197e-07 -1.33551e-07
-4.94386e-07 1.89667e-07 -1.31908e-07
-4.48984e-07 2.11522e-07 -1.30541e-07
-4.02437e-07 2.32409e-07 -1.29455e-07
-3.42791e-07 2.42549e-07 -1.25966e-07
-2.02012e-07 1.41444e-07 -1.18443e-07
-2.32906e-07 1.65214e-07 -1.15641e-07
-2.63252e-07 1.88566e-07 -1.15898e-07
-2.94962e-07 2.13247e-07 -1.19348e-07
-1.65834e-07 1.04882e-07 -1.22359e-07
-3.7143e-07 2.12954e-08 -1.284e-07
-3.92816e-07 -2.21453e-11 -1.29515e-07
-3.71403e-07 -2.13794e-08 -1.2845e-07
-1.58316e-07 1.17996e-07 -1.18816e-07
-3.2774e-07 2.45893e-07 -1.22996e-07
-3.26343e-07 2.55987e-07 -1.19807e-07
-3.09796e-07 2.9883e-07 -1.10438e-07
-2.92589e-07 3.24257e-07 -1.03884e-07
-2.84254e-07 3.47696e-07 -1.02531e-07
-2.84213e-07 3.74642e-07 -1.06222e-07
-2.78452e-07 4.18095e-07 -1.11385e-07
-2.72563e-07 4.29461e-07 -1.11651e-07
-2.29319e-07 4.37316e-07 -1.05438e-07
-1.98523e-07 4.37728e-07 -1.00468e-07
-1.74515e-07 4.43734e-07 -1.00256e-07
-1.50806e-07 4.58383e-07 -1.05559e-07
-1.08034e-07 4.74944e-07 -1.11036e-07
-7.04906e-08 4.44565e-07 -1.05367e-07
-5.36991e-08 4.18827e-07 -1.00781e-07
-3.7023e-08 4.01408e-07 -1.00777e-07
-1.46516e-08 3.90202e-07 -1.05953e-07
1.69486e-08 3.64258e-07 -1.12285e-07
-1.40808e-09 1.88919e-07 -1.12149e-07
-1.35353e-07 3.06569e-07 -4.60183e-08
-1.49842e-07 2.97819e-07 -4.66403e-08
-1.41063e-07 2.84032e-07 -4.58673e-08
4.64938e-08 -4.48569e-08 7.57893e-08
4.69424e-08 4.73919e-08 7.68498e-08
-4.51043e-08 5.2446e-08 7.9036e-08
-4.5394e-08 -5.25609e-08 7.91931e-08
-1.04425e-07 -8.03681e-08 1.06428e-07
-1.0425e-07 8.02535e-08 1.06389e-07
4.34293e-10 5.74936e-08 7.16349e-08
-5.28316e-08 1.48809e-09 7.31229e-08
5.16127e-08 -1.6345e-09 6.82086e-08
-1.54393e-10 -5.74205e-08 7.16209e-08
-1.24753e-07 8.61945e-08 1.13323e-07
-1.24922e-07 -8.62999e-08 1.13348e-07
9.63557e-08 5.22182e-08 9.66142e-08
1.01071e-07 -5.40743e-08 9.83274e-08
2.07413e-10 -1.16049e-07 9.82631e-08
5.47501e-09 1.15836e-07 9.821e-08
3.72413e-08 9.04285e-08 8.94428e-08
-3.34352e-08 -9.47566e-08 9.04349e-08
-9.68775e-08 2.73328e-08 9.81424e-08
-9.86573e-08 -2.69e-08 9.88209e-08
3.70183e-08 -9.39051e-08 9.02613e-08
-3.29867e-08 9.89454e-08 9.14833e-08
1.68769e-08 -1.69374e-08 4.44728e-08
1.92127e-08 2.136e-08 4.95078e-08
-1.88349e-08 1.84713e-08 4.79464e-08
-1.99771e-08 -1.97084e-08 4.97112e-08
-1.30159e-07 1.02614e-07 1.14641e-07
-1.30327e-07 -1.02711e-07 1.14665e-07
-7.17683e-08 8.98302e-08 9.61273e-08
-7.19467e-08 -8.96084e-08 9.61245e-08
1.0185e-07 -1.51062e-08 9.14586e-08
9.64454e-08 1.75963e-08 8.99873e-08
-7.64598e-08 -4.93569e-08 9.22945e-08
-7.62348e-08 4.92253e-08 9.22019e-08
1.66756e-08 -1.41336e-07 1.05551e-07
-8.621e-09 1.42949e-07 1.05812e-07
7.37969e-08 -8.06574e-08 9.36186e-08
7.37181e-08 7.90583e-08 9.34101e-08
5.38121e-09 2.98943e-08 5.10991e-08
4.12053e-09 -2.8995e-08 4.99353e-08
-2.82036e-08 -5.30642e-09 5.23218e-08
2.72831e-08 -3.27557e-09 4.85118e-08
-1.28974e-07 5.80017e-08 1.12075e-07
-1.29127e-07 -5.81011e-08 1.12098e-07
6.76055e-08 -2.53789e-08 8.01884e-08
1.10025e-07 7.9702e-08 1.04263e-07
1.10596e-07 -8.00835e-08 1.0442e-07
6.32382e-08 2.58178e-08 7.81758e-08
-2.10396e-08 5.09131e-08 7.01436e-08
-2.01739e-08 -4.97387e-08 6.92219e-08
-4.46349e-08 2.27329e-08 7.01208e-08
2.38513e-08 -4.42034e-08 6.71505e-08
2.4713e-08 4.4813e-08 6.76398e-08
-4.14921e-08 -2.08869e-08 6.73827e-08
-3.09667e-08 -1.24339e-07 9.88458e-08
3.66827e-08 1.20196e-07 9.80527e-08
1.88619e-08 1.46351e-07 1.06782e-07
-1.03555e-08 -1.48001e-07 1.07068e-07
-1.38976e-07 7.57583e-08 1.16487e-07
-1.3913e-07 -7.58601e-08 1.16497e-07
-1.21925e-07 6.80731e-10 1.05773e-07
1.34539e-07 -6.05891e-08 1.07676e-07
1.35174e-07 6.00865e-08 1.07734e-07
2.6378e-08 -1.17934e-07 9.82223e-08
-2.04565e-08 1.21434e-07 9.89791e-08
1.06607e-08 -8.72498e-08 8.72531e-08
-7.1673e-09 8.83819e-08 8.75221e-08
3.78882e-08 1.36557e-08 6.06129e-08
1.48593e-08 8.9012e-08 8.80722e-08
-1.13066e-08 -9.0448e-08 8.84304e-08
6.47845e-08 1.03572e-07 9.44704e-08
3.97023e-08 -1.99039e-08 6.36617e-08
-6.08092e-08 -1.12373e-07 9.63691e-08
1.20341e-07 3.12834e-08 9.83883e-08
1.22405e-07 -3.48355e-08 9.9389e-08
-1.09209e-07 1.00956e-07 1.08374e-07
-1.09375e-07 -1.01053e-07 1.08403e-07
-7.00768e-08 -2.34012e-08 8.54971e-08
-1.02468e-07 -5.48869e-08 1.0341e-07
-1.02163e-07 5.48036e-08 1.03305e-07
-1.44349e-07 1.01291e-07 1.1783e-07
-1.42894e-07 9.08739e-08 1.18054e-07
-1.44514e-07 -1.0139e-07 1.17848e-07
-1.43057e-07 -9.0974e-08 1.18069e-07
6.62361e-08 -1.04107e-07 9.48195e-08
-8.17181e-08 7.30121e-08 9.76063e-08
-8.19183e-08 -7.31162e-08 9.76667e-08
-7.52795e-09 1.60997e-07 1.09627e-07
1.73376e-08 -1.59434e-07 1.09401e-07
-6.21886e-08 1.13429e-07 9.6832e-08
-7.00216e-08 2.43515e-08 8.55368e-08
-8.49692e-08 1.59829e-09 9.16118e-08
1.18193e-07 5.43424e-09 9.38911e-08
5.03214e-08 7.15026e-08 8.55936e-08
1.30327e-07 8.55083e-08 1.09522e-07
1.30201e-07 -8.55912e-08 1.09403e-07
4.83563e-08 -7.04804e-08 8.47826e-08
7.12093e-08 5.21223e-08 8.77098e-08
-4.50963e-08 -7.65185e-08 8.67635e-08
-3.21297e-09 1.52881e-08 3.37241e-08
-5.11623e-09 -1.58197e-08 3.54694e-08
-1.45611e-08 3.80721e-09 3.48145e-08
1.52348e-08 5.7938e-09 3.58711e-08
-4.5469e-08 7.78146e-08 8.71418e-08
7.29235e-08 -5.36441e-08 8.86277e-08
-1.28944e-07 3.42873e-08 1.09578e-07
-1.29846e-07 -3.39509e-08 1.0979e-07
5.89547e-09 -6.109e-09 2.09847e-08
2.07332e-08 6.79104e-08 7.88093e-08
6.64949e-09 1.36311e-08 3.2399e-08
-1.19551e-08 -6.84599e-09 3.14176e-08
4.91014e-08 -1.22308e-07 9.73402e-08
2.21703e-08 -6.95481e-08 7.97796e-08
8.1512e-08 1.11277e-09 8.33573e-08
-2.17574e-08 -7.29333e-08 8.10617e-08
3.70691e-08 2.89949e-08 6.51979e-08
-1.19322e-07 7.15294e-08 1.10712e-07
-1.1951e-07 -7.16343e-08 1.10749e-07
-8.98686e-08 -1.1132e-07 1.02136e-07
-8.93699e-08 1.10208e-07 1.02051e-07
-2.09228e-08 7.38447e-08 8.13917e-08
8.74171e-08 3.35821e-08 8.97029e-08
-4.36834e-08 1.26448e-07 9.81081e-08
8.95668e-08 7.2086e-08 9.73125e-08
9.00492e-08 -7.28113e-08 9.7495e-08
9.19632e-08 -3.49413e-08 9.15529e-08
-6.64857e-09 7.01185e-09 2.30053e-08
-8.22799e-09 3.46302e-08 5.57865e-08
-8.46979e-09 -3.46704e-08 5.58049e-08
-3.03565e-08 8.10284e-09 5.49688e-08
-3.06089e-08 3.66389e-08 6.62034e-08
-2.99754e-08 -3.77041e-08 6.64402e-08
-6.20047e-08 -6.61914e-08 8.91812e-08
3.09208e-08 -3.07304e-08 6.26064e-08
-6.18094e-08 6.62353e-08 8.91179e-08
-9.08703e-08 9.08421e-08 1.02201e-07
-9.11094e-08 -9.10846e-08 1.02257e-07
-5.46507e-08 4.12295e-08 8.05645e-08
-5.56393e-08 -4.0952e-08 8.09791e-08
3.23265e-09 -1.21067e-08 2.88692e-08
1.15894e-08 -3.06065e-09 2.84361e-08
9.41509e-08 9.70452e-08 9.98614e-08
9.41069e-08 -9.70726e-08 9.98238e-08
6.55532e-09 1.57583e-07 1.09563e-07
3.03698e-09 -1.57706e-07 1.09612e-07
2.07036e-07 2.16297e-07 7.94928e-08
2.14879e-07 3.06524e-07 8.00335e-08
1.26478e-07 3.12385e-07 7.99761e-08
1.16664e-07 2.19413e-07 7.93374e-08
7.14356e-08 3.39373e-07 1.02245e-07
5.89683e-08 2.01176e-07 1.0182e-07
1.69561e-07 3.1846e-07 7.51885e-08
1.13562e-07 2.68451e-07 7.32888e-08
2.16423e-07 2.61206e-07 7.3985e-08
1.61297e-07 2.09111e-07 7.47048e-08
5.21645e-08 3.4668e-07 1.07645e-07
3.91002e-08 1.98902e-07 1.075e-07
2.68883e-07 3.1542e-07 9.90002e-08
2.5605e-07 2.09636e-07 9.77365e-08
1.55993e-07 1.53928e-07 9.83411e-08
1.71351e-07 3.7749e-07 9.8521e-08
1.40895e-07 3.52449e-07 9.10515e-08
1.24951e-07 1.77833e-07 9.01672e-08
7.38522e-08 2.92838e-07 9.20081e-08
6.76331e-08 2.47963e-07 9.22709e-08
2.04332e-07 3.5261e-07 9.18091e-08
1.94468e-07 1.72133e-07 9.10388e-08
1.81729e-07 2.419e-07 5.92729e-08
1.86438e-07 2.83897e-07 5.99216e-08
1.48306e-07 2.82061e-07 5.81775e-08
1.44935e-07 2.46322e-07 5.75713e-08
4.77855e-08 3.63018e-07 1.09551e-07
3.31056e-08 1.84172e-07 1.09503e-07
1.04008e-07 3.45363e-07 9.50352e-08
8.89752e-08 1.8774e-07 9.40178e-08
2.62942e-07 2.77092e-07 9.33429e-08
2.55277e-07 2.43545e-07 9.19744e-08
8.74413e-08 2.25936e-07 8.9056e-08
9.58366e-08 3.10485e-07 8.94579e-08
1.70417e-07 1.28436e-07 1.0556e-07
1.86637e-07 4.04582e-07 1.0521e-07
2.4144e-07 3.38665e-07 9.49498e-08
2.29715e-07 1.87889e-07 9.30249e-08
1.73269e-07 2.92625e-07 6.06504e-08
1.57996e-07 2.34764e-07 5.98222e-08
1.3621e-07 2.6156e-07 5.97434e-08
1.94331e-07 2.6067e-07 6.08616e-08
4.59737e-08 3.20566e-07 1.03666e-07
3.63554e-08 2.24891e-07 1.03525e-07
2.32156e-07 2.89198e-07 8.31842e-08
2.81024e-07 3.40866e-07 1.04361e-07
2.70036e-07 1.83422e-07 1.04645e-07
2.2604e-07 2.38146e-07 8.17519e-08
1.50317e-07 3.10583e-07 7.2841e-08
1.81907e-07 2.16817e-07 7.21496e-08
1.23741e-07 2.86436e-07 7.18931e-08
1.92427e-07 3.05774e-07 7.2322e-08
1.3975e-07 2.2026e-07 7.18206e-08
1.22968e-07 2.47981e-07 6.9388e-08
1.24819e-07 1.48762e-07 9.831e-08
1.43723e-07 3.8196e-07 9.89966e-08
1.61263e-07 4.10625e-07 1.0636e-07
1.42994e-07 1.23983e-07 1.06757e-07
3.83253e-08 3.37033e-07 1.0841e-07
2.59486e-08 2.1067e-07 1.08308e-07
4.74003e-08 2.7248e-07 9.54406e-08
3.04678e-07 3.2258e-07 1.07227e-07
2.96227e-07 2.02318e-07 1.08209e-07
1.94698e-07 3.78365e-07 9.88567e-08
1.81993e-07 1.5014e-07 9.84873e-08
2.05169e-07 2.76198e-07 6.83877e-08
1.68515e-07 1.80461e-07 8.81456e-08
1.80312e-07 3.47709e-07 8.86976e-08
1.60759e-07 3.50284e-07 8.9469e-08
1.46588e-07 1.79342e-07 8.89178e-08
9.75177e-08 1.64104e-07 9.49837e-08
1.16613e-07 3.65487e-07 9.64046e-08
2.78272e-07 2.29758e-07 9.98994e-08
2.86481e-07 2.9654e-07 1.00292e-07
6.84335e-08 3.58616e-07 1.04905e-07
5.30566e-08 1.82337e-07 1.04396e-07
9.52796e-08 2.48229e-07 8.25514e-08
6.22063e-08 2.24233e-07 9.77092e-08
7.12108e-08 3.16618e-07 9.79353e-08
3.39917e-08 3.63238e-07 1.11418e-07
3.54519e-08 3.52174e-07 1.10791e-07
1.9217e-08 1.8747e-07 1.11547e-07
2.12413e-08 1.97196e-07 1.10769e-07
1.98988e-07 2.44084e-07 6.74334e-08
2.3234e-07 3.59579e-07 9.64333e-08
2.21945e-07 1.60207e-07 9.52711e-08
9.27071e-08 3.31392e-07 9.52098e-08
8.07394e-08 2.0479e-07 9.45678e-08
1.87959e-07 4.24151e-07 1.08558e-07
1.69672e-07 1.10914e-07 1.09346e-07
9.94538e-08 2.88914e-07 8.28979e-08
8.28644e-08 2.70681e-07 8.64987e-08
2.75084e-07 2.55591e-07 9.59225e-08
3.02417e-07 3.48086e-07 1.08614e-07
2.91256e-07 1.78241e-07 1.09591e-07
2.15214e-07 3.28302e-07 8.65656e-08
2.01992e-07 1.92341e-07 8.57187e-08
2.32719e-07 2.13186e-07 8.94163e-08
1.15129e-07 1.9691e-07 8.61288e-08
1.28911e-07 3.34082e-07 8.71036e-08
1.62994e-07 2.81262e-07 5.21422e-08
1.69448e-07 2.45026e-07 5.26694e-08
1.83492e-07 2.69076e-07 5.29275e-08
1.48483e-07 2.70311e-07 5.25326e-08
2.40395e-07 3.14301e-07 9.04151e-08
4.38441e-08 3.00053e-07 9.93799e-08
3.72103e-08 2.45386e-07 9.93536e-08
1.5604e-07 2.56254e-07 4.74715e-08
1.3939e-07 1.98534e-07 8.13845e-08
1.74041e-07 2.78342e-07 5.135e-08
1.77819e-07 2.55686e-07 5.02935e-08
2.04303e-07 1.44314e-07 9.77105e-08
2.15874e-07 3.79063e-07 9.85293e-08
1.90475e-07 3.29648e-07 8.23081e-08
2.42998e-07 2.60848e-07 8.62083e-08
1.50471e-07 3.32417e-07 8.27623e-08
5.63161e-08 3.32535e-07 1.04531e-07
4.50247e-08 2.11573e-07 1.04329e-07
7.05184e-08 1.69372e-07 9.94826e-08
8.87282e-08 3.64979e-07 1.00628e-07
2.03308e-07 2.90355e-07 7.06133e-08
1.81344e-07 1.94893e-07 8.21632e-08
2.46301e-07 2.29047e-07 9.11746e-08
2.5872e-07 3.32457e-07 9.83124e-08
2.48891e-07 1.91646e-07 9.79443e-08
2.56963e-07 2.97049e-07 9.30971e-08
1.58337e-07 2.72474e-07 4.8262e-08
1.70933e-07 2.2983e-07 6.31408e-08
1.60387e-07 2.97383e-07 6.35517e-08
1.35236e-07 2.73576e-07 6.2017e-08
1.39545e-07 2.98739e-07 7.00709e-08
1.89197e-07 2.28964e-07 6.85443e-08
1.00014e-07 2.08692e-07 8.75579e-08
1.11615e-07 3.24574e-07 8.82782e-08
1.3094e-07 2.31714e-07 7.00795e-08
8.53487e-08 3.47685e-07 9.97958e-08
7.08896e-08 1.89078e-07 9.90237e-08
1.16137e-07 3.02778e-07 8.03144e-08
1.08851e-07 2.30994e-07 7.96654e-08
1.58869e-07 2.48301e-07 5.04649e-08
1.49148e-07 2.60218e-07 5.06841e-08
2.61687e-07 3.54398e-07 1.00643e-07
2.50846e-07 1.6761e-07 9.98564e-08
1.55526e-07 1.13544e-07 1.09428e-07
1.73531e-07 4.22581e-07 1.08622e-07
3.55683e-07 -4.18792e-08 7.93116e-08
3.55942e-07 4.38622e-08 8.00497e-08
2.64714e-07 4.64288e-08 7.93827e-08
2.6459e-07 -4.63686e-08 7.94678e-08
2.08124e-07 6.77909e-08 1.01769e-07
2.07983e-07 -6.7778e-08 1.01801e-07
3.08962e-07 5.28717e-08 7.50176e-08
2.56153e-07 -4.41427e-10 7.31027e-08
3.60776e-07 -1.72142e-09 7.31499e-08
3.08375e-07 -5.30063e-08 7.51453e-08
1.88428e-07 7.1253e-08 1.07393e-07
1.88252e-07 -7.12655e-08 1.07426e-07
4.11648e-07 -5.40577e-08 9.90461e-08
4.06637e-07 5.17102e-08 9.74619e-08
3.09028e-07 -1.09203e-07 9.87478e-08
3.14067e-07 1.08862e-07 9.88197e-08
3.44214e-07 8.31366e-08 9.12653e-08
2.76447e-07 -8.69042e-08 9.04e-08
2.13949e-07 2.21411e-08 9.16434e-08
2.11212e-07 -2.21438e-08 9.23913e-08
3.43761e-07 -8.65024e-08 9.21485e-08
2.76949e-07 9.09426e-08 9.13461e-08
3.2699e-07 -1.6376e-08 5.71195e-08
3.28698e-07 2.00859e-08 5.98464e-08
2.88247e-07 1.78451e-08 5.88297e-08
2.89126e-07 -1.68084e-08 5.8023e-08
1.83687e-07 8.59709e-08 1.09383e-07
1.83485e-07 -8.59948e-08 1.09468e-07
2.39585e-07 7.93179e-08 9.4102e-08
2.39443e-07 -7.90014e-08 9.41214e-08
4.08531e-07 -1.58193e-08 9.31953e-08
4.03737e-07 1.79322e-08 9.1759e-08
2.34362e-07 -4.18254e-08 8.9015e-08
2.34476e-07 4.18712e-08 8.89773e-08
3.25973e-07 -1.34873e-07 1.05947e-07
3.01679e-07 1.3546e-07 1.05735e-07
3.82355e-07 -7.54095e-08 9.51587e-08
3.82336e-07 7.37143e-08 9.48403e-08
3.14195e-07 2.80412e-08 6.05763e-08
3.1315e-07 -2.7667e-08 6.01487e-08
2.79662e-07 4.72096e-09 5.99844e-08
3.38049e-07 -3.36604e-09 5.97091e-08
1.8315e-07 4.61142e-08 1.03321e-07
1.83053e-07 -4.61102e-08 1.0331e-07
3.76486e-07 -2.48336e-08 8.2986e-08
4.22429e-07 -7.9797e-08 1.04447e-07
4.21761e-07 7.90911e-08 1.04259e-07
3.72299e-07 2.49115e-08 8.11825e-08
2.87895e-07 4.63695e-08 7.31265e-08
2.88752e-07 -4.52381e-08 7.25363e-08
2.64261e-07 -1.9806e-08 7.1607e-08
3.32617e-07 -4.07499e-08 7.20446e-08
3.33372e-07 4.10915e-08 7.22991e-08
2.67617e-07 1.82598e-08 6.9593e-08
2.79134e-07 -1.15661e-07 9.84753e-08
3.4323e-07 1.11606e-07 9.94297e-08
3.28306e-07 1.39561e-07 1.07177e-07
3.00116e-07 -1.4041e-07 1.06856e-07
1.74122e-07 6.06351e-08 1.08124e-07
1.73992e-07 -6.06396e-08 1.08112e-07
1.89461e-07 3.52975e-10 9.5014e-08
4.47173e-07 -6.27097e-08 1.07228e-07
4.47623e-07 6.18699e-08 1.07299e-07
3.33581e-07 -1.10515e-07 9.93592e-08
2.89389e-07 1.13473e-07 9.88726e-08
3.18677e-07 -8.10361e-08 8.88378e-08
3.0161e-07 8.19125e-08 8.85127e-08
3.47894e-07 1.29652e-08 6.73801e-08
3.22661e-07 8.23564e-08 8.9581e-08
2.9766e-07 -8.38943e-08 8.92717e-08
3.70659e-07 9.42862e-08 9.63103e-08
3.49189e-07 -1.88537e-08 6.96076e-08
2.50164e-07 -1.0159e-07 9.51351e-08
4.28007e-07 3.23118e-08 9.93434e-08
4.30609e-07 -3.61075e-08 1.00227e-07
2.03817e-07 8.65292e-08 1.04397e-07
2.03653e-07 -8.6484e-08 1.04425e-07
2.397e-07 2.02335e-08 8.26144e-08
2.09065e-07 -4.5139e-08 9.76347e-08
2.09364e-07 4.51312e-08 9.75466e-08
1.69454e-07 8.35423e-08 1.11329e-07
1.70622e-07 7.4075e-08 1.1059e-07
1.69253e-07 -8.3634e-08 1.1144e-07
1.70429e-07 -7.41025e-08 1.10612e-07
3.72079e-07 -9.51547e-08 9.67399e-08
2.29747e-07 6.29118e-08 9.45514e-08
2.29613e-07 -6.2872e-08 9.45982e-08
3.28247e-07 -1.53862e-07 1.09465e-07
3.03723e-07 1.53154e-07 1.09437e-07
2.48831e-07 1.02503e-07 9.54577e-08
2.40361e-07 -1.94899e-08 8.22105e-08
2.24179e-07 1.70152e-09 8.65415e-08
4.22558e-07 5.52679e-09 9.56251e-08
3.58271e-07 6.55004e-08 8.77366e-08
4.43615e-07 -8.79774e-08 1.0867e-07
4.43657e-07 8.75434e-08 1.08701e-07
3.56347e-07 -6.48023e-08 8.71272e-08
3.80725e-07 4.95574e-08 8.94901e-08
2.65111e-07 -6.87394e-08 8.63747e-08
3.02867e-07 1.71762e-08 5.26238e-08
3.04312e-07 -1.635e-08 5.20099e-08
3.27607e-07 6.09316e-09 5.31095e-08
2.90724e-07 -4.2934e-09 5.21009e-08
2.64733e-07 6.99983e-08 8.66805e-08
3.82583e-07 -5.12879e-08 9.04143e-08
1.82631e-07 2.65639e-08 9.8974e-08
1.81275e-07 -2.60436e-08 9.908e-08
3.16979e-07 -7.30753e-09 4.76352e-08
3.28708e-07 6.23677e-08 8.14634e-08
3.16195e-07 1.43514e-08 5.12318e-08
2.94458e-07 6.66013e-09 5.04818e-08
3.54855e-07 -1.1265e-07 9.90329e-08
3.30098e-07 -6.40326e-08 8.24476e-08
3.89115e-07 9.88472e-10 8.58879e-08
2.87541e-07 -6.6813e-08 8.23765e-08
3.46302e-07 2.69456e-08 7.0686e-08
1.93226e-07 5.85304e-08 1.042e-07
1.93061e-07 -5.85372e-08 1.04224e-07
2.22822e-07 9.70384e-08 9.94294e-08
2.22351e-07 -9.79584e-08 9.9585e-08
2.8834e-07 6.76667e-08 8.25851e-08
3.96303e-07 3.32917e-08 9.1358e-08
2.667e-07 1.16535e-07 9.74071e-08
4.00289e-07 -7.02533e-08 9.84226e-08
3.99756e-07 6.9297e-08 9.81738e-08
4.00933e-07 -3.50664e-08 9.30643e-08
3.0006e-07 -7.39331e-09 4.81201e-08
3.00229e-07 3.2368e-08 6.33128e-08
3.0015e-07 -3.23637e-08 6.34247e-08
2.77098e-07 -7.1847e-09 6.17879e-08
2.79198e-07 3.36509e-08 6.97388e-08
2.7881e-07 -3.30857e-08 6.97498e-08
2.48739e-07 -5.78664e-08 8.7638e-08
3.40375e-07 -2.8789e-08 6.90353e-08
2.48831e-07 5.80944e-08 8.76253e-08
2.21257e-07 7.86924e-08 9.9004e-08
2.21057e-07 -7.87891e-08 9.90756e-08
2.55277e-07 -3.57468e-08 7.98282e-08
2.5447e-07 3.5448e-08 8.00433e-08
3.13587e-07 -1.45031e-08 5.08138e-08
3.24413e-07 -4.0727e-09 5.0457e-08
4.02105e-07 -9.21451e-08 1.00821e-07
4.021e-07 9.18145e-08 1.00766e-07
3.17835e-07 1.51249e-07 1.09584e-07
3.14172e-07 -1.51117e-07 1.09467e-07
2.13636e-07 -3.07252e-07 7.98468e-08
2.08284e-07 -2.17164e-07 7.97688e-08
1.16638e-07 -2.19182e-07 7.93215e-08
1.26327e-07 -3.12259e-07 7.99478e-08
5.89228e-08 -2.01089e-07 1.01801e-07
7.13211e-08 -3.39315e-07 1.02237e-07
1.60151e-07 -2.09228e-07 7.46479e-08
1.13165e-07 -2.65732e-07 7.3269e-08
2.16441e-07 -2.62608e-07 7.39993e-08
1.70837e-07 -3.18476e-07 7.52277e-08
3.91058e-08 -1.98856e-07 1.07474e-07
5.2034e-08 -3.46622e-07 1.07624e-07
2.60873e-07 -2.07761e-07 9.93615e-08
2.63668e-07 -3.1345e-07 9.75004e-08
1.71237e-07 -3.77478e-07 9.85078e-08
1.61026e-07 -1.53773e-07 9.83423e-08
1.9471e-07 -1.75758e-07 9.02585e-08
1.40811e-07 -3.52227e-07 9.10403e-08
6.9099e-08 -2.47311e-07 9.18559e-08
7.21193e-08 -2.9244e-07 9.24076e-08
2.04238e-07 -3.52717e-07 9.17466e-08
1.2474e-07 -1.73442e-07 9.11652e-08
1.85893e-07 -2.83424e-07 5.95329e-08
1.81904e-07 -2.41355e-07 5.96735e-08
1.43632e-07 -2.47551e-07 5.79099e-08
1.49685e-07 -2.83079e-07 5.78467e-08
3.31276e-08 -1.84129e-07 1.09426e-07
4.76504e-08 -3.62949e-07 1.09528e-07
8.88457e-08 -1.87275e-07 9.40403e-08
1.03917e-07 -3.45274e-07 9.50235e-08
2.60229e-07 -2.45915e-07 9.35238e-08
2.58245e-07 -2.79409e-07 9.18455e-08
9.57406e-08 -3.10423e-07 8.94665e-08
8.73613e-08 -2.25849e-07 8.902e-08
1.86515e-07 -4.04558e-07 1.05186e-07
1.44927e-07 -1.28745e-07 1.05548e-07
2.32601e-07 -1.83259e-07 9.44791e-08
2.38182e-07 -3.33947e-07 9.35163e-08
1.67009e-07 -2.34089e-07 6.02899e-08
1.64444e-07 -2.92895e-07 6.02105e-08
1.37215e-07 -2.69523e-07 5.98011e-08
1.94534e-07 -2.63902e-07 6.08926e-08
3.63143e-08 -2.24852e-07 1.03535e-07
4.5871e-08 -3.20517e-07 1.03645e-07
2.27567e-07 -2.34173e-07 8.3193e-08
2.70711e-07 -1.82986e-07 1.04854e-07
2.80138e-07 -3.40407e-07 1.04242e-07
2.29879e-07 -2.85322e-07 8.17821e-08
1.39476e-07 -2.1754e-07 7.29984e-08
1.89126e-07 -3.08543e-07 7.26243e-08
1.19049e-07 -2.46304e-07 7.16301e-08
1.85385e-07 -2.19607e-07 7.17605e-08
1.49083e-07 -3.09097e-07 7.23686e-08
1.2711e-07 -2.84345e-07 6.96244e-08
1.4359e-07 -3.8195e-07 9.90176e-08
1.91994e-07 -1.47429e-07 9.83331e-08
1.61137e-07 -4.1061e-07 1.06355e-07
1.72037e-07 -1.23551e-07 1.06773e-07
2.59311e-08 -2.10636e-07 1.08322e-07
3.82018e-08 -3.36977e-07 1.0837e-07
4.71914e-08 -2.71299e-07 9.54388e-08
2.95771e-07 -2.01685e-07 1.0817e-07
3.04949e-07 -3.21968e-07 1.07354e-07
1.94572e-07 -3.78358e-07 9.8818e-08
1.35069e-07 -1.5055e-07 9.86405e-08
2.02428e-07 -2.47981e-07 6.83146e-08
1.80214e-07 -3.47689e-07 8.86343e-08
1.50565e-07 -1.80949e-07 8.81487e-08
1.72369e-07 -1.78587e-07 8.89256e-08
1.60646e-07 -3.50303e-07 8.94901e-08
2.21786e-07 -1.61437e-07 9.50293e-08
1.16503e-07 -3.65378e-07 9.64125e-08
2.83516e-07 -2.93038e-07 9.94658e-08
2.80603e-07 -2.26226e-07 1.00823e-07
5.30241e-08 -1.82204e-07 1.04382e-07
6.83132e-08 -3.58545e-07 1.04894e-07
9.93878e-08 -2.87935e-07 8.27532e-08
7.09815e-08 -3.16551e-07 9.79709e-08
6.22731e-08 -2.24139e-07 9.76535e-08
1.92485e-08 -1.8751e-07 1.1144e-07
2.12735e-08 -1.9718e-07 1.10752e-07
3.38431e-08 -3.63168e-07 1.11386e-07
3.53016e-08 -3.52107e-07 1.10754e-07
2.02257e-07 -2.80173e-07 6.75891e-08
2.3075e-07 -3.60383e-07 9.63592e-08
8.06583e-08 -2.04658e-07 9.45463e-08
9.26048e-08 -3.31319e-07 9.52049e-08
1.87837e-07 -4.24125e-07 1.08539e-07
1.44596e-07 -1.11142e-07 1.09316e-07
9.58845e-08 -1.63066e-07 9.53269e-08
9.49583e-08 -2.47251e-07 8.26745e-08
8.24843e-08 -2.67872e-07 8.64849e-08
2.75964e-07 -2.66565e-07 9.58561e-08
2.06621e-07 -1.95655e-07 8.56624e-08
2.91281e-07 -1.78003e-07 1.0963e-07
3.02251e-07 -3.47892e-07 1.0871e-07
2.10259e-07 -3.31161e-07 8.63629e-08
2.39648e-07 -3.09669e-07 8.9524e-08
1.28701e-07 -3.33702e-07 8.70162e-08
1.58324e-07 -2.46373e-07 5.1873e-08
1.73662e-07 -2.8143e-07 5.29517e-08
1.81795e-07 -2.5625e-07 5.28471e-08
1.4683e-07 -2.59316e-07 5.24472e-08
1.14453e-07 -1.95211e-07 8.65792e-08
2.32853e-07 -2.08617e-07 9.02753e-08
3.78809e-08 -2.44897e-07 9.92884e-08
4.29412e-08 -2.99667e-07 9.94405e-08
1.58504e-07 -2.71953e-07 4.76123e-08
1.51761e-07 -3.3086e-07 8.20365e-08
1.79629e-07 -1.98098e-07 8.08829e-08
1.70021e-07 -2.48044e-07 5.11014e-08
1.79613e-07 -2.69923e-07 5.04235e-08
2.15467e-07 -3.79297e-07 9.85407e-08
2.43002e-07 -2.62455e-07 8.62308e-08
4.50194e-08 -2.1152e-07 1.04315e-07
5.61783e-08 -3.32481e-07 1.04519e-07
7.08386e-08 -1.70161e-07 9.93533e-08
8.86182e-08 -3.64892e-07 1.00624e-07
1.98353e-07 -2.33876e-07 7.04108e-08
1.90584e-07 -3.30995e-07 8.27314e-08
1.38202e-07 -1.96031e-07 8.23728e-08
2.51431e-07 -2.94069e-07 9.10594e-08
1.12233e-07 -1.48093e-07 9.72158e-08
2.49579e-07 -1.90017e-07 9.83033e-08
2.57746e-07 -3.30735e-07 9.7996e-08
2.51261e-07 -2.26141e-07 9.33107e-08
1.55565e-07 -2.55812e-07 4.81152e-08
1.77287e-07 -2.96519e-07 6.35431e-08
1.52832e-07 -2.3071e-07 6.31361e-08
1.33103e-07 -2.57797e-07 6.1901e-08
1.94804e-07 -2.95827e-07 6.88861e-08
1.31438e-07 -2.322e-07 6.95637e-08
1.11497e-07 -3.2448e-07 8.82705e-08
1.38453e-07 -2.98914e-07 7.05257e-08
9.98884e-08 -2.08351e-07 8.75767e-08
7.08848e-08 -1.89069e-07 9.89758e-08
8.5242e-08 -3.4761e-07 9.97884e-08
1.08376e-07 -2.30598e-07 7.98532e-08
1.16317e-07 -3.02368e-07 8.01044e-08
1.6291e-07 -2.79375e-07 5.07159e-08
1.50386e-07 -2.69066e-07 5.07516e-08
2.53679e-07 -1.66464e-07 1.00561e-07
2.59786e-07 -3.5337e-07 1.00325e-07
1.58879e-07 -1.1345e-07 1.09422e-07
1.73408e-07 -4.2256e-07 1.0861e-07
-8.5412e-08 -3.28576e-07 7.96676e-08
-9.88146e-08 -2.36006e-07 8.14719e-08
-1.98133e-07 -2.60053e-07 8.49242e-08
-1.72824e-07 -3.55959e-07 8.10071e-08
-2.29971e-07 -3.92762e-07 1.02739e-07
-2.67926e-07 -2.54406e-07 1.09614e-07
-1.5149e-07 -2.38368e-07 7.83919e-08
-1.91552e-07 -3.11807e-07 7.61214e-08
-8.6369e-08 -2.84655e-07 7.3288e-08
-1.27405e-07 -3.51717e-07 7.58027e-08
-2.51281e-07 -4.02334e-07 1.07732e-07
-2.92459e-07 -2.57216e-07 1.15185e-07
-5.04096e-08 -2.25277e-07 9.8028e-08
-3.16005e-08 -3.32868e-07 9.97245e-08
-1.1942e-07 -4.11565e-07 9.90841e-08
-1.58732e-07 -1.79523e-07 1.04255e-07
-1.92934e-07 -2.12446e-07 9.82258e-08
-1.53218e-07 -3.92428e-07 9.16634e-08
-2.28146e-07 -3.46148e-07 9.44306e-08
-2.43591e-07 -3.00186e-07 9.73235e-08
-1.16991e-07 -1.92922e-07 9.3846e-08
-8.97067e-08 -3.79995e-07 9.24923e-08
-1.16661e-07 -3.0689e-07 5.73469e-08
-1.23974e-07 -2.66939e-07 6.08927e-08
-1.64016e-07 -2.84639e-07 6.07072e-08
-1.54145e-07 -3.21673e-07 6.02959e-08
-2.54448e-07 -4.18443e-07 1.09356e-07
-3.04548e-07 -2.44456e-07 1.19026e-07
-1.93372e-07 -3.92947e-07 9.56335e-08
-2.3511e-07 -2.32884e-07 1.03306e-07
-3.55665e-08 -2.93522e-07 9.29296e-08
-4.56605e-08 -2.60431e-07 9.16192e-08
-2.05189e-07 -3.60323e-07 9.08279e-08
-2.28652e-07 -2.73422e-07 9.47367e-08
-1.43916e-07 -1.49536e-07 1.10635e-07
-1.01097e-07 -4.36718e-07 1.05756e-07
-5.61247e-08 -3.59871e-07 9.58609e-08
-7.90579e-08 -2.04773e-07 9.43389e-08
-1.41125e-07 -2.62951e-07 6.25657e-08
-1.27211e-07 -3.23557e-07 6.06646e-08
-1.66481e-07 -3.10847e-07 6.20863e-08
-1.08923e-07 -2.90144e-07 5.99503e-08
-2.57133e-07 -3.77507e-07 1.04779e-07
-2.84192e-07 -2.83586e-07 1.0938e-07
-6.74582e-08 -3.06621e-07 8.31417e-08
-3.96071e-08 -1.96002e-07 1.05215e-07
-1.97968e-08 -3.58918e-07 1.05617e-07
-8.01049e-08 -2.57307e-07 8.09411e-08
-1.71548e-07 -2.53391e-07 7.67531e-08
-1.47942e-07 -3.48588e-07 7.36239e-08
-1.89894e-07 -2.88918e-07 7.53443e-08
-1.06821e-07 -3.32513e-07 7.24155e-08
-1.2274e-07 -2.43223e-07 7.39119e-08
-1.75263e-07 -3.27976e-07 7.1639e-08
-1.46672e-07 -4.20999e-07 9.95478e-08
-1.93403e-07 -1.80679e-07 1.08243e-07
-1.25713e-07 -4.46465e-07 1.06867e-07
-1.72919e-07 -1.49241e-07 1.15144e-07
-2.66813e-07 -3.94408e-07 1.08621e-07
-3.02718e-07 -2.7251e-07 1.14751e-07
-2.55414e-07 -3.29092e-07 9.94275e-08
1.27465e-09 -3.39273e-07 1.08314e-07
-1.2631e-08 -2.13768e-07 1.08295e-07
-1.31191e-07 -1.71212e-07 1.02374e-07
-9.61625e-08 -4.08452e-07 9.94812e-08
-1.44125e-07 -2.05766e-07 9.23518e-08
-1.13747e-07 -3.79434e-07 8.92943e-08
-1.02626e-07 -2.71088e-07 6.77822e-08
-1.68116e-07 -2.09273e-07 9.48273e-08
-1.33083e-07 -3.86094e-07 9.0068e-08
-9.50143e-08 -3.04803e-07 6.97972e-08
-1.77025e-07 -4.10176e-07 9.69418e-08
-2.26519e-07 -2.05152e-07 1.06719e-07
-2.40017e-08 -2.4443e-07 9.93521e-08
-1.30434e-08 -3.12612e-07 1.00352e-07
-2.31518e-07 -4.11826e-07 1.05047e-07
-2.80269e-07 -2.37008e-07 1.14509e-07
-2.03064e-07 -3.37455e-07 8.51639e-08
-2.30712e-07 -3.7067e-07 9.92042e-08
-2.56653e-07 -2.76802e-07 1.03672e-07
-2.7057e-07 -4.20049e-07 1.11043e-07
-2.70896e-07 -4.09135e-07 1.10506e-07
-3.19706e-07 -2.51681e-07 1.20358e-07
-3.14107e-07 -2.60997e-07 1.18132e-07
-8.88942e-08 -1.76698e-07 9.71431e-08
-6.21461e-08 -3.82887e-07 9.73119e-08
-2.07159e-07 -3.81498e-07 9.599e-08
-2.41669e-07 -2.52796e-07 1.02103e-07
-9.7591e-08 -4.56494e-07 1.09074e-07
-1.44986e-07 -1.30782e-07 1.14781e-07
-2.1372e-07 -2.95628e-07 8.65159e-08
-2.22333e-07 -3.22224e-07 9.01909e-08
-2.25617e-08 -2.71153e-07 9.50049e-08
-1.97657e-08 -1.88267e-07 1.10083e-07
-1.12843e-10 -3.65827e-07 1.10096e-07
-8.14101e-08 -3.53485e-07 8.75906e-08
-1.04894e-07 -2.12248e-07 8.82385e-08
-7.13081e-08 -2.29682e-07 9.10655e-08
-1.67939e-07 -3.76847e-07 8.78356e-08
-2.02805e-07 -2.35751e-07 9.35265e-08
-1.48701e-07 -2.78882e-07 5.4003e-08
-1.39599e-07 -3.16009e-07 5.34584e-08
-1.21863e-07 -2.82155e-07 5.36837e-08
-1.58014e-07 -2.97709e-07 5.40621e-08
-5.90867e-08 -3.33904e-07 9.09385e-08
-2.577e-07 -3.57546e-07 1.01824e-07
-2.74486e-07 -3.04107e-07 1.04537e-07
-1.28412e-07 -2.99782e-07 4.79158e-08
-1.35818e-07 -2.76366e-07 5.26625e-08
-1.50927e-07 -3.08345e-07 5.19614e-08
-7.51912e-08 -4.0582e-07 9.92637e-08
-1.07953e-07 -1.62162e-07 1.0049e-07
-1.05612e-07 -3.5857e-07 8.28774e-08
-1.28274e-07 -2.1926e-07 8.50505e-08
-5.77334e-08 -2.78878e-07 8.57162e-08
-1.77003e-07 -2.30544e-07 8.79167e-08
-1.45539e-07 -3.70373e-07 8.34245e-08
-1.0689e-07 -2.56469e-07 7.14236e-08
-2.46733e-07 -3.88189e-07 1.05109e-07
-2.80606e-07 -2.68122e-07 1.11035e-07
-2.07574e-07 -4.14957e-07 1.00981e-07
-2.60543e-07 -2.18582e-07 1.11721e-07
-5.62e-08 -2.44857e-07 9.18361e-08
-5.99234e-08 -2.07322e-07 9.85109e-08
-4.06513e-08 -3.51437e-07 9.92708e-08
-4.25972e-08 -3.14231e-07 9.32997e-08
-1.49861e-07 -2.90988e-07 4.98709e-08
-1.56752e-07 -2.63314e-07 6.63134e-08
-1.38887e-07 -3.32565e-07 6.42587e-08
-1.72789e-07 -2.98818e-07 6.44515e-08
-1.79336e-07 -2.70015e-07 7.37708e-08
-1.60328e-07 -3.3939e-07 7.10929e-08
-1.87405e-07 -3.7112e-07 8.91887e-08
-2.18689e-07 -2.52426e-07 9.44474e-08
-1.01785e-07 -3.17423e-07 6.93085e-08
-2.13699e-07 -3.98593e-07 1.00251e-07
-2.56816e-07 -2.3906e-07 1.08357e-07
-2.04589e-07 -2.74226e-07 8.47758e-08
-1.85478e-07 -3.48338e-07 8.19172e-08
-1.29805e-07 -3.08901e-07 5.09426e-08
-1.22261e-07 -2.94025e-07 5.07589e-08
-5.82873e-08 -1.80842e-07 1.01053e-07
-3.5808e-08 -3.74082e-07 1.01798e-07
-1.59686e-07 -1.35964e-07 1.16434e-07
-1.12218e-07 -4.56755e-07 1.0912e-07
-2.86721e-07 -7.62434e-08 1.25264e-07
-4.51922e-07 8.93189e-08 1.31089e-07
-2.86867e-07 7.92661e-08 1.25197e-07
-4.52071e-07 -8.93378e-08 1.31091e-07
-5.32163e-07 1.12739e-07 1.33591e-07
-5.32187e-07 -1.12813e-07 1.33588e-07
-3.68077e-07 1.05613e-07 1.28068e-07
-4.74208e-07 2.67671e-09 1.31669e-07
-2.73498e-07 -3.07518e-09 1.25172e-07
-3.69115e-07 -1.0578e-07 1.28092e-07
-5.58015e-07 1.17238e-07 1.34334e-07
-5.5804e-07 -1.17303e-07 1.34333e-07
-2.22149e-07 7.47744e-08 1.2379e-07
-2.16684e-07 -7.66758e-08 1.23644e-07
-3.61534e-07 -1.77871e-07 1.27592e-07
-3.53837e-07 1.76725e-07 1.27124e-07
-3.07696e-07 1.38991e-07 1.24297e-07
-4.18607e-07 -1.49619e-07 1.29992e-07
-5.28584e-07 4.16721e-08 1.3307e-07
-5.30601e-07 -4.08224e-08 1.33107e-07
-3.08213e-07 -1.43749e-07 1.24071e-07
-4.16684e-07 1.54933e-07 1.29931e-07
-3.28638e-07 -4.13408e-08 1.26904e-07
-4.18128e-07 4.25716e-08 1.30018e-07
-3.26755e-07 4.79603e-08 1.2682e-07
-4.19513e-07 -4.4311e-08 1.30064e-07
-5.62823e-07 1.35649e-07 1.34477e-07
-5.62855e-07 -1.35712e-07 1.34475e-07
-4.83173e-07 1.3268e-07 1.32054e-07
-4.83315e-07 -1.32338e-07 1.32057e-07
-2.14008e-07 -2.28063e-08 1.22398e-07
-2.20315e-07 2.66656e-08 1.22767e-07
-4.99406e-07 7.65415e-08 1.3251e-07
-4.99421e-07 -7.66262e-08 1.3251e-07
-3.34965e-07 -2.0445e-07 1.25382e-07
-3.68483e-07 2.09943e-07 1.2817e-07
-2.53342e-07 -1.15901e-07 1.22753e-07
-2.53405e-07 1.13661e-07 1.22896e-07
-3.58492e-07 6.68438e-08 1.27875e-07
-3.60576e-07 -6.61243e-08 1.27943e-07
-4.3841e-07 -1.14224e-08 1.30667e-07
-3.0703e-07 -7.91561e-09 1.26253e-07
-5.64531e-07 8.14502e-08 1.34081e-07
-5.64545e-07 -8.15158e-08 1.34079e-07
-2.54932e-07 -4.16796e-08 1.24617e-07
-2.0705e-07 -1.06589e-07 1.22948e-07
-2.0784e-07 1.06097e-07 1.22981e-07
-2.60486e-07 4.2944e-08 1.24781e-07
-4.10256e-07 9.41121e-08 1.29694e-07
-4.08769e-07 -9.26478e-08 1.29638e-07
-4.60159e-07 4.17624e-08 1.31304e-07
-3.23578e-07 -8.29769e-08 1.26425e-07
-3.22286e-07 8.30613e-08 1.26395e-07
-4.55408e-07 -3.91422e-08 1.3116e-07
-4.06029e-07 -1.87099e-07 1.29641e-07
-3.09233e-07 1.74756e-07 1.23062e-07
-3.69636e-07 -2.16165e-07 1.28246e-07
-3.31526e-07 2.09211e-07 1.2503e-07
-5.7551e-07 1.03071e-07 1.34552e-07
-5.7553e-07 -1.03133e-07 1.34551e-07
-5.58714e-07 1.01044e-09 1.33419e-07
-1.79639e-07 -8.06318e-08 1.22637e-07
-1.78986e-07 7.9696e-08 1.22565e-07
-3.23854e-07 -1.75278e-07 1.24594e-07
-3.90989e-07 1.84256e-07 1.29084e-07
-3.48639e-07 -1.4193e-07 1.26888e-07
-3.77422e-07 1.44471e-07 1.28387e-07
-2.92988e-07 2.68653e-08 1.25814e-07
-3.42015e-07 1.42935e-07 1.26513e-07
-3.83726e-07 -1.46949e-07 1.28648e-07
-2.68349e-07 1.46419e-07 1.20825e-07
-2.91758e-07 -3.78426e-08 1.2576e-07
-4.58297e-07 -1.64876e-07 1.31161e-07
-1.9418e-07 4.46412e-08 1.21567e-07
-1.92119e-07 -4.95061e-08 1.21547e-07
-5.35636e-07 1.3691e-07 1.33695e-07
-5.3567e-07 -1.36983e-07 1.33694e-07
-4.94874e-07 -3.82856e-08 1.32256e-07
-5.32637e-07 8.02094e-08 1.33432e-07
-5.32799e-07 -8.0215e-08 1.33433e-07
-5.797e-07 1.3251e-07 1.34813e-07
-5.79465e-07 1.2035e-07 1.34777e-07
-5.7973e-07 -1.32568e-07 1.34811e-07
-5.79491e-07 -1.2041e-07 1.34776e-07
-2.66199e-07 -1.46929e-07 1.20723e-07
-5.02379e-07 1.08064e-07 1.32684e-07
-5.02417e-07 -1.08119e-07 1.32683e-07
-3.30981e-07 -2.23989e-07 1.24568e-07
-3.6283e-07 2.30668e-07 1.27819e-07
-4.60349e-07 1.65734e-07 1.31212e-07
-4.94927e-07 3.99515e-08 1.32261e-07
-5.15301e-07 2.53725e-09 1.32685e-07
-1.95837e-07 7.91527e-09 1.20261e-07
-2.8556e-07 1.1138e-07 1.24162e-07
-1.85148e-07 1.09217e-07 1.22597e-07
-1.85183e-07 -1.09585e-07 1.22585e-07
-2.8824e-07 -1.11058e-07 1.24302e-07
-2.53662e-07 7.95713e-08 1.24338e-07
-4.44029e-07 -1.22921e-07 1.30831e-07
-3.82563e-07 4.53875e-08 1.28797e-07
-3.86569e-07 -4.57652e-08 1.28936e-07
-3.26164e-07 1.60918e-08 1.26811e-07
-4.17319e-07 1.14218e-08 1.30062e-07
-4.4443e-07 1.24552e-07 1.30848e-07
-2.51348e-07 -8.14267e-08 1.24251e-07
-5.65773e-07 4.92797e-08 1.3374e-07
-5.66688e-07 -4.87113e-08 1.33743e-07
-3.48387e-07 -2.29173e-08 1.27553e-07
-3.32549e-07 1.15113e-07 1.26353e-07
-3.51704e-07 4.03985e-08 1.27697e-07
-4.10356e-07 -1.96862e-08 1.29858e-07
-2.91477e-07 -1.73609e-07 1.20933e-07
-3.30111e-07 -1.1725e-07 1.26161e-07
-2.36783e-07 1.67346e-09 1.23575e-07
-4.04871e-07 -1.23634e-07 1.29492e-07
-2.98134e-07 5.39728e-08 1.25854e-07
-5.52373e-07 9.99874e-08 1.34057e-07
-5.52413e-07 -1.00045e-07 1.34056e-07
-5.04808e-07 1.53178e-07 1.32616e-07
-5.05128e-07 -1.54425e-07 1.32615e-07
-4.0341e-07 1.24794e-07 1.29439e-07
-2.31508e-07 5.09296e-08 1.23747e-07
-4.2565e-07 1.86934e-07 1.30146e-07
-2.31365e-07 -1.02103e-07 1.23184e-07
-2.31998e-07 1.00986e-07 1.23249e-07
-2.26196e-07 -5.24482e-08 1.23606e-07
-3.96522e-07 2.41535e-08 1.29371e-07
-3.88925e-07 -7.41094e-08 1.28952e-07
-3.8893e-07 7.4004e-08 1.28958e-07
-4.41694e-07 1.74458e-08 1.30758e-07
-4.32631e-07 6.97809e-08 1.30462e-07
-4.30938e-07 -7.14589e-08 1.30404e-07
-4.74467e-07 -1.03896e-07 1.31807e-07
-3.07744e-07 -5.95558e-08 1.26117e-07
-4.74409e-07 1.04056e-07 1.31809e-07
-5.11618e-07 1.28751e-07 1.32958e-07
-5.11732e-07 -1.28972e-07 1.32959e-07
-4.70196e-07 6.95341e-08 1.31634e-07
-4.71402e-07 -6.88053e-08 1.31668e-07
-3.59143e-07 -3.95373e-08 1.2796e-07
-3.3229e-07 -1.11913e-08 1.2699e-07
-2.28337e-07 1.29729e-07 1.20687e-07
-2.28277e-07 -1.30036e-07 1.2068e-07
-3.50198e-07 -2.25495e-07 1.26809e-07
-3.45189e-07 2.2424e-07 1.26329e-07
-9.98768e-08 2.39093e-07 7.99395e-08
-8.47526e-08 3.30956e-07 8.05478e-08
-1.72505e-07 3.55698e-07 8.09249e-08
-1.98194e-07 2.59823e-07 8.50237e-08
-2.67997e-07 2.54273e-07 1.09673e-07
-2.29791e-07 3.92622e-07 1.02745e-07
-1.26832e-07 3.51366e-07 7.58033e-08
-1.91204e-07 3.12707e-07 7.60987e-08
-8.6873e-08 2.81246e-07 7.32567e-08
-1.51364e-07 2.38186e-07 7.83589e-08
-2.92565e-07 2.57073e-07 1.15253e-07
-2.51105e-07 4.02207e-07 1.0774e-07
-3.63514e-08 3.31161e-07 9.81198e-08
-4.57759e-08 2.22873e-07 9.95645e-08
-1.58571e-07 1.79412e-07 1.0422e-07
-1.14837e-07 4.10442e-07 9.91116e-08
-8.97866e-08 3.76397e-07 9.1726e-08
-1.92832e-07 2.12259e-07 9.82557e-08
-2.40983e-07 2.99434e-07 9.66044e-08
-2.30587e-07 3.46736e-07 9.51903e-08
-1.16846e-07 1.92917e-07 9.37437e-08
-1.51952e-07 3.95969e-07 9.26842e-08
-1.25055e-07 2.71287e-07 5.78246e-08
-1.14028e-07 3.10832e-07 6.03372e-08
-1.52989e-07 3.20146e-07 5.92971e-08
-1.65456e-07 2.83609e-07 6.18012e-08
-3.04693e-07 2.44304e-07 1.19116e-07
-2.54276e-07 4.18306e-07 1.09368e-07
-2.35096e-07 2.32723e-07 1.03382e-07
-1.93112e-07 3.93023e-07 9.56791e-08
-3.98869e-08 2.62521e-07 9.29033e-08
-4.03983e-08 2.96376e-07 9.16371e-08
-2.28687e-07 2.73265e-07 9.48171e-08
-2.05008e-07 3.6016e-07 9.07881e-08
-1.43751e-07 1.49446e-07 1.10598e-07
-1.24797e-07 4.41072e-07 1.05786e-07
-7.65919e-08 1.99468e-07 9.55872e-08
-5.6343e-08 3.58334e-07 9.56032e-08
-1.26118e-07 3.23611e-07 6.12577e-08
-1.41824e-07 2.63577e-07 6.19978e-08
-1.69492e-07 3.00829e-07 6.25302e-08
-1.10377e-07 2.82945e-07 5.99959e-08
-2.84279e-07 2.83488e-07 1.09442e-07
-2.56942e-07 3.77403e-07 1.04775e-07
-7.53488e-08 2.55467e-07 8.31407e-08
-2.04081e-08 3.58545e-07 1.05445e-07
-3.89472e-08 1.95522e-07 1.05335e-07
-7.14706e-08 3.07486e-07 8.14113e-08
-1.48562e-07 3.49606e-07 7.43479e-08
-1.71492e-07 2.5311e-07 7.67982e-08
-1.78058e-07 3.30278e-07 7.35853e-08
-1.23453e-07 2.4426e-07 7.33448e-08
-1.06033e-07 3.32823e-07 7.28348e-08
-1.86188e-07 2.89547e-07 7.32987e-08
-1.93272e-07 1.80515e-07 1.08252e-07
-8.67889e-08 4.07719e-07 9.96007e-08
-9.86417e-08 4.4145e-07 1.06905e-07
-1.72767e-07 1.49116e-07 1.15129e-07
-3.0281e-07 2.72389e-07 1.14821e-07
-2.6664e-07 3.94286e-07 1.08624e-07
-2.5555e-07 3.28281e-07 9.94852e-08
-1.31933e-08 2.13291e-07 1.08234e-07
1.81803e-09 3.38648e-07 1.08343e-07
-1.31028e-07 1.71152e-07 1.02306e-07
-1.37397e-07 4.18153e-07 9.96552e-08
-1.43962e-07 2.0569e-07 9.22676e-08
-1.29656e-07 3.83394e-07 8.9311e-08
-9.72467e-08 2.9877e-07 6.76443e-08
-1.09931e-07 3.80125e-07 9.00833e-08
-1.67978e-07 2.09112e-07 9.48108e-08
-6.359e-08 3.82543e-07 9.69253e-08
-1.02331e-07 2.64653e-07 6.9983e-08
-2.26437e-07 2.04972e-07 1.06785e-07
-1.54162e-08 3.09034e-07 9.93792e-08
-2.23324e-08 2.40624e-07 1.00293e-07
-2.80325e-07 2.36877e-07 1.14563e-07
-2.31341e-07 4.11686e-07 1.0506e-07
-2.14674e-07 2.94896e-07 8.70718e-08
-2.56508e-07 2.76635e-07 1.03665e-07
-2.30731e-07 3.70613e-07 9.92605e-08
-3.19879e-07 2.51552e-07 1.20481e-07
-3.14235e-07 2.60875e-07 1.18221e-07
-2.70395e-07 4.19923e-07 1.11051e-07
-2.70721e-07 4.09011e-07 1.10512e-07
-8.72314e-08 1.77221e-07 9.70195e-08
-2.41702e-07 2.52638e-07 1.02174e-07
-2.06961e-07 3.81339e-07 9.59798e-08
-1.44825e-07 1.30687e-07 1.14755e-07
-1.22672e-07 4.60519e-07 1.09098e-07
-1.78222e-07 4.11195e-07 9.73584e-08
-2.02338e-07 3.36402e-07 8.47155e-08
-2.23234e-07 3.18581e-07 9.03772e-08
-2.09475e-08 2.82381e-07 9.49993e-08
-7.94795e-08 3.54062e-07 8.83119e-08
-6.7806e-11 3.65649e-07 1.10131e-07
-1.97676e-08 1.88176e-07 1.09953e-07
-1.01731e-07 2.13632e-07 8.7939e-08
-6.08739e-08 3.32584e-07 9.00628e-08
-2.02771e-07 2.35551e-07 9.35916e-08
-1.37961e-07 3.14758e-07 5.28863e-08
-1.50317e-07 2.78898e-07 5.46423e-08
-1.18458e-07 2.95501e-07 5.3485e-08
-1.55068e-07 3.06927e-07 5.37136e-08
-1.68024e-07 3.77887e-07 8.82129e-08
-7.40758e-08 2.26506e-07 9.08474e-08
-2.73516e-07 3.03159e-07 1.04522e-07
-2.58804e-07 3.5718e-07 1.01935e-07
-1.33131e-07 2.83723e-07 4.83183e-08
-1.07144e-07 3.57215e-07 8.20239e-08
-1.26995e-07 3.08136e-07 5.19277e-08
-1.55638e-07 2.94072e-07 5.25563e-08
-1.07471e-07 1.62231e-07 1.00323e-07
-1.29274e-07 2.2033e-07 8.45187e-08
-5.73139e-08 2.80837e-07 8.57228e-08
-1.76905e-07 2.30326e-07 8.7939e-08
-9.62525e-08 3.14364e-07 7.10784e-08
-2.80659e-07 2.6799e-07 1.11086e-07
-2.46585e-07 3.88081e-07 1.0512e-07
-2.60498e-07 2.18434e-07 1.11797e-07
-2.07307e-07 4.13835e-07 1.00926e-07
-1.44563e-07 3.708e-07 8.37266e-08
-4.70984e-08 3.13121e-07 9.16106e-08
-1.58561e-07 4.222e-07 9.89048e-08
-5.8996e-08 2.05135e-07 9.89601e-08
-4.1198e-08 3.50737e-07 9.90575e-08
-5.24558e-08 2.43237e-07 9.32232e-08
-1.44049e-07 3.07064e-07 4.9228e-08
-1.38762e-07 3.32239e-07 6.42759e-08
-1.56668e-07 2.63011e-07 6.63232e-08
-1.681e-07 3.14026e-07 6.38181e-08
-1.60776e-07 3.38773e-07 7.10478e-08
-1.79211e-07 2.69655e-07 7.38091e-08
-2.18732e-07 2.52226e-07 9.45455e-08
-1.13427e-07 2.55568e-07 6.97684e-08
-1.87166e-07 3.71067e-07 8.91805e-08
-2.56842e-07 2.38911e-07 1.08425e-07
-2.13471e-07 3.98285e-07 1.00239e-07
-1.84368e-07 3.482e-07 8.15829e-08
-2.0546e-07 2.74657e-07 8.5136e-08
-1.38419e-07 2.77757e-07 5.17278e-08
-1.24448e-07 2.85208e-07 5.09035e-08
-3.58126e-08 3.74028e-07 1.01786e-07
-5.74428e-08 1.80219e-07 1.01128e-07
-1.08792e-07 4.5608e-07 1.09152e-07
-1.5953e-07 1.35853e-07 1.16413e-07
4.64938e-08 -4.48569e-08 -7.57893e-08
4.69424e-08 4.73919e-08 -7.68498e-08
-4.51043e-08 5.2446e-08 -7.9036e-08
-4.5394e-08 -5.25609e-08 -7.91931e-08
-1.04425e-07 -8.03681e-08 -1.06428e-07
-1.0425e-07 8.02535e-08 -1.06389e-07
4.34293e-10 5.74936e-08 -7.16349e-08
-5.28316e-08 1.48809e-09 -7.31229e-08
5.16127e-08 -1.6345e-09 -6.82086e-08
-1.54393e-10 -5.74205e-08 -7.16209e-08
-1.24753e-07 8.61945e-08 -1.13323e-07
-1.24922e-07 -8.62999e-08 -1.13348e-07
9.63557e-08 5.22182e-08 -9.66142e-08
1.01071e-07 -5.40743e-08 -9.83274e-08
2.07413e-10 -1.16049e-07 -9.82631e-08
5.47501e-09 1.15836e-07 -9.821e-08
3.72413e-08 9.04285e-08 -8.94428e-08
-3.34352e-08 -9.47566e-08 -9.04349e-08
-9.68775e-08 2.73328e-08 -9.81424e-08
-9.86573e-08 -2.69e-08 -9.88209e-08
3.70183e-08 -9.39051e-08 -9.02613e-08
-3.29867e-08 9.89454e-08 -9.14833e-08
1.68769e-08 -1.69374e-08 -4.44728e-08
1.92127e-08 2.136e-08 -4.95078e-08
-1.88349e-08 1.84713e-08 -4.79464e-08
-1.99771e-08 -1.97084e-08 -4.97112e-08
-1.30159e-07 1.02614e-07 -1.14641e-07
-1.30327e-07 -1.02711e-07 -1.14665e-07
-7.17683e-08 8.98302e-08 -9.61273e-08
-7.19467e-08 -8.96084e-08 -9.61245e-08
1.0185e-07 -1.51062e-08 -9.14586e-08
9.64454e-08 1.75963e-08 -8.99873e-08
-7.64598e-08 -4.93569e-08 -9.22945e-08
-7.62348e-08 4.92253e-08 -9.22019e-08
1.66756e-08 -1.41336e-07 -1.05551e-07
-8.621e-09 1.42949e-07 -1.05812e-07
7.37969e-08 -8.06574e-08 -9.36186e-08
7.37181e-08 7.90583e-08 -9.34101e-08
5.38121e-09 2.98943e-08 -5.10991e-08
4.12053e-09 -2.8995e-08 -4.99353e-08
-2.82036e-08 -5.30642e-09 -5.23218e-08
2.72831e-08 -3.27557e-09 -4.85118e-08
-1.28974e-07 5.80017e-08 -1.12075e-07
-1.29127e-07 -5.81011e-08 -1.12098e-07
6.76055e-08 -2.53789e-08 -8.01884e-08
1.10025e-07 7.9702e-08 -1.04263e-07
1.10596e-07 -8.00835e-08 -1.0442e-07
6.32382e-08 2.58178e-08 -7.81758e-08
-2.10396e-08 5.09131e-08 -7.01436e-08
-2.01739e-08 -4.97387e-08 -6.92219e-08
-4.46349e-08 2.27329e-08 -7.01208e-08
2.38513e-08 -4.42034e-08 -6.71505e-08
2.4713e-08 4.4813e-08 -6.76398e-08
-4.14921e-08 -2.08869e-08 -6.73827e-08
-3.09667e-08 -1.24339e-07 -9.88458e-08
3.66827e-08 1.20196e-07 -9.80527e-08
1.88619e-08 1.46351e-07 -1.06782e-07
-1.03555e-08 -1.48001e-07 -1.07068e-07
-1.38976e-07 7.57583e-08 -1.16487e-07
-1.3913e-07 -7.58601e-08 -1.16497e-07
-1.21925e-07 6.80731e-10 -1.05773e-07
1.34539e-07 -6.05891e-08 -1.07676e-07
1.35174e-07 6.00865e-08 -1.07734e-07
2.6378e-08 -1.17934e-07 -9.82223e-08
-2.04565e-08 1.21434e-07 -9.89791e-08
1.06607e-08 -8.72498e-08 -8.72531e-08
-7.1673e-09 8.83819e-08 -8.75221e-08
3.78882e-08 1.36557e-08 -6.06129e-08
1.48593e-08 8.9012e-08 -8.80722e-08
-1.13066e-08 -9.0448e-08 -8.84304e-08
6.47845e-08 1.03572e-07 -9.44704e-08
3.97023e-08 -1.99039e-08 -6.36617e-08
-6.08092e-08 -1.12373e-07 -9.63691e-08
1.20341e-07 3.12834e-08 -9.83883e-08
1.22405e-07 -3.48355e-08 -9.9389e-08
-1.09209e-07 1.00956e-07 -1.08374e-07
-1.09375e-07 -1.01053e-07 -1.08403e-07
-7.00768e-08 -2.34012e-08 -8.54971e-08
-1.02468e-07 -5.48869e-08 -1.0341e-07
-1.02163e-07 5.48036e-08 -1.03305e-07
-1.44349e-07 1.01291e-07 -1.1783e-07
-1.42894e-07 9.08739e-08 -1.18054e-07
-1.44514e-07 -1.0139e-07 -1.17848e-07
-1.43057e-07 -9.0974e-08 -1.18069e-07
6.62361e-08 -1.04107e-07 -9.48195e-08
-8.17181e-08 7.30121e-08 -9.76063e-08
-8.19183e-08 -7.31162e-08 -9.76667e-08
-7.52795e-09 1.60997e-07 -1.09627e-07
1.73376e-08 -1.59434e-07 -1.09401e-07
-6.21886e-08 1.13429e-07 -9.6832e-08
-7.00216e-08 2.43515e-08 -8.55368e-08
-8.49692e-08 1.59829e-09 -9.16118e-08
1.18193e-07 5.43424e-09 -9.38911e-08
5.03214e-08 7.15026e-08 -8.55936e-08
1.30327e-07 8.55083e-08 -1.09522e-07
1.30201e-07 -8.55912e-08 -1.09403e-07
4.83563e-08 -7.04804e-08 -8.47826e-08
7.12093e-08 5.21223e-08 -8.77098e-08
-4.50963e-08 -7.65185e-08 -8.67635e-08
-3.21297e-09 1.52881e-08 -3.37241e-08
-5.11623e-09 -1.58197e-08 -3.54694e-08
-1.45611e-08 3.80721e-09 -3.48145e-08
1.52348e-08 5.7938e-09 -3.58711e-08
-4.5469e-08 7.78146e-08 -8.71418e-08
7.29235e-08 -5.36441e-08 -8.86277e-08
-1.28944e-07 3.42873e-08 -1.09578e-07
-1.29846e-07 -3.39509e-08 -1.0979e-07
5.89547e-09 -6.109e-09 -2.09847e-08
2.07332e-08 6.79104e-08 -7.88093e-08
6.64949e-09 1.36311e-08 -3.2399e-08
-1.19551e-08 -6.84599e-09 -3.14176e-08
4.91014e-08 -1.22308e-07 -9.73402e-08
2.21703e-08 -6.95481e-08 -7.97796e-08
8.1512e-08 1.11277e-09 -8.33573e-08
-2.17574e-08 -7.29333e-08 -8.10617e-08
3.70691e-08 2.89949e-08 -6.51979e-08
-1.19322e-07 7.15294e-08 -1.10712e-07
-1.1951e-07 -7.16343e-08 -1.10749e-07
-8.98686e-08 -1.1132e-07 -1.02136e-07
-8.93699e-08 1.10208e-07 -1.02051e-07
-2.09228e-08 7.38447e-08 -8.13917e-08
8.74171e-08 3.35821e-08 -8.97029e-08
-4.36834e-08 1.26448e-07 -9.81081e-08
8.95668e-08 7.2086e-08 -9.73125e-08
9.00492e-08 -7.28113e-08 -9.7495e-08
9.19632e-08 -3.49413e-08 -9.15529e-08
-6.64857e-09 7.01185e-09 -2.30053e-08
-8.22799e-09 3.46302e-08 -5.57865e-08
-8.46979e-09 -3.46704e-08 -5.58049e-08
-3.03565e-08 8.10284e-09 -5.49688e-08
-3.06089e-08 3.66389e-08 -6.62034e-08
-2.99754e-08 -3.77041e-08 -6.64402e-08
-6.20047e-08 -6.61914e-08 -8.91812e-08
3.09208e-08 -3.07304e-08 -6.26064e-08
-6.18094e-08 6.62353e-08 -8.91179e-08
-9.08703e-08 9.08421e-08 -1.02201e-07
-9.11094e-08 -9.10846e-08 -1.02257e-07
-5.46507e-08 4.12295e-08 -8.05645e-08
-5.56393e-08 -4.0952e-08 -8.09791e-08
3.23265e-09 -1.21067e-08 -2.88692e-08
1.15894e-08 -3.06065e-09 -2.84361e-08
9.41509e-08 9.70452e-08 -9.98614e-08
9.41069e-08 -9.70726e-08 -9.98238e-08
6.55532e-09 1.57583e-07 -1.09563e-07
3.03698e-09 -1.57706e-07 -1.09612e-07
2.07036e-07 2.16297e-07 -7.94928e-08
2.14879e-07 3.06524e-07 -8.00335e-08
1.26478e-07 3.12385e-07 -7.99761e-08
1.16664e-07 2.19413e-07 -7.93374e-08
7.14356e-08 3.39373e-07 -1.02245e-07
5.89683e-08 2.01176e-07 -1.0182e-07
1.69561e-07 3.1846e-07 -7.51885e-08
1.13562e-07 2.68451e-07 -7.32888e-08
2.16423e-07 2.61206e-07 -7.3985e-08
1.61297e-07 2.09111e-07 -7.47048e-08
5.21645e-08 3.4668e-07 -1.07645e-07
3.91002e-08 1.98902e-07 -1.075e-07
2.68883e-07 3.1542e-07 -9.90002e-08
2.5605e-07 2.09636e-07 -9.77365e-08
1.55993e-07 1.53928e-07 -9.83411e-08
1.71351e-07 3.7749e-07 -9.8521e-08
1.40895e-07 3.52449e-07 -9.10515e-08
1.24951e-07 1.77833e-07 -9.01672e-08
7.38522e-08 2.92838e-07 -9.20081e-08
6.76331e-08 2.47963e-07 -9.22709e-08
2.04332e-07 3.5261e-07 -9.18091e-08
1.94468e-07 1.72133e-07 -9.10388e-08
1.81729e-07 2.419e-07 -5.92729e-08
1.86438e-07 2.83897e-07 -5.99216e-08
1.48306e-07 2.82061e-07 -5.81775e-08
1.44935e-07 2.46322e-07 -5.75713e-08
4.77855e-08 3.63018e-07 -1.09551e-07
3.31056e-08 1.84172e-07 -1.09503e-07
1.04008e-07 3.45363e-07 -9.50352e-08
8.89752e-08 1.8774e-07 -9.40178e-08
2.62942e-07 2.77092e-07 -9.33429e-08
2.55277e-07 2.43545e-07 -9.19744e-08
8.74413e-08 2.25936e-07 -8.9056e-08
9.58366e-08 3.10485e-07 -8.94579e-08
1.70417e-07 1.28436e-07 -1.0556e-07
1.86637e-07 4.04582e-07 -1.0521e-07
2.4144e-07 3.38665e-07 -9.49498e-08
2.29715e-07 1.87889e-07 -9.30249e-08
1.73269e-07 2.92625e-07 -6.06504e-08
1.57996e-07 2.34764e-07 -5.98222e-08
1.3621e-07 2.6156e-07 -5.97434e-08
1.94331e-07 2.6067e-07 -6.08616e-08
4.59737e-08 3.20566e-07 -1.03666e-07
3.63554e-08 2.24891e-07 -1.03525e-07
2.32156e-07 2.89198e-07 -8.31842e-08
2.81024e-07 3.40866e-07 -1.04361e-07
2.70036e-07 1.83422e-07 -1.04645e-07
2.2604e-07 2.38146e-07 -8.17519e-08
1.50317e-07 3.10583e-07 -7.2841e-08
1.81907e-07 2.16817e-07 -7.21496e-08
1.23741e-07 2.86436e-07 -7.18931e-08
1.92427e-07 3.05774e-07 -7.2322e-08
1.3975e-07 2.2026e-07 -7.18206e-08
1.22968e-07 2.47981e-07 -6.9388e-08
1.24819e-07 1.48762e-07 -9.831e-08
1.43723e-07 3.8196e-07 -9.89966e-08
1.61263e-07 4.10625e-07 -1.0636e-07
1.42994e-07 1.23983e-07 -1.06757e-07
3.83253e-08 3.37033e-07 -1.0841e-07
2.59486e-08 2.1067e-07 -1.08308e-07
4.74003e-08 2.7248e-07 -9.54406e-08
3.04678e-07 3.2258e-07 -1.07227e-07
2.96227e-07 2.02318e-07 -1.08209e-07
1.94698e-07 3.78365e-07 -9.88567e-08
1.81993e-07 1.5014e-07 -9.84873e-08
2.05169e-07 2.76198e-07 -6.83877e-08
1.68515e-07 1.80461e-07 -8.81456e-08
1.80312e-07 3.47709e-07 -8.86976e-08
1.60759e-07 3.50284e-07 -8.9469e-08
1.46588e-07 1.79342e-07 -8.89178e-08
9.75177e-08 1.64104e-07 -9.49837e-08
1.16613e-07 3.65487e-07 -9.64046e-08
2.78272e-07 2.29758e-07 -9.98994e-08
2.86481e-07 2.9654e-07 -1.00292e-07
6.84335e-08 3.58616e-07 -1.04905e-07
5.30566e-08 1.82337e-07 -1.04396e-07
9.52796e-08 2.48229e-07 -8.25514e-08
6.22063e-08 2.24233e-07 -9.77092e-08
7.12108e-08 3.16618e-07 -9.79353e-08
3.39917e-08 3.63238e-07 -1.11418e-07
3.54519e-08 3.52174e-07 -1.10791e-07
1.9217e-08 1.8747e-07 -1.11547e-07
2.12413e-08 1.97196e-07 -1.10769e-07
1.98988e-07 2.44084e-07 -6.74334e-08
2.3234e-07 3.59579e-07 -9.64333e-08
2.21945e-07 1.60207e-07 -9.52711e-08
9.27071e-08 3.31392e-07 -9.52098e-08
8.07394e-08 2.0479e-07 -9.45678e-08
1.87959e-07 4.24151e-07 -1.08558e-07
1.69672e-07 1.10914e-07 -1.09346e-07
9.94538e-08 2.88914e-07 -8.28979e-08
8.28644e-08 2.70681e-07 -8.64987e-08
2.75084e-07 2.55591e-07 -9.59225e-08
3.02417e-07 3.48086e-07 -1.08614e-07
2.91256e-07 1.78241e-07 -1.09591e-07
2.15214e-07 3.28302e-07 -8.65656e-08
2.01992e-07 1.92341e-07 -8.57187e-08
2.32719e-07 2.13186e-07 -8.94163e-08
1.15129e-07 1.9691e-07 -8.61288e-08
1.28911e-07 3.34082e-07 -8.71036e-08
1.62994e-07 2.81262e-07 -5.21422e-08
1.69448e-07 2.45026e-07 -5.26694e-08
1.83492e-07 2.69076e-07 -5.29275e-08
1.48483e-07 2.70311e-07 -5.25326e-08
2.40395e-07 3.14301e-07 -9.04151e-08
4.38441e-08 3.00053e-07 -9.93799e-08
3.72103e-08 2.45386e-07 -9.93536e-08
1.5604e-07 2.56254e-07 -4.74715e-08
1.3939e-07 1.98534e-07 -8.13845e-08
1.74041e-07 2.78342e-07 -5.135e-08
1.77819e-07 2.55686e-07 -5.02935e-08
2.04303e-07 1.44314e-07 -9.77105e-08
2.15874e-07 3.79063e-07 -9.85293e-08
1.90475e-07 3.29648e-07 -8.23081e-08
2.42998e-07 2.60848e-07 -8.62083e-08
1.50471e-07 3.32417e-07 -8.27623e-08
5.63161e-08 3.32535e-07 -1.04531e-07
4.50247e-08 2.11573e-07 -1.04329e-07
7.05184e-08 1.69372e-07 -9.94826e-08
8.87282e-08 3.64979e-07 -1.00628e-07
2.03308e-07 2.90355e-07 -7.06133e-08
1.81344e-07 1.94893e-07 -8.21632e-08
2.46301e-07 2.29047e-07 -9.11746e-08
2.5872e-07 3.32457e-07 -9.83124e-08
2.48891e-07 1.91646e-07 -9.79443e-08
2.56963e-07 2.97049e-07 -9.30971e-08
1.58337e-07 2.72474e-07 -4.8262e-08
1.70933e-07 2.2983e-07 -6.31408e-08
1.60387e-07 2.97383e-07 -6.35517e-08
1.35236e-07 2.73576e-07 -6.2017e-08
1.39545e-07 2.98739e-07 -7.00709e-08
1.89197e-07 2.28964e-07 -6.85443e-08
1.00014e-07 2.08692e-07 -8.75579e-08
1.11615e-07 3.24574e-07 -8.82782e-08
1.3094e-07 2.31714e-07 -7.00795e-08
8.53487e-08 3.47685e-07 -9.97958e-08
7.08896e-08 1.89078e-07 -9.90237e-08
1.16137e-07 3.02778e-07 -8.03144e-08
1.08851e-07 2.30994e-07 -7.96654e-08
1.58869e-07 2.48301e-07 -5.04649e-08
1.49148e-07 2.60218e-07 -5.06841e-08
2.61687e-07 3.54398e-07 -1.00643e-07
2.50846e-07 1.6761e-07 -9.98564e-08
1.55526e-07 1.13544e-07 -1.09428e-07
1.73531e-07 4.22581e-07 -1.08622e-07
3.55683e-07 -4.18792e-08 -7.93116e-08
3.55942e-07 4.38622e-08 -8.00497e-08
2.64714e-07 4.64288e-08 -7.93827e-08
2.6459e-07 -4.63686e-08 -7.94678e-08
2.08124e-07 6.77909e-08 -1.01769e-07
2.07983e-07 -6.7778e-08 -1.01801e-07
3.08962e-07 5.28717e-08 -7.50176e-08
2.56153e-07 -4.41427e-10 -7.31027e-08
3.60776e-07 -1.72142e-09 -7.31499e-08
3.08375e-07 -5.30063e-08 -7.51453e-08
1.88428e-07 7.1253e-08 -1.07393e-07
1.88252e-07 -7.12655e-08 -1.07426e-07
4.11648e-07 -5.40577e-08 -9.90461e-08
4.06637e-07 5.17102e-08 -9.74619e-08
3.09028e-07 -1.09203e-07 -9.87478e-08
3.14067e-07 1.08862e-07 -9.88197e-08
3.44214e-07 8.31366e-08 -9.12653e-08
2.76447e-07 -8.69042e-08 -9.04e-08
2.13949e-07 2.21411e-08 -9.16434e-08
2.11212e-07 -2.21438e-08 -9.23913e-08
3.43761e-07 -8.65024e-08 -9.21485e-08
2.76949e-07 9.09426e-08 -9.13461e-08
3.2699e-07 -1.6376e-08 -5.71195e-08
3.28698e-07 2.00859e-08 -5.98464e-08
2.88247e-07 1.78451e-08 -5.88297e-08
2.89126e-07 -1.68084e-08 -5.8023e-08
1.83687e-07 8.59709e-08 -1.09383e-07
1.83485e-07 -8.59948e-08 -1.09468e-07
2.39585e-07 7.93179e-08 -9.4102e-08
2.39443e-07 -7.90014e-08 -9.41214e-08
4.08531e-07 -1.58193e-08 -9.31953e-08
4.03737e-07 1.79322e-08 -9.1759e-08
2.34362e-07 -4.18254e-08 -8.9015e-08
2.34476e-07 4.18712e-08 -8.89773e-08
3.25973e-07 -1.34873e-07 -1.05947e-07
3.01679e-07 1.3546e-07 -1.05735e-07
3.82355e-07 -7.54095e-08 -9.51587e-08
3.82336e-07 7.37143e-08 -9.48403e-08
3.14195e-07 2.80412e-08 -6.05763e-08
3.1315e-07 -2.7667e-08 -6.01487e-08
2.79662e-07 4.72096e-09 -5.99844e-08
3.38049e-07 -3.36604e-09 -5.97091e-08
1.8315e-07 4.61142e-08 -1.03321e-07
1.83053e-07 -4.61102e-08 -1.0331e-07
3.76486e-07 -2.48336e-08 -8.2986e-08
4.22429e-07 -7.9797e-08 -1.04447e-07
4.21761e-07 7.90911e-08 -1.04259e-07
3.72299e-07 2.49115e-08 -8.11825e-08
2.87895e-07 4.63695e-08 -7.31265e-08
2.88752e-07 -4.52381e-08 -7.25363e-08
2.64261e-07 -1.9806e-08 -7.1607e-08
3.32617e-07 -4.07499e-08 -7.20446e-08
3.33372e-07 4.10915e-08 -7.22991e-08
2.67617e-07 1.82598e-08 -6.9593e-08
2.79134e-07 -1.15661e-07 -9.84753e-08
3.4323e-07 1.11606e-07 -9.94297e-08
3.28306e-07 1.39561e-07 -1.07177e-07
3.00116e-07 -1.4041e-07 -1.06856e-07
1.74122e-07 6.06351e-08 -1.08124e-07
1.73992e-07 -6.06396e-08 -1.08112e-07
1.89461e-07 3.52975e-10 -9.5014e-08
4.47173e-07 -6.27097e-08 -1.07228e-07
4.47623e-07 6.18699e-08 -1.07299e-07
3.33581e-07 -1.10515e-07 -9.93592e-08
2.89389e-07 1.13473e-07 -9.88726e-08
3.18677e-07 -8.10361e-08 -8.88378e-08
3.0161e-07 8.19125e-08 -8.85127e-08
3.47894e-07 1.29652e-08 -6.73801e-08
3.22661e-07 8.23564e-08 -8.9581e-08
2.9766e-07 -8.38943e-08 -8.92717e-08
3.70659e-07 9.42862e-08 -9.63103e-08
3.49189e-07 -1.88537e-08 -6.96076e-08
2.50164e-07 -1.0159e-07 -9.51351e-08
4.28007e-07 3.23118e-08 -9.93434e-08
4.30609e-07 -3.61075e-08 -1.00227e-07
2.03817e-07 8.65292e-08 -1.04397e-07
2.03653e-07 -8.6484e-08 -1.04425e-07
2.397e-07 2.02335e-08 -8.26144e-08
2.09065e-07 -4.5139e-08 -9.76347e-08
2.09364e-07 4.51312e-08 -9.75466e-08
1.69454e-07 8.35423e-08 -1.11329e-07
1.70622e-07 7.4075e-08 -1.1059e-07
1.69253e-07 -8.3634e-08 -1.1144e-07
1.70429e-07 -7.41025e-08 -1.10612e-07
3.72079e-07 -9.51547e-08 -9.67399e-08
2.29747e-07 6.29118e-08 -9.45514e-08
2.29613e-07 -6.2872e-08 -9.45982e-08
3.28247e-07 -1.53862e-07 -1.09465e-07
3.03723e-07 1.53154e-07 -1.09437e-07
2.48831e-07 1.02503e-07 -9.54577e-08
2.40361e-07 -1.94899e-08 -8.22105e-08
2.24179e-07 1.70152e-09 -8.65415e-08
4.22558e-07 5.52679e-09 -9.56251e-08
3.58271e-07 6.55004e-08 -8.77366e-08
4.43615e-07 -8.79774e-08 -1.0867e-07
4.43657e-07 8.75434e-08 -1.08701e-07
3.56347e-07 -6.48023e-08 -8.71272e-08
3.80725e-07 4.95574e-08 -8.94901e-08
2.65111e-07 -6.87394e-08 -8.63747e-08
3.02867e-07 1.71762e-08 -5.26238e-08
3.04312e-07 -1.635e-08 -5.20099e-08
3.27607e-07 6.09316e-09 -5.31095e-08
2.90724e-07 -4.2934e-09 -5.21009e-08
2.64733e-07 6.99983e-08 -8.66805e-08
3.82583e-07 -5.12879e-08 -9.04143e-08
1.82631e-07 2.65639e-08 -9.8974e-08
1.81275e-07 -2.60436e-08 -9.908e-08
3.16979e-07 -7.30753e-09 -4.76352e-08
3.28708e-07 6.23677e-08 -8.14634e-08
3.16195e-07 1.43514e-08 -5.12318e-08
2.94458e-07 6.66013e-09 -5.04818e-08
3.54855e-07 -1.1265e-07 -9.90329e-08
3.30098e-07 -6.40326e-08 -8.24476e-08
3.89115e-07 9.88472e-10 -8.58879e-08
2.87541e-07 -6.6813e-08 -8.23765e-08
3.46302e-07 2.69456e-08 -7.0686e-08
1.93226e-07 5.85304e-08 -1.042e-07
1.93061e-07 -5.85372e-08 -1.04224e-07
2.22822e-07 9.70384e-08 -9.94294e-08
2.22351e-07 -9.79584e-08 -9.9585e-08
2.8834e-07 6.76667e-08 -8.25851e-08
3.96303e-07 3.32917e-08 -9.1358e-08
2.667e-07 1.16535e-07 -9.74071e-08
4.00289e-07 -7.02533e-08 -9.84226e-08
3.99756e-07 6.9297e-08 -9.81738e-08
4.00933e-07 -3.50664e-08 -9.30643e-08
3.0006e-07 -7.39331e-09 -4.81201e-08
3.00229e-07 3.2368e-08 -6.33128e-08
3.0015e-07 -3.23637e-08 -6.34247e-08
2.77098e-07 -7.1847e-09 -6.17879e-08
2.79198e-07 3.36509e-08 -6.97388e-08
2.7881e-07 -3.30857e-08 -6.97498e-08
2.48739e-07 -5.78664e-08 -8.7638e-08
3.40375e-07 -2.8789e-08 -6.90353e-08
2.48831e-07 5.80944e-08 -8.76253e-08
2.21257e-07 7.86924e-08 -9.9004e-08
2.21057e-07 -7.87891e-08 -9.90756e-08
2.55277e-07 -3.57468e-08 -7.98282e-08
2.5447e-07 3.5448e-08 -8.00433e-08
3.13587e-07 -1.45031e-08 -5.08138e-08
3.24413e-07 -4.0727e-09 -5.0457e-08
4.02105e-07 -9.21451e-08 -1.00821e-07
4.021e-07 9.18145e-08 -1.00766e-07
3.17835e-07 1.51249e-07 -1.09584e-07
3.14172e-07 -1.51117e-07 -1.09467e-07
2.13636e-07 -3.07252e-07 -7.98468e-08
2.08284e-07 -2.17164e-07 -7.97688e-08
1.16638e-07 -2.19182e-07 -7.93215e-08
1.26327e-07 -3.12259e-07 -7.99478e-08
5.89228e-08 -2.01089e-07 -1.01801e-07
7.13211e-08 -3.39315e-07 -1.02237e-07
1.60151e-07 -2.09228e-07 -7.46479e-08
1.13165e-07 -2.65732e-07 -7.3269e-08
2.16441e-07 -2.62608e-07 -7.39993e-08
1.70837e-07 -3.18476e-07 -7.52277e-08
3.91058e-08 -1.98856e-07 -1.07474e-07
5.2034e-08 -3.46622e-07 -1.07624e-07
2.60873e-07 -2.07761e-07 -9.93615e-08
2.63668e-07 -3.1345e-07 -9.75004e-08
1.71237e-07 -3.77478e-07 -9.85078e-08
1.61026e-07 -1.53773e-07 -9.83423e-08
1.9471e-07 -1.75758e-07 -9.02585e-08
1.40811e-07 -3.52227e-07 -9.10403e-08
6.9099e-08 -2.47311e-07 -9.18559e-08
7.21193e-08 -2.9244e-07 -9.24076e-08
2.04238e-07 -3.52717e-07 -9.17466e-08
1.2474e-07 -1.73442e-07 -9.11652e-08
1.85893e-07 -2.83424e-07 -5.95329e-08
1.81904e-07 -2.41355e-07 -5.96735e-08
1.43632e-07 -2.47551e-07 -5.79099e-08
1.49685e-07 -2.83079e-07 -5.78467e-08
3.31276e-08 -1.84129e-07 -1.09426e-07
4.76504e-08 -3.62949e-07 -1.09528e-07
8.88457e-08 -1.87275e-07 -9.40403e-08
1.03917e-07 -3.45274e-07 -9.50235e-08
2.60229e-07 -2.45915e-07 -9.35238e-08
2.58245e-07 -2.79409e-07 -9.18455e-08
9.57406e-08 -3.10423e-07 -8.94665e-08
8.73613e-08 -2.25849e-07 -8.902e-08
1.86515e-07 -4.04558e-07 -1.05186e-07
1.44927e-07 -1.28745e-07 -1.05548e-07
2.32601e-07 -1.83259e-07 -9.44791e-08
2.38182e-07 -3.33947e-07 -9.35163e-08
1.67009e-07 -2.34089e-07 -6.02899e-08
1.64444e-07 -2.92895e-07 -6.02105e-08
1.37215e-07 -2.69523e-07 -5.98011e-08
1.94534e-07 -2.63902e-07 -6.08926e-08
3.63143e-08 -2.24852e-07 -1.03535e-07
4.5871e-08 -3.20517e-07 -1.03645e-07
2.27567e-07 -2.34173e-07 -8.3193e-08
2.70711e-07 -1.82986e-07 -1.04854e-07
2.80138e-07 -3.40407e-07 -1.04242e-07
2.29879e-07 -2.85322e-07 -8.17821e-08
1.39476e-07 -2.1754e-07 -7.29984e-08
1.89126e-07 -3.08543e-07 -7.26243e-08
1.19049e-07 -2.46304e-07 -7.16301e-08
1.85385e-07 -2.19607e-07 -7.17605e-08
1.49083e-07 -3.09097e-07 -7.23686e-08
1.2711e-07 -2.84345e-07 -6.96244e-08
1.4359e-07 -3.8195e-07 -9.90176e-08
1.91994e-07 -1.47429e-07 -9.83331e-08
1.61137e-07 -4.1061e-07 -1.06355e-07
1.72037e-07 -1.23551e-07 -1.06773e-07
2.59311e-08 -2.10636e-07 -1.08322e-07
3.82018e-08 -3.36977e-07 -1.0837e-07
4.71914e-08 -2.71299e-07 -9.54388e-08
2.95771e-07 -2.01685e-07 -1.0817e-07
3.04949e-07 -3.21968e-07 -1.07354e-07
1.94572e-07 -3.78358e-07 -9.8818e-08
1.35069e-07 -1.5055e-07 -9.86405e-08
2.02428e-07 -2.47981e-07 -6.83146e-08
1.80214e-07 -3.47689e-07 -8.86343e-08
1.50565e-07 -1.80949e-07 -8.81487e-08
1.72369e-07 -1.78587e-07 -8.89256e-08
1.60646e-07 -3.50303e-07 -8.94901e-08
2.21786e-07 -1.61437e-07 -9.50293e-08
1.16503e-07 -3.65378e-07 -9.64125e-08
2.83516e-07 -2.93038e-07 -9.94658e-08
2.80603e-07 -2.26226e-07 -1.00823e-07
5.30241e-08 -1.82204e-07 -1.04382e-07
6.83132e-08 -3.58545e-07 -1.04894e-07
9.93878e-08 -2.87935e-07 -8.27532e-08
7.09815e-08 -3.16551e-07 -9.79709e-08
6.22731e-08 -2.24139e-07 -9.76535e-08
1.92485e-08 -1.8751e-07 -1.1144e-07
2.12735e-08 -1.9718e-07 -1.10752e-07
3.38431e-08 -3.63168e-07 -1.11386e-07
3.53016e-08 -3.52107e-07 -1.10754e-07
2.02257e-07 -2.80173e-07 -6.75891e-08
2.3075e-07 -3.60383e-07 -9.63592e-08
8.06583e-08 -2.04658e-07 -9.45463e-08
9.26048e-08 -3.31319e-07 -9.52049e-08
1.87837e-07 -4.24125e-07 -1.08539e-07
1.44596e-07 -1.11142e-07 -1.09316e-07
9.58845e-08 -1.63066e-07 -9.53269e-08
9.49583e-08 -2.47251e-07 -8.26745e-08
8.24843e-08 -2.67872e-07 -8.64849e-08
2.75964e-07 -2.66565e-07 -9.58561e-08
2.06621e-07 -1.95655e-07 -8.56624e-08
2.91281e-07 -1.78003e-07 -1.0963e-07
3.02251e-07 -3.47892e-07 -1.0871e-07
2.10259e-07 -3.31161e-07 -8.63629e-08
2.39648e-07 -3.09669e-07 -8.9524e-08
1.28701e-07 -3.33702e-07 -8.70162e-08
1.58324e-07 -2.46373e-07 -5.1873e-08
1.73662e-07 -2.8143e-07 -5.29517e-08
1.81795e-07 -2.5625e-07 -5.28471e-08
1.4683e-07 -2.59316e-07 -5.24472e-08
1.14453e-07 -1.95211e-07 -8.65792e-08
2.32853e-07 -2.08617e-07 -9.02753e-08
3.78809e-08 -2.44897e-07 -9.92884e-08
4.29412e-08 -2.99667e-07 -9.94405e-08
1.58504e-07 -2.71953e-07 -4.76123e-08
1.51761e-07 -3.3086e-07 -8.20365e-08
1.79629e-07 -1.98098e-07 -8.08829e-08
1.70021e-07 -2.48044e-07 -5.11014e-08
1.79613e-07 -2.69923e-07 -5.04235e-08
2.15467e-07 -3.79297e-07 -9.85407e-08
2.43002e-07 -2.62455e-07 -8.62308e-08
4.50194e-08 -2.1152e-07 -1.04315e-07
5.61783e-08 -3.32481e-07 -1.04519e-07
7.08386e-08 -1.70161e-07 -9.93533e-08
8.86182e-08 -3.64892e-07 -1.00624e-07
1.98353e-07 -2.33876e-07 -7.04108e-08
1.90584e-07 -3.30995e-07 -8.27314e-08
1.38202e-07 -1.96031e-07 -8.23728e-08
2.51431e-07 -2.94069e-07 -9.10594e-08
1.12233e-07 -1.48093e-07 -9.72158e-08
2.49579e-07 -1.90017e-07 -9.83033e-08
2.57746e-07 -3.30735e-07 -9.7996e-08
2.51261e-07 -2.26141e-07 -9.33107e-08
1.55565e-07 -2.55812e-07 -4.81152e-08
1.77287e-07 -2.96519e-07 -6.35431e-08
1.52832e-07 -2.3071e-07 -6.31361e-08
1.33103e-07 -2.57797e-07 -6.1901e-08
1.94804e-07 -2.95827e-07 -6.88861e-08
1.31438e-07 -2.322e-07 -6.95637e-08
1.11497e-07 -3.2448e-07 -8.82705e-08
1.38453e-07 -2.98914e-07 -7.05257e-08
9.98884e-08 -2.08351e-07 -8.75767e-08
7.08848e-08 -1.89069e-07 -9.89758e-08
8.5242e-08 -3.4761e-07 -9.97884e-08
1.08376e-07 -2.30598e-07 -7.98532e-08
1.16317e-07 -3.02368e-07 -8.01044e-08
1.6291e-07 -2.79375e-07 -5.07159e-08
1.50386e-07 -2.69066e-07 -5.07516e-08
2.53679e-07 -1.66464e-07 -1.00561e-07
2.59786e-07 -3.5337e-07 -1.00325e-07
1.58879e-07 -1.1345e-07 -1.09422e-07
1.73408e-07 -4.2256e-07 -1.0861e-07
-8.5412e-08 -3.28576e-07 -7.96676e-08
-9.88146e-08 -2.36006e-07 -8.14719e-08
-1.98133e-07 -2.60053e-07 -8.49242e-08
-1.72824e-07 -3.55959e-07 -8.10071e-08
-2.29971e-07 -3.92762e-07 -1.02739e-07
-2.67926e-07 -2.54406e-07 -1.09614e-07
-1.5149e-07 -2.38368e-07 -7.83919e-08
-1.91552e-07 -3.11807e-07 -7.61214e-08
-8.6369e-08 -2.84655e-07 -7.3288e-08
-1.27405e-07 -3.51717e-07 -7.58027e-08
-2.51281e-07 -4.02334e-07 -1.07732e-07
-2.92459e-07 -2.57216e-07 -1.15185e-07
-5.04096e-08 -2.25277e-07 -9.8028e-08
-3.16005e-08 -3.32868e-07 -9.97245e-08
-1.1942e-07 -4.11565e-07 -9.90841e-08
-1.58732e-07 -1.79523e-07 -1.04255e-07
-1.92934e-07 -2.12446e-07 -9.82258e-08
-1.53218e-07 -3.92428e-07 -9.16634e-08
-2.28146e-07 -3.46148e-07 -9.44306e-08
-2.43591e-07 -3.00186e-07 -9.73235e-08
-1.16991e-07 -1.92922e-07 -9.3846e-08
-8.97067e-08 -3.79995e-07 -9.24923e-08
-1.16661e-07 -3.0689e-07 -5.73469e-08
-1.23974e-07 -2.66939e-07 -6.08927e-08
-1.64016e-07 -2.84639e-07 -6.07072e-08
-1.54145e-07 -3.21673e-07 -6.02959e-08
-2.54448e-07 -4.18443e-07 -1.09356e-07
-3.04548e-07 -2.44456e-07 -1.19026e-07
-1.93372e-07 -3.92947e-07 -9.56335e-08
-2.3511e-07 -2.32884e-07 -1.03306e-07
-3.55665e-08 -2.93522e-07 -9.29296e-08
-4.56605e-08 -2.60431e-07 -9.16192e-08
-2.05189e-07 -3.60323e-07 -9.08279e-08
-2.28652e-07 -2.73422e-07 -9.47367e-08
-1.43916e-07 -1.49536e-07 -1.10635e-07
-1.01097e-07 -4.36718e-07 -1.05756e-07
-5.61247e-08 -3.59871e-07 -9.58609e-08
-7.90579e-08 -2.04773e-07 -9.43389e-08
-1.41125e-07 -2.62951e-07 -6.25657e-08
-1.27211e-07 -3.23557e-07 -6.06646e-08
-1.66481e-07 -3.10847e-07 -6.20863e-08
-1.08923e-07 -2.90144e-07 -5.99503e-08
-2.57133e-07 -3.77507e-07 -1.04779e-07
-2.84192e-07 -2.83586e-07 -1.0938e-07
-6.74582e-08 -3.06621e-07 -8.31417e-08
-3.96071e-08 -1.96002e-07 -1.05215e-07
-1.97968e-08 -3.58918e-07 -1.05617e-07
-8.01049e-08 -2.57307e-07 -8.09411e-08
-1.71548e-07 -2.53391e-07 -7.67531e-08
-1.47942e-07 -3.48588e-07 -7.36239e-08
-1.89894e-07 -2.88918e-07 -7.53443e-08
-1.06821e-07 -3.32513e-07 -7.24155e-08
-1.2274e-07 -2.43223e-07 -7.39119e-08
-1.75263e-07 -3.27976e-07 -7.1639e-08
-1.46672e-07 -4.20999e-07 -9.95478e-08
-1.93403e-07 -1.80679e-07 -1.08243e-07
-1.25713e-07 -4.46465e-07 -1.06867e-07
-1.72919e-07 -1.49241e-07 -1.15144e-07
-2.66813e-07 -3.94408e-07 -1.08621e-07
-3.02718e-07 -2.7251e-07 -1.14751e-07
-2.55414e-07 -3.29092e-07 -9.94275e-08
1.27465e-09 -3.39273e-07 -1.08314e-07
-1.2631e-08 -2.13768e-07 -1.08295e-07
-1.31191e-07 -1.71212e-07 -1.02374e-07
-9.61625e-08 -4.08452e-07 -9.94812e-08
-1.44125e-07 -2.05766e-07 -9.23518e-08
-1.13747e-07 -3.79434e-07 -8.92943e-08
-1.02626e-07 -2.71088e-07 -6.77822e-08
-1.68116e-07 -2.09273e-07 -9.48273e-08
-1.33083e-07 -3.86094e-07 -9.0068e-08
-9.50143e-08 -3.04803e-07 -6.97972e-08
-1.77025e-07 -4.10176e-07 -9.69418e-08
-2.26519e-07 -2.05152e-07 -1.06719e-07
-2.40017e-08 -2.4443e-07 -9.93521e-08
-1.30434e-08 -3.12612e-07 -1.00352e-07
-2.31518e-07 -4.11826e-07 -1.05047e-07
-2.80269e-07 -2.37008e-07 -1.14509e-07
-2.03064e-07 -3.37455e-07 -8.51639e-08
-2.30712e-07 -3.7067e-07 -9.92042e-08
-2.56653e-07 -2.76802e-07 -1.03672e-07
-2.7057e-07 -4.20049e-07 -1.11043e-07
-2.70896e-07 -4.09135e-07 -1.10506e-07
-3.19706e-07 -2.51681e-07 -1.20358e-07
-3.14107e-07 -2.60997e-07 -1.18132e-07
-8.88942e-08 -1.76698e-07 -9.71431e-08
-6.21461e-08 -3.82887e-07 -9.73119e-08
-2.07159e-07 -3.81498e-07 -9.599e-08
-2.41669e-07 -2.52796e-07 -1.02103e-07
-9.7591e-08 -4.56494e-07 -1.09074e-07
-1.44986e-07 -1.30782e-07 -1.14781e-07
-2.1372e-07 -2.95628e-07 -8.65159e-08
-2.22333e-07 -3.22224e-07 -9.01909e-08
-2.25617e-08 -2.71153e-07 -9.50049e-08
-1.97657e-08 -1.88267e-07 -1.10083e-07
-1.12843e-10 -3.65827e-07 -1.10096e-07
-8.14101e-08 -3.53485e-07 -8.75906e-08
-1.04894e-07 -2.12248e-07 -8.82385e-08
-7.13081e-08 -2.29682e-07 -9.10655e-08
-1.67939e-07 -3.76847e-07 -8.78356e-08
-2.02805e-07 -2.35751e-07 -9.35265e-08
-1.48701e-07 -2.78882e-07 -5.4003e-08
-1.39599e-07 -3.16009e-07 -5.34584e-08
-1.21863e-07 -2.82155e-07 -5.36837e-08
-1.58014e-07 -2.97709e-07 -5.40621e-08
-5.90867e-08 -3.33904e-07 -9.09385e-08
-2.577e-07 -3.57546e-07 -1.01824e-07
-2.74486e-07 -3.04107e-07 -1.04537e-07
-1.28412e-07 -2.99782e-07 -4.79158e-08
-1.35818e-07 -2.76366e-07 -5.26625e-08
-1.50927e-07 -3.08345e-07 -5.19614e-08
-7.51912e-08 -4.0582e-07 -9.92637e-08
-1.07953e-07 -1.62162e-07 -1.0049e-07
-1.05612e-07 -3.5857e-07 -8.28774e-08
-1.28274e-07 -2.1926e-07 -8.50505e-08
-5.77334e-08 -2.78878e-07 -8.57162e-08
-1.77003e-07 -2.30544e-07 -8.79167e-08
-1.45539e-07 -3.70373e-07 -8.34245e-08
-1.0689e-07 -2.56469e-07 -7.14236e-08
-2.46733e-07 -3.88189e-07 -1.05109e-07
-2.80606e-07 -2.68122e-07 -1.11035e-07
-2.07574e-07 -4.14957e-07 -1.00981e-07
-2.60543e-07 -2.18582e-07 -1.11721e-07
-5.62e-08 -2.44857e-07 -9.18361e-08
-5.99234e-08 -2.07322e-07 -9.85109e-08
-4.06513e-08 -3.51437e-07 -9.92708e-08
-4.25972e-08 -3.14231e-07 -9.32997e-08
-1.49861e-07 -2.90988e-07 -4.98709e-08
-1.56752e-07 -2.63314e-07 -6.63134e-08
-1.38887e-07 -3.32565e-07 -6.42587e-08
-1.72789e-07 -2.98818e-07 -6.44515e-08
-1.79336e-07 -2.70015e-07 -7.37708e-08
-1.60328e-07 -3.3939e-07 -7.10929e-08
-1.87405e-07 -3.7112e-07 -8.91887e-08
-2.18689e-07 -2.52426e-07 -9.44474e-08
-1.01785e-07 -3.17423e-07 -6.93085e-08
-2.13699e-07 -3.98593e-07 -1.00251e-07
-2.56816e-07 -2.3906e-07 -1.08357e-07
-2.04589e-07 -2.74226e-07 -8.47758e-08
-1.85478e-07 -3.48338e-07 -8.19172e-08
-1.29805e-07 -3.08901e-07 -5.09426e-08
-1.22261e-07 -2.94025e-07 -5.07589e-08
-5.82873e-08 -1.80842e-07 -1.01053e-07
-3.5808e-08 -3.74082e-07 -1.01798e-07
-1.59686e-07 -1.35964e-07 -1.16434e-07
-1.12218e-07 -4.56755e-07 -1.0912e-07
-2.86721e-07 -7.62434e-08 -1.25264e-07
-4.51922e-07 8.93189e-08 -1.31089e-07
-2.86867e-07 7.92661e-08 -1.25197e-07
-4.52071e-07 -8.93378e-08 -1.31091e-07
-5.32163e-07 1.12739e-07 -1.33591e-07
-5.32187e-07 -1.12813e-07 -1.33588e-07
-3.68077e-07 1.05613e-07 -1.28068e-07
-4.74208e-07 2.67671e-09 -1.31669e-07
-2.73498e-07 -3.07518e-09 -1.25172e-07
-3.69115e-07 -1.0578e-07 -1.28092e-07
-5.58015e-07 1.17238e-07 -1.34334e-07
-5.5804e-07 -1.17303e-07 -1.34333e-07
-2.22149e-07 7.47744e-08 -1.2379e-07
-2.16684e-07 -7.66758e-08 -1.23644e-07
-3.61534e-07 -1.77871e-07 -1.27592e-07
-3.53837e-07 1.76725e-07 -1.27124e-07
-3.07696e-07 1.38991e-07 -1.24297e-07
-4.18607e-07 -1.49619e-07 -1.29992e-07
-5.28584e-07 4.16721e-08 -1.3307e-07
-5.30601e-07 -4.08224e-08 -1.33107e-07
-3.08213e-07 -1.43749e-07 -1.24071e-07
-4.16684e-07 1.54933e-07 -1.29931e-07
-3.28638e-07 -4.13408e-08 -1.26904e-07
-4.18128e-07 4.25716e-08 -1.30018e-07
-3.26755e-07 4.79603e-08 -1.2682e-07
-4.19513e-07 -4.4311e-08 -1.30064e-07
-5.62823e-07 1.35649e-07 -1.34477e-07
-5.62855e-07 -1.35712e-07 -1.34475e-07
-4.83173e-07 1.3268e-07 -1.32054e-07
-4.83315e-07 -1.32338e-07 -1.32057e-07
-2.14008e-07 -2.28063e-08 -1.22398e-07
-2.20315e-07 2.66656e-08 -1.22767e-07
-4.99406e-07 7.65415e-08 -1.3251e-07
-4.99421e-07 -7.66262e-08 -1.3251e-07
-3.34965e-07 -2.0445e-07 -1.25382e-07
-3.68483e-07 2.09943e-07 -1.2817e-07
-2.53342e-07 -1.15901e-07 -1.22753e-07
-2.53405e-07 1.13661e-07 -1.22896e-07
-3.58492e-07 6.68438e-08 -1.27875e-07
-3.60576e-07 -6.61243e-08 -1.27943e-07
-4.3841e-07 -1.14224e-08 -1.30667e-07
-3.0703e-07 -7.91561e-09 -1.26253e-07
-5.64531e-07 8.14502e-08 -1.34081e-07
-5.64545e-07 -8.15158e-08 -1.34079e-07
-2.54932e-07 -4.16796e-08 -1.24617e-07
-2.0705e-07 -1.06589e-07 -1.22948e-07
-2.0784e-07 1.06097e-07 -1.22981e-07
-2.60486e-07 4.2944e-08 -1.24781e-07
-4.10256e-07 9.41121e-08 -1.29694e-07
-4.08769e-07 -9.26478e-08 -1.29638e-07
-4.60159e-07 4.17624e-08 -1.31304e-07
-3.23578e-07 -8.29769e-08 -1.26425e-07
-3.22286e-07 8.30613e-08 -1.26395e-07
-4.55408e-07 -3.91422e-08 -1.3116e-07
-4.06029e-07 -1.87099e-07 -1.29641e-07
-3.09233e-07 1.74756e-07 -1.23062e-07
-3.69636e-07 -2.16165e-07 -1.28246e-07
-3.31526e-07 2.09211e-07 -1.2503e-07
-5.7551e-07 1.03071e-07 -1.34552e-07
-5.7553e-07 -1.03133e-07 -1.34551e-07
-5.58714e-07 1.01044e-09 -1.33419e-07
-1.79639e-07 -8.06318e-08 -1.22637e-07
-1.78986e-07 7.9696e-08 -1.22565e-07
-3.23854e-07 -1.75278e-07 -1.24594e-07
-3.90989e-07 1.84256e-07 -1.29084e-07
-3.48639e-07 -1.4193e-07 -1.26888e-07
-3.77422e-07 1.44471e-07 -1.28387e-07
-2.92988e-07 2.68653e-08 -1.25814e-07
-3.42015e-07 1.42935e-07 -1.26513e-07
-3.83726e-07 -1.46949e-07 -1.28648e-07
-2.68349e-07 1.46419e-07 -1.20825e-07
-2.91758e-07 -3.78426e-08 -1.2576e-07
-4.58297e-07 -1.64876e-07 -1.31161e-07
-1.9418e-07 4.46412e-08 -1.21567e-07
-1.92119e-07 -4.95061e-08 -1.21547e-07
-5.35636e-07 1.3691e-07 -1.33695e-07
-5.3567e-07 -1.36983e-07 -1.33694e-07
-4.94874e-07 -3.82856e-08 -1.32256e-07
-5.32637e-07 8.02094e-08 -1.33432e-07
-5.32799e-07 -8.0215e-08 -1.33433e-07
-5.797e-07 1.3251e-07 -1.34813e-07
-5.79465e-07 1.2035e-07 -1.34777e-07
-5.7973e-07 -1.32568e-07 -1.34811e-07
-5.79491e-07 -1.2041e-07 -1.34776e-07
-2.66199e-07 -1.46929e-07 -1.20723e-07
-5.02379e-07 1.08064e-07 -1.32684e-07
-5.02417e-07 -1.08119e-07 -1.32683e-07
-3.30981e-07 -2.23989e-07 -1.24568e-07
-3.6283e-07 2.30668e-07 -1.27819e-07
-4.60349e-07 1.65734e-07 -1.31212e-07
-4.94927e-07 3.99515e-08 -1.32261e-07
-5.15301e-07 2.53725e-09 -1.32685e-07
-1.95837e-07 7.91527e-09 -1.20261e-07
-2.8556e-07 1.1138e-07 -1.24162e-07
-1.85148e-07 1.09217e-07 -1.22597e-07
-1.85183e-07 -1.09585e-07 -1.22585e-07
-2.8824e-07 -1.11058e-07 -1.24302e-07
-2.53662e-07 7.95713e-08 -1.24338e-07
-4.44029e-07 -1.22921e-07 -1.30831e-07
-3.82563e-07 4.53875e-08 -1.28797e-07
-3.86569e-07 -4.57652e-08 -1.28936e-07
-3.26164e-07 1.60918e-08 -1.26811e-07
-4.17319e-07 1.14218e-08 -1.30062e-07
-4.4443e-07 1.24552e-07 -1.30848e-07
-2.51348e-07 -8.14267e-08 -1.24251e-07
-5.65773e-07 4.92797e-08 -1.3374e-07
-5.66688e-07 -4.87113e-08 -1.33743e-07
-3.48387e-07 -2.29173e-08 -1.27553e-07
-3.32549e-07 1.15113e-07 -1.26353e-07
-3.51704e-07 4.03985e-08 -1.27697e-07
-4.10356e-07 -1.96862e-08 -1.29858e-07
-2.91477e-07 -1.73609e-07 -1.20933e-07
-3.30111e-07 -1.1725e-07 -1.26161e-07
-2.36783e-07 1.67346e-09 -1.23575e-07
-4.04871e-07 -1.23634e-07 -1.29492e-07
-2.98134e-07 5.39728e-08 -1.25854e-07
-5.52373e-07 9.99874e-08 -1.34057e-07
-5.52413e-07 -1.00045e-07 -1.34056e-07
-5.04808e-07 1.53178e-07 -1.32616e-07
-5.05128e-07 -1.54425e-07 -1.32615e-07
-4.0341e-07 1.24794e-07 -1.29439e-07
-2.31508e-07 5.09296e-08 -1.23747e-07
-4.2565e-07 1.86934e-07 -1.30146e-07
-2.31365e-07 -1.02103e-07 -1.23184e-07
-2.31998e-07 1.00986e-07 -1.23249e-07
-2.26196e-07 -5.24482e-08 -1.23606e-07
-3.96522e-07 2.41535e-08 -1.29371e-07
-3.88925e-07 -7.41094e-08 -1.28952e-07
-3.8893e-07 7.4004e-08 -1.28958e-07
-4.41694e-07 1.74458e-08 -1.30758e-07
-4.32631e-07 6.97809e-08 -1.30462e-07
-4.30938e-07 -7.14589e-08 -1.30404e-07
-4.74467e-07 -1.03896e-07 -1.31807e-07
-3.07744e-07 -5.95558e-08 -1.26117e-07
-4.74409e-07 1.04056e-07 -1.31809e-07
-5.11618e-07 1.28751e-07 -1.32958e-07
-5.11732e-07 -1.28972e-07 -1.32959e-07
-4.70196e-07 6.95341e-08 -1.31634e-07
-4.71402e-07 -6.88053e-08 -1.31668e-07
-3.59143e-07 -3.95373e-08 -1.2796e-07
-3.3229e-07 -1.11913e-08 -1.2699e-07
-2.28337e-07 1.29729e-07 -1.20687e-07
-2.28277e-07 -1.30036e-07 -1.2068e-07
-3.50198e-07 -2.25495e-07 -1.26809e-07
-3.45189e-07 2.2424e-07 -1.26329e-07
-9.98768e-08 2.39093e-07 -7.99395e-08
-8.47526e-08 3.30956e-07 -8.05478e-08
-1.72505e-07 3.55698e-07 -8.09249e-08
-1.98194e-07 2.59823e-07 -8.50237e-08
-2.67997e-07 2.54273e-07 -1.09673e-07
-2.29791e-07 3.92622e-07 -1.02745e-07
-1.26832e-07 3.51366e-07 -7.58033e-08
-1.91204e-07 3.12707e-07 -7.60987e-08
-8.6873e-08 2.81246e-07 -7.32567e-08
-1.51364e-07 2.38186e-07 -7.83589e-08
-2.92565e-07 2.57073e-07 -1.15253e-07
-2.51105e-07 4.02207e-07 -1.0774e-07
-3.63514e-08 3.31161e-07 -9.81198e-08
-4.57759e-08 2.22873e-07 -9.95645e-08
-1.58571e-07 1.79412e-07 -1.0422e-07
-1.14837e-07 4.10442e-07 -9.91116e-08
-8.97866e-08 3.76397e-07 -9.1726e-08
-1.92832e-07 2.12259e-07 -9.82557e-08
-2.40983e-07 2.99434e-07 -9.66044e-08
-2.30587e-07 3.46736e-07 -9.51903e-08
-1.16846e-07 1.92917e-07 -9.37437e-08
-1.51952e-07 3.95969e-07 -9.26842e-08
-1.25055e-07 2.71287e-07 -5.78246e-08
-1.14028e-07 3.10832e-07 -6.03372e-08
-1.52989e-07 3.20146e-07 -5.92971e-08
-1.65456e-07 2.83609e-07 -6.18012e-08
-3.04693e-07 2.44304e-07 -1.19116e-07
-2.54276e-07 4.18306e-07 -1.09368e-07
-2.35096e-07 2.32723e-07 -1.03382e-07
-1.93112e-07 3.93023e-07 -9.56791e-08
-3.98869e-08 2.62521e-07 -9.29033e-08
-4.03983e-08 2.96376e-07 -9.16371e-08
-2.28687e-07 2.73265e-07 -9.48171e-08
-2.05008e-07 3.6016e-07 -9.07881e-08
-1.43751e-07 1.49446e-07 -1.10598e-07
-1.24797e-07 4.41072e-07 -1.05786e-07
-7.65919e-08 1.99468e-07 -9.55872e-08
-5.6343e-08 3.58334e-07 -9.56032e-08
-1.26118e-07 3.23611e-07 -6.12577e-08
-1.41824e-07 2.63577e-07 -6.19978e-08
-1.69492e-07 3.00829e-07 -6.25302e-08
-1.10377e-07 2.82945e-07 -5.99959e-08
-2.84279e-07 2.83488e-07 -1.09442e-07
-2.56942e-07 3.77403e-07 -1.04775e-07
-7.53488e-08 2.55467e-07 -8.31407e-08
-2.04081e-08 3.58545e-07 -1.05445e-07
-3.89472e-08 1.95522e-07 -1.05335e-07
-7.14706e-08 3.07486e-07 -8.14113e-08
-1.48562e-07 3.49606e-07 -7.43479e-08
-1.71492e-07 2.5311e-07 -7.67982e-08
-1.78058e-07 3.30278e-07 -7.35853e-08
-1.23453e-07 2.4426e-07 -7.33448e-08
-1.06033e-07 3.32823e-07 -7.28348e-08
-1.86188e-07 2.89547e-07 -7.32987e-08
-1.93272e-07 1.80515e-07 -1.08252e-07
-8.67889e-08 4.07719e-07 -9.96007e-08
-9.86417e-08 4.4145e-07 -1.06905e-07
-1.72767e-07 1.49116e-07 -1.15129e-07
-3.0281e-07 2.72389e-07 -1.14821e-07
-2.6664e-07 3.94286e-07 -1.08624e-07
-2.5555e-07 3.28281e-07 -9.94852e-08
-1.31933e-08 2.13291e-07 -1.08234e-07
1.81803e-09 3.38648e-07 -1.08343e-07
-1.31028e-07 1.71152e-07 -1.02306e-07
-1.37397e-07 4.18153e-07 -9.96552e-08
-1.43962e-07 2.0569e-07 -9.22676e-08
-1.29656e-07 3.83394e-07 -8.9311e-08
-9.72467e-08 2.9877e-07 -6.76443e-08
-1.09931e-07 3.80125e-07 -9.00833e-08
-1.67978e-07 2.09112e-07 -9.48108e-08
-6.359e-08 3.82543e-07 -9.69253e-08
-1.02331e-07 2.64653e-07 -6.9983e-08
-2.26437e-07 2.04972e-07 -1.06785e-07
-1.54162e-08 3.09034e-07 -9.93792e-08
-2.23324e-08 2.40624e-07 -1.00293e-07
-2.80325e-07 2.36877e-07 -1.14563e-07
-2.31341e-07 4.11686e-07 -1.0506e-07
-2.14674e-07 2.94896e-07 -8.70718e-08
-2.56508e-07 2.76635e-07 -1.03665e-07
-2.30731e-07 3.70613e-07 -9.92605e-08
-3.19879e-07 2.51552e-07 -1.20481e-07
-3.14235e-07 2.60875e-07 -1.18221e-07
-2.70395e-07 4.19923e-07 -1.11051e-07
-2.70721e-07 4.09011e-07 -1.10512e-07
-8.72314e-08 1.77221e-07 -9.70195e-08
-2.41702e-07 2.52638e-07 -1.02174e-07
-2.06961e-07 3.81339e-07 -9.59798e-08
-1.44825e-07 1.30687e-07 -1.14755e-07
-1.22672e-07 4.60519e-07 -1.09098e-07
-1.78222e-07 4.11195e-07 -9.73584e-08
-2.02338e-07 3.36402e-07 -8.47155e-08
-2.23234e-07 3.18581e-07 -9.03772e-08
-2.09475e-08 2.82381e-07 -9.49993e-08
-7.94795e-08 3.54062e-07 -8.83119e-08
-6.7806e-11 3.65649e-07 -1.10131e-07
-1.97676e-08 1.88176e-07 -1.09953e-07
-1.01731e-07 2.13632e-07 -8.7939e-08
-6.08739e-08 3.32584e-07 -9.00628e-08
-2.02771e-07 2.35551e-07 -9.35916e-08
-1.37961e-07 3.14758e-07 -5.28863e-08
-1.50317e-07 2.78898e-07 -5.46423e-08
-1.18458e-07 2.95501e-07 -5.3485e-08
-1.55068e-07 3.06927e-07 -5.37136e-08
-1.68024e-07 3.77887e-07 -8.82129e-08
-7.40758e-08 2.26506e-07 -9.08474e-08
-2.73516e-07 3.03159e-07 -1.04522e-07
-2.58804e-07 3.5718e-07 -1.01935e-07
-1.33131e-07 2.83723e-07 -4.83183e-08
-1.07144e-07 3.57215e-07 -8.20239e-08
-1.26995e-07 3.08136e-07 -5.19277e-08
-1.55638e-07 2.94072e-07 -5.25563e-08
-1.07471e-07 1.62231e-07 -1.00323e-07
-1.29274e-07 2.2033e-07 -8.45187e-08
-5.73139e-08 2.80837e-07 -8.57228e-08
-1.76905e-07 2.30326e-07 -8.7939e-08
-9.62525e-08 3.14364e-07 -7.10784e-08
-2.80659e-07 2.6799e-07 -1.11086e-07
-2.46585e-07 3.88081e-07 -1.0512e-07
-2.60498e-07 2.18434e-07 -1.11797e-07
-2.07307e-07 4.13835e-07 -1.00926e-07
-1.44563e-07 3.708e-07 -8.37266e-08
-4.70984e-08 3.13121e-07 -9.16106e-08
-1.58561e-07 4.222e-07 -9.89048e-08
-5.8996e-08 2.05135e-07 -9.89601e-08
-4.1198e-08 3.50737e-07 -9.90575e-08
-5.24558e-08 2.43237e-07 -9.32232e-08
-1.44049e-07 3.07064e-07 -4.9228e-08
-1.38762e-07 3.32239e-07 -6.42759e-08
-1.56668e-07 2.63011e-07 -6.63232e-08
-1.681e-07 3.14026e-07 -6.38181e-08
-1.60776e-07 3.38773e-07 -7.10478e-08
-1.79211e-07 2.69655e-07 -7.38091e-08
-2.18732e-07 2.52226e-07 -9.45455e-08
-1.13427e-07 2.55568e-07 -6.97684e-08
-1.87166e-07 3.71067e-07 -8.91805e-08
-2.56842e-07 2.38911e-07 -1.08425e-07
-2.13471e-07 3.98285e-07 -1.00239e-07
-1.84368e-07 3.482e-07 -8.15829e-08
-2.0546e-07 2.74657e-07 -8.5136e-08
-1.38419e-07 2.77757e-07 -5.17278e-08
-1.24448e-07 2.85208e-07 -5.09035e-08
-3.58126e-08 3.74028e-07 -1.01786e-07
-5.74428e-08 1.80219e-07 -1.01128e-07
-1.08792e-07 4.5608e-07 -1.09152e-07
-1.5953e-07 1.35853e-07 -1.16413e-07
SCALARS effective_fluid_pressure_TPM float
LOOKUP_TABLE default
93.1
93.1
93.1
93.1
93.1
93.1
93.1
93.1
93.1
93.1
93.1
93.1
93.1
93.1
0.7
93.1
93.1
93.1
93.1
93.1
93.1
93.1
93.1
93.1
93.1
93.1
93.1
0.7
93.1
93.1
93.1
93.1
93.1
93.1
93.1
93.1
93.1
93.1
0.7
93.1
93.1
93.1
93.1
93.1
93.1
93.1
93.1
93.1
93.1
0.7
93.1
93.1
93.1
93.1
93.1
93.1
93.1
93.1
93.1
93.1
0.7
93.1
93.1
93.1
93.1
93.1
93.1
93.1
93.1
93.1
93.1
84.1553
93.1
93.1
93.1
93.1
93.1
93.1
93.1
93.1
0.7
93.1
93.1
93.1
93.1
93.1
93.1
93.1
93.1
93.1
93.1
93.1
93.1
93.1
93.1
0.7
93.1
93.1
93.1
93.1
93.1
93.1
93.1
93.1
93.1
93.1
93.1
93.1
0.7
93.1
93.1
93.1
93.1
93.1
93.1
93.1
93.1
93.1
93.1
0.7
93.1
93.1
93.1
93.1
93.1
93.1
93.1
93.1
93.1
93.1
0.7
93.1
93.1
93.1
93.1
93.1
93.1
93.1
93.1
93.1
93.1
0.7
93.1
93.1
93.1
93.1
93.1
93.1
93.1
93.1
93.1
93.1
84.1553
93.1
93.1
93.1
93.1
93.1
93.1
93.1
93.1
0.7
93.1
73.9677
67.604
67.1042
72.7288
93.1
93.1
79.8282
76.481
76.414
79.8758
93.1
93.1
72.7927
67.3116
67.6204
73.9724
93.1
72.0227
65.8914
65.9086
72.0216
93.1
71.8823
65.8768
66.0061
71.7981
93.1
72.0371
66.1031
66.0965
72.0777
0.7
0.7
0.7
93.1
93.1
71.9846
66.1728
65.9784
71.925
93.1
93.1
71.5067
65.6775
65.9489
72.042
93.1
72.0376
65.7018
65.8156
71.8604
93.1
71.8958
66.0426
65.803
72.0599
93.1
71.7842
65.6588
65.737
71.9757
93.1
0.7
0.7
0.7
93.1
93.1
93.1
72.0834
66.0587
65.8852
71.9251
93.1
72.074
65.8353
66.0791
71.929
93.1
71.9035
65.8627
65.7445
72.0641
93.1
71.8056
65.875
65.9345
71.9454
93.1
93.1
0.7
0.7
0.7
93.1
93.1
71.9103
66.0559
65.8138
72.0668
93.1
71.9521
65.8449
65.6535
72.0189
93.1
72.0512
65.9644
65.6867
71.5063
93.1
93.1
72.0677
66.0381
66.1187
71.844
93.1
93.1
0.7
0.7
0.7
93.1
93.1
72.0173
66.0265
65.9288
72.2303
93.1
72.3081
66.3486
66.1579
71.9591
93.1
93.1
72.4197
67.255
67.8339
73.917
93.1
93.1
80.1792
76.9502
77.1479
80.8214
93.1
0.7
0.7
0.7
93.1
93.1
88.1333
87.7774
88.3949
89.7111
93.1
93.1
90.1354
89.4365
89.4337
90.1362
93.1
93.1
89.7142
88.3928
87.7265
88.114
93.1
80.193
76.9719
77.2514
80.862
93.1
84.9987
85.8953
85.0392
93.1
93.1
93.1
73.9434
67.8416
67.2725
72.4151
93.1
93.1
71.9693
66.1328
66.0258
72.2651
93.1
72.276
66.2835
66.0905
72.0641
93.1
93.1
0.7
0.7
0.7
93.1
73.9677
67.604
67.1042
72.7288
93.1
93.1
79.8282
76.481
76.414
79.8758
93.1
93.1
72.7927
67.3116
67.6204
73.9724
93.1
72.0227
65.8914
65.9086
72.0216
93.1
71.8823
65.8768
66.0061
71.7981
93.1
72.0371
66.1031
66.0965
72.0777
0.7
0.7
0.7
93.1
93.1
71.9846
66.1728
65.9784
71.925
93.1
93.1
71.5067
65.6775
65.9489
72.042
93.1
72.0376
65.7018
65.8156
71.8604
93.1
71.8958
66.0426
65.803
72.0599
93.1
71.7842
65.6588
65.737
71.9757
93.1
0.7
0.7
0.7
93.1
93.1
93.1
72.0834
66.0587
65.8852
71.9251
93.1
72.074
65.8353
66.0791
71.929
93.1
71.9035
65.8627
65.7445
72.0641
93.1
71.8056
65.875
65.9345
71.9454
93.1
93.1
0.7
0.7
0.7
93.1
93.1
71.9103
66.0559
65.8138
72.0668
93.1
71.9521
65.8449
65.6535
72.0189
93.1
72.0512
65.9644
65.6867
71.5063
93.1
93.1
72.0677
66.0381
66.1187
71.844
93.1
93.1
0.7
0.7
0.7
93.1
93.1
72.0173
66.0265
65.9288
72.2303
93.1
72.3081
66.3486
66.1579
71.9591
93.1
93.1
72.4197
67.255
67.8339
73.917
93.1
93.1
80.1792
76.9502
77.1479
80.8214
93.1
0.7
0.7
0.7
93.1
93.1
88.1333
87.7774
88.3949
89.7111
93.1
93.1
90.1354
89.4365
89.4337
90.1362
93.1
93.1
89.7142
88.3928
87.7265
88.114
93.1
80.193
76.9719
77.2514
80.862
93.1
84.9987
85.8953
85.0392
93.1
93.1
93.1
73.9434
67.8416
67.2725
72.4151
93.1
93.1
71.9693
66.1328
66.0258
72.2651
93.1
72.276
66.2835
66.0905
72.0641
93.1
93.1
0.7
0.7
0.7
52.365
52.9854
54.6133
54.6851
73.0975
73.0933
49.982
51.0226
47.6643
49.9765
80.2864
80.2848
66.1259
67.5541
67.6361
67.5827
60.7107
61.5454
66.4245
66.8114
61.2588
62.2344
32.6747
35.9274
35.0511
36.1651
83.85
83.8498
65.2066
65.1854
61.8572
60.9762
62.9453
62.9111
75.2674
75.5005
63.4733
63.3541
37.0401
36.2718
37.8863
35.2467
76.7416
76.7312
55.0451
73.5233
73.752
53.7984
49.1266
48.5373
49.1669
47.1185
47.3919
47.4501
67.2885
66.5871
76.4147
76.6708
82.6396
82.6282
70.804
78.1598
77.9516
67.2429
67.8919
59.7043
59.931
42.9581
60.1733
60.4856
63.5337
44.9073
64.9965
66.8515
67.7861
75.0671
75.0667
58.5963
70.3767
70.3318
90.3216
87.5846
90.3208
87.5807
63.7859
66.4765
66.4927
82.8771
82.7058
65.3214
58.6475
62.2681
63.139
58.262
82.8499
82.8988
57.7884
59.8179
59.2368
25.4478
26.6077
26.1784
26.8198
59.4841
60.432
73.7107
73.8084
16.3681
54.2747
24.451
23.7818
65.746
54.8707
56.8198
55.7916
45.8334
76.6528
76.6568
69.1652
69.1423
56.0086
61.0912
66.4324
66.6281
66.776
62.3508
17.8301
40.0962
40.0796
39.5864
46.6867
46.812
60.8844
44.2345
60.868
69.6938
69.7128
55.6126
55.841
21.9861
21.643
67.9009
67.8696
82.849
82.8762
52.5769
52.6671
52.5322
52.6079
70.0777
70.2574
49.1213
47.9314
48.1116
49.1735
77.6942
77.827
67.4279
66.0055
66.9936
66.9946
60.199
60.3031
61.4332
61.7581
60.8469
60.7891
34.9539
35.4732
33.7624
33.5065
82.3563
82.5097
62.9305
63.1345
61.7677
60.8255
59.7361
59.62
74.9148
74.9812
63.2347
62.206
36.3324
35.7341
35.4745
36.4458
71.5828
71.6662
55.0089
73.64
73.3981
54.0088
47.1736
47.0301
46.6518
46.8915
47.0111
44.8872
66.3459
66.2599
76.1784
76.1842
79.0929
79.1637
63.5748
78.1433
77.9627
66.8507
66.7901
43.5803
59.0029
59.0451
59.5176
59.5866
63.4814
63.2706
66.8126
67.7479
72.6834
72.9559
54.9361
66.3852
66.2446
89.7393
86.0381
89.7766
86.0874
43.1546
63.5635
63.4635
63.6826
63.8537
82.5808
82.5177
54.979
57.5545
63.0425
82.8434
82.8023
57.2046
57.0342
59.6584
57.497
57.4178
24.775
26.3846
26.0402
26.017
60.292
66.8434
66.9337
16.5485
54.139
23.942
22.9561
65.4618
65.4752
54.3238
56.8029
54.5282
72.9979
73.1227
67.2355
66.907
45.4139
54.5859
60.6664
66.6172
66.3259
62.2394
17.5103
39.0938
39.0626
37.7247
44.9806
43.9209
58.584
58.4456
45.3683
67.1639
67.3979
52.9737
52.9045
22.2232
22.3932
67.7082
67.3625
82.6199
82.6394
52.1294
52.6547
52.5283
52.5872
70.1301
70.1445
49.109
47.9039
47.4786
49.2088
77.7339
77.7343
67.4807
66.0052
67.0205
67.011
60.3065
60.2531
61.3776
61.8869
60.9104
60.9435
32.4795
35.4675
34.5851
33.7939
82.4229
82.4288
63.0124
63.0256
61.7901
60.8781
59.6479
59.6245
74.9975
74.9904
63.307
63.1238
36.3822
35.7532
35.9531
35.0462
71.5692
71.5402
54.8979
73.6792
73.4169
53.5906
47.7122
47.2662
46.6369
46.7385
46.8974
45.0299
66.2662
66.3066
76.1992
76.1603
79.0927
79.0705
63.4321
78.1695
77.9703
66.8886
67.0103
59.1012
59.02
42.6953
59.5657
59.5692
63.2906
44.704
63.351
66.8291
67.7866
72.7978
72.8172
54.9981
66.3076
66.2463
89.753
86.0475
89.7527
86.0409
63.6069
63.7238
63.7539
82.5889
82.5747
63.5981
54.701
57.6985
63.0877
57.9273
82.8636
82.8022
57.5161
59.5994
57.4865
25.606
25.0575
26.5476
25.0234
57.6996
60.2784
66.7818
66.8234
16.2669
53.6946
23.8048
22.665
65.519
54.3909
56.6976
54.599
45.4899
73.0161
73.0216
66.9658
67.0678
54.7574
60.9555
65.1953
66.661
66.4608
62.2624
17.2943
38.9942
39.2177
37.5768
45.0269
45.0324
58.5096
43.9817
58.503
67.2176
67.2711
52.9552
53.1252
22.3629
21.5003
67.7608
67.7189
82.6466
82.6364
52.5871
52.7036
52.6034
52.513
70.2495
70.0749
49.1286
47.9325
48.1233
49.1493
77.8292
77.6857
67.4453
66.0159
66.9897
66.9811
60.2134
60.2068
61.4891
61.6983
60.8134
61.0203
34.9543
35.483
33.7812
33.4747
82.5066
82.3532
63.1445
62.93
61.7819
60.8367
59.6286
59.7129
74.9705
74.9883
63.251
62.2269
36.3565
35.7101
35.4639
36.4538
71.6901
71.5558
55.0273
73.6738
73.4035
54.0193
47.8087
47.0291
46.698
46.7854
46.9539
44.8459
66.279
66.1882
76.1805
76.1033
79.1853
79.069
63.5764
78.1572
77.9671
66.8299
67.0461
43.5951
58.9979
59.0414
59.5377
59.544
63.2677
63.2844
66.8219
67.7628
72.9437
72.6817
54.8853
66.2694
66.3524
89.7775
86.0944
89.7369
86.0292
43.1615
63.5042
63.8379
63.684
82.5745
82.5744
63.7425
55.0259
57.5559
63.0545
56.9836
82.8657
82.8015
57.0502
59.6709
57.3761
24.7918
26.3784
26.0465
26.0235
57.7962
60.2806
66.9205
66.8564
16.538
54.0762
53.6941
23.9462
22.958
65.509
56.8155
73.1241
72.9903
67.1459
66.9098
45.4362
54.5883
54.8225
60.6773
65.2926
66.6255
66.3405
62.2523
17.5182
39.0836
39.113
37.739
43.9239
44.9944
58.4465
45.3071
58.5937
67.3571
67.164
53.049
52.8221
22.209
22.3847
67.9955
67.3895
82.6119
82.6375
52.3453
54.36
56.2781
53.2306
70.6397
74.3731
51.8899
49.5224
47.937
49.491
78.0842
80.6732
66.6676
67.6104
67.2683
70.7157
65.6869
60.6336
62.5739
64.2457
63.0303
61.1209
32.631
36.5761
35.4651
35.355
82.6048
85.3919
63.4974
69.0852
62.0185
61.2995
60.4745
63.0636
77.3239
75.1597
63.4779
63.5467
38.0382
35.957
37.075
35.4318
72.231
73.9829
55.1665
74.0411
73.7766
53.9114
50.3347
47.692
48.9383
46.9549
48.6381
46.074
66.6032
72.6709
76.3738
80.2696
79.4665
80.9372
65.0974
78.1937
78.1842
69.3971
67.0918
62.0418
59.3545
43.3789
63.6302
59.8832
44.9906
63.7451
71.1563
67.1491
67.8725
73.1354
78.36
56.1998
67.0259
69.4119
89.8211
86.2214
90.5182
87.1969
65.1875
63.7886
64.3392
68.4018
82.6842
83.9595
57.1009
59.387
63.3591
83.1204
82.9096
57.7182
59.1714
61.3039
57.9706
62.4331
26.0228
26.2013
27.125
25.997
60.4661
67.8344
68.9899
16.3394
24.9613
23.3219
65.7108
67.639
54.6244
56.8973
57.0672
58.6247
54.9781
46.5335
73.5459
75.998
67.4136
74.9201
61.7381
67.0861
66.8057
62.4483
17.9923
41.3218
39.497
39.1184
47.7821
45.6288
59.1268
62.9981
44.1986
67.7161
72.9781
56.1176
53.9941
21.8318
21.7195
68.6548
67.9034
84.6768
82.7527
82.6921
87.3646
82.663
87.3686
89.7149
89.7129
85.0394
87.679
82.4194
85.0674
90.8492
90.8477
82.51
82.6889
86.0364
85.65
82.5267
86.9467
88.8987
88.9279
82.439
86.9639
83.7988
86.3555
83.7521
86.3985
91.4763
91.475
88.3345
88.3329
80.8227
81.0551
88.5034
88.5037
86.2813
88.1733
81.4504
81.542
84.6689
84.7256
86.856
83.2368
90.0995
90.0966
82.1535
84.0016
83.9482
82.2468
86.2767
86.229
87.41
83.5929
83.5634
87.2901
87.3082
82.3268
88.4888
86.2241
91.1156
91.1144
89.1594
85.4583
85.2845
83.6877
87.0969
84.5695
85.7368
82.9157
84.2815
85.9693
80.1189
82.8969
87.8197
80.9486
81.1637
89.9779
89.9755
88.1944
89.368
89.3698
92.6025
92.084
92.6021
92.0833
80.0666
88.7748
88.7735
88.5449
90.1831
87.8773
88.2012
88.5275
79.4456
82.1382
87.8139
87.8382
82.2244
82.2415
87.3296
85.3616
85.4783
83.6935
86.355
87.349
82.2244
89.5325
89.5322
84.3001
83.7848
84.4446
86.1879
80.6602
83.6713
81.4006
86.3247
83.0195
90.2313
90.2301
88.8752
88.8724
86.2891
81.8534
87.4662
82.2822
82.3023
81.8674
85.7943
85.5866
85.5865
86.9349
86.7901
86.7526
88.0058
83.2447
88.0069
89.1248
89.1248
87.7454
87.7722
84.6625
83.8365
80.6433
80.6364
89.6639
89.4294
53.2231
52.9513
53.1639
56.3534
74.41
70.6366
49.5051
49.5038
47.9452
51.8519
80.698
78.0814
66.1723
68.04
70.7031
67.2748
60.5801
65.7084
63.7955
63.0655
62.9793
61.3409
33.2395
35.8613
34.2829
36.6099
85.4107
82.6058
69.1373
63.5167
62.1514
61.1237
63.1176
60.4455
77.3136
75.1975
64.4557
63.342
36.7359
37.2712
37.4343
35.5247
74.0224
72.2104
55.525
73.5344
74.2645
53.8937
48.251
50.3723
47.5999
48.2472
47.233
47.3504
72.6826
66.5444
76.3654
80.271
80.9589
79.4601
65.1267
78.3891
77.9807
69.3682
67.3113
61.9977
59.3769
43.0731
59.8727
63.6231
63.5246
45.4402
71.2028
66.9404
68.0817
78.3973
73.1387
57.4901
69.4011
67.0669
90.5238
87.2081
89.8208
86.2191
65.1335
68.4493
64.3281
83.9556
82.7011
64.025
55.8779
59.4972
63.3132
58.1955
82.8552
83.1671
58.9986
59.8384
62.4775
25.095
27.1799
26.8905
25.7122
58.2112
61.1476
69.0093
67.8659
16.6352
54.021
24.3299
23.8246
67.5371
56.5409
57.0602
58.6395
45.8354
76.0213
73.5477
74.9803
67.3842
55.2013
61.1794
65.5342
67.4854
66.6401
62.7899
17.5097
39.5134
41.3327
38.6144
45.5547
47.8409
63.0658
45.0046
59.1139
73.0256
67.6958
53.7431
56.3722
22.4705
21.8683
67.8965
68.7415
82.7577
84.6752
52.365
52.9854
54.6133
54.6851
73.0975
73.0933
49.982
51.0226
47.6643
49.9765
80.2864
80.2848
66.1259
67.5541
67.6361
67.5827
60.7107
61.5454
66.4245
66.8114
61.2588
62.2344
32.6747
35.9274
35.0511
36.1651
83.85
83.8498
65.2066
65.1854
61.8572
60.9762
62.9453
62.9111
75.2674
75.5005
63.4733
63.3541
37.0401
36.2718
37.8863
35.2467
76.7416
76.7312
55.0451
73.5233
73.752
53.7984
49.1266
48.5373
49.1669
47.1185
47.3919
47.4501
67.2885
66.5871
76.4147
76.6708
82.6396
82.6282
70.804
78.1598
77.9516
67.2429
67.8919
59.7043
59.931
42.9581
60.1733
60.4856
63.5337
44.9073
64.9965
66.8515
67.7861
75.0671
75.0667
58.5963
70.3767
70.3318
90.3216
87.5846
90.3208
87.5807
63.7859
66.4765
66.4927
82.8771
82.7058
65.3214
58.6475
62.2681
63.139
58.262
82.8499
82.8988
57.7884
59.8179
59.2368
25.4478
26.6077
26.1784
26.8198
59.4841
60.432
73.7107
73.8084
16.3681
54.2747
24.451
23.7818
65.746
54.8707
56.8198
55.7916
45.8334
76.6528
76.6568
69.1652
69.1423
56.0086
61.0912
66.4324
66.6281
66.776
62.3508
17.8301
40.0962
40.0796
39.5864
46.6867
46.812
60.8844
44.2345
60.868
69.6938
69.7128
55.6126
55.841
21.9861
21.643
67.9009
67.8696
82.849
82.8762
52.5769
52.6671
52.5322
52.6079
70.0777
70.2574
49.1213
47.9314
48.1116
49.1735
77.6942
77.827
67.4279
66.0055
66.9936
66.9946
60.199
60.3031
61.4332
61.7581
60.8469
60.7891
34.9539
35.4732
33.7624
33.5065
82.3563
82.5097
62.9305
63.1345
61.7677
60.8255
59.7361
59.62
74.9148
74.9812
63.2347
62.206
36.3324
35.7341
35.4745
36.4458
71.5828
71.6662
55.0089
73.64
73.3981
54.0088
47.1736
47.0301
46.6518
46.8915
47.0111
44.8872
66.3459
66.2599
76.1784
76.1842
79.0929
79.1637
63.5748
78.1433
77.9627
66.8507
66.7901
43.5803
59.0029
59.0451
59.5176
59.5866
63.4814
63.2706
66.8126
67.7479
72.6834
72.9559
54.9361
66.3852
66.2446
89.7393
86.0381
89.7766
86.0874
43.1546
63.5635
63.4635
63.6826
63.8537
82.5808
82.5177
54.979
57.5545
63.0425
82.8434
82.8023
57.2046
57.0342
59.6584
57.497
57.4178
24.775
26.3846
26.0402
26.017
60.292
66.8434
66.9337
16.5485
54.139
23.942
22.9561
65.4618
65.4752
54.3238
56.8029
54.5282
72.9979
73.1227
67.2355
66.907
45.4139
54.5859
60.6664
66.6172
66.3259
62.2394
17.5103
39.0938
39.0626
37.7247
44.9806
43.9209
58.584
58.4456
45.3683
67.1639
67.3979
52.9737
52.9045
22.2232
22.3932
67.7082
67.3625
82.6199
82.6394
52.1294
52.6547
52.5283
52.5872
70.1301
70.1445
49.109
47.9039
47.4786
49.2088
77.7339
77.7343
67.4807
66.0052
67.0205
67.011
60.3065
60.2531
61.3776
61.8869
60.9104
60.9435
32.4795
35.4675
34.5851
33.7939
82.4229
82.4288
63.0124
63.0256
61.7901
60.8781
59.6479
59.6245
74.9975
74.9904
63.307
63.1238
36.3822
35.7532
35.9531
35.0462
71.5692
71.5402
54.8979
73.6792
73.4169
53.5906
47.7122
47.2662
46.6369
46.7385
46.8974
45.0299
66.2662
66.3066
76.1992
76.1603
79.0927
79.0705
63.4321
78.1695
77.9703
66.8886
67.0103
59.1012
59.02
42.6953
59.5657
59.5692
63.2906
44.704
63.351
66.8291
67.7866
72.7978
72.8172
54.9981
66.3076
66.2463
89.753
86.0475
89.7527
86.0409
63.6069
63.7238
63.7539
82.5889
82.5747
63.5981
54.701
57.6985
63.0877
57.9273
82.8636
82.8022
57.5161
59.5994
57.4865
25.606
25.0575
26.5476
25.0234
57.6996
60.2784
66.7818
66.8234
16.2669
53.6946
23.8048
22.665
65.519
54.3909
56.6976
54.599
45.4899
73.0161
73.0216
66.9658
67.0678
54.7574
60.9555
65.1953
66.661
66.4608
62.2624
17.2943
38.9942
39.2177
37.5768
45.0269
45.0324
58.5096
43.9817
58.503
67.2176
67.2711
52.9552
53.1252
22.3629
21.5003
67.7608
67.7189
82.6466
82.6364
52.5871
52.7036
52.6034
52.513
70.2495
70.0749
49.1286
47.9325
48.1233
49.1493
77.8292
77.6857
67.4453
66.0159
66.9897
66.9811
60.2134
60.2068
61.4891
61.6983
60.8134
61.0203
34.9543
35.483
33.7812
33.4747
82.5066
82.3532
63.1445
62.93
61.7819
60.8367
59.6286
59.7129
74.9705
74.9883
63.251
62.2269
36.3565
35.7101
35.4639
36.4538
71.6901
71.5558
55.0273
73.6738
73.4035
54.0193
47.8087
47.0291
46.698
46.7854
46.9539
44.8459
66.279
66.1882
76.1805
76.1033
79.1853
79.069
63.5764
78.1572
77.9671
66.8299
67.0461
43.5951
58.9979
59.0414
59.5377
59.544
63.2677
63.2844
66.8219
67.7628
72.9437
72.6817
54.8853
66.2694
66.3524
89.7775
86.0944
89.7369
86.0292
43.1615
63.5042
63.8379
63.684
82.5745
82.5744
63.7425
55.0259
57.5559
63.0545
56.9836
82.8657
82.8015
57.0502
59.6709
57.3761
24.7918
26.3784
26.0465
26.0235
57.7962
60.2806
66.9205
66.8564
16.538
54.0762
53.6941
23.9462
22.958
65.509
56.8155
73.1241
72.9903
67.1459
66.9098
45.4362
54.5883
54.8225
60.6773
65.2926
66.6255
66.3405
62.2523
17.5182
39.0836
39.113
37.739
43.9239
44.9944
58.4465
45.3071
58.5937
67.3571
67.164
53.049
52.8221
22.209
22.3847
67.9955
67.3895
82.6119
82.6375
52.3453
54.36
56.2781
53.2306
70.6397
74.3731
51.8899
49.5224
47.937
49.491
78.0842
80.6732
66.6676
67.6104
67.2683
70.7157
65.6869
60.6336
62.5739
64.2457
63.0303
61.1209
32.631
36.5761
35.4651
35.355
82.6048
85.3919
63.4974
69.0852
62.0185
61.2995
60.4745
63.0636
77.3239
75.1597
63.4779
63.5467
38.0382
35.957
37.075
35.4318
72.231
73.9829
55.1665
74.0411
73.7766
53.9114
50.3347
47.692
48.9383
46.9549
48.6381
46.074
66.6032
72.6709
76.3738
80.2696
79.4665
80.9372
65.0974
78.1937
78.1842
69.3971
67.0918
62.0418
59.3545
43.3789
63.6302
59.8832
44.9906
63.7451
71.1563
67.1491
67.8725
73.1354
78.36
56.1998
67.0259
69.4119
89.8211
86.2214
90.5182
87.1969
65.1875
63.7886
64.3392
68.4018
82.6842
83.9595
57.1009
59.387
63.3591
83.1204
82.9096
57.7182
59.1714
61.3039
57.9706
62.4331
26.0228
26.2013
27.125
25.997
60.4661
67.8344
68.9899
16.3394
24.9613
23.3219
65.7108
67.639
54.6244
56.8973
57.0672
58.6247
54.9781
46.5335
73.5459
75.998
67.4136
74.9201
61.7381
67.0861
66.8057
62.4483
17.9923
41.3218
39.497
39.1184
47.7821
45.6288
59.1268
62.9981
44.1986
67.7161
72.9781
56.1176
53.9941
21.8318
21.7195
68.6548
67.9034
84.6768
82.7527
82.6921
87.3646
82.663
87.3686
89.7149
89.7129
85.0394
87.679
82.4194
85.0674
90.8492
90.8477
82.51
82.6889
86.0364
85.65
82.5267
86.9467
88.8987
88.9279
82.439
86.9639
83.7988
86.3555
83.7521
86.3985
91.4763
91.475
88.3345
88.3329
80.8227
81.0551
88.5034
88.5037
86.2813
88.1733
81.4504
81.542
84.6689
84.7256
86.856
83.2368
90.0995
90.0966
82.1535
84.0016
83.9482
82.2468
86.2767
86.229
87.41
83.5929
83.5634
87.2901
87.3082
82.3268
88.4888
86.2241
91.1156
91.1144
89.1594
85.4583
85.2845
83.6877
87.0969
84.5695
85.7368
82.9157
84.2815
85.9693
80.1189
82.8969
87.8197
80.9486
81.1637
89.9779
89.9755
88.1944
89.368
89.3698
92.6025
92.084
92.6021
92.0833
80.0666
88.7748
88.7735
88.5449
90.1831
87.8773
88.2012
88.5275
79.4456
82.1382
87.8139
87.8382
82.2244
82.2415
87.3296
85.3616
85.4783
83.6935
86.355
87.349
82.2244
89.5325
89.5322
84.3001
83.7848
84.4446
86.1879
80.6602
83.6713
81.4006
86.3247
83.0195
90.2313
90.2301
88.8752
88.8724
86.2891
81.8534
87.4662
82.2822
82.3023
81.8674
85.7943
85.5866
85.5865
86.9349
86.7901
86.7526
88.0058
83.2447
88.0069
89.1248
89.1248
87.7454
87.7722
84.6625
83.8365
80.6433
80.6364
89.6639
89.4294
53.2231
52.9513
53.1639
56.3534
74.41
70.6366
49.5051
49.5038
47.9452
51.8519
80.698
78.0814
66.1723
68.04
70.7031
67.2748
60.5801
65.7084
63.7955
63.0655
62.9793
61.3409
33.2395
35.8613
34.2829
36.6099
85.4107
82.6058
69.1373
63.5167
62.1514
61.1237
63.1176
60.4455
77.3136
75.1975
64.4557
63.342
36.7359
37.2712
37.4343
35.5247
74.0224
72.2104
55.525
73.5344
74.2645
53.8937
48.251
50.3723
47.5999
48.2472
47.233
47.3504
72.6826
66.5444
76.3654
80.271
80.9589
79.4601
65.1267
78.3891
77.9807
69.3682
67.3113
61.9977
59.3769
43.0731
59.8727
63.6231
63.5246
45.4402
71.2028
66.9404
68.0817
78.3973
73.1387
57.4901
69.4011
67.0669
90.5238
87.2081
89.8208
86.2191
65.1335
68.4493
64.3281
83.9556
82.7011
64.025
55.8779
59.4972
63.3132
58.1955
82.8552
83.1671
58.9986
59.8384
62.4775
25.095
27.1799
26.8905
25.7122
58.2112
61.1476
69.0093
67.8659
16.6352
54.021
24.3299
23.8246
67.5371
56.5409
57.0602
58.6395
45.8354
76.0213
73.5477
74.9803
67.3842
55.2013
61.1794
65.5342
67.4854
66.6401
62.7899
17.5097
39.5134
41.3327
38.6144
45.5547
47.8409
63.0658
45.0046
59.1139
73.0256
67.6958
53.7431
56.3722
22.4705
21.8683
67.8965
68.7415
82.7577
84.6752
VECTORS nodal_fluid_flux_TPM float
-0.000521096 1.23732e-05 -6.13932e-20
0.000428841 -0.000177655 8.01459e-20
0.000246281 0.000409498 -2.55279e-21
0.00093705 0.000123354 3.66159e-19
-0.000134228 -0.000232445 -1.90904e-19
-0.000133397 0.000231004 2.23036e-20
0.000937322 -0.00012339 -3.33348e-19
0.000246276 -0.000409299 -2.16822e-19
-0.00052041 -1.39783e-05 1.47138e-19
0.000429154 0.000177787 -1.35367e-20
-0.000255414 -0.000478654 -2.20228e-19
0.00035556 0.000358314 8.48862e-20
0.000355437 -0.00035734 -4.68117e-20
-0.000337197 0.00058411 5.22781e-20
-0.000761639 0.000620457 -1.20077e-20
0.00112078 -0.000147518 8.48862e-20
-0.000256757 0.000444728 -2.34734e-19
-0.000259683 -0.000449651 1.81899e-19
0.00113345 0.000149193 -2.96433e-20
0.000439664 0.000182076 -1.7413e-22
-0.000336559 -0.00058299 3.62719e-19
0.00025515 -0.000478372 -2.43675e-19
-0.000540132 -7.45293e-06 1.0307e-19
-0.000261075 -0.000452121 -1.02578e-20
-0.000259933 0.000450242 1.43616e-19
-0.000256818 -0.000478262 -3.24977e-20
0.000433991 0.000179777 9.73781e-20
-0.0011204 0.000131416 -1.11121e-19
0.00112876 0.000148526 -2.62933e-19
0.000336377 -0.000582625 1.4831e-19
-0.000539255 -8.77266e-06 -1.04004e-19
-0.000259825 -0.000449979 1.42508e-19
-0.000260608 0.000451335 3.56394e-19
-0.000539055 7.48334e-06 6.91062e-21
0.00025467 0.000478088 5.40718e-21
-0.000538579 -8.43723e-06 1.12975e-19
0.000337462 -0.000584549 -2.47748e-19
0.00112887 -0.000148536 2.02444e-19
-0.000756345 0.000616602 2.33009e-19
-0.000260803 -0.000451747 -7.91307e-20
-0.000259889 0.000450067 2.65787e-19
-0.000538997 9.49649e-06 2.27046e-19
0.000255483 0.000478613 -3.26501e-19
-0.00033662 0.000583094 -4.13969e-19
0.000439672 -0.00018208 4.47813e-20
0.00113424 -0.000149297 1.33797e-20
-0.000260224 0.000450586 -8.78976e-20
-0.000256135 -0.000443647 1.6191e-19
0.00112049 0.000147484 -1.97576e-19
-0.0011206 0.000131279 1.2251e-19
-0.000536463 7.89234e-06 5.11525e-20
0.000253043 0.000473573 2.00176e-19
-0.000332948 0.000576658 3.08622e-20
0.000430453 -0.000178221 9.07349e-20
0.00110585 -0.000145409 4.20944e-19
0.000347319 0.000346501 -1.34391e-19
0.000287171 -0.000330127 -4.91096e-20
0.000870725 0.000114833 -1.27608e-19
0.00020418 0.000182852 -5.9397e-20
-0.000297699 -4.89741e-05 -7.66758e-20
-0.000766957 0.000618861 3.69298e-19
-0.000110584 0.00019149 -2.19383e-20
6.89907e-05 -2.85755e-05 -2.557e-20
0.000167918 -2.2102e-05 9.25275e-20
5.20303e-05 4.91237e-05 3.70126e-20
5.19948e-05 -4.90949e-05 -1.12881e-19
0.000167797 2.2086e-05 -1.49639e-20
6.89278e-05 2.85494e-05 9.52544e-20
-4.54032e-05 -0.000139222 1.84405e-19
0.000249118 -0.000103264 -1.1602e-19
-0.000271039 0.000469548 1.71684e-20
2.24878e-05 8.09013e-06 -1.22171e-19
0.000868818 -0.000114588 1.83471e-19
0.000286592 0.000329595 1.16679e-20
0.00034739 -0.000346746 7.44246e-20
0.00110594 0.000145421 6.31552e-19
0.000430246 0.000178136 -2.0422e-19
-0.000252673 -0.000472777 -5.65006e-19
0.000332702 -0.000576423 -8.04305e-20
-0.000536188 -9.45779e-06 -1.06366e-19
-0.000767046 0.00063179 -4.84904e-20
-0.000521096 1.23732e-05 -1.4961e-19
0.000428841 -0.000177655 1.59961e-19
0.000246281 0.000409498 8.98643e-20
0.00093705 0.000123354 4.12368e-19
-0.000134228 -0.000232445 -5.64789e-20
-0.000133397 0.000231004 -2.90105e-21
0.000937322 -0.00012339 -1.90521e-19
0.000246276 -0.000409299 5.81918e-21
-0.00052041 -1.39783e-05 -6.7102e-20
0.000429154 0.000177787 -1.10155e-19
-0.000255414 -0.000478654 -2.45433e-19
0.00035556 0.000358314 8.48862e-20
0.000355437 -0.00035734 1.63227e-19
-0.000337197 0.00058411 1.95104e-19
-0.000761639 0.000620457 -1.83088e-20
0.00112078 -0.000147518 8.48862e-20
-0.000256757 0.000444728 -1.33915e-19
-0.000259683 -0.000449651 1.81899e-19
0.00113345 0.000149193 4.17699e-20
0.000439664 0.000182076 -3.37803e-20
-0.000336559 -0.00058299 5.05545e-19
0.00025515 -0.000478372 -5.46397e-20
-0.000540132 -7.45293e-06 -1.32174e-19
-0.000261075 -0.000452121 2.33387e-19
-0.000259933 0.000450242 2.44435e-19
-0.000256818 -0.000478262 1.90143e-19
0.000433991 0.000179777 -7.6413e-21
-0.0011204 0.000131416 -1.13221e-19
0.00112876 0.000148526 -3.38547e-19
0.000336377 -0.000582625 4.32904e-20
-0.000539255 -8.77266e-06 9.41675e-21
-0.000259825 -0.000449979 8.78976e-20
-0.000260608 0.000451335 4.48812e-19
-0.000539055 7.48334e-06 1.1193e-19
0.00025467 0.000478088 -2.38238e-19
-0.000538579 -8.43723e-06 2.09593e-19
0.000337462 -0.000584549 -1.42728e-19
0.00112887 -0.000148536 1.34092e-20
-0.000756345 0.000616602 2.23557e-19
-0.000260803 -0.000451747 -2.55563e-19
-0.000259889 0.000450067 1.90173e-19
-0.000538997 9.49649e-06 1.05223e-19
0.000255483 0.000478613 -3.24465e-20
-0.00033662 0.000583094 -3.25753e-19
0.000439672 -0.00018208 2.79782e-20
0.00113424 -0.000149297 -9.58405e-20
-0.000260224 0.000450586 -1.42508e-19
-0.000256135 -0.000443647 1.073e-19
0.00112049 0.000147484 -1.80773e-19
-0.0011206 0.000131279 9.94062e-20
-0.000536463 7.89234e-06 2.10782e-19
0.000253043 0.000473573 2.16979e-19
-0.000332948 0.000576658 1.94692e-19
0.000430453 -0.000178221 1.66349e-19
0.00110585 -0.000145409 3.91538e-19
0.000347319 0.000346501 -2.10005e-19
0.000287171 -0.000330127 6.85121e-20
0.000870725 0.000114833 -5.78502e-21
0.00020418 0.000182852 3.61465e-21
-0.000297699 -4.89741e-05 4.51467e-20
-0.000766957 0.000618861 3.777e-19
-0.000110584 0.00019149 -1.01753e-19
6.89907e-05 -2.85755e-05 1.29859e-19
0.000167918 -2.2102e-05 -1.24919e-20
5.20303e-05 4.91237e-05 2.17646e-19
5.19948e-05 -4.90949e-05 4.25472e-20
0.000167797 2.2086e-05 -3.59678e-20
6.89278e-05 2.85494e-05 -6.85759e-20
-4.54032e-05 -0.000139222 -3.40353e-20
0.000249118 -0.000103264 7.72153e-20
-0.000271039 0.000469548 -1.21457e-19
2.24878e-05 8.09013e-06 5.42618e-20
0.000868818 -0.000114588 -1.56792e-19
0.000286592 0.000329595 -1.35359e-19
0.00034739 -0.000346746 -1.37917e-20
0.00110594 0.000145421 4.0891e-19
0.000430246 0.000178136 -6.78315e-21
-0.000252673 -0.000472777 -3.12959e-19
0.000332702 -0.000576423 -2.73666e-19
-0.000536188 -9.45779e-06 -3.91534e-20
-0.000767046 0.00063179 -6.00426e-20
-9.95224e-05 -0.00062912 -1.74037e-19
0.000246281 0.000409498 1.81678e-19
3.50284e-05 4.93118e-05 3.54283e-20
-0.000142862 1.63551e-06 5.37053e-20
-0.000521096 1.23732e-05 -1.95597e-19
0.000458806 -0.000129082 1.754e-19
0.00020552 -0.000496204 2.02792e-19
8.19984e-05 0.000150455 -6.57215e-20
7.69744e-05 1.46403e-06 -2.4816e-19
7.69744e-05 1.46403e-06 -6.67833e-20
8.90279e-05 -0.000142201 5.66063e-20
0.000205664 0.000496551 -2.41517e-19
0.000458788 0.0001292 -1.85339e-19
-0.00052041 -1.39783e-05 1.02055e-19
-0.000140999 -4.67858e-06 6.27567e-20
3.87894e-05 -5.13816e-05 1.29922e-19
0.000246276 -0.000409299 9.30499e-20
0.000111548 0.000629113 -1.24927e-19
-0.000255414 -0.000478654 9.60146e-20
-1.67838e-05 -4.71368e-05 4.0733e-21
0.000151002 5.61868e-06 7.06359e-20
0.00037791 0.000104566 -2.31447e-20
-0.000540124 -4.32897e-09 -1.42873e-19
0.000240624 -0.000463589 4.80477e-20
6.9041e-05 -0.000131227 -6.26463e-20
6.85084e-05 0.000126563 -2.08935e-20
0.000239812 0.000465428 1.85467e-19
-0.000540271 3.0081e-09 -1.23929e-19
0.000377561 -0.00010438 -2.48564e-20
0.000148788 -1.6303e-06 -3.41457e-20
3.61927e-05 6.23974e-05 -5.27709e-20
-0.00018082 0.000146873 5.50687e-20
0.000617052 -0.000750468 1.27924e-20
0.000784838 -0.000604177 -8.04475e-21
-0.000620513 0.000768015 -7.31949e-21
0.000520665 0.000169261 2.35225e-20
0.000261388 0.00063087 5.02181e-20
-3.0461e-05 0.000278463 4.56053e-20
-6.95675e-05 4.25021e-06 4.47176e-20
-6.95675e-05 4.25021e-06 -1.20629e-20
-2.15981e-05 -0.000265401 -7.74361e-20
0.000263218 -0.000635283 -6.18172e-19
0.000528535 -0.000170071 5.60373e-20
0.000381558 0.000114459 -7.13961e-20
0.000143842 5.6107e-06 -3.36011e-19
2.96928e-05 -6.32906e-05 -2.90151e-19
-0.000182201 -0.000148149 -7.65313e-20
0.000106934 -0.000642688 -1.06366e-19
0.00025515 -0.000478372 -1.3753e-19
2.42648e-05 -4.3699e-05 -1.60848e-19
-0.000150951 2.71617e-06 1.12325e-19
-0.000540132 -7.45293e-06 -2.80989e-19
-0.000543034 -1.79261e-08 3.77509e-19
-3.75183e-05 -0.000278369 1.34866e-19
-7.23444e-05 -5.23407e-06 -5.77319e-20
-7.23444e-05 -5.23407e-06 -2.13904e-19
-2.86709e-05 0.000265378 -1.84977e-20
-0.000542762 4.77173e-08 2.06105e-19
0.000380126 0.000108291 -2.30817e-19
0.000150029 7.84113e-06 -5.49584e-20
-1.87073e-05 -4.66361e-05 6.37719e-20
-0.000256818 -0.000478262 1.45362e-19
0.000109863 0.000644278 1.48008e-19
0.000589928 -0.000734915 -6.33397e-20
0.000755998 0.000612385 -2.82225e-19
0.000611791 0.000752642 -1.39515e-19
0.000262851 -0.000634477 4.22456e-20
0.00052504 -0.000170135 -7.37577e-20
-0.000107701 -0.000642372 -1.57879e-20
0.000181487 -0.000147987 -9.45237e-20
-3.31122e-05 -6.49336e-05 -4.84597e-20
-0.000151477 1.58851e-06 -8.85475e-20
-0.000539255 -8.77266e-06 2.97078e-19
-0.000542766 -2.91196e-08 -3.04401e-19
-2.87109e-05 -0.000265132 -3.96462e-20
-7.20453e-05 5.32695e-06 -1.09313e-19
-7.20453e-05 5.32695e-06 -1.30619e-19
-3.74493e-05 0.000278041 -2.7384e-19
-0.000541964 2.95243e-08 2.18929e-19
-0.000539055 7.48334e-06 -9.84695e-20
-0.000150719 -2.94306e-06 -1.03465e-19
2.42957e-05 4.36784e-05 5.94436e-20
0.00025467 0.000478088 -1.41922e-19
0.000106306 0.000642798 -2.06216e-19
0.000186098 -0.000144519 1.04701e-19
-3.74538e-05 -6.22724e-05 2.24777e-20
-0.000151542 2.17183e-07 3.18774e-20
-0.000538579 -8.43723e-06 -8.93248e-20
0.000524683 0.000170364 -5.44189e-20
0.000263102 0.000635071 1.64985e-19
-9.74485e-05 -0.00109996 -1.5927e-20
0.000744131 0.000589893 6.85312e-20
-0.000616416 0.000765795 -1.74948e-19
-0.000105918 -0.000644234 7.50108e-20
-0.000541853 -4.67418e-08 -1.70596e-19
-3.75064e-05 -0.000278351 1.84452e-19
-7.23327e-05 -5.29168e-06 4.16726e-19
-7.23327e-05 -5.29168e-06 5.612e-19
-2.86648e-05 0.000265252 4.93291e-19
-0.000542803 1.81265e-08 1.53572e-19
-0.000538997 9.49649e-06 -3.91704e-20
-0.000153078 -1.76236e-06 -9.41584e-20
2.83201e-05 4.61072e-05 -2.46015e-20
0.000255483 0.000478613 -3.53795e-19
0.000107227 0.00064284 3.34473e-19
-0.000181888 0.000147897 -1.05176e-19
2.95158e-05 6.32614e-05 4.41952e-20
0.000143691 -5.45509e-06 -2.71113e-19
0.000381507 -0.000114401 -2.74949e-19
0.000528642 0.00017033 6.92895e-20
0.000263549 0.000636082 1.05066e-19
-1.95219e-05 -0.000266078 -3.29563e-20
-6.90706e-05 1.75912e-06 -8.54894e-20
-6.90706e-05 1.75912e-06 2.98812e-20
-3.25464e-05 0.000278092 -2.84429e-19
0.000261126 -0.000630246 -1.76224e-19
0.000520878 -0.000169034 -1.10677e-19
0.000590236 -0.000735981 -3.52266e-20
0.000755803 0.000611991 1.19447e-19
0.000611368 0.000752178 1.76989e-19
-0.000526016 -1.87586e-08 -6.70691e-21
-0.00053956 -4.51282e-08 6.50079e-20
-0.000536463 7.89234e-06 2.35383e-19
-0.000149583 -2.74418e-06 -1.66756e-20
2.4601e-05 4.36879e-05 -1.08031e-19
0.000253043 0.000473573 1.20663e-19
0.000106392 0.000635822 -1.8144e-19
-0.000179274 0.000146127 -1.79062e-19
3.08052e-05 6.17028e-05 -4.73808e-20
0.000142511 -6.68169e-06 2.84667e-19
0.000373451 -0.000112892 -1.86686e-19
0.000516416 0.000165598 -4.88615e-19
0.000256336 0.000618838 -8.54553e-19
0.000233509 0.000451825 -2.81273e-19
6.61844e-05 0.000112857 1.91681e-19
6.12643e-05 -0.000132916 7.58348e-20
0.000191092 -0.000419087 -1.08735e-20
0.000220101 -0.000531049 -1.50276e-20
0.000373645 -0.000147697 5.85093e-20
-0.000297699 -4.89741e-05 2.27156e-20
-2.86118e-05 -9.15349e-05 -4.97424e-20
8.17417e-05 -7.89437e-05 -1.36166e-19
0.00020418 0.000182852 -1.37483e-19
0.000127776 -0.000523129 5.39602e-20
0.00062181 -0.000772226 1.11624e-19
0.000774249 -0.000612833 6.49123e-21
-0.000620053 0.00075994 -7.3556e-20
-0.000278589 9.2164e-09 5.17557e-20
0.000103379 0.000220323 -5.29917e-20
-1.83637e-05 2.06364e-05 -4.73808e-20
1.5855e-05 4.84983e-07 -1.39369e-19
2.85017e-05 -8.14272e-06 -2.65613e-19
5.8902e-05 -2.06751e-05 -2.24311e-20
8.02763e-05 2.41544e-05 -3.2022e-20
3.78849e-05 9.1464e-05 8.51411e-20
3.51283e-05 6.47643e-05 1.64748e-19
8.33189e-06 1.52691e-05 -3.85035e-20
8.3574e-06 -1.53477e-05 -5.0885e-21
3.50812e-05 -6.47463e-05 3.58726e-19
3.78599e-05 -9.14038e-05 8.21126e-20
8.0214e-05 -2.41393e-05 1.12452e-19
5.88586e-05 2.06414e-05 2.40994e-19
2.85424e-05 8.29704e-06 -9.07987e-20
1.23145e-05 1.74291e-06 -1.25215e-20
-4.54032e-05 -0.000139222 2.43658e-19
1.05177e-05 -0.000219052 4.81581e-20
-6.44492e-05 0.000181155 -4.05168e-20
8.69708e-05 0.000138403 -8.05579e-20
0.000149314 0.00010082 -1.20077e-19
0.000286307 3.56334e-05 -3.96928e-20
-0.000278617 -8.97287e-09 -1.04242e-19
3.19537e-05 4.07012e-07 1.31762e-19
2.28027e-05 7.82511e-06 -6.87967e-20
3.20142e-05 1.97252e-07 -1.40124e-20
0.000127935 0.000523243 1.48501e-19
0.000372711 0.000147432 2.33655e-20
0.000219682 0.000530037 1.79172e-19
0.000190563 0.000418509 -1.48136e-19
6.16671e-05 0.000133323 -1.00895e-19
6.55828e-05 -0.000112374 -5.2945e-20
0.000233737 -0.000451924 1.84643e-19
0.000256421 -0.000619042 2.13538e-19
0.000516344 -0.000165672 3.66763e-19
0.000373381 0.000112631 -1.18127e-19
0.000142838 7.6553e-06 2.07707e-19
-1.80585e-05 -4.35471e-05 2.25618e-19
-0.000252673 -0.000472777 4.36987e-19
-0.0001057 -0.000635396 3.01755e-19
0.000180241 -0.000146848 -3.26594e-19
-3.24636e-05 -6.46515e-05 -3.26594e-19
-0.000149963 1.33252e-06 -2.93812e-19
-0.000536188 -9.45779e-06 -4.84716e-19
-0.000540004 4.56856e-08 7.57756e-21
-0.000525918 1.72006e-08 -2.42375e-19
0.000605323 -0.000741346 1.82787e-19
0.00077143 -0.000593024 5.72554e-19
-0.000630617 0.000788261 -2.91645e-19
-9.95224e-05 -0.00062912 -1.19427e-19
0.000246281 0.000409498 2.20487e-20
3.50284e-05 4.93118e-05 8.58376e-20
-0.000142862 1.63551e-06 1.20918e-19
-0.000521096 1.23732e-05 1.44666e-19
0.000458806 -0.000129082 9.13848e-20
0.00020552 -0.000496204 8.09699e-20
8.19984e-05 0.000150455 -5.31192e-20
7.69744e-05 1.46403e-06 -1.64144e-19
7.69744e-05 1.46403e-06 -8.35864e-20
8.90279e-05 -0.000142201 9.86141e-20
0.000205664 0.000496551 -3.38135e-19
0.000458788 0.0001292 -8.87216e-20
-0.00052041 -1.39783e-05 -3.6571e-20
-0.000140999 -4.67858e-06 1.21568e-19
3.87894e-05 -5.13816e-05 -7.17148e-20
0.000246276 -0.000409299 8.88491e-20
0.000111548 0.000629113 -1.87939e-19
-0.000255414 -0.000478654 2.04007e-20
-1.67838e-05 -4.71368e-05 8.80888e-20
0.000151002 5.61868e-06 1.1825e-20
0.00037791 0.000104566 1.32284e-19
-0.000540124 -4.32897e-09 1.67564e-20
0.000240624 -0.000463589 -9.89794e-20
6.9041e-05 -0.000131227 -4.16424e-20
6.85084e-05 0.000126563 1.00929e-19
0.000239812 0.000465428 -3.56799e-21
-0.000540271 3.0081e-09 -1.11327e-19
0.000377561 -0.00010438 9.27653e-20
0.000148788 -1.6303e-06 1.0448e-19
3.61927e-05 6.23974e-05 1.83919e-21
-0.00018082 0.000146873 9.28757e-20
0.000617052 -0.000750468 9.64181e-21
0.000784838 -0.000604177 -1.01451e-20
-0.000620513 0.000768015 -1.5721e-20
0.000520665 0.000169261 2.33561e-19
0.000261388 0.00063087 8.80251e-20
-3.0461e-05 0.000278463 7.081e-20
-6.95675e-05 4.25021e-06 7.4123e-20
-6.95675e-05 4.25021e-06 -5.82714e-20
-2.15981e-05 -0.000265401 -4.38299e-20
0.000263218 -0.000635283 -5.04751e-19
0.000528535 -0.000170071 -1.28797e-19
0.000381558 0.000114459 -1.00802e-19
0.000143842 5.6107e-06 -1.80582e-19
2.96928e-05 -6.32906e-05 -2.94351e-19
-0.000182201 -0.000148149 -2.19358e-19
0.000106934 -0.000642688 -3.91534e-20
0.00025515 -0.000478372 -1.75337e-19
2.42648e-05 -4.3699e-05 -7.68329e-20
-0.000150951 2.71617e-06 2.00541e-19
-0.000540132 -7.45293e-06 -2.13776e-19
-0.000543034 -1.79261e-08 5.07733e-19
-3.75183e-05 -0.000278369 1.85276e-19
-7.23444e-05 -5.23407e-06 -8.29366e-20
-7.23444e-05 -5.23407e-06 -1.88699e-19
-2.86709e-05 0.000265378 -1.9493e-19
-0.000542762 4.77173e-08 8.00822e-20
0.000380126 0.000108291 -2.51821e-19
0.000150029 7.84113e-06 -1.29506e-20
-1.87073e-05 -4.66361e-05 2.59649e-20
-0.000256818 -0.000478262 -6.04759e-20
0.000109863 0.000644278 1.018e-19
0.000589928 -0.000734915 -5.91389e-20
0.000755998 0.000612385 -2.78024e-19
0.000611791 0.000752642 -1.36365e-19
0.000262851 -0.000634477 -5.43722e-20
0.00052504 -0.000170135 -1.49372e-19
-0.000107701 -0.000642372 -7.87995e-20
0.000181487 -0.000147987 -1.40732e-19
-3.31122e-05 -6.49336e-05 7.75636e-20
-0.000151477 1.58851e-06 -1.51559e-19
-0.000539255 -8.77266e-06 2.34067e-19
-0.000542766 -2.91196e-08 -3.67413e-19
-2.87109e-05 -0.000265132 9.05779e-20
-7.20453e-05 5.32695e-06 -1.4292e-19
-7.20453e-05 5.32695e-06 -6.34066e-20
-3.74493e-05 0.000278041 -1.14211e-19
-0.000541964 2.95243e-08 2.2733e-19
-0.000539055 7.48334e-06 -3.21111e-19
-0.000150719 -2.94306e-06 -6.1457e-20
2.42957e-05 4.36784e-05 1.22455e-19
0.00025467 0.000478088 -3.27014e-20
0.000106306 0.000642798 -1.60007e-19
0.000186098 -0.000144519 1.25705e-19
-3.74538e-05 -6.22724e-05 3.08793e-20
-0.000151542 2.17183e-07 9.90898e-20
-0.000538579 -8.43723e-06 -6.83209e-20
0.000524683 0.000170364 -8.38243e-20
0.000263102 0.000635071 1.18777e-19
-9.74485e-05 -0.00109996 -1.80274e-20
0.000744131 0.000589893 5.69791e-20
-0.000616416 0.000765795 -1.79149e-19
-0.000105918 -0.000644234 4.14046e-20
-0.000541853 -4.67418e-08 -2.12604e-19
-3.75064e-05 -0.000278351 9.20347e-20
-7.23327e-05 -5.29168e-06 5.67954e-19
-7.23327e-05 -5.29168e-06 5.10791e-19
-2.86648e-05 0.000265252 4.42882e-19
-0.000542803 1.81265e-08 6.95569e-20
-0.000538997 9.49649e-06 6.5849e-20
-0.000153078 -1.76236e-06 -2.45386e-19
2.83201e-05 4.61072e-05 -9.18139e-20
0.000255483 0.000478613 -4.12606e-19
0.000107227 0.00064284 1.74844e-19
-0.000181888 0.000147897 -1.00976e-19
2.95158e-05 6.32614e-05 -2.7218e-20
0.000143691 -5.45509e-06 -1.70295e-19
0.000381507 -0.000114401 -2.70748e-19
0.000528642 0.00017033 -1.32348e-19
0.000263549 0.000636082 2.10505e-20
-1.95219e-05 -0.000266078 4.26576e-20
-6.90706e-05 1.75912e-06 3.21324e-20
-6.90706e-05 1.75912e-06 -5.41344e-20
-3.25464e-05 0.000278092 -1.20599e-19
0.000261126 -0.000630246 -1.34217e-19
0.000520878 -0.000169034 -1.14878e-19
0.000590236 -0.000735981 -3.2076e-20
0.000755803 0.000611991 1.19447e-19
0.000611368 0.000752178 1.80139e-19
-0.000526016 -1.87586e-08 2.20135e-19
-0.00053956 -4.51282e-08 9.02125e-20
-0.000536463 7.89234e-06 1.42966e-19
-0.000149583 -2.74418e-06 -7.54865e-20
2.4601e-05 4.36879e-05 4.73979e-20
0.000253043 0.000473573 2.38284e-19
0.000106392 0.000635822 -3.44131e-20
-0.000179274 0.000146127 -1.58058e-19
3.08052e-05 6.17028e-05 -6.41839e-20
0.000142511 -6.68169e-06 1.08235e-19
0.000373451 -0.000112892 -2.32894e-19
0.000516416 0.000165598 -4.71812e-19
0.000256336 0.000618838 -7.24329e-19
0.000233509 0.000451825 -3.27482e-19
6.61844e-05 0.000112857 -2.67593e-20
6.12643e-05 -0.000132916 8.42363e-20
0.000191092 -0.000419087 -1.20094e-19
0.000220101 -0.000531049 1.0177e-20
0.000373645 -0.000147697 -3.01602e-22
-0.000297699 -4.89741e-05 1.85148e-20
-2.86118e-05 -9.15349e-05 -1.12754e-19
8.17417e-05 -7.89437e-05 -2.03379e-19
0.00020418 0.000182852 -4.92666e-20
0.000127776 -0.000523129 -6.36615e-20
0.00062181 -0.000772226 1.08474e-19
0.000774249 -0.000612833 1.5943e-20
-0.000620053 0.00075994 -9.561e-20
-0.000278589 9.2164e-09 9.37635e-20
0.000103379 0.000220323 -1.58011e-19
-1.83637e-05 2.06364e-05 -6.41839e-20
1.5855e-05 4.84983e-07 -1.22566e-19
2.85017e-05 -8.14272e-06 -1.56393e-19
5.8902e-05 -2.06751e-05 9.51907e-20
8.02763e-05 2.41544e-05 1.65415e-19
3.78849e-05 9.1464e-05 -9.9693e-20
3.51283e-05 6.47643e-05 1.31141e-19
8.33189e-06 1.52691e-05 -9.73144e-20
8.3574e-06 -1.53477e-05 7.51382e-21
3.50812e-05 -6.47463e-05 1.99097e-19
3.78599e-05 -9.14038e-05 1.49002e-20
8.0214e-05 -2.41393e-05 1.08252e-19
5.88586e-05 2.06414e-05 2.36794e-19
2.85424e-05 8.29704e-06 -1.20204e-19
1.23145e-05 1.74291e-06 -2.05757e-19
-4.54032e-05 -0.000139222 2.26854e-19
1.05177e-05 -0.000219052 -1.90543e-20
-6.44492e-05 0.000181155 -7.83238e-20
8.69708e-05 0.000138403 -1.81377e-19
0.000149314 0.00010082 -1.83088e-19
0.000286307 3.56334e-05 -3.54921e-20
-0.000278617 -8.97287e-09 2.17812e-20
3.19537e-05 4.07012e-07 -1.24486e-19
2.28027e-05 7.82511e-06 -6.45959e-20
3.20142e-05 1.97252e-07 -8.54256e-20
0.000127935 0.000523243 -9.5144e-20
0.000372711 0.000147432 2.75662e-20
0.000219682 0.000530037 2.37983e-19
0.000190563 0.000418509 -9.51007e-21
6.16671e-05 0.000133323 -3.23536e-19
6.55828e-05 -0.000112374 -3.19411e-20
0.000233737 -0.000451924 -4.63997e-20
0.000256421 -0.000619042 2.93353e-19
0.000516344 -0.000165672 2.95349e-19
0.000373381 0.000112631 -1.55934e-19
0.000142838 7.6553e-06 3.96758e-20
-1.80585e-05 -4.35471e-05 1.7941e-19
-0.000252673 -0.000472777 2.85759e-19
-0.0001057 -0.000635396 2.05137e-19
0.000180241 -0.000146848 -2.84586e-19
-3.24636e-05 -6.46515e-05 -2.84586e-19
-0.000149963 1.33252e-06 -3.61024e-19
-0.000536188 -9.45779e-06 -4.17503e-19
-0.000540004 4.56856e-08 -5.12333e-20
-0.000525918 1.72006e-08 -3.65368e-20
0.000605323 -0.000741346 1.78586e-19
0.00077143 -0.000593024 5.63102e-19
-0.000630617 0.000788261 -2.91645e-19
-0.000168565 0.000253874 -5.34293e-20
-0.000188965 -0.00012667 6.10916e-20
0.000180536 -0.00017209 3.44302e-20
0.000179233 0.000173744 1.67886e-19
0.000223692 4.46776e-05 -3.43027e-20
0.000223393 -4.49475e-05 1.74359e-20
5.6005e-05 -0.000246734 -7.01601e-20
0.000286824 -5.22314e-05 -9.76501e-21
-0.000305713 -4.47464e-05 -2.29768e-20
-3.83185e-05 0.000244228 2.02143e-19
0.000361047 -0.000103363 8.97368e-20
0.000360914 0.00010349 -7.43438e-20
-0.000199253 -0.000119992 4.72704e-20
-0.000201148 0.000102553 9.40013e-20
1.14449e-05 0.000227057 1.43332e-19
4.24339e-06 -0.000226983 1.36642e-20
-1.99542e-05 -0.00022781 -1.10647e-20
3.37788e-05 0.000219854 5.57186e-20
0.000242564 -2.81563e-05 9.93914e-20
0.000189266 8.24026e-05 1.00029e-20
-3.93765e-05 0.000124915 7.39489e-20
5.23662e-05 -0.00012185 2.27156e-20
-0.000342948 0.000237615 5.16453e-20
-0.000302073 -0.000169836 7.28552e-20
0.000579323 -0.000271472 1.51423e-20
0.000327305 0.000447131 1.17146e-20
0.000361047 -0.000103363 1.69772e-20
0.000360914 0.00010349 -6.69279e-20
0.000201009 -8.83491e-05 -8.12886e-20
0.000200515 8.72539e-05 6.54836e-20
-0.000156183 7.50837e-05 1.37593e-19
-0.00015853 -7.50125e-05 4.4416e-20
0.000242434 8.54558e-05 -7.45009e-21
0.00024166 -8.77406e-05 6.04589e-20
6.97631e-05 0.000369337 2.52513e-20
-5.73389e-05 -0.000366955 -6.08663e-21
-0.000150402 3.56516e-05 6.0633e-20
-0.000153534 -3.80309e-05 8.29116e-21
1.22176e-06 -0.000528711 2.08764e-20
6.21953e-05 0.000536262 2.8351e-20
0.000564503 4.67323e-06 -8.25075e-21
-0.000524124 -7.07101e-05 4.50149e-20
0.000262828 -0.000158886 1.39845e-19
0.000262251 0.000159148 -1.69602e-20
-0.0001966 0.000116407 -4.94578e-20
-0.000259641 -3.47833e-05 8.81355e-21
-0.000260861 3.40108e-05 -2.26052e-20
-0.000204646 -0.000124429 9.00384e-20
0.000190442 -0.000261543 6.94551e-20
0.000191606 0.000265736 8.77002e-20
0.000293346 -0.000129648 1.59549e-19
-0.000168565 0.000253874 5.20021e-20
-4.29155e-05 -0.000235507 4.77928e-20
0.000298894 0.000127575 1.47898e-20
-0.00017152 0.000140895 1.4368e-19
0.000187312 -0.00014066 4.05635e-20
5.40591e-05 -0.000480597 -1.53097e-19
-3.91223e-05 0.000480406 1.48675e-19
0.00028966 -0.000244405 2.62836e-20
0.000289764 0.000244869 -2.19515e-19
0.00012807 4.38487e-05 -1.13039e-19
-3.33516e-05 0.000279278 7.67396e-20
-2.23237e-05 -0.000266604 -5.48946e-20
5.83129e-05 0.000156136 7.88462e-20
-4.10851e-05 -0.000159527 1.2618e-19
-8.10828e-06 0.000216353 8.36968e-20
2.3661e-05 -0.000211591 -3.53817e-20
-0.000302073 -0.000169836 1.97827e-20
-1.99542e-05 -0.00022781 3.40182e-20
3.37788e-05 0.000219854 6.49441e-20
-0.000138477 -9.43978e-05 -9.34386e-22
-0.000342948 0.000237615 3.56662e-20
4.01322e-05 5.60173e-05 3.16566e-20
-2.23237e-05 -0.000266604 7.21222e-21
-0.000156183 7.50837e-05 -4.76824e-20
0.000363289 -0.000102664 1.79079e-19
0.000363308 0.000102744 -3.71105e-20
0.000298894 0.000127575 4.24664e-20
0.000211653 0.000127601 5.49117e-20
0.000212805 -0.000127655 1.30904e-19
0.000458806 -0.000129082 5.08042e-20
0.000361047 -0.000103363 1.04289e-19
0.000458788 0.0001292 -1.29604e-19
0.000360914 0.00010349 1.38609e-19
-3.93765e-05 0.000124915 -1.52511e-19
0.000201009 -8.83491e-05 6.70849e-20
0.000200515 8.72539e-05 8.00355e-20
-0.000245121 -0.000465642 -1.11456e-20
0.00026006 0.000470637 1.91647e-20
-7.4794e-06 -4.00097e-05 -1.32522e-20
0.000293346 -0.000129648 6.54836e-20
0.000242564 -2.81563e-05 -1.16415e-19
-0.000162274 4.73378e-05 2.43169e-20
-0.000138477 -9.43978e-05 3.9867e-20
-0.000536218 -1.009e-05 5.45464e-20
-0.000536758 8.62404e-06 -1.24562e-19
-3.72974e-05 0.000137989 -9.37168e-20
-0.000204646 -0.000124429 2.1178e-20
0.000136604 0.000111959 1.43982e-19
1.22176e-06 -0.000528711 -1.21266e-20
6.21953e-05 0.000536262 6.6187e-21
0.000564503 4.67323e-06 6.25592e-20
-0.000524124 -7.07101e-05 1.16551e-20
0.000136106 -0.000113132 5.05834e-20
-0.000189037 0.000112884 -6.35978e-20
0.000127013 -0.000105012 2.50305e-20
0.000125309 0.000102804 -7.03343e-20
-0.000761639 0.000620457 7.15702e-21
-1.99542e-05 -0.00022781 -3.76966e-20
-3.30271e-05 -0.000492832 1.29039e-20
0.000528606 3.83836e-05 -2.4301e-20
-3.93765e-05 0.000124915 6.32962e-20
-8.10828e-06 0.000216353 -8.94102e-21
-0.000162274 4.73378e-05 6.12191e-20
3.37788e-05 0.000219854 1.60436e-19
-0.000302073 -0.000169836 5.61625e-20
0.000262828 -0.000158886 6.31858e-20
0.000262251 0.000159148 6.60697e-20
0.000171511 -7.19922e-05 1.01863e-19
0.000172818 7.24257e-05 -1.10155e-19
2.3661e-05 -0.000211591 4.75732e-22
-0.000204646 -0.000124429 1.58516e-20
-7.4794e-06 -4.00097e-05 -6.36615e-20
-0.000153534 -3.80309e-05 6.50716e-20
-0.000150402 3.56516e-05 -1.21266e-20
-0.000156183 7.50837e-05 3.71571e-20
0.000784838 -0.000604177 -2.62346e-20
1.22176e-06 -0.000528711 -1.60258e-20
2.06265e-05 0.000486695 -6.03143e-21
0.000564503 4.67323e-06 -2.15667e-20
0.000190442 -0.000261543 -1.12941e-20
0.000191606 0.000265736 1.09528e-19
0.000200515 8.72539e-05 9.45875e-20
-0.000342948 0.000237615 5.96349e-20
0.000201009 -8.83491e-05 6.31858e-20
0.000223393 -4.49475e-05 1.80744e-19
0.000223692 4.46776e-05 1.04463e-19
0.000293346 -0.000129648 -1.26023e-20
0.000298894 0.000127575 2.93417e-20
-0.000620513 0.000768015 1.14884e-20
-0.000761639 0.000620457 -3.55239e-20
-0.000153534 -3.80309e-05 6.89708e-20
-0.000150402 3.56516e-05 -8.77406e-20
-5.73389e-05 -0.000366955 -1.42674e-20
6.97631e-05 0.000369337 -5.95882e-20
-0.000167797 0.000271041 5.3682e-20
-0.000183365 -0.000174087 5.35949e-20
0.000162255 -0.000181058 -2.25015e-19
0.000164061 0.000182528 1.48119e-19
0.000222568 -7.39233e-05 -1.72325e-19
0.000223093 7.80274e-05 -1.23815e-20
-4.58042e-05 -0.000246284 -3.42561e-20
0.000245532 -5.97098e-05 -6.68471e-20
-0.000345078 -7.79548e-05 -2.61966e-19
-4.16599e-05 0.000248588 -5.47205e-20
0.000408494 -0.000155125 -5.58757e-20
0.000403918 0.000157781 1.59468e-19
-0.000203382 -0.0001022 2.41882e-19
-0.000201441 0.000117816 -7.26492e-20
5.4845e-06 0.000231892 2.88022e-20
2.18515e-06 -0.000232382 -3.0678e-19
2.25243e-05 -0.000223709 -1.36468e-19
2.5153e-05 0.000226066 1.21266e-20
0.000200843 -3.54032e-05 -1.03987e-19
0.000128562 0.000116841 1.63448e-19
-4.33395e-05 -0.000127979 6.92724e-20
-4.09677e-05 0.000130232 -5.19936e-20
-0.000275929 0.000451158 -6.37719e-20
-0.000309641 -0.00016744 -2.77223e-19
0.000549986 -0.000261303 -2.99582e-19
0.000540199 0.000293361 -2.42532e-21
0.000408494 -0.000155125 6.93828e-20
0.000403918 0.000157781 6.4358e-20
0.000184932 -0.0001001 -2.60635e-19
0.000186156 0.000102419 5.99194e-20
-0.000159214 -7.45564e-05 -1.5706e-19
-0.000162379 7.54588e-05 -1.92314e-19
0.000217538 0.000101675 5.87938e-20
0.000214763 -0.000103113 -1.27161e-19
6.69858e-05 0.000377764 7.9429e-21
6.43169e-05 -0.000377735 -3.76319e-19
-0.000153401 -3.57113e-05 -8.21126e-20
-0.000163683 3.9975e-05 6.82105e-20
-6.98555e-06 -0.000517995 -6.40331e-20
-5.18493e-05 0.000528478 4.16565e-19
0.000522137 -3.80874e-05 -6.58012e-20
-0.000460447 4.21161e-06 -4.19876e-20
0.000258527 -0.000244357 -2.08752e-19
0.000256062 0.000245065 2.24858e-19
-0.000241712 -0.000145491 -9.62992e-20
-0.000262899 -3.41266e-05 1.2014e-19
-0.000261441 4.34795e-05 2.41122e-19
-0.00020284 0.000118902 -2.26251e-19
0.000173553 -0.000267152 -1.4999e-19
-0.000164098 0.000268283 5.19702e-20
0.000259301 -0.000139293 -2.45845e-19
-4.88346e-05 -0.000238316 -1.68583e-19
0.000160917 0.000250741 8.46483e-20
0.000265641 0.000139476 3.66131e-21
-0.00018082 0.000146873 -1.0643e-19
-0.000182201 -0.000148149 -1.88003e-19
-4.73192e-05 -0.000491602 -3.14816e-19
-4.52078e-05 0.000492216 1.91299e-19
0.000356379 -0.000356457 -9.5301e-20
0.000353244 0.000355885 1.2209e-19
2.39691e-05 -7.01088e-05 -4.57795e-20
-3.75183e-05 -0.000278369 1.1927e-19
-2.86709e-05 0.000265378 -2.81057e-20
5.46837e-05 -0.000159306 -1.73654e-19
5.54116e-05 0.000159523 -1.33159e-20
-0.000309641 -0.00016744 2.10909e-20
-1.25476e-05 0.000219381 -2.0766e-20
-1.428e-05 -0.000217197 -2.20292e-19
2.25243e-05 -0.000223709 -3.65399e-19
2.5153e-05 0.000226066 -2.42532e-21
3.61927e-05 6.23974e-05 -9.11515e-21
2.96928e-05 -6.32906e-05 -2.3337e-19
-2.86709e-05 0.000265378 -3.20049e-20
-0.000159214 -7.45564e-05 -1.51733e-19
0.000403648 -0.000156634 -2.09181e-19
0.00039908 0.000159288 -2.68526e-20
0.000265641 0.000139476 1.28869e-20
0.000173747 0.000193744 8.43467e-20
0.0001753 -0.000192392 -4.4259e-20
0.000528535 -0.000170071 -2.0628e-19
0.000408494 -0.000155125 1.26023e-20
0.000520665 0.000169261 1.46794e-20
0.000403918 0.000157781 2.65613e-19
-0.000335293 0.00025093 -1.19618e-19
-4.33395e-05 -0.000127979 -7.09204e-20
-4.09677e-05 0.000130232 2.71372e-20
0.000184932 -0.0001001 -1.73323e-19
0.000186156 0.000102419 1.44759e-19
0.00025515 -0.000478372 -2.53945e-19
0.000260504 0.00048026 -1.15234e-20
0.000259301 -0.000139293 -1.67759e-19
0.000200843 -3.54032e-05 -6.17586e-20
-0.000164535 -4.86826e-05 -1.82137e-19
-0.000540132 -7.45293e-06 7.21564e-20
-0.000538747 1.00476e-05 2.95625e-20
-4.13496e-05 -0.000140495 -1.88635e-19
-3.69625e-05 0.000150703 3.95187e-20
-0.00020284 0.000118902 1.37547e-19
0.000125338 0.000125813 -5.5005e-21
0.000122854 -0.000124085 -2.71224e-19
-6.98555e-06 -0.000517995 2.3329e-23
-5.18493e-05 0.000528478 -8.24566e-20
-0.000460447 4.21161e-06 -3.71094e-19
0.000522137 -3.80874e-05 1.77068e-20
-0.00019147 -0.00011253 -3.55558e-20
4.41054e-05 -0.000161797 -2.62521e-19
4.28591e-05 0.000159545 9.32411e-20
0.000755998 0.000612385 -2.02903e-20
2.5153e-05 0.000226066 1.88177e-19
-3.74925e-05 -0.000486198 -1.08565e-19
-0.000460447 4.21161e-06 -2.41981e-19
-4.09677e-05 0.000130232 -1.68409e-19
-4.33395e-05 -0.000127979 -3.05178e-19
-1.428e-05 -0.000217197 1.58058e-19
-0.000164535 -4.86826e-05 -9.33981e-20
2.25243e-05 -0.000223709 -2.83414e-19
0.000258527 -0.000244357 -1.20395e-19
0.000256062 0.000245065 1.65223e-19
0.000169154 -6.51836e-05 5.37861e-20
0.000165723 7.38883e-05 -2.26141e-19
-0.000309641 -0.00016744 -4.2417e-19
-1.25476e-05 0.000219381 1.50914e-20
-0.00020284 0.000118902 -1.2477e-19
-0.000153401 -3.57113e-05 1.13816e-19
-0.000163683 3.9975e-05 1.39021e-20
-0.000159214 -7.45564e-05 1.20854e-19
0.000717862 -0.000587251 -2.72008e-19
-1.25294e-05 0.000477766 4.84978e-20
-6.98555e-06 -0.000517995 -3.41233e-19
0.000495774 -1.54348e-05 -4.49236e-20
0.000173553 -0.000267152 -5.13074e-19
-0.000164098 0.000268283 1.22137e-20
0.000186156 0.000102419 -7.51382e-21
0.000184932 -0.0001001 -2.9611e-19
0.000229907 0.00017468 3.34787e-20
0.000222568 -7.39233e-05 -1.42839e-19
0.000223093 7.80274e-05 1.40274e-19
0.000259301 -0.000139293 -2.02189e-19
0.000265641 0.000139476 1.10851e-19
0.000611791 0.000752642 8.20446e-20
0.000755998 0.000612385 1.01451e-19
-0.000153401 -3.57113e-05 1.55e-19
-0.000163683 3.9975e-05 -3.65073e-20
6.69858e-05 0.000377764 -1.43285e-19
6.43169e-05 -0.000377735 -9.4889e-20
-0.000171996 0.000250965 5.24374e-20
-0.000192272 -0.000125923 -1.09543e-20
0.000163905 -0.00017874 -7.87916e-21
0.000162395 0.000181502 2.13521e-20
0.000223233 -7.66059e-05 -1.38893e-19
0.000222905 7.68967e-05 -9.26549e-20
4.40889e-05 -0.000249915 -1.16509e-20
0.000237578 -5.91771e-05 -3.36529e-20
-0.000307963 -4.37227e-05 -3.92672e-19
-4.55336e-05 0.00024556 1.9101e-20
0.000406688 -0.000157319 -3.6559e-19
0.000406277 0.000157779 -9.90898e-20
-0.00020333 0.000102359 1.78238e-19
-0.000202168 -0.000119531 -8.08766e-20
2.09678e-06 0.000231547 2.12372e-21
-4.32297e-06 -0.000232504 2.70939e-19
-2.59127e-05 -0.000229626 6.65626e-20
2.25861e-05 0.000222964 2.95158e-20
0.000200443 -3.73886e-05 -7.58985e-20
0.00012667 0.000116803 -1.2339e-19
-4.29393e-05 0.000127502 6.52458e-20
4.09898e-05 -0.000128271 6.15036e-21
-0.000342561 0.000235058 1.05571e-20
-0.000306604 -0.000167966 -1.38702e-20
0.000315556 -0.000452399 1.41255e-19
0.000546791 0.000269202 1.23021e-19
0.000406688 -0.000157319 -3.05139e-20
0.000406277 0.000157779 1.83105e-19
0.000185363 -0.000101063 5.69171e-21
0.000185021 0.000101254 -1.22519e-19
-0.000158735 7.5398e-05 -1.56996e-19
-0.000161492 -7.48908e-05 -3.32332e-19
0.000215101 0.000102823 3.40819e-20
0.000216437 -0.000102096 -9.73144e-20
6.36022e-05 0.000377369 8.63942e-21
-6.50038e-05 -0.000376939 8.79647e-21
-0.000152554 3.58409e-05 2.70905e-20
-0.000155876 -3.7471e-05 -2.07881e-19
-7.14936e-06 -0.000495688 2.6464e-20
2.11508e-05 0.000519372 4.39807e-20
0.000528222 -3.19543e-06 -3.44621e-20
-0.000522415 -6.64394e-05 1.1634e-19
0.000257495 -0.000245619 -2.91531e-19
0.00025648 0.000246534 -7.48196e-20
-0.000198728 0.000116138 -7.99081e-20
-0.000262427 3.4213e-05 6.05863e-20
-0.000262181 -3.42213e-05 2.64487e-19
-0.000207322 -0.000123772 -3.36406e-19
0.000173338 -0.000265065 9.08391e-20
0.000171048 0.000266498 -4.95682e-20
0.000263211 0.000138971 -7.77334e-22
-0.000171996 0.000250965 5.51006e-20
-5.12331e-05 -0.000236347 5.05197e-20
0.000263409 -0.000138762 3.38441e-20
-0.000183909 0.00014583 3.74416e-20
0.000181487 -0.000147987 -1.25055e-19
4.68579e-05 -0.000491053 -6.54836e-20
-4.83628e-05 0.000491573 9.74793e-21
0.000355437 -0.00035734 -1.53619e-19
0.00035556 0.000358314 -5.38794e-20
2.50799e-05 7.0426e-05 -1.44759e-19
-3.74493e-05 0.000278041 -2.29785e-21
-2.87109e-05 -0.000265132 1.21903e-20
5.4451e-05 0.000158627 -1.54396e-20
-5.18948e-05 -0.00016572 7.42972e-20
-1.45083e-05 0.000216933 1.05954e-19
1.3008e-05 -0.000216144 1.45519e-20
-0.000306604 -0.000167966 -1.05272e-19
-2.59127e-05 -0.000229626 4.91562e-20
2.25861e-05 0.000222964 6.3946e-20
-0.000141376 -9.58818e-05 8.64875e-20
-0.000342561 0.000235058 1.48087e-19
3.40286e-05 6.15379e-05 3.66177e-20
-2.87109e-05 -0.000265132 -2.55071e-19
-0.000158735 7.5398e-05 -1.46343e-19
0.000401918 -0.000158805 -2.15046e-19
0.000401409 0.000159295 -7.80222e-20
0.000263409 -0.000138762 -1.05304e-19
0.000172864 0.000194473 -1.16764e-19
0.000174623 -0.000193865 -4.07547e-20
0.00052504 -0.000170135 -1.12469e-19
0.000406688 -0.000157319 -1.46929e-19
0.000524683 0.000170364 -8.49499e-20
0.000406277 0.000157779 -6.46596e-20
-4.29393e-05 0.000127502 4.43227e-20
0.000185363 -0.000101063 -7.52486e-20
0.000185021 0.000101254 4.04064e-20
0.00025467 0.000478088 1.65096e-19
-0.000256818 -0.000478262 -2.82161e-20
-1.87073e-05 -4.66361e-05 -4.34179e-20
0.000263211 0.000138971 1.14593e-19
0.000200443 -3.73886e-05 -7.03809e-21
-0.000164093 4.78222e-05 -1.15052e-19
-0.000141376 -9.58818e-05 -4.72317e-21
-0.000539055 7.48334e-06 -1.24057e-19
-0.000539255 -8.77266e-06 4.31945e-19
-4.11635e-05 0.00013867 1.60895e-20
-0.000207322 -0.000123772 9.48253e-20
0.00012337 0.000125074 -1.39658e-20
-7.14936e-06 -0.000495688 7.34965e-20
2.11508e-05 0.000519372 7.64613e-20
-0.000522415 -6.64394e-05 2.13329e-19
0.000528222 -3.19543e-06 -3.17511e-19
0.00012332 -0.000124764 -5.22952e-20
-0.00019106 0.000112826 -3.06414e-20
4.33867e-05 -0.000163089 -2.72129e-19
4.06082e-05 0.000158534 -1.95453e-19
-0.000756345 0.000616602 -1.35758e-19
-2.59127e-05 -0.000229626 -8.85646e-20
-1.42768e-05 -0.00048671 2.28505e-20
0.000496594 -3.25648e-05 6.28096e-21
-4.29393e-05 0.000127502 2.84524e-22
-1.45083e-05 0.000216933 -9.67282e-20
-0.000164093 4.78222e-05 -4.76187e-20
2.25861e-05 0.000222964 4.79669e-20
-0.000306604 -0.000167966 5.16134e-20
0.000257495 -0.000245619 -1.24706e-19
0.00025648 0.000246534 -9.75522e-20
0.000171426 6.90465e-05 -1.48072e-19
0.000168204 -6.83703e-05 3.66814e-20
1.3008e-05 -0.000216144 5.67805e-20
-0.000207322 -0.000123772 -2.01539e-19
-1.87073e-05 -4.66361e-05 8.2223e-20
-0.000152554 3.58409e-05 1.18684e-19
-0.000155876 -3.7471e-05 1.76178e-19
-0.000158735 7.5398e-05 4.81581e-20
0.000744131 0.000589893 1.59481e-19
-7.14936e-06 -0.000495688 1.13967e-19
4.73223e-06 0.000503294 5.94203e-20
0.000528222 -3.19543e-06 -7.30783e-21
0.000173338 -0.000265065 -3.35658e-20
0.000171048 0.000266498 -8.05329e-21
0.000185021 0.000101254 -5.08042e-20
-0.000342561 0.000235058 3.6123e-19
0.000185363 -0.000101063 1.73892e-20
0.000223233 -7.66059e-05 -9.38101e-20
0.000222905 7.68967e-05 -7.91478e-20
0.000263211 0.000138971 -1.47724e-19
0.000263409 -0.000138762 -9.71232e-20
-0.000616416 0.000765795 6.20795e-19
-0.000756345 0.000616602 1.89971e-19
-0.000152554 3.58409e-05 -1.23755e-19
-0.000155876 -3.7471e-05 7.92582e-21
-6.50038e-05 -0.000376939 2.19659e-19
6.36022e-05 0.000377369 -2.969e-20
-0.000168062 0.000271047 2.18512e-20
-0.000183325 -0.000174902 2.76766e-20
0.000164438 -0.000179309 9.54114e-20
0.000162736 0.000181492 -4.75083e-20
0.00022316 -7.78214e-05 -5.9809e-20
0.000222476 7.39908e-05 -1.97988e-19
4.55736e-05 -0.000249443 2.49697e-19
0.000245548 -6.10074e-05 6.08242e-20
-0.000345176 -7.81379e-05 -1.67031e-19
-4.23019e-05 0.000248872 -2.37031e-19
0.00040421 -0.000157368 -3.9043e-20
0.000408435 0.00015547 -1.07428e-19
-0.000203536 -0.000102134 3.58773e-19
-0.000201369 0.000117817 2.21354e-19
4.35562e-06 0.000232499 -2.20487e-20
-2.91597e-06 -0.000231728 9.91365e-20
-2.39731e-05 -0.000227693 1.49958e-19
2.35424e-05 0.000225889 -3.18146e-19
0.000201072 -3.68204e-05 1.29506e-20
0.00012835 0.00011532 -2.08403e-19
-4.12624e-05 0.000130846 -1.38116e-19
4.25881e-05 -0.000128323 1.2477e-19
-0.000276193 0.00045097 3.02776e-19
-0.000309982 -0.000167839 -3.95972e-20
0.000550046 -0.000261719 -3.58924e-20
0.000539841 0.000292701 -3.69056e-19
0.00040421 -0.000157368 -7.13598e-22
0.000408435 0.00015547 -2.99075e-19
0.000185893 -0.000102199 1.80361e-19
0.000185191 0.000100241 -1.53857e-19
-0.000159205 -7.45913e-05 3.01801e-19
-0.000162337 7.54158e-05 3.8244e-19
0.000216983 0.000100181 -2.7525e-19
0.000215604 -0.000104326 2.36985e-19
6.46185e-05 0.000377938 -3.0884e-19
-6.29521e-05 -0.000377151 -1.42746e-19
-0.000153783 -3.63325e-05 2.03918e-19
-0.000163587 4.03772e-05 1.51449e-19
-6.29221e-06 -0.000519029 1.10233e-19
-5.22249e-05 0.000528064 -3.03851e-19
0.000521998 -3.8679e-05 3.09112e-20
-0.000460606 4.09824e-06 3.77347e-20
0.000256947 -0.000244459 -7.9429e-21
0.000257835 0.000244901 -3.8244e-19
-0.000241666 -0.000145761 1.75012e-19
-0.000265559 -2.84004e-05 1.23517e-19
-0.00026094 4.38671e-05 8.76131e-20
-0.000202828 0.00011895 1.20854e-19
0.000173965 -0.000263122 1.62465e-19
-0.000164475 0.000268371 1.20775e-19
0.000259365 -0.000139807 -6.60231e-20
-5.00455e-05 -0.000238015 8.86579e-20
0.000159887 0.000249887 -7.01049e-20
0.000265346 0.000138191 6.9277e-21
-0.000181888 0.000147897 -7.74998e-20
0.000186098 -0.000144519 -5.34345e-21
-4.69527e-05 0.000491739 -9.51269e-20
4.99425e-05 -0.000492313 -1.36813e-20
0.000353078 -0.000354979 -1.2237e-20
0.000356677 0.000357353 1.06476e-19
2.46065e-05 -7.17125e-05 -3.18945e-20
-3.75064e-05 -0.000278351 1.73799e-19
-2.86648e-05 0.000265252 -7.42334e-20
5.52109e-05 0.000160168 -3.74213e-19
-4.99986e-05 -0.000165656 1.31396e-19
-0.000309982 -0.000167839 2.80354e-19
-1.325e-05 0.000219729 -2.21761e-20
1.45268e-05 -0.000215711 6.85588e-20
-2.39731e-05 -0.000227693 2.02839e-19
2.35424e-05 0.000225889 -1.51321e-19
-0.000143769 -9.78078e-05 7.71982e-20
2.95158e-05 6.32614e-05 -2.04615e-19
-2.86648e-05 0.000265252 3.91428e-19
-0.000159205 -7.45913e-05 3.32332e-19
0.00039941 -0.000158863 1.31885e-20
0.000403621 0.000156969 -4.2757e-19
0.000265346 0.000138191 -2.40455e-19
0.000173944 0.000192591 -1.53364e-19
0.000175273 -0.00019347 -1.86423e-20
0.000520878 -0.000169034 -1.41399e-20
0.00040421 -0.000157368 1.01532e-19
0.000528642 0.00017033 -9.64904e-20
0.000408435 0.00015547 -1.60309e-19
-0.000335502 0.000250926 1.42792e-19
-4.12624e-05 0.000130846 -1.1862e-19
0.000185893 -0.000102199 8.77235e-20
0.000185191 0.000100241 -3.94868e-19
0.000255483 0.000478613 -5.9975e-19
-0.000255414 -0.000478654 -5.62581e-20
-1.67838e-05 -4.71368e-05 9.034e-20
0.000259365 -0.000139807 1.49784e-19
0.000201072 -3.68204e-05 -6.2281e-20
-0.000164531 -4.87533e-05 5.46822e-19
-0.000143769 -9.78078e-05 1.49958e-19
-0.000538579 -8.43723e-06 -6.12658e-20
-0.000538997 9.49649e-06 1.15957e-19
-3.72878e-05 0.000151165 9.84229e-20
-0.000202828 0.00011895 2.31943e-19
0.000123472 0.000123977 -3.3415e-20
-6.29221e-06 -0.000519029 2.23985e-19
-5.22249e-05 0.000528064 1.31114e-19
-0.000460606 4.09824e-06 1.74742e-19
0.000521998 -3.8679e-05 -1.7158e-19
0.000124106 -0.000125794 7.99251e-20
-0.000191277 -0.000112712 1.82375e-19
4.55218e-05 -0.000162845 -1.15957e-19
4.15967e-05 0.00015839 -9.30032e-20
0.000755803 0.000611991 3.7723e-20
2.35424e-05 0.000225889 7.3711e-20
-2.39731e-05 -0.000227693 1.3008e-19
-3.71578e-05 -0.000486646 -5.62683e-21
-0.000460606 4.09824e-06 -2.05914e-19
-4.12624e-05 0.000130846 -2.31276e-20
-0.000164531 -4.87533e-05 4.7549e-19
0.000256947 -0.000244459 -1.18933e-21
0.000257835 0.000244901 -2.0639e-19
0.000172057 6.58503e-05 2.93884e-20
0.000165607 -7.38183e-05 -3.53209e-19
-0.000309982 -0.000167839 1.501e-19
-1.325e-05 0.000219729 -2.55007e-19
1.45268e-05 -0.000215711 1.62624e-19
-0.000202828 0.00011895 4.67628e-19
-1.67838e-05 -4.71368e-05 -2.36033e-20
-0.000153783 -3.63325e-05 9.7773e-20
-0.000163587 4.03772e-05 1.699e-19
-0.000159205 -7.45913e-05 2.18389e-19
0.000717901 -0.000587662 7.51849e-20
-1.30645e-05 0.000477561 9.82977e-20
-6.29221e-06 -0.000519029 -5.58779e-20
0.000495955 -1.63028e-05 -3.71486e-20
-0.000164475 0.000268371 1.54301e-19
0.000173965 -0.000263122 1.70454e-19
0.000185191 0.000100241 -1.08774e-19
0.000229206 0.00017347 -1.92751e-20
0.000185893 -0.000102199 2.54548e-19
0.00022316 -7.78214e-05 1.37547e-19
0.000222476 7.39908e-05 -3.9249e-19
0.000259365 -0.000139807 1.97339e-19
0.000265346 0.000138191 1.4726e-20
0.000611368 0.000752178 -6.03488e-19
0.000755803 0.000611991 -5.02064e-20
-0.000153783 -3.63325e-05 8.32211e-20
-0.000163587 4.03772e-05 -6.86396e-20
-6.29521e-05 -0.000377151 5.99365e-20
6.46185e-05 0.000377938 1.69464e-21
-0.000171998 0.000250916 -3.22567e-19
-0.000184839 -0.000133799 4.17699e-20
0.000174486 -0.000222817 -1.03639e-19
0.000163702 0.000176917 -1.2954e-19
0.000219389 6.9556e-05 4.1944e-20
0.000196859 -0.000142003 -1.46623e-20
-2.78179e-05 -0.000260066 -5.92058e-20
0.000240526 4.64606e-05 -1.12992e-19
-0.000303413 -4.80033e-05 -4.36637e-21
-4.43415e-05 0.000245295 1.1388e-19
0.000398528 0.000149672 1.20799e-20
0.000311549 -0.000188687 -9.42392e-20
-0.00019367 -0.000124455 -1.26673e-19
-0.000201722 0.000101869 1.30033e-19
3.90797e-06 0.000230431 4.80307e-20
3.44902e-05 -0.000236889 7.86254e-20
6.39213e-05 -0.000255211 8.30641e-20
2.45497e-05 0.000221741 5.6925e-20
0.000201056 2.32993e-05 -1.48832e-19
0.000117009 -0.000138278 2.76766e-20
-2.72027e-05 -0.000131903 -9.35302e-21
-4.23337e-05 0.000127123 -8.11611e-20
-0.00034616 0.000234664 7.54228e-20
-0.000301372 -0.000179686 -5.41258e-20
0.000575098 -0.000291223 -4.32464e-19
0.000314468 0.00044243 -1.44211e-19
0.000398528 0.000149672 -1.86703e-19
0.000311549 -0.000188687 -1.7413e-22
0.00018469 9.60508e-05 -5.06301e-20
0.000184055 -0.000161706 -2.14299e-19
-0.000155859 7.29798e-05 -1.22629e-19
-0.000153358 -7.99712e-05 -1.07016e-19
0.000218251 9.16675e-05 -2.63489e-19
0.000218111 -0.00013073 1.79839e-19
9.62863e-05 -0.000327486 3.36062e-20
6.4289e-05 0.000373969 1.48705e-19
-0.000151479 3.57777e-05 -4.42419e-20
-0.000150016 -4.80531e-05 3.22427e-20
4.53594e-06 -0.000551354 1.11747e-19
5.40269e-05 0.000530978 6.63119e-20
0.000549279 -9.62954e-06 -1.52058e-19
-0.000527461 -7.82126e-05 -1.01444e-19
0.000251425 0.00023411 4.20544e-20
0.000204595 -0.000245455 4.82685e-20
-0.000196733 0.000114334 -1.75795e-19
-0.000250192 -4.64612e-05 1.66756e-20
-0.000260621 3.41549e-05 -7.2046e-20
-0.000199927 -0.000129026 -4.30059e-20
0.000190488 -0.000299709 -1.78499e-19
0.000179613 0.000264766 -3.14943e-19
0.000269863 -0.000169606 -2.27156e-20
-0.000171998 0.000250916 -1.51844e-19
-3.1283e-05 -0.000251081 -3.20686e-20
0.000267372 0.000130066 -3.46107e-19
-0.000179274 0.000146127 -1.73735e-19
-6.48369e-05 -0.000181129 1.1732e-19
-4.59424e-05 0.000486391 -1.31315e-19
2.09602e-05 -0.000404333 6.71487e-20
0.000347319 0.000346501 -6.34407e-20
0.000287171 -0.000330127 3.50546e-19
2.19974e-05 -8.21742e-05 1.39543e-19
-3.25464e-05 0.000278092 1.08855e-19
-1.95219e-05 -0.000266078 7.95598e-20
6.92894e-05 -0.000161085 1.11803e-19
5.47665e-05 0.00015816 2.20895e-19
7.34833e-06 -0.000223504 -5.35949e-20
-1.34514e-05 0.000216796 -7.92582e-21
-0.000301372 -0.000179686 -1.36825e-19
6.39213e-05 -0.000255211 4.04531e-20
2.45497e-05 0.000221741 4.48451e-20
-0.00034616 0.000234664 -5.69717e-20
3.08052e-05 6.17028e-05 6.76073e-20
8.5137e-05 -0.000138798 2.80886e-20
-1.95219e-05 -0.000266078 -1.42618e-19
-0.000155859 7.29798e-05 3.10705e-20
0.000394925 0.000150794 -1.50132e-19
0.000299857 -0.000192332 -2.17471e-20
0.000267372 0.000130066 -2.05914e-19
0.000170868 0.000183798 -1.77431e-19
0.000150071 -0.000211521 -2.14855e-19
0.000516416 0.000165598 -4.67309e-20
0.000398528 0.000149672 3.65225e-19
0.000373645 -0.000147697 3.54874e-19
0.000311549 -0.000188687 -3.09664e-19
-2.72027e-05 -0.000131903 4.10563e-20
-4.23337e-05 0.000127123 -2.29535e-20
0.00018469 9.60508e-05 -3.65828e-19
0.000184055 -0.000161706 -9.68386e-20
0.000253043 0.000473573 3.40369e-19
0.000246276 -0.000409299 7.45988e-20
0.000269863 -0.000169606 -4.54483e-20
0.000201056 2.32993e-05 -2.66675e-19
-0.000161353 4.52115e-05 -1.39734e-19
-0.00052041 -1.39783e-05 -2.66319e-21
-0.000536463 7.89234e-06 -1.62807e-20
-4.05376e-05 0.000138423 -1.91078e-19
-2.3686e-05 -0.000149478 -7.58177e-20
-0.000199927 -0.000129026 -3.91067e-20
0.000124078 0.000119478 3.71571e-20
0.000143151 -0.000177516 -8.27158e-20
4.53594e-06 -0.000551354 -2.43539e-19
5.40269e-05 0.000530978 -1.62263e-19
-0.000527461 -7.82126e-05 -7.80933e-20
0.000549279 -9.62954e-06 -1.05026e-19
-0.000189681 0.000112141 -2.25903e-19
3.6494e-05 0.000149729 -1.29383e-19
3.14252e-05 -0.000167122 2.02601e-19
-0.000766957 0.000618861 2.67435e-19
-3.34037e-05 -0.000511874 -2.38418e-19
0.000511591 2.53616e-05 -3.36937e-19
-4.23337e-05 0.000127123 -1.64798e-21
-2.72027e-05 -0.000131903 1.23041e-19
-1.34514e-05 0.000216796 -1.27472e-22
7.34833e-06 -0.000223504 -6.9574e-20
-0.000161353 4.52115e-05 -9.17968e-20
6.39213e-05 -0.000255211 -1.50149e-19
2.45497e-05 0.000221741 -2.75679e-19
-0.000301372 -0.000179686 9.13933e-20
0.000251425 0.00023411 1.02734e-19
0.000204595 -0.000245455 -1.64684e-19
0.000163936 -7.35236e-05 2.07452e-19
0.000163427 -5.86399e-05 -1.13578e-19
-0.000199927 -0.000129026 -5.08042e-20
-0.000150016 -4.80531e-05 -2.34929e-20
-0.000151479 3.57777e-05 -1.43633e-19
-0.000155859 7.29798e-05 2.28897e-20
0.000774249 -0.000612833 -5.02892e-20
4.53594e-06 -0.000551354 2.81044e-19
1.24347e-05 0.000481374 -1.73022e-20
0.000549279 -9.62954e-06 -5.2858e-20
0.000190488 -0.000299709 -7.34498e-20
0.000179613 0.000264766 -1.50068e-19
0.00018469 9.60508e-05 -5.45293e-20
0.000184055 -0.000161706 3.41286e-20
-0.00034616 0.000234664 -2.22891e-19
0.000219389 6.9556e-05 1.09377e-19
0.000196859 -0.000142003 -1.00929e-19
0.000269863 -0.000169606 3.30201e-20
0.000267372 0.000130066 -4.1354e-19
-0.000620053 0.00075994 3.13306e-19
-0.000766957 0.000618861 -5.69631e-20
-0.000150016 -4.80531e-05 1.12801e-19
-0.000151479 3.57777e-05 -2.86452e-20
9.62863e-05 -0.000327486 4.53037e-20
6.4289e-05 0.000373969 -3.7231e-19
2.40062e-05 -3.12871e-06 -1.25594e-19
2.68152e-05 -3.51383e-06 -8.3047e-20
1.23659e-05 -1.63161e-06 -3.91067e-20
2.67596e-05 3.48459e-06 5.22314e-20
3.61762e-05 -4.69819e-06 2.82573e-19
3.62383e-05 4.66864e-06 3.59041e-20
3.11674e-05 -7.69745e-06 -1.27594e-20
2.16332e-05 -2.41717e-06 1.06128e-19
2.15411e-05 -2.07299e-06 -1.33439e-19
3.86242e-05 3.16801e-06 -1.57234e-19
6.09075e-05 -1.90065e-05 2.2592e-19
6.09503e-05 1.90092e-05 4.17699e-20
-9.69126e-06 -2.13662e-05 8.32211e-20
-1.22937e-05 -7.98893e-06 -1.6871e-19
3.96488e-05 2.24858e-05 -1.5446e-19
4.33777e-05 -1.99975e-05 -4.01686e-20
5.12085e-05 5.9295e-06 -1.21869e-19
2.92551e-05 7.07066e-06 1.92395e-19
2.17522e-05 -2.48188e-06 2.29169e-19
1.55729e-05 1.08784e-05 -2.78389e-19
4.94587e-05 -3.86978e-05 -5.92695e-20
2.01548e-05 -8.97969e-06 -1.05002e-19
2.43057e-05 -3.1544e-06 8.30174e-20
2.69288e-05 1.14586e-06 -1.81377e-19
2.50405e-05 1.84732e-06 9.00384e-20
2.8496e-05 2.56064e-07 -1.81028e-19
6.09075e-05 -1.90065e-05 8.28728e-20
6.09503e-05 1.90092e-05 1.30509e-19
2.86336e-05 -1.53555e-06 8.84371e-20
2.86332e-05 1.46525e-06 -1.86053e-19
2.01349e-05 2.46127e-05 -1.06587e-19
2.17096e-05 -2.08623e-05 -1.0589e-19
2.59902e-05 -4.82393e-06 -5.71458e-20
2.5961e-05 4.74988e-06 -6.74332e-20
8.54323e-05 0.000108667 -6.74969e-20
2.92661e-05 -0.000102586 2.13033e-19
-4.82711e-06 -5.70818e-05 -2.42532e-21
-5.23014e-06 5.5852e-05 -1.38498e-19
3.00566e-05 2.03673e-08 -2.33017e-20
2.9781e-05 -4.723e-07 -1.64798e-21
2.43638e-05 2.86854e-09 -2.31072e-19
2.34947e-05 -2.69035e-08 -4.15787e-20
3.79493e-05 -3.14162e-05 2.89089e-19
3.79616e-05 3.1492e-05 5.98727e-20
1.08068e-05 2.26684e-06 5.27971e-21
-8.19566e-05 -5.82262e-05 -1.47248e-19
-8.16608e-05 5.81899e-05 1.75829e-19
1.40101e-05 -1.86657e-06 -4.01048e-20
2.87497e-05 -3.01821e-06 -5.05026e-20
2.88134e-05 2.99596e-06 -1.84707e-19
2.39874e-05 -3.20008e-06 -1.57242e-20
2.40062e-05 -3.12871e-06 -8.19385e-20
3.42135e-05 7.55917e-06 1.2401e-19
2.40049e-05 3.29061e-06 -5.8021e-21
-1.83637e-05 2.06364e-05 4.0733e-21
0.000162295 2.38744e-05 2.47289e-20
4.11008e-05 0.000153883 -6.08071e-20
8.70018e-05 -0.000161499 -4.91096e-20
5.19948e-05 -4.90949e-05 2.40646e-19
5.20303e-05 4.91237e-05 -9.14827e-20
2.55574e-06 7.74009e-06 -3.30838e-20
8.19984e-05 0.000150455 -1.95262e-19
8.90279e-05 -0.000142201 -3.46043e-20
9.41404e-05 -2.44151e-05 -1.77541e-19
1.16966e-05 -1.23893e-05 9.54422e-21
5.2759e-05 -9.87455e-06 -5.37224e-20
3.06824e-05 -7.17037e-06 1.43332e-19
2.50405e-05 1.84732e-06 -2.75569e-19
5.12085e-05 5.9295e-06 -1.00564e-19
2.92551e-05 7.07066e-06 5.03922e-20
1.06014e-05 5.02724e-05 -5.86197e-20
2.43057e-05 -3.1544e-06 -2.6024e-19
1.5855e-05 4.84983e-07 -9.5713e-20
8.90279e-05 -0.000142201 -4.91562e-20
2.01349e-05 2.46127e-05 -2.18058e-19
6.20642e-05 -1.86464e-05 3.04006e-19
6.21104e-05 1.8648e-05 -7.21734e-20
2.40049e-05 3.29061e-06 -1.51321e-19
2.40993e-05 -2.27696e-05 3.96928e-19
2.40036e-05 2.27894e-05 -1.23517e-19
8.0214e-05 -2.41393e-05 4.21648e-20
6.09075e-05 -1.90065e-05 1.13404e-19
8.02763e-05 2.41544e-05 -1.005e-19
6.09503e-05 1.90092e-05 3.25444e-20
4.94587e-05 -3.86978e-05 9.05312e-20
2.86336e-05 -1.53555e-06 1.39891e-19
2.86332e-05 1.46525e-06 -1.71501e-19
0.00020418 0.000182852 -4.9789e-20
-4.54032e-05 -0.000139222 -1.07016e-19
1.23145e-05 1.74291e-06 -1.95708e-19
2.39874e-05 -3.20008e-06 2.27759e-19
2.17522e-05 -2.48188e-06 -1.25785e-19
4.46499e-05 1.56566e-05 -1.47295e-19
1.06014e-05 5.02724e-05 -1.2748e-19
-0.0002979 4.80193e-05 -5.03456e-20
-0.000297699 -4.89741e-05 7.31249e-20
5.03486e-05 -3.30979e-05 -6.25359e-20
1.40101e-05 -1.86657e-06 8.41088e-20
2.60541e-05 2.46204e-06 8.84542e-20
3.00566e-05 2.03673e-08 -2.11432e-19
2.9781e-05 -4.723e-07 -1.39369e-19
2.34947e-05 -2.69035e-08 8.15902e-20
2.43638e-05 2.86854e-09 -6.28204e-20
2.60638e-05 -2.51669e-06 -2.18661e-19
-2.42751e-05 -1.82094e-05 -4.30525e-20
5.13402e-06 -1.93498e-05 2.36619e-19
5.13782e-06 1.90262e-05 6.26634e-20
2.24878e-05 8.09013e-06 -1.2607e-19
5.12085e-05 5.9295e-06 -7.5359e-20
2.96772e-05 4.17823e-07 -1.71172e-21
2.44638e-05 -9.10853e-08 -3.72038e-20
4.94587e-05 -3.86978e-05 -1.43064e-19
5.2759e-05 -9.87455e-06 1.01941e-20
4.46499e-05 1.56566e-05 -1.43395e-19
2.92551e-05 7.07066e-06 -3.30201e-20
2.50405e-05 1.84732e-06 6.23618e-20
3.79493e-05 -3.14162e-05 6.40564e-20
3.79616e-05 3.1492e-05 1.41858e-19
3.10284e-05 1.54095e-05 -1.56775e-20
3.08253e-05 -1.53969e-05 -2.04092e-19
3.06824e-05 -7.17037e-06 -1.86036e-19
1.40101e-05 -1.86657e-06 9.22896e-20
1.23145e-05 1.74291e-06 7.97339e-20
-4.82711e-06 -5.70818e-05 1.21266e-20
-5.23014e-06 5.5852e-05 1.72801e-19
2.01349e-05 2.46127e-05 -4.98061e-20
2.28027e-05 7.82511e-06 1.85148e-20
3.02067e-05 3.54379e-08 -7.81543e-21
3.00566e-05 2.03673e-08 -4.03256e-20
2.43638e-05 2.86854e-09 1.05431e-19
2.87497e-05 -3.01821e-06 -2.37588e-19
2.88134e-05 2.99596e-06 1.83578e-20
2.86332e-05 1.46525e-06 -5.32762e-20
2.43057e-05 -3.1544e-06 -1.02641e-19
2.86336e-05 -1.53555e-06 2.55279e-21
3.61762e-05 -4.69819e-06 2.79056e-19
3.62383e-05 4.66864e-06 -2.44864e-19
2.39874e-05 -3.20008e-06 7.79585e-20
2.40049e-05 3.29061e-06 -1.11947e-19
3.20142e-05 1.97252e-07 -2.0357e-19
2.24878e-05 8.09013e-06 -1.56219e-19
-5.23014e-06 5.5852e-05 3.50801e-20
-4.82711e-06 -5.70818e-05 -3.0102e-20
8.54323e-05 0.000108667 -1.07254e-19
2.92661e-05 -0.000102586 3.59757e-21
-0.00016282 0.000265131 1.44425e-19
-0.000190716 -0.000124502 -2.2414e-20
0.000165085 -0.000175085 7.6183e-20
0.000174412 0.000222018 -1.73863e-19
0.000196358 0.000142117 -1.45519e-20
0.000219165 -6.98917e-05 -7.6413e-21
4.6216e-05 -0.000248112 2.73475e-19
0.000240411 8.14023e-05 -2.86452e-20
-0.000307437 -4.05552e-05 3.30115e-20
-2.66431e-05 0.000260406 -1.15116e-19
0.000310873 0.000188535 4.01048e-20
0.000398524 -0.000149903 -1.94565e-19
-0.000199905 -0.000118178 -7.66121e-20
-0.000195113 0.000107437 2.08102e-19
3.55472e-05 0.000237262 5.24056e-20
-2.98046e-06 -0.000230463 -1.82073e-19
-2.4934e-05 -0.000228431 7.84342e-20
6.47724e-05 0.00025494 -8.76689e-21
0.000197065 5.59759e-05 -6.82572e-20
0.000124709 -0.000105145 -4.24198e-20
-2.97977e-05 0.00013014 1.16131e-19
4.21076e-05 -0.000125831 1.94136e-19
-0.000342812 0.000248356 2.70867e-19
-0.000305303 -0.000166504 -1.25942e-19
0.000566382 -0.000261713 -7.60248e-20
0.000325184 0.000472149 3.87607e-19
0.000310873 0.000188535 -1.2672e-19
0.000398524 -0.000149903 -3.34758e-19
0.000183692 0.000161568 1.08269e-19
0.00018526 -9.68273e-05 1.63036e-19
-0.000152068 7.80013e-05 -2.76937e-20
-0.000158319 -7.26419e-05 -3.47785e-20
0.000218486 0.000130729 2.46652e-20
0.000218307 -9.16835e-05 -4.58432e-20
9.64771e-05 0.000327796 3.01389e-19
-6.34648e-05 -0.000372962 1.44156e-19
-0.000142321 4.14045e-05 1.86529e-19
-0.000154268 -3.74555e-05 -2.14792e-19
-6.79454e-06 -0.000522595 -3.5783e-19
6.15528e-05 0.000555892 -2.44242e-20
0.000546899 2.15995e-05 2.31641e-19
-0.000526984 -6.45089e-05 1.22774e-20
0.000204305 0.000244699 -2.00541e-19
0.000251333 -0.000234893 1.60245e-19
-0.000192563 0.000122201 8.76598e-20
-0.000259766 -3.42251e-05 -2.2129e-19
-0.000251706 3.97844e-05 1.87892e-19
-0.000205094 -0.000122447 -1.51495e-19
0.000177514 -0.000261138 1.92012e-19
0.000192751 0.000298546 4.01771e-20
0.00026861 -0.00012941 1.01562e-19
-0.00016282 0.000265131 1.61641e-19
-4.9556e-05 -0.000235328 -1.07538e-19
0.000268441 0.000169764 7.56048e-21
-6.44492e-05 0.000181155 -4.58432e-20
0.000180241 -0.000146848 -3.88701e-19
4.719e-05 -0.000485848 -4.18867e-19
2.1287e-05 0.000404505 1.52638e-19
0.000286592 0.000329595 5.38965e-20
0.00034739 -0.000346746 1.20552e-19
2.23391e-05 -5.64722e-05 -3.89792e-20
-3.0461e-05 0.000278463 2.16329e-19
-2.15981e-05 -0.000265401 -2.00605e-19
6.93011e-05 0.000161806 1.06999e-19
-5.07907e-05 -0.000163279 8.28899e-20
8.2152e-06 0.000228237 -8.87728e-22
1.44799e-05 -0.000213627 -2.14316e-19
-0.000305303 -0.000166504 -1.00738e-19
-2.4934e-05 -0.000228431 -2.01951e-19
6.47724e-05 0.00025494 -2.57908e-20
-0.000139955 -9.54351e-05 -1.10422e-19
-0.000342812 0.000248356 1.00857e-19
8.69708e-05 0.000138403 -3.32222e-19
-2.15981e-05 -0.000265401 -8.91336e-20
-0.000152068 7.80013e-05 1.48356e-19
0.000299102 0.000192204 -8.64875e-20
0.000394854 -0.000151046 -1.94153e-19
0.000268441 0.000169764 -2.79145e-20
0.000150655 0.000211207 -1.25641e-19
0.000170062 -0.000184288 2.60924e-20
0.000372711 0.000147432 -8.27795e-20
0.000310873 0.000188535 -2.12604e-19
0.000516344 -0.000165672 1.4173e-19
0.000398524 -0.000149903 1.36346e-21
-2.97977e-05 0.00013014 4.97424e-20
0.000183692 0.000161568 -1.59375e-19
0.00018526 -9.68273e-05 2.67422e-20
0.000246281 0.000409498 4.25302e-20
-0.000252673 -0.000472777 -4.64187e-19
-1.80585e-05 -4.35471e-05 1.3688e-19
0.00026861 -0.00012941 1.63669e-19
0.000197065 5.59759e-05 1.13119e-19
-0.000161178 5.0141e-05 7.14849e-21
-0.000139955 -9.54351e-05 -1.8889e-19
-0.000536188 -9.45779e-06 4.87613e-20
-0.000521096 1.23732e-05 -1.10375e-19
-2.72711e-05 0.000146022 2.37919e-19
-0.000205094 -0.000122447 -3.61248e-20
0.000143438 0.000177135 -1.58771e-19
-6.79454e-06 -0.000522595 2.65596e-20
6.15528e-05 0.000555892 -5.26726e-19
-0.000526984 -6.45089e-05 -2.38482e-19
0.000546899 2.15995e-05 2.14617e-19
0.000123799 -0.00012029 1.25577e-19
-0.00018126 0.000119253 1.02513e-19
3.16786e-05 0.000170581 -1.22043e-19
3.62756e-05 -0.000145956 -9.98501e-20
-0.000767046 0.00063179 5.72243e-21
-2.4934e-05 -0.000228431 -5.64322e-20
-3.9904e-05 -0.000487902 -6.73345e-20
0.000514071 5.20874e-05 3.26674e-19
-2.97977e-05 0.00013014 1.81666e-20
8.2152e-06 0.000228237 1.2237e-20
-0.000161178 5.0141e-05 -2.97537e-20
6.47724e-05 0.00025494 9.59509e-20
-0.000305303 -0.000166504 -2.27092e-19
0.000204305 0.000244699 -8.12715e-20
0.000251333 -0.000234893 -1.30793e-19
0.00016274 5.889e-05 -1.77541e-19
0.000165918 7.36485e-05 8.33486e-20
1.44799e-05 -0.000213627 4.27396e-19
-0.000205094 -0.000122447 -8.40622e-20
-1.80585e-05 -4.35471e-05 2.58621e-19
-0.000142321 4.14045e-05 2.2733e-19
-0.000154268 -3.74555e-05 -5.32933e-20
-0.000152068 7.80013e-05 2.04092e-19
0.00077143 -0.000593024 -7.97149e-20
-6.79454e-06 -0.000522595 4.40053e-19
2.39285e-05 0.000511032 6.72824e-20
0.000546899 2.15995e-05 4.12304e-19
0.000177514 -0.000261138 8.76768e-20
0.000192751 0.000298546 -2.21209e-20
0.000183692 0.000161568 5.64322e-20
-0.000342812 0.000248356 1.98821e-19
0.00018526 -9.68273e-05 2.74125e-19
0.000196358 0.000142117 3.44302e-20
0.000219165 -6.98917e-05 1.11922e-20
0.00026861 -0.00012941 2.98917e-19
0.000268441 0.000169764 -7.05255e-20
-0.000630617 0.000788261 -4.22351e-19
-0.000767046 0.00063179 4.79991e-19
-0.000154268 -3.74555e-05 -3.14183e-19
-0.000142321 4.14045e-05 -1.61532e-20
-6.34648e-05 -0.000372962 -1.05699e-19
9.64771e-05 0.000327796 2.12651e-19
-0.000168565 0.000253874 7.88951e-20
-0.000188965 -0.00012667 2.08119e-19
0.000180536 -0.00017209 9.22554e-21
0.000179233 0.000173744 9.64733e-20
0.000223692 4.46776e-05 -1.01515e-19
0.000223393 -4.49475e-05 1.64463e-19
5.6005e-05 -0.000246734 -3.65539e-20
0.000286824 -5.22314e-05 3.64435e-20
-0.000305713 -4.47464e-05 -6.91853e-20
-3.83185e-05 0.000244228 7.19185e-20
0.000361047 -0.000103363 8.97368e-20
0.000360914 0.00010349 -2.04568e-19
-0.000199253 -0.000119992 -1.57412e-20
-0.000201148 0.000102553 3.93912e-20
1.14449e-05 0.000227057 1.30729e-19
4.24339e-06 -0.000226983 1.7865e-20
-1.99542e-05 -0.00022781 1.83407e-20
3.37788e-05 0.000219854 1.01927e-19
0.000242564 -2.81563e-05 -2.66319e-20
0.000189266 8.24026e-05 -4.8808e-20
-3.93765e-05 0.000124915 1.09373e-20
5.23662e-05 -0.00012185 1.85148e-20
-0.000342948 0.000237615 1.38383e-20
-0.000302073 -0.000169836 3.54237e-21
0.000579323 -0.000271472 2.66944e-20
0.000327305 0.000447131 -9.28928e-21
0.000361047 -0.000103363 1.69772e-20
0.000360914 0.00010349 1.80918e-19
0.000201009 -8.83491e-05 2.79316e-20
0.000200515 8.72539e-05 6.54836e-20
-0.000156183 7.50837e-05 1.29192e-19
-0.00015853 -7.50125e-05 1.32632e-19
0.000242434 8.54558e-05 -4.10563e-20
0.00024166 -8.77406e-05 2.68526e-20
6.97631e-05 0.000369337 1.00865e-19
-5.73389e-05 -0.000366955 -6.90983e-20
-0.000150402 3.56516e-05 6.0633e-20
-0.000153534 -3.80309e-05 -8.83267e-20
1.22176e-06 -0.000528711 7.12857e-20
6.21953e-05 0.000536262 1.46984e-20
0.000564503 4.67323e-06 -2.08531e-20
-0.000524124 -7.07101e-05 5.86675e-20
0.000262828 -0.000158886 9.78368e-20
0.000262251 0.000159148 -1.89192e-19
-0.0001966 0.000116407 9.51464e-22
-0.000259641 -3.47833e-05 1.30143e-20
-0.000260861 3.40108e-05 6.14103e-20
-0.000204646 -0.000124429 3.12275e-20
0.000190442 -0.000261543 -1.24601e-20
0.000191606 0.000265736 4.56924e-20
0.000293346 -0.000129648 5.873e-20
-0.000168565 0.000253874 -4.70838e-21
-4.29155e-05 -0.000235507 8.55998e-20
0.000298894 0.000127575 2.18745e-21
-0.00017152 0.000140895 1.9829e-19
0.000187312 -0.00014066 2.04394e-19
5.40591e-05 -0.000480597 -9.42858e-20
-3.91223e-05 0.000480406 -6.13637e-20
0.00028966 -0.000244405 -1.66952e-19
0.000289764 0.000244869 -2.82526e-19
0.00012807 4.38487e-05 -1.63448e-19
-3.33516e-05 0.000279278 -9.12915e-20
-2.23237e-05 -0.000266604 -5.90954e-20
5.83129e-05 0.000156136 1.41858e-19
-4.10851e-05 -0.000159527 7.99718e-20
-8.10828e-06 0.000216353 1.46708e-19
2.3661e-05 -0.000211591 4.02323e-20
-0.000302073 -0.000169836 6.38908e-20
-1.99542e-05 -0.00022781 -1.21903e-20
3.37788e-05 0.000219854 1.36357e-19
-0.000138477 -9.43978e-05 -1.22757e-19
-0.000342948 0.000237615 7.34732e-20
4.01322e-05 5.60173e-05 -6.07605e-20
-2.23237e-05 -0.000266604 5.34208e-20
-0.000156183 7.50837e-05 -5.67463e-21
0.000363289 -0.000102664 -1.4157e-20
0.000363308 0.000102744 1.72928e-19
0.000298894 0.000127575 1.05478e-19
0.000211653 0.000127601 -1.13119e-19
0.000212805 -0.000127655 1.77112e-19
0.000458806 -0.000129082 1.43221e-19
0.000361047 -0.000103363 1.04289e-19
0.000458788 0.0001292 -1.59009e-19
0.000360914 0.00010349 3.35891e-20
-3.93765e-05 0.000124915 -3.90896e-20
0.000201009 -8.83491e-05 2.50772e-20
0.000200515 8.72539e-05 8.00355e-20
-0.000245121 -0.000465642 2.367e-19
0.00026006 0.000470637 3.1767e-20
-7.4794e-06 -4.00097e-05 3.55091e-21
0.000293346 -0.000129648 6.54836e-20
0.000242564 -2.81563e-05 -1.16415e-19
-0.000162274 4.73378e-05 -2.18916e-20
-0.000138477 -9.43978e-05 6.92724e-20
-0.000536218 -1.009e-05 -8.46529e-21
-0.000536758 8.62404e-06 -2.92593e-19
-3.72974e-05 0.000137989 7.43142e-20
-0.000204646 -0.000124429 1.27765e-20
0.000136604 0.000111959 1.39781e-19
1.22176e-06 -0.000528711 -1.21266e-20
6.21953e-05 0.000536262 -7.63466e-20
0.000564503 4.67323e-06 2.47523e-20
-0.000524124 -7.07101e-05 -6.19816e-21
0.000136106 -0.000113132 -1.6629e-20
-0.000189037 0.000112884 7.81543e-21
0.000127013 -0.000105012 -5.8985e-20
0.000125309 0.000102804 -7.03343e-20
-0.000761639 0.000620457 1.34582e-20
-1.99542e-05 -0.00022781 1.17732e-19
-3.30271e-05 -0.000492832 -7.11116e-20
0.000528606 3.83836e-05 1.03554e-20
-3.93765e-05 0.000124915 5.06938e-20
-8.10828e-06 0.000216353 7.92753e-20
-0.000162274 4.73378e-05 1.15829e-19
3.37788e-05 0.000219854 5.5417e-20
-0.000302073 -0.000169836 1.00271e-19
0.000262828 -0.000158886 -2.92313e-20
0.000262251 0.000159148 1.2068e-19
0.000171511 -7.19922e-05 1.01863e-19
0.000172818 7.24257e-05 -1.35367e-20
2.3661e-05 -0.000211591 -2.47289e-20
-0.000204646 -0.000124429 3.26547e-20
-7.4794e-06 -4.00097e-05 5.39602e-20
-0.000153534 -3.80309e-05 4.40677e-20
-0.000150402 3.56516e-05 -1.21266e-20
-0.000156183 7.50837e-05 -4.68584e-20
0.000784838 -0.000604177 -2.8335e-20
1.22176e-06 -0.000528711 -6.64351e-20
2.06265e-05 0.000486695 -2.91357e-20
0.000564503 4.67323e-06 2.88426e-20
0.000190442 -0.000261543 -5.54022e-20
0.000191606 0.000265736 6.75203e-20
0.000200515 8.72539e-05 9.45875e-20
-0.000342948 0.000237615 -1.59791e-20
0.000201009 -8.83491e-05 -2.92313e-20
0.000223393 -4.49475e-05 -1.00708e-19
0.000223692 4.46776e-05 1.38069e-19
0.000293346 -0.000129648 1.26023e-20
0.000298894 0.000127575 1.67394e-20
-0.000620513 0.000768015 3.45927e-20
-0.000761639 0.000620457 -1.66204e-20
-0.000153534 -3.80309e-05 9.83762e-20
-0.000150402 3.56516e-05 6.34874e-20
-5.73389e-05 -0.000366955 9.91536e-20
6.97631e-05 0.000369337 1.42049e-19
-0.000167797 0.000271041 5.78827e-20
-0.000183365 -0.000174087 4.09926e-20
0.000162255 -0.000181058 -2.96428e-19
0.000164061 0.000182528 1.81725e-19
0.000222568 -7.39233e-05 -7.99081e-20
0.000223093 7.80274e-05 1.72453e-19
-4.58042e-05 -0.000246284 2.45548e-20
0.000245532 -5.97098e-05 -3.74416e-20
-0.000345078 -7.79548e-05 -2.38862e-19
-4.16599e-05 0.000248588 -2.53151e-20
0.000408494 -0.000155125 -3.07922e-19
0.000403918 0.000157781 2.7709e-19
-0.000203382 -0.0001022 2.33481e-19
-0.000201441 0.000117816 7.16556e-21
5.4845e-06 0.000231892 8.76131e-20
2.18515e-06 -0.000232382 -2.43768e-19
2.25243e-05 -0.000223709 -1.44869e-19
2.5153e-05 0.000226066 1.21266e-20
0.000200843 -3.54032e-05 -1.62798e-19
0.000128562 0.000116841 1.13039e-19
-4.33395e-05 -0.000127979 3.9867e-20
-4.09677e-05 0.000130232 -8.1399e-20
-0.000275929 0.000451158 -2.59649e-20
-0.000309641 -0.00016744 -3.02428e-19
0.000549986 -0.000261303 -3.3949e-19
0.000540199 0.000293361 -2.42532e-21
0.000408494 -0.000155125 1.19792e-19
0.000403918 0.000157781 8.11611e-20
0.000184932 -0.0001001 -2.43832e-19
0.000186156 0.000102419 9.77264e-20
-0.000159214 -7.45564e-05 -1.0245e-19
-0.000162379 7.54588e-05 -1.54507e-19
0.000217538 0.000101675 1.13404e-19
0.000214763 -0.000103113 -3.28799e-19
6.69858e-05 0.000377764 -1.55887e-19
6.43169e-05 -0.000377735 -5.69555e-19
-0.000153401 -3.57113e-05 -1.49002e-20
-0.000163683 3.9975e-05 9.39967e-21
-6.98555e-06 -0.000517995 -7.66354e-20
-5.18493e-05 0.000528478 4.05012e-19
0.000522137 -3.80874e-05 4.56184e-21
-0.000460447 4.21161e-06 -1.25821e-20
0.000258527 -0.000244357 -2.42358e-19
0.000256062 0.000245065 9.04333e-20
-0.000241712 -0.000145491 -1.34106e-19
-0.000262899 -3.41266e-05 1.36943e-19
-0.000261441 4.34795e-05 1.44504e-19
-0.00020284 0.000118902 -3.60676e-19
0.000173553 -0.000267152 -1.05882e-19
-0.000164098 0.000268283 1.8364e-20
0.000259301 -0.000139293 -2.41644e-19
-4.88346e-05 -0.000238316 -2.31595e-19
0.000160917 0.000250741 9.72506e-20
0.000265641 0.000139476 6.66729e-20
-0.00018082 0.000146873 6.99143e-21
-0.000182201 -0.000148149 -7.87825e-20
-4.73192e-05 -0.000491602 -3.4002e-19
-4.52078e-05 0.000492216 2.50109e-19
0.000356379 -0.000356457 -5.74941e-20
0.000353244 0.000355885 1.64098e-19
2.39691e-05 -7.01088e-05 -1.0459e-19
-3.75183e-05 -0.000278369 -3.19582e-20
-2.86709e-05 0.000265378 4.75083e-20
5.46837e-05 -0.000159306 -3.96296e-19
5.54116e-05 0.000159523 4.96957e-20
-0.000309641 -0.00016744 -4.11371e-21
-1.25476e-05 0.000219381 8.63942e-21
-1.428e-05 -0.000217197 -1.99288e-19
2.25243e-05 -0.000223709 -3.23391e-19
2.5153e-05 0.000226066 -2.42532e-21
3.61927e-05 6.23974e-05 4.54949e-20
2.96928e-05 -6.32906e-05 -1.61957e-19
-2.86709e-05 0.000265378 -6.80023e-21
-0.000159214 -7.45564e-05 -1.22328e-19
0.000403648 -0.000156634 -9.15589e-20
0.00039908 0.000159288 -6.04589e-20
0.000265641 0.000139476 1.01103e-19
0.000173747 0.000193744 1.5576e-19
0.0001753 -0.000192392 7.33628e-20
0.000528535 -0.000170071 -1.13863e-19
0.000408494 -0.000155125 -1.26023e-20
0.000520665 0.000169261 -7.77377e-20
0.000403918 0.000157781 1.56393e-19
-0.000335293 0.00025093 -3.56025e-20
-4.33395e-05 -0.000127979 -1.2553e-19
-4.09677e-05 0.000130232 1.74164e-19
0.000184932 -0.0001001 -1.5652e-19
0.000186156 0.000102419 5.65426e-20
0.00025515 -0.000478372 -2.91752e-19
0.000260504 0.00048026 -1.29145e-19
0.000259301 -0.000139293 -1.88763e-19
0.000200843 -3.54032e-05 -4.49555e-20
-0.000164535 -4.86826e-05 -1.69534e-19
-0.000540132 -7.45293e-06 1.89778e-19
-0.000538747 1.00476e-05 1.7659e-19
-4.13496e-05 -0.000140495 -2.60049e-19
-3.69625e-05 0.000150703 1.71172e-21
-0.00020284 0.000118902 3.12184e-21
0.000125338 0.000125813 -1.39021e-20
0.000122854 -0.000124085 -2.5022e-19
-6.98555e-06 -0.000517995 6.3035e-20
-5.18493e-05 0.000528478 -1.25515e-19
-0.000460447 4.21161e-06 -3.16484e-19
0.000522137 -3.80874e-05 -3.16524e-20
-0.00019147 -0.00011253 6.45197e-21
4.41054e-05 -0.000161797 -3.17131e-19
4.28591e-05 0.000159545 -4.95853e-20
0.000755998 0.000612385 -1.60895e-20
2.5153e-05 0.000226066 1.12563e-19
-3.74925e-05 -0.000486198 -8.54606e-20
-0.000460447 4.21161e-06 -2.81888e-19
-4.09677e-05 0.000130232 -1.97814e-19
-4.33395e-05 -0.000127979 -2.84174e-19
-1.428e-05 -0.000217197 1.79062e-19
-0.000164535 -4.86826e-05 -1.5641e-19
2.25243e-05 -0.000223709 -2.16202e-19
0.000258527 -0.000244357 4.76357e-20
0.000256062 0.000245065 1.06412e-19
0.000169154 -6.51836e-05 -9.74418e-20
0.000165723 7.38883e-05 -2.80751e-19
-0.000309641 -0.00016744 -3.7376e-19
-1.25476e-05 0.000219381 -5.63218e-20
-0.00020284 0.000118902 1.80562e-20
-0.000153401 -3.57113e-05 8.02097e-20
-0.000163683 3.9975e-05 5.5005e-21
-0.000159214 -7.45564e-05 9.98501e-20
0.000717862 -0.000587251 -2.41553e-19
-1.25294e-05 0.000477766 1.34614e-19
-6.98555e-06 -0.000517995 -3.16028e-19
0.000495774 -1.54348e-05 -8.4831e-20
0.000173553 -0.000267152 -5.06773e-19
-0.000164098 0.000268283 2.90168e-20
0.000186156 0.000102419 5.0885e-21
0.000184932 -0.0001001 -4.55739e-19
0.000229907 0.00017468 5.86834e-20
0.000222568 -7.39233e-05 -3.27673e-19
0.000223093 7.80274e-05 -5.29621e-20
0.000259301 -0.000139293 -1.97988e-19
0.000265641 0.000139476 1.48658e-19
0.000611791 0.000752642 1.04099e-19
0.000755998 0.000612385 8.04475e-20
-0.000153401 -3.57113e-05 -4.62985e-21
-0.000163683 3.9975e-05 5.59098e-20
6.69858e-05 0.000377764 -4.65943e-21
6.43169e-05 -0.000377735 -3.60782e-20
-0.000171996 0.000250965 7.97425e-20
-0.000192272 -0.000125923 9.82658e-20
0.000163905 -0.00017874 1.09743e-19
0.000162395 0.000181502 4.65568e-20
0.000223233 -7.66059e-05 -1.47295e-19
0.000222905 7.68967e-05 1.04782e-19
4.40889e-05 -0.000249915 -3.68555e-20
0.000237578 -5.91771e-05 -9.24637e-20
-0.000307963 -4.37227e-05 -3.19159e-19
-4.55336e-05 0.00024556 7.79118e-20
0.000406688 -0.000157319 -1.84957e-19
0.000406277 0.000157779 -3.18774e-20
-0.00020333 0.000102359 1.15226e-19
-0.000202168 -0.000119531 4.93475e-20
2.09678e-06 0.000231547 6.09346e-20
-4.32297e-06 -0.000232504 1.36514e-19
-2.59127e-05 -0.000229626 -7.62638e-20
2.25861e-05 0.000222964 5.05197e-20
0.000200443 -3.73886e-05 -3.80915e-20
0.00012667 0.000116803 -1.82201e-19
-4.29393e-05 0.000127502 7.78481e-20
4.09898e-05 -0.000128271 2.29535e-20
-0.000342561 0.000235058 2.94606e-20
-0.000306604 -0.000167966 -2.85729e-20
0.000315556 -0.000452399 1.95865e-19
0.000546791 0.000269202 1.6923e-19
0.000406688 -0.000157319 -1.27132e-19
0.000406277 0.000157779 -5.21381e-20
0.000185363 -0.000101063 -1.24532e-19
0.000185021 0.000101254 -1.32988e-20
-0.000158735 7.5398e-05 -1.48594e-19
-0.000161492 -7.48908e-05 -2.86124e-19
0.000215101 0.000102823 -5.83351e-20
0.000216437 -0.000102096 -3.85035e-20
6.36022e-05 0.000377369 -2.0766e-20
-6.50038e-05 -0.000376939 1.85229e-19
-0.000152554 3.58409e-05 4.80944e-20
-0.000155876 -3.7471e-05 -7.34561e-20
-7.14936e-06 -0.000495688 1.02078e-19
2.11508e-05 0.000519372 4.81815e-20
0.000528222 -3.19543e-06 1.38469e-20
-0.000522415 -6.64394e-05 1.31043e-19
0.000257495 -0.000245619 -9.40946e-20
0.00025648 0.000246534 -1.79839e-19
-0.000198728 0.000116138 -1.72325e-19
-0.000262427 3.4213e-05 -6.5437e-20
-0.000262181 -3.42213e-05 1.7207e-19
-0.000207322 -0.000123772 -3.74213e-19
0.000173338 -0.000265065 1.10243e-20
0.000171048 0.000266498 -7.89737e-20
0.000263211 0.000138971 8.32382e-20
-0.000171996 0.000250965 6.98033e-20
-5.12331e-05 -0.000236347 2.95158e-20
0.000263409 -0.000138762 -4.59707e-20
-0.000183909 0.00014583 6.68471e-20
0.000181487 -0.000147987 -9.56493e-20
4.68579e-05 -0.000491053 -6.54836e-20
-4.83628e-05 0.000491573 1.35771e-19
0.000355437 -0.00035734 -1.95627e-19
0.00035556 0.000358314 -1.54698e-19
2.50799e-05 7.0426e-05 -5.65426e-20
-3.74493e-05 0.000278041 -9.47149e-20
-2.87109e-05 -0.000265132 -3.40182e-20
5.4451e-05 0.000158627 -1.12389e-20
-5.18948e-05 -0.00016572 7.84979e-20
-1.45083e-05 0.000216933 1.77375e-20
1.3008e-05 -0.000216144 1.45519e-20
-0.000306604 -0.000167966 -3.17585e-20
-2.59127e-05 -0.000229626 5.75578e-20
2.25861e-05 0.000222964 5.97453e-20
-0.000141376 -9.58818e-05 4.44797e-20
-0.000342561 0.000235058 2.04797e-19
3.40286e-05 6.15379e-05 2.40153e-20
-2.87109e-05 -0.000265132 -2.76074e-19
-0.000158735 7.5398e-05 -1.88351e-19
0.000401918 -0.000158805 -8.06914e-22
0.000401409 0.000159295 -9.90261e-20
0.000263409 -0.000138762 -8.68608e-21
0.000172864 0.000194473 -1.83976e-19
0.000174623 -0.000193865 -6.59593e-20
0.00052504 -0.000170135 6.39631e-20
0.000406688 -0.000157319 -2.43547e-19
0.000524683 0.000170364 -3.87414e-20
0.000406277 0.000157779 -2.26519e-20
-4.29393e-05 0.000127502 -1.19508e-19
0.000185363 -0.000101063 -2.90401e-20
0.000185021 0.000101254 -1.60133e-21
0.00025467 0.000478088 1.98702e-19
-0.000256818 -0.000478262 -3.24169e-20
-1.87073e-05 -4.66361e-05 -5.60202e-20
0.000263211 0.000138971 -3.02852e-21
0.000200443 -3.73886e-05 -1.96404e-20
-0.000164093 4.78222e-05 -1.44457e-19
-0.000141376 -9.58818e-05 -9.71402e-20
-0.000539055 7.48334e-06 -1.90372e-20
-0.000539255 -8.77266e-06 4.19342e-19
-4.11635e-05 0.00013867 2.02903e-20
-0.000207322 -0.000123772 8.2223e-20
0.00012337 0.000125074 4.06443e-20
-7.14936e-06 -0.000495688 9.87012e-20
2.11508e-05 0.000519372 3.02528e-20
-0.000522415 -6.64394e-05 1.6502e-19
0.000528222 -3.19543e-06 -3.07009e-19
0.00012332 -0.000124764 -2.28897e-20
-0.00019106 0.000112826 -3.48422e-20
4.33867e-05 -0.000163089 -7.46921e-20
4.06082e-05 0.000158534 -1.19839e-19
-0.000756345 0.000616602 -1.38909e-19
-2.59127e-05 -0.000229626 2.06556e-20
-1.42768e-05 -0.00048671 7.96394e-22
0.000496594 -3.25648e-05 4.82887e-20
-4.29393e-05 0.000127502 1.13705e-19
-1.45083e-05 0.000216933 1.66927e-20
-0.000164093 4.78222e-05 -5.18194e-20
2.25861e-05 0.000222964 1.1938e-19
-0.000306604 -0.000167966 3.69107e-20
0.000257495 -0.000245619 -2.80886e-20
0.00025648 0.000246534 -2.6139e-20
0.000171426 6.90465e-05 -5.56549e-20
0.000168204 -6.83703e-05 -2.21295e-20
1.3008e-05 -0.000216144 1.32394e-19
-0.000207322 -0.000123772 -1.88937e-19
-1.87073e-05 -4.66361e-05 9.48253e-20
-0.000152554 3.58409e-05 -8.71544e-20
-0.000155876 -3.7471e-05 8.14661e-21
-0.000158735 7.5398e-05 -1.90543e-20
0.000744131 0.000589893 1.47929e-19
-7.14936e-06 -0.000495688 5.0955e-20
4.73223e-06 0.000503294 5.94203e-20
0.000528222 -3.19543e-06 1.57964e-20
0.000173338 -0.000265065 -7.55736e-20
0.000171048 0.000266498 7.59622e-20
0.000185021 0.000101254 -1.43221e-19
-0.000342561 0.000235058 3.0452e-19
0.000185363 -0.000101063 3.83931e-20
0.000223233 -7.66059e-05 -1.77826e-19
0.000222905 7.68967e-05 -8.33486e-20
0.000263211 0.000138971 1.19058e-20
0.000263409 -0.000138762 -1.76938e-19
-0.000616416 0.000765795 6.03992e-19
-0.000756345 0.000616602 2.12025e-19
-0.000152554 3.58409e-05 -7.75465e-20
-0.000155876 -3.7471e-05 1.63274e-20
-6.50038e-05 -0.000376939 1.8022e-20
6.36022e-05 0.000377369 -8.43e-20
-0.000168062 0.000271047 8.48628e-20
-0.000183325 -0.000174902 1.03291e-19
0.000164438 -0.000179309 1.37419e-19
0.000162736 0.000181492 2.81057e-20
0.00022316 -7.78214e-05 -1.78012e-20
0.000222476 7.39908e-05 -2.02189e-19
4.55736e-05 -0.000249443 1.69883e-19
0.000245548 -6.10074e-05 -7.78014e-20
-0.000345176 -7.81379e-05 -7.67139e-20
-4.23019e-05 0.000248872 -2.2863e-19
0.00040421 -0.000157368 -2.64406e-20
0.000408435 0.00015547 -6.96207e-20
-0.000203536 -0.000102134 3.25167e-19
-0.000201369 0.000117817 2.29755e-19
4.35562e-06 0.000232499 -1.81678e-19
-2.91597e-06 -0.000231728 1.57947e-19
-2.39731e-05 -0.000227693 1.28954e-19
2.35424e-05 0.000225889 -1.66918e-19
0.000201072 -3.68204e-05 5.49584e-20
0.00012835 0.00011532 -1.74797e-19
-4.12624e-05 0.000130846 -2.30533e-19
4.25881e-05 -0.000128323 -1.80562e-20
-0.000276193 0.00045097 3.44784e-19
-0.000309982 -0.000167839 -1.04709e-19
0.000550046 -0.000261719 -2.95912e-20
0.000539841 0.000292701 -4.33118e-19
0.00040421 -0.000157368 3.70934e-20
0.000408435 0.00015547 -3.87291e-19
0.000185893 -0.000102199 1.76161e-19
0.000185191 0.000100241 -1.83262e-19
-0.000159205 -7.45913e-05 3.31207e-19
-0.000162337 7.54158e-05 2.94224e-19
0.000216983 0.000100181 -2.12239e-19
0.000215604 -0.000104326 1.0256e-19
6.46185e-05 0.000377938 -3.50847e-19
-6.29521e-05 -0.000377151 -7.55332e-20
-0.000153783 -3.63325e-05 6.52924e-20
-0.000163587 4.03772e-05 8.62234e-21
-6.29221e-06 -0.000519029 1.16534e-19
-5.22249e-05 0.000528064 -2.4609e-19
0.000521998 -3.8679e-05 -5.94665e-22
-0.000460606 4.09824e-06 9.44452e-20
0.000256947 -0.000244459 1.55887e-19
0.000257835 0.000244901 -2.94224e-19
-0.000241666 -0.000145761 1.33004e-19
-0.000265559 -2.84004e-05 8.99109e-20
-0.00026094 4.38671e-05 2.88022e-20
-0.000202828 0.00011895 9.98501e-20
0.000173965 -0.000263122 1.85569e-19
-0.000164475 0.000268371 -3.14746e-21
0.000259365 -0.000139807 5.39011e-21
-5.00455e-05 -0.000238015 2.31484e-19
0.000159887 0.000249887 3.40865e-21
0.000265346 0.000138191 -6.02847e-20
-0.000181888 0.000147897 2.31493e-21
0.000186098 -0.000144519 1.92093e-19
-4.69527e-05 0.000491739 -2.37137e-20
4.99425e-05 -0.000492313 1.5435e-19
0.000353078 -0.000354979 -9.20517e-20
0.000356677 0.000357353 1.19079e-19
2.46065e-05 -7.17125e-05 7.31249e-20
-3.75064e-05 -0.000278351 1.31791e-19
-2.86648e-05 0.000265252 -1.24643e-19
5.52109e-05 0.000160168 -3.36406e-19
-4.99986e-05 -0.000165656 -1.98316e-20
-0.000309982 -0.000167839 3.53867e-19
-1.325e-05 0.000219729 -8.93885e-20
1.45268e-05 -0.000215711 7.69604e-20
-2.39731e-05 -0.000227693 2.0704e-19
2.35424e-05 0.000225889 -1.00912e-19
-0.000143769 -9.78078e-05 5.61943e-20
2.95158e-05 6.32614e-05 -2.00414e-19
-2.86648e-05 0.000265252 3.41019e-19
-0.000159205 -7.45913e-05 2.86124e-19
0.00039941 -0.000158863 4.25939e-20
0.000403621 0.000156969 -3.89763e-19
0.000265346 0.000138191 -3.07667e-19
0.000173944 0.000192591 -3.80206e-19
0.000175273 -0.00019347 6.9574e-20
0.000520878 -0.000169034 6.86396e-21
0.00040421 -0.000157368 -1.37912e-19
0.000528642 0.00017033 4.32825e-21
0.000408435 0.00015547 -1.47707e-19
-0.000335502 0.000250926 2.01603e-19
-4.12624e-05 0.000130846 4.10096e-20
0.000185893 -0.000102199 1.08727e-19
0.000185191 0.000100241 -2.47841e-19
0.000255483 0.000478613 -7.34175e-19
-0.000255414 -0.000478654 -3.10534e-20
-1.67838e-05 -4.71368e-05 -2.72817e-20
0.000259365 -0.000139807 9.51736e-20
0.000201072 -3.68204e-05 -1.46296e-19
-0.000164531 -4.87533e-05 5.30019e-19
-0.000143769 -9.78078e-05 1.28954e-19
-0.000538579 -8.43723e-06 -2.41899e-19
-0.000538997 9.49649e-06 -3.10705e-20
-3.72878e-05 0.000151165 1.95041e-19
-0.000202828 0.00011895 2.36144e-19
0.000123472 0.000123977 -1.04828e-19
-6.29221e-06 -0.000519029 2.42889e-19
-5.22249e-05 0.000528064 1.44766e-19
-0.000460606 4.09824e-06 1.68441e-19
0.000521998 -3.8679e-05 -1.40074e-19
0.000124106 -0.000125794 1.10394e-22
-0.000191277 -0.000112712 1.5717e-19
4.55218e-05 -0.000162845 3.10705e-20
4.15967e-05 0.00015839 3.72209e-20
0.000755803 0.000611991 6.29277e-20
2.35424e-05 0.000225889 2.33017e-20
-2.39731e-05 -0.000227693 1.3428e-19
-3.71578e-05 -0.000486646 -8.2291e-20
-0.000460606 4.09824e-06 -2.18517e-19
-4.12624e-05 0.000130846 -3.99307e-20
-0.000164531 -4.87533e-05 3.83073e-19
0.000256947 -0.000244459 6.18223e-20
0.000257835 0.000244901 -1.93788e-19
0.000172057 6.58503e-05 1.42809e-19
0.000165607 -7.38183e-05 -3.5741e-19
-0.000309982 -0.000167839 1.85807e-19
-1.325e-05 0.000219729 -3.22219e-19
1.45268e-05 -0.000215711 7.02068e-20
-0.000202828 0.00011895 3.20601e-19
-1.67838e-05 -4.71368e-05 -1.52018e-20
-0.000153783 -3.63325e-05 1.85989e-19
-0.000163587 4.03772e-05 7.74827e-20
-0.000159205 -7.45913e-05 2.98204e-19
0.000717901 -0.000587662 7.51849e-20
-1.30645e-05 0.000477561 -3.40267e-20
-6.29221e-06 -0.000519029 1.34349e-20
0.000495955 -1.63028e-05 -3.9249e-20
-0.000164475 0.000268371 1.81606e-19
0.000173965 -0.000263122 1.55751e-19
0.000185191 0.000100241 -2.13793e-19
0.000229206 0.00017347 -1.11692e-19
0.000185893 -0.000102199 1.74733e-19
0.00022316 -7.78214e-05 3.12184e-21
0.000222476 7.39908e-05 -3.71486e-19
0.000259365 -0.000139807 1.93138e-19
0.000265346 0.000138191 4.83323e-20
0.000611368 0.000752178 -6.25542e-19
0.000755803 0.000611991 -5.65076e-20
-0.000153783 -3.63325e-05 1.71437e-19
-0.000163587 4.03772e-05 1.41399e-19
-6.29521e-05 -0.000377151 -7.44884e-20
6.46185e-05 0.000377938 2.11733e-19
-0.000171998 0.000250916 -3.22567e-19
-0.000184839 -0.000133799 -2.96433e-20
0.000174486 -0.000222817 -9.52373e-20
0.000163702 0.000176917 -2.05154e-19
0.000219389 6.9556e-05 4.13704e-21
0.000196859 -0.000142003 -9.44771e-20
-2.78179e-05 -0.000260066 -1.3482e-19
0.000240526 4.64606e-05 -3.73779e-20
-0.000303413 -4.80033e-05 -1.15687e-19
-4.43415e-05 0.000245295 3.40649e-20
0.000398528 0.000149672 -1.13943e-19
0.000311549 -0.000188687 -2.70268e-20
-0.00019367 -0.000124455 1.16972e-19
-0.000201722 0.000101869 8.21034e-21
3.90797e-06 0.000230431 7.32353e-20
3.44902e-05 -0.000236889 -1.79924e-20
6.39213e-05 -0.000255211 -3.45577e-20
2.45497e-05 0.000221741 -1.3211e-19
0.000201056 2.32993e-05 -1.44631e-19
0.000117009 -0.000138278 1.03291e-19
-2.72027e-05 -0.000131903 5.78594e-20
-4.23337e-05 0.000127123 -6.4358e-20
-0.00034616 0.000234664 6.28204e-20
-0.000301372 -0.000179686 -5.62262e-20
0.000575098 -0.000291223 -4.03059e-19
0.000314468 0.00044243 -2.13524e-19
0.000398528 0.000149672 -6.06796e-20
0.000311549 -0.000188687 -3.37803e-20
0.00018469 9.60508e-05 -1.09441e-19
0.000184055 -0.000161706 -3.8233e-19
-0.000155859 7.29798e-05 -9.3224e-20
-0.000153358 -7.99712e-05 -4.82048e-20
0.000218251 9.16675e-05 -9.54581e-20
0.000218111 -0.00013073 7.48196e-20
9.62863e-05 -0.000327486 -3.36062e-20
6.4289e-05 0.000373969 2.36921e-19
-0.000151479 3.57777e-05 -9.8852e-20
-0.000150016 -4.80531e-05 -5.56424e-21
4.53594e-06 -0.000551354 5.92377e-20
5.40269e-05 0.000530978 6.52617e-20
0.000549279 -9.62954e-06 -1.26854e-19
-0.000527461 -7.82126e-05 -5.87636e-21
0.000251425 0.00023411 8.40622e-20
0.000204595 -0.000245455 6.08708e-20
-0.000196733 0.000114334 -2.85015e-19
-0.000250192 -4.64612e-05 7.54865e-20
-0.000260621 3.41549e-05 -1.09853e-19
-0.000199927 -0.000129026 -3.46043e-20
0.000190488 -0.000299709 -1.65897e-19
0.000179613 0.000264766 -2.47731e-19
0.000269863 -0.000169606 -1.85148e-20
-0.000171998 0.000250916 -2.02253e-19
-3.1283e-05 -0.000251081 3.93446e-20
0.000267372 0.000130066 -3.83914e-19
-0.000179274 0.000146127 -1.77936e-19
-6.48369e-05 -0.000181129 -5.91125e-20
-4.59424e-05 0.000486391 -1.98528e-19
2.09602e-05 -0.000404333 -2.10676e-20
0.000347319 0.000346501 2.13811e-19
0.000287171 -0.000330127 3.67349e-19
2.19974e-05 -8.21742e-05 1.56346e-19
-3.25464e-05 0.000278092 -4.56611e-21
-1.95219e-05 -0.000266078 1.04764e-19
6.92894e-05 -0.000161085 9.92002e-20
5.47665e-05 0.00015816 8.22696e-20
7.34833e-06 -0.000223504 -4.09926e-20
-1.34514e-05 0.000216796 -1.63274e-20
-0.000301372 -0.000179686 -1.26323e-19
6.39213e-05 -0.000255211 1.24469e-19
2.45497e-05 0.000221741 -1.81666e-20
-0.00034616 0.000234664 6.03997e-21
3.08052e-05 6.17028e-05 1.26418e-19
8.5137e-05 -0.000138798 1.24706e-19
-1.95219e-05 -0.000266078 -1.67823e-19
-0.000155859 7.29798e-05 -1.15957e-19
0.000394925 0.000150794 -1.62734e-19
0.000299857 -0.000192332 -2.40187e-19
0.000267372 0.000130066 -2.18517e-19
0.000170868 0.000183798 9.98205e-20
0.000150071 -0.000211521 -1.39241e-19
0.000516416 0.000165598 -5.51325e-20
0.000398528 0.000149672 2.89611e-19
0.000373645 -0.000147697 2.70858e-19
0.000311549 -0.000188687 -3.93679e-19
-2.72027e-05 -0.000131903 7.45009e-21
-4.23337e-05 0.000127123 -6.15036e-21
0.00018469 9.60508e-05 -1.72593e-19
0.000184055 -0.000161706 -6.32324e-20
0.000253043 0.000473573 3.82376e-19
0.000246276 -0.000409299 1.99887e-20
0.000269863 -0.000169606 1.35185e-19
0.000201056 2.32993e-05 -1.8686e-19
-0.000161353 4.52115e-05 -1.79116e-20
-0.00052041 -1.39783e-05 9.93914e-21
-0.000536463 7.89234e-06 1.18144e-19
-4.05376e-05 0.000138423 -9.02592e-20
-2.3686e-05 -0.000149478 -2.56451e-19
-0.000199927 -0.000129026 1.97042e-20
0.000124078 0.000119478 -4.68584e-20
0.000143151 -0.000177516 1.02118e-19
4.53594e-06 -0.000551354 -2.33037e-19
5.40269e-05 0.000530978 -1.31807e-19
-0.000527461 -7.82126e-05 -1.27452e-19
0.000549279 -9.62954e-06 -1.3023e-19
-0.000189681 0.000112141 -2.93115e-19
3.6494e-05 0.000149729 8.4107e-22
3.14252e-05 -0.000167122 2.19404e-19
-0.000766957 0.000618861 2.75837e-19
-3.34037e-05 -0.000511874 -2.63623e-19
0.000511591 2.53616e-05 -3.89446e-19
-4.23337e-05 0.000127123 -8.56635e-20
-2.72027e-05 -0.000131903 1.1464e-19
-1.34514e-05 0.000216796 9.22896e-20
7.34833e-06 -0.000223504 1.86423e-20
-0.000161353 4.52115e-05 -1.96816e-19
6.39213e-05 -0.000255211 9.48049e-21
2.45497e-05 0.000221741 -6.14399e-20
-0.000301372 -0.000179686 8.92929e-20
0.000251425 0.00023411 2.70765e-19
0.000204595 -0.000245455 -1.77286e-19
0.000163936 -7.35236e-05 2.24255e-19
0.000163427 -5.86399e-05 -9.25741e-20
-0.000199927 -0.000129026 -1.43221e-19
-0.000150016 -4.80531e-05 6.47234e-20
-0.000151479 3.57777e-05 -7.22201e-20
-0.000155859 7.29798e-05 5.22952e-20
0.000774249 -0.000612833 -1.16451e-19
4.53594e-06 -0.000551354 2.53739e-19
1.24347e-05 0.000481374 -2.15029e-20
0.000549279 -9.62954e-06 -1.5051e-20
0.000190488 -0.000299709 2.73688e-20
0.000179613 0.000264766 -2.08879e-19
0.00018469 9.60508e-05 -1.63749e-19
0.000184055 -0.000161706 6.77348e-20
-0.00034616 0.000234664 -2.35494e-19
0.000219389 6.9556e-05 9.67749e-20
0.000196859 -0.000142003 2.08935e-20
0.000269863 -0.000169606 -8.88024e-20
0.000267372 0.000130066 -4.76552e-19
-0.000620053 0.00075994 3.54263e-19
-0.000766957 0.000618861 -8.00674e-20
-0.000150016 -4.80531e-05 1.75812e-19
-0.000151479 3.57777e-05 1.18382e-19
9.62863e-05 -0.000327486 1.29319e-19
6.4289e-05 0.000373969 -4.35321e-19
2.40062e-05 -3.12871e-06 -2.47756e-20
2.68152e-05 -3.51383e-06 -1.37657e-19
1.23659e-05 -1.63161e-06 1.97042e-20
2.67596e-05 3.48459e-06 6.90345e-20
3.61762e-05 -4.69819e-06 3.45585e-19
3.62383e-05 4.66864e-06 6.11087e-20
3.11674e-05 -7.69745e-06 -1.93393e-19
2.16332e-05 -2.41717e-06 5.15178e-20
2.15411e-05 -2.07299e-06 -2.59462e-19
3.86242e-05 3.16801e-06 -1.3623e-19
6.09075e-05 -1.90065e-05 1.20901e-19
6.09503e-05 1.90092e-05 -2.96433e-20
-9.69126e-06 -2.13662e-05 1.71437e-19
-1.22937e-05 -7.98893e-06 -1.39305e-19
3.96488e-05 2.24858e-05 -6.62439e-20
4.33777e-05 -1.99975e-05 -1.07631e-20
5.12085e-05 5.9295e-06 -4.24743e-21
2.92551e-05 7.07066e-06 -6.38527e-20
2.17522e-05 -2.48188e-06 1.66158e-19
1.55729e-05 1.08784e-05 -1.77571e-19
4.94587e-05 -3.86978e-05 -8.8675e-20
2.01548e-05 -8.97969e-06 -6.71953e-20
2.43057e-05 -3.1544e-06 -1.60628e-19
2.69288e-05 1.14586e-06 -8.05579e-20
2.50405e-05 1.84732e-06 3.12275e-20
2.8496e-05 2.56064e-07 -1.29972e-20
6.09075e-05 -1.90065e-05 1.03877e-19
6.09503e-05 1.90092e-05 -1.65186e-20
2.86336e-05 -1.53555e-06 7.1634e-20
2.86332e-05 1.46525e-06 -5.16282e-20
2.01349e-05 2.46127e-05 -1.99004e-19
2.17096e-05 -2.08623e-05 -6.38823e-20
2.59902e-05 -4.82393e-06 -2.77404e-20
2.5961e-05 4.74988e-06 -9.26379e-20
8.54323e-05 0.000108667 -4.64931e-20
2.92661e-05 -0.000102586 1.97975e-20
-4.82711e-06 -5.70818e-05 -2.42532e-21
-5.23014e-06 5.5852e-05 4.6336e-20
3.00566e-05 2.03673e-08 -7.3711e-20
2.9781e-05 -4.723e-07 -8.56635e-20
2.43638e-05 2.86854e-09 -6.7242e-20
2.34947e-05 -2.69035e-08 -1.08791e-19
3.79493e-05 -3.14162e-05 2.63884e-19
3.79616e-05 3.1492e-05 -2.83436e-20
1.08068e-05 2.26684e-06 -1.45948e-19
-8.19566e-05 -5.82262e-05 -1.28231e-20
-8.16608e-05 5.81899e-05 -5.94141e-20
1.40101e-05 -1.86657e-06 -5.69079e-20
2.87497e-05 -3.01821e-06 -2.01731e-19
2.88134e-05 2.99596e-06 9.25445e-20
2.39874e-05 -3.20008e-06 -1.24944e-19
2.40062e-05 -3.12871e-06 1.88802e-20
3.42135e-05 7.55917e-06 -1.07033e-19
2.40049e-05 3.29061e-06 4.46072e-20
-1.83637e-05 2.06364e-05 8.80888e-20
0.000162295 2.38744e-05 -4.75732e-22
4.11008e-05 0.000153883 -9.44133e-20
8.70018e-05 -0.000161499 6.85121e-20
5.19948e-05 -4.90949e-05 1.69233e-19
5.20303e-05 4.91237e-05 2.15174e-19
2.55574e-06 7.74009e-06 1.34947e-19
8.19984e-05 0.000150455 -2.58273e-19
8.90279e-05 -0.000142201 -4.30059e-20
9.41404e-05 -2.44151e-05 1.98954e-20
1.16966e-05 -1.23893e-05 -1.96294e-19
5.2759e-05 -9.87455e-06 5.1297e-20
3.06824e-05 -7.17037e-06 1.30729e-19
2.50405e-05 1.84732e-06 1.84852e-20
5.12085e-05 5.9295e-06 -8.37606e-20
2.92551e-05 7.07066e-06 1.21805e-19
1.06014e-05 5.02724e-05 -7.96235e-20
2.43057e-05 -3.1544e-06 -5.0201e-20
1.5855e-05 4.84983e-07 -7.89099e-20
8.90279e-05 -0.000142201 -5.75578e-20
2.01349e-05 2.46127e-05 -5.84285e-20
6.20642e-05 -1.86464e-05 1.73782e-19
6.21104e-05 1.8648e-05 -1.75634e-20
2.40049e-05 3.29061e-06 -1.00912e-19
2.40993e-05 -2.27696e-05 3.54921e-19
2.40036e-05 2.27894e-05 -8.99109e-20
8.0214e-05 -2.41393e-05 1.63987e-19
6.09075e-05 -1.90065e-05 5.87938e-20
8.02763e-05 2.41544e-05 -1.29905e-19
6.09503e-05 1.90092e-05 -6.40735e-20
4.94587e-05 -3.86978e-05 -1.65716e-19
2.86336e-05 -1.53555e-06 2.23907e-19
2.86332e-05 1.46525e-06 -3.70763e-20
0.00020418 0.000182852 -2.38824e-19
-4.54032e-05 -0.000139222 -4.82048e-20
1.23145e-05 1.74291e-06 6.47404e-20
2.39874e-05 -3.20008e-06 6.81297e-20
2.17522e-05 -2.48188e-06 1.13659e-19
4.46499e-05 1.56566e-05 -1.38893e-19
1.06014e-05 5.02724e-05 -9.80746e-20
-0.0002979 4.80193e-05 4.26451e-21
-0.000297699 -4.89741e-05 -3.18945e-20
5.03486e-05 -3.30979e-05 3.82827e-20
1.40101e-05 -1.86657e-06 1.68124e-19
2.60541e-05 2.46204e-06 -1.00581e-19
3.00566e-05 2.03673e-08 -6.02039e-20
2.9781e-05 -4.723e-07 -1.22566e-19
2.34947e-05 -2.69035e-08 -8.64408e-20
2.43638e-05 2.86854e-09 -7.54228e-20
2.60638e-05 -2.51669e-06 5.85901e-20
-2.42751e-05 -1.82094e-05 -1.60674e-19
5.13402e-06 -1.93498e-05 2.07214e-19
5.13782e-06 1.90262e-05 -1.30572e-19
2.24878e-05 8.09013e-06 -4.6658e-23
5.12085e-05 5.9295e-06 -1.08965e-19
2.96772e-05 4.17823e-07 -3.95187e-20
2.44638e-05 -9.10853e-08 -7.92115e-20
4.94587e-05 -3.86978e-05 1.55191e-19
5.2759e-05 -9.87455e-06 -1.87242e-19
4.46499e-05 1.56566e-05 -8.45846e-20
2.92551e-05 7.07066e-06 8.88024e-20
2.50405e-05 1.84732e-06 -7.20631e-20
3.79493e-05 -3.14162e-05 1.3967e-19
3.79616e-05 3.1492e-05 7.88462e-20
3.10284e-05 1.54095e-05 1.12559e-21
3.08253e-05 -1.53969e-05 -9.90727e-20
3.06824e-05 -7.17037e-06 -2.23843e-19
1.40101e-05 -1.86657e-06 -1.27472e-22
1.23145e-05 1.74291e-06 1.38545e-19
-4.82711e-06 -5.70818e-05 1.21266e-20
-5.23014e-06 5.5852e-05 5.51791e-20
2.01349e-05 2.46127e-05 -6.66092e-20
2.28027e-05 7.82511e-06 2.27156e-20
3.02067e-05 3.54379e-08 6.35978e-20
3.00566e-05 2.03673e-08 -2.16758e-19
2.43638e-05 2.86854e-09 -8.36035e-20
2.87497e-05 -3.01821e-06 1.44586e-20
2.88134e-05 2.99596e-06 -1.83279e-19
2.86332e-05 1.46525e-06 -2.71717e-19
2.43057e-05 -3.1544e-06 -1.86252e-20
2.86336e-05 -1.53555e-06 -8.98643e-20
3.61762e-05 -4.69819e-06 1.44074e-20
3.62383e-05 4.66864e-06 7.18264e-21
2.39874e-05 -3.20008e-06 1.45171e-19
2.40049e-05 3.29061e-06 1.65304e-19
3.20142e-05 1.97252e-07 2.26827e-21
2.24878e-05 8.09013e-06 -2.31833e-19
-5.23014e-06 5.5852e-05 1.8277e-20
-4.82711e-06 -5.70818e-05 -1.05716e-19
8.54323e-05 0.000108667 -3.58403e-20
2.92661e-05 -0.000102586 1.12818e-19
-0.00016282 0.000265131 1.38124e-19
-0.000190716 -0.000124502 -7.70241e-20
0.000165085 -0.000175085 1.51797e-19
0.000174412 0.000222018 -8.56464e-20
0.000196358 0.000142117 -1.45519e-20
0.000219165 -6.98917e-05 9.73781e-20
4.6216e-05 -0.000248112 2.18865e-19
0.000240411 8.14023e-05 1.18382e-19
-0.000307437 -4.05552e-05 -2.69505e-21
-2.66431e-05 0.000260406 -9.83125e-20
0.000310873 0.000188535 5.69079e-20
0.000398524 -0.000149903 -1.23152e-19
-0.000199905 -0.000118178 -9.98122e-22
-0.000195113 0.000107437 2.33306e-19
3.55472e-05 0.000237262 1.02815e-19
-2.98046e-06 -0.000230463 -2.15679e-19
-2.4934e-05 -0.000228431 1.20442e-19
6.47724e-05 0.00025494 1.13056e-19
0.000197065 5.59759e-05 -1.3547e-19
0.000124709 -0.000105145 2.05919e-20
-2.97977e-05 0.00013014 2.70984e-21
4.21076e-05 -0.000125831 2.73951e-19
-0.000342812 0.000248356 2.68767e-19
-0.000305303 -0.000166504 -9.23363e-20
0.000566382 -0.000261713 -1.0648e-19
0.000325184 0.000472149 3.89708e-19
0.000310873 0.000188535 -9.09807e-21
0.000398524 -0.000149903 -2.88549e-19
0.000183692 0.000161568 -5.97623e-20
0.00018526 -9.68273e-05 9.16227e-20
-0.000152068 7.80013e-05 6.89241e-20
-0.000158319 -7.26419e-05 -7.67862e-20
0.000218486 0.000130729 4.56691e-20
0.000218307 -9.16835e-05 -5.84455e-20
9.64771e-05 0.000327796 3.09791e-19
-6.34648e-05 -0.000372962 1.73561e-19
-0.000142321 4.14045e-05 2.68993e-20
-0.000154268 -3.74555e-05 -1.85386e-19
-6.79454e-06 -0.000522595 -2.88517e-19
6.15528e-05 0.000555892 5.95913e-20
0.000546899 2.15995e-05 2.94653e-19
-0.000526984 -6.45089e-05 -1.7128e-20
0.000204305 0.000244699 -1.12325e-19
0.000251333 -0.000234893 1.93851e-19
-0.000192563 0.000122201 1.54872e-19
-0.000259766 -3.42251e-05 -2.759e-19
-0.000251706 3.97844e-05 -1.14267e-21
-0.000205094 -0.000122447 -1.34692e-19
0.000177514 -0.000261138 2.13016e-19
0.000192751 0.000298546 -7.53442e-20
0.00026861 -0.00012941 1.60373e-19
-0.00016282 0.000265131 1.42737e-19
-4.9556e-05 -0.000235328 -1.49546e-19
0.000268441 0.000169764 1.20981e-19
-6.44492e-05 0.000181155 -5.84455e-20
0.000180241 -0.000146848 -3.97102e-19
4.719e-05 -0.000485848 -4.56674e-19
2.1287e-05 0.000404505 -5.32e-20
0.000286592 0.000329595 -1.75167e-20
0.00034739 -0.000346746 1.58359e-19
2.23391e-05 -5.64722e-05 -7.25854e-20
-3.0461e-05 0.000278463 1.91124e-19
-2.15981e-05 -0.000265401 -6.61801e-20
6.93011e-05 0.000161806 2.2042e-19
-5.07907e-05 -0.000163279 -6.8338e-20
8.2152e-06 0.000228237 3.31305e-21
1.44799e-05 -0.000213627 -2.10115e-19
-0.000305303 -0.000166504 -1.17541e-19
-2.4934e-05 -0.000228431 -2.10353e-19
6.47724e-05 0.00025494 -2.99916e-20
-0.000139955 -9.54351e-05 -2.99457e-19
-0.000342812 0.000248356 1.11359e-19
8.69708e-05 0.000138403 -2.06199e-19
-2.15981e-05 -0.000265401 -2.06755e-19
-0.000152068 7.80013e-05 1.6936e-19
0.000299102 0.000192204 -4.44797e-20
0.000394854 -0.000151046 -1.01736e-19
0.000268441 0.000169764 -9.09261e-20
0.000150655 0.000211207 -1.50846e-19
0.000170062 -0.000184288 -2.85177e-20
0.000372711 0.000147432 1.48263e-19
0.000310873 0.000188535 -1.70596e-19
0.000516344 -0.000165672 1.71136e-19
0.000398524 -0.000149903 -2.8042e-20
-2.97977e-05 0.00013014 1.12754e-19
0.000183692 0.000161568 -2.49497e-20
0.00018526 -9.68273e-05 -1.94663e-20
0.000246281 0.000409498 5.93333e-20
-0.000252673 -0.000472777 -4.13778e-19
-1.80585e-05 -4.35471e-05 1.66285e-19
0.00026861 -0.00012941 2.72889e-19
0.000197065 5.59759e-05 -5.49117e-20
-0.000161178 5.0141e-05 9.95656e-20
-0.000139955 -9.54351e-05 -7.54694e-20
-0.000536188 -9.45779e-06 -1.36073e-19
-0.000521096 1.23732e-05 -1.73387e-19
-2.72711e-05 0.000146022 2.25317e-19
-0.000205094 -0.000122447 -2.20959e-19
0.000143438 0.000177135 -1.41968e-19
-6.79454e-06 -0.000522595 3.28607e-20
6.15528e-05 0.000555892 -4.9312e-19
-0.000526984 -6.45089e-05 -2.17478e-19
0.000546899 2.15995e-05 1.51606e-19
0.000123799 -0.00012029 1.9699e-19
-0.00018126 0.000119253 1.10915e-19
3.16786e-05 0.000170581 -3.80278e-20
3.62756e-05 -0.000145956 -1.20854e-19
-0.000767046 0.00063179 1.30738e-20
-2.4934e-05 -0.000228431 -6.48338e-20
-3.9904e-05 -0.000487902 -4.42302e-20
0.000514071 5.20874e-05 2.26905e-19
-2.97977e-05 0.00013014 -4.48451e-20
8.2152e-06 0.000228237 9.20517e-20
-0.000161178 5.0141e-05 -3.81552e-20
6.47724e-05 0.00025494 6.65455e-20
-0.000305303 -0.000166504 -2.31293e-19
0.000204305 0.000244699 -1.44283e-19
0.000251333 -0.000234893 -9.71869e-20
0.00016274 5.889e-05 1.98954e-20
0.000165918 7.36485e-05 7.91478e-20
1.44799e-05 -0.000213627 3.55982e-19
-0.000205094 -0.000122447 -4.20544e-20
-1.80585e-05 -4.35471e-05 2.62822e-19
-0.000142321 4.14045e-05 2.18929e-19
-0.000154268 -3.74555e-05 -9.95018e-20
-0.000152068 7.80013e-05 9.90727e-20
0.00077143 -0.000593024 -3.24561e-20
-6.79454e-06 -0.000522595 3.83343e-19
2.39285e-05 0.000511032 1.21892e-19
0.000546899 2.15995e-05 4.12304e-19
0.000177514 -0.000261138 -1.73426e-20
0.000192751 0.000298546 -4.9426e-20
0.000183692 0.000161568 6.48338e-20
-0.000342812 0.000248356 1.58914e-19
0.00018526 -9.68273e-05 2.27916e-19
0.000196358 0.000142117 9.22554e-21
0.000219165 -6.98917e-05 -1.1063e-19
0.00026861 -0.00012941 1.81296e-19
0.000268441 0.000169764 6.81001e-20
-0.000630617 0.000788261 -3.71941e-19
-0.000767046 0.00063179 4.81041e-19
-0.000154268 -3.74555e-05 -1.58754e-19
-0.000142321 4.14045e-05 2.58545e-20
-6.34648e-05 -0.000372962 -2.02317e-19
9.64771e-05 0.000327796 2.96666e-19

CELL_DATA 2380
TENSORS stress float
0.0271845 4.48629 8.52122e-12
4.48629 6.17156 -2.49446e-11
8.52122e-12 -2.49446e-11 0.161926

-2.00895 2.98426 2.09806e-11
2.98426 3.04694 -2.67709e-11
2.09806e-11 -2.67709e-11 -0.847422

-2.08741 2.39329 1.72476e-11
2.39329 2.76869 -2.83125e-11
1.72476e-11 -2.83125e-11 -0.865344

5.78294 1.311 -3.94936e-12
1.311 -4.99597 2.66317e-12
-3.94936e-12 2.66317e-12 -0.66009

7.74701 0.519815 6.74098e-12
0.519815 -2.44349 4.28376e-12
6.74098e-12 4.28376e-12 0.00611457

-6.64707 2.82173 -2.92413e-12
2.82173 -1.51885 -1.82972e-11
-2.92413e-12 -1.82972e-11 -3.4437

-6.76754 2.61625 9.83406e-12
2.61625 -1.57822 1.71412e-11
9.83406e-12 1.71412e-11 -3.42787

7.97153 -0.65695 -1.14611e-11
-0.65695 -2.11922 -6.05075e-12
-1.14611e-11 -6.05075e-12 0.13428

5.24678 0.107725 2.06086e-11
0.107725 -7.74845 7.75154e-12
2.06086e-11 7.75154e-12 -1.09046

2.1632 4.35921 3.29166e-11
4.35921 8.89178 -9.87136e-12
3.29166e-11 -9.87136e-12 0.55405

2.74049 -4.66162 5.39258e-12
-4.66162 9.35302 2.86088e-11
5.39258e-12 2.86088e-11 0.730061

8.30302 4.51054 -1.97368e-12
4.51054 3.50736 8.71621e-12
-1.97368e-12 8.71621e-12 0.632353

-3.77117 -3.69122 4.863e-12
-3.69122 -0.57349 -5.58612e-12
4.863e-12 -5.58612e-12 -2.69581

-3.84595 -4.17708 4.93242e-12
-4.17708 -0.219154 2.62882e-11
4.93242e-12 2.62882e-11 -2.73167

-3.24717 4.24297 1.13872e-11
4.24297 3.99664 1.0884e-11
1.13872e-11 1.0884e-11 -0.688788

-4.64626 5.08043 -2.06089e-11
5.08043 2.51593 -7.70584e-12
-2.06089e-11 -7.70584e-12 -1.03921

-6.86162 -1.93101 -2.28679e-12
-1.93101 -1.72368 -8.66196e-13
-2.28679e-12 -8.66196e-13 -3.5223

-6.83577 -2.08487 -3.73261e-12
-2.08487 -1.68439 3.57274e-11
-3.73261e-12 3.57274e-11 -3.5467

3.93996 1.93529 -4.08337e-11
1.93529 -2.44085 6.56145e-12
-4.08337e-11 6.56145e-12 -0.486302

1.88138 1.6867 3.23362e-11
1.6867 10.853 3.56352e-12
3.23362e-11 3.56352e-12 1.02466

2.07859 -1.61315 -7.4154e-12
-1.61315 11.173 -4.57367e-12
-7.4154e-12 -4.57367e-12 1.11553

10.1733 1.38356 -1.20381e-11
1.38356 3.93738 1.30742e-11
-1.20381e-11 1.30742e-11 1.23741

0.06239 5.01121 -1.43028e-11
5.01121 4.89417 -5.39465e-12
-1.43028e-11 -5.39465e-12 -0.0891799

6.90176 -2.56281 -4.05021e-11
-2.56281 -1.33069 4.47931e-12
-4.05021e-11 4.47931e-12 -0.160768

0.946581 4.59886 2.45602e-11
4.59886 2.49711 1.44961e-11
2.45602e-11 1.44961e-11 -0.205509

0.0923181 5.00956 -1.48753e-11
5.00956 6.35554 4.46875e-11
-1.48753e-11 4.46875e-11 0.150113

6.07989 -1.08486 3.8527e-12
-1.08486 -5.36115 3.89144e-12
3.8527e-12 3.89144e-12 -0.635729

7.8118 3.87956 2.36355e-11
3.87956 15.1997 -3.05593e-12
2.36355e-11 -3.05593e-12 2.84085

4.72779 0.482026 -1.7142e-11
0.482026 -7.77001 2.14193e-11
-1.7142e-11 2.14193e-11 -1.20827

13.9798 3.88855 4.52068e-11
3.88855 9.18182 7.4629e-11
4.52068e-11 7.4629e-11 2.84751

-3.4174 0.613093 -2.85861e-11
0.613093 -1.12594 -2.11986e-12
-2.85861e-11 -2.11986e-12 -3.42547

-3.41435 0.209428 -1.44924e-11
0.209428 -1.21729 3.65952e-12
-1.44924e-11 3.65952e-12 -3.43806

-6.55987 2.18446 4.0827e-11
2.18446 -10.5974 -1.34689e-12
4.0827e-11 -1.34689e-12 -10.3783

-6.59122 -2.09542 3.46556e-12
-2.09542 -10.5854 1.58859e-11
3.46556e-12 1.58859e-11 -10.4773

11.3844 -1.62383 2.36016e-11
-1.62383 2.80211 -1.44013e-11
2.36016e-11 -1.44013e-11 1.30393

-2.11945 4.94375 1.50231e-11
4.94375 1.60964 -6.4521e-12
1.50231e-11 -6.4521e-12 -0.865446

-2.08208 0.90774 -1.07858e-11
0.90774 -4.19593 4.42938e-12
-1.07858e-11 4.42938e-12 -3.67879

-2.46848 -0.825052 1.63685e-11
-0.825052 -4.45805 2.5994e-12
1.63685e-11 2.5994e-12 -3.94052

5.83468 0.0110401 2.2344e-11
0.0110401 -8.44217 1.3204e-11
2.2344e-11 1.3204e-11 -0.996444

-0.365846 5.42257 -8.57285e-12
5.42257 6.26407 -1.41599e-11
-8.57285e-12 -1.41599e-11 0.0128037

6.29479 -3.31819 -1.42083e-11
-3.31819 1.61427 1.75293e-11
-1.42083e-11 1.75293e-11 0.375164

6.15245 -0.319532 1.59877e-11
-0.319532 -8.44466 -1.31213e-12
1.59877e-11 -1.31213e-12 -0.8505

0.0581289 -5.02162 -3.29828e-11
-5.02162 5.15821 -2.45585e-11
-3.29828e-11 -2.45585e-11 -0.0780499

0.0668875 -4.30283 5.99376e-12
-4.30283 6.2941 1.76258e-11
5.99376e-12 1.76258e-11 0.180586

-4.18925 5.71262 -2.24856e-11
5.71262 3.01101 -1.45448e-11
-2.24856e-11 -1.45448e-11 -0.959011

5.12905 -5.35968 1.78065e-12
-5.35968 3.12866 4.53648e-11
1.78065e-12 4.53648e-11 0.266655

7.05775 10.9476 1.40078e-11
10.9476 14.5963 1.32016e-11
1.40078e-11 1.32016e-11 3.48283

13.7379 10.818 -5.37437e-12
10.818 7.85752 1.36356e-11
-5.37437e-12 1.36356e-11 3.47453

-5.99933 -5.10607 -7.79891e-12
-5.10607 0.34879 -6.64461e-12
-7.79891e-12 -6.64461e-12 -2.14339

10.1339 4.59285 -2.87823e-11
4.59285 19.3701 -4.31477e-12
-2.87823e-11 -4.31477e-12 4.60075

17.5219 4.11607 -1.71001e-11
4.11607 10.8087 -5.73615e-12
-1.71001e-11 -5.73615e-12 4.37394

-4.31809 -3.58717 -4.53533e-11
-3.58717 -1.21996 2.45556e-11
-4.53533e-11 2.45556e-11 -3.10971

-4.33592 3.57375 2.58065e-11
3.57375 -1.26113 6.1244e-11
2.58065e-11 6.1244e-11 -3.1096

4.3617 0.103668 4.52645e-12
0.103668 -3.572 -1.32828e-11
4.52645e-12 -1.32828e-11 -0.372114

-4.8371 -3.12646 -5.33487e-11
-3.12646 -2.70883 3.99632e-11
-5.33487e-11 3.99632e-11 -3.51672

-4.85079 3.11685 6.34532e-11
3.11685 -2.72222 1.49302e-11
6.34532e-11 1.49302e-11 -3.51002

-3.03081 5.01024 -1.45422e-11
5.01024 4.56684 -7.61021e-12
-1.45422e-11 -7.61021e-12 -0.609753

-3.95033 2.04777 1.15552e-11
2.04777 -10.2214 1.18408e-11
1.15552e-11 1.18408e-11 -8.20503

-3.93219 -2.03255 -3.85173e-11
-2.03255 -10.2942 3.8658e-13
-3.85173e-11 3.8658e-13 -8.26773

-2.58889 -4.13951 1.77195e-11
-4.13951 -0.432387 -5.49862e-11
1.77195e-11 -5.49862e-11 -1.66147

-2.63132 4.11431 -2.50489e-12
4.11431 -0.45622 -2.37856e-11
-2.50489e-12 -2.37856e-11 -1.66057

9.05272 -4.45096 -8.95728e-12
-4.45096 3.20103 -1.27631e-12
-8.95728e-12 -1.27631e-12 0.755402

-9.27766 1.99954 2.08698e-11
1.99954 -4.07332 3.83252e-11
2.08698e-11 3.83252e-11 -7.90728

-9.29748 1.58107 -1.49831e-11
1.58107 -4.01488 1.71408e-11
-1.49831e-11 1.71408e-11 -7.86396

-0.474055 -5.52532 2.97059e-11
-5.52532 6.28521 5.15266e-11
2.97059e-11 5.15266e-11 -0.00548107

7.61601 -3.65802 5.58429e-11
-3.65802 16.4684 -1.65725e-11
5.58429e-11 -1.65725e-11 3.05707

15.7272 -3.62561 -1.86144e-11
-3.62561 8.07223 -3.88193e-12
-1.86144e-11 -3.88193e-12 3.0266

-4.39214 4.3634 5.64554e-12
4.3634 3.20477 8.76358e-12
5.64554e-12 8.76358e-12 -1.11488

-4.50326 4.05684 -3.14341e-13
4.05684 2.6467 -1.57948e-11
-3.14341e-13 -1.57948e-11 -1.16385

-9.9781 -6.05089 -2.32621e-10
-6.05089 -14.0209 5.69263e-11
-2.32621e-10 5.69263e-11 -12.8253

-9.98005 6.04916 8.68408e-11
6.04916 -14.0101 -7.23882e-11
8.68408e-11 -7.23882e-11 -12.8162

-4.55366 6.18307 -2.02102e-12
6.18307 2.14615 1.2905e-11
-2.02102e-12 1.2905e-11 -0.966985

0.393902 3.04312 1.60828e-11
3.04312 -2.05226 3.22701e-12
1.60828e-11 3.22701e-12 -1.1345

0.523681 -3.09639 -6.47137e-11
-3.09639 -2.06888 1.44962e-11
-6.47137e-11 1.44962e-11 -1.13529

-4.55887 5.91052 -2.88899e-12
5.91052 0.90936 -1.45417e-11
-2.88899e-12 -1.45417e-11 -1.36568

-5.78344 -5.40146 4.81359e-12
-5.40146 0.806713 8.5697e-12
4.81359e-12 8.5697e-12 -2.12385

10.7632 -0.0613709 2.21541e-12
-0.0613709 0.764387 2.20321e-11
2.21541e-12 2.20321e-11 0.756509

8.58674 2.41483 1.58433e-11
2.41483 -0.451016 9.31829e-12
1.58433e-11 9.31829e-12 0.317157

-1.2427 0.98195 -3.40896e-11
0.98195 -7.80021 1.60804e-11
-3.40896e-11 1.60804e-11 -3.67707

-12.3263 -1.51393 -1.04957e-10
-1.51393 -13.1071 4.10177e-11
-1.04957e-10 4.10177e-11 -13.7918

-12.2414 1.30318 3.06177e-11
1.30318 -12.9181 3.08157e-12
3.06177e-11 3.08157e-12 -13.6607

5.64077 4.47244 -2.64868e-11
4.47244 7.90457 6.44936e-12
-2.64868e-11 6.44936e-12 1.17033

1.60361 -3.9037 3.5733e-11
-3.9037 -0.325681 -1.11252e-11
3.5733e-11 -1.11252e-11 -0.731739

4.11775 2.34233 -5.05591e-11
2.34233 -0.860901 -1.08824e-11
-5.05591e-11 -1.08824e-11 -0.179996

-11.0639 1.27833 -7.07413e-11
1.27833 -7.449 1.34485e-12
-7.07413e-11 1.34485e-12 -10.3904

-11.0322 1.08896 -1.16773e-10
1.08896 -7.41457 -1.30971e-11
-1.16773e-10 -1.30971e-11 -10.3956

-1.65705 -0.720102 1.01121e-11
-0.720102 -7.85282 -3.50031e-11
1.01121e-11 -3.50031e-11 -3.93146

-2.29545 -1.52557 -1.5252e-11
-1.52557 2.7658 2.13789e-11
-1.5252e-11 2.13789e-11 -1.03495

-2.29037 -2.0762 1.65267e-11
-2.0762 2.94844 6.73994e-12
1.65267e-11 6.73994e-12 -1.03259

2.43941 -1.43815 2.15707e-11
-1.43815 -4.34378 -9.67797e-12
2.15707e-11 -9.67797e-12 -0.821612

2.4043 1.45435 5.77242e-13
1.45435 -4.46003 9.34088e-12
5.77242e-13 9.34088e-12 -0.830171

7.28191 -4.43867 -1.628e-11
-4.43867 7.14643 4.7968e-11
-1.628e-11 4.7968e-11 1.25266

6.51702 0.27687 -1.05826e-12
0.27687 -0.338233 5.19507e-12
-1.05826e-12 5.19507e-12 0.186792

-0.312322 -2.18053 3.08154e-12
-2.18053 -4.24186 5.96985e-11
3.08154e-12 5.96985e-11 -1.79524

-0.384101 2.15999 -3.37138e-13
2.15999 -4.22914 1.84878e-11
-3.37138e-13 1.84878e-11 -1.78819

4.18328 -2.43074 2.51354e-11
-2.43074 -0.658741 -3.82541e-11
2.51354e-11 -3.82541e-11 -0.149881

-0.0111536 -5.03164 -2.26783e-11
-5.03164 6.59555 -3.30337e-11
-2.26783e-11 -3.30337e-11 0.183526

2.61759 -1.61918 2.91782e-11
-1.61918 -3.35224 3.16303e-11
2.91782e-11 3.16303e-11 -0.82219

2.56012 1.63396 2.09937e-11
1.63396 -3.48208 3.42324e-11
2.09937e-11 3.42324e-11 -0.832909

4.65526 -1.06154 -7.31933e-12
-1.06154 -3.60712 -9.34105e-12
-7.31933e-12 -9.34105e-12 -0.585514

-3.99278 7.06024 -1.49241e-11
7.06024 2.52324 1.67553e-11
-1.49241e-11 1.67553e-11 -0.925991

5.0624 3.89169 3.89599e-11
3.89169 3.32076 1.68581e-11
3.89599e-11 1.68581e-11 0.487713

-4.90936 5.97401 -1.16515e-11
5.97401 2.25599 3.56292e-12
-1.16515e-11 3.56292e-12 -1.0374

-4.44479 6.67083 -1.08324e-11
6.67083 2.93304 1.00141e-11
-1.08324e-11 1.00141e-11 -0.912504

6.44641 2.88887 1.35788e-11
2.88887 0.131673 1.12684e-11
1.35788e-11 1.12684e-11 0.00578689

-0.472164 -2.39009 -8.28019e-12
-2.39009 -3.99004 -9.00272e-12
-8.28019e-12 -9.00272e-12 -1.86602

4.94672 1.30764 7.31918e-12
1.30764 -2.70821 5.49405e-11
7.31918e-12 5.49405e-11 -0.380006

2.27226 4.92356 -1.7578e-11
4.92356 3.55616 2.31145e-11
-1.7578e-11 2.31145e-11 -0.143805

1.29585 3.99709 3.57328e-11
3.99709 -0.29194 1.88292e-11
3.57328e-11 1.88292e-11 -0.787199

-5.56744 0.345753 1.54915e-11
0.345753 1.8671 -2.4269e-11
1.54915e-11 -2.4269e-11 -1.80987

-5.51534 0.547223 3.02862e-11
0.547223 1.88398 -2.5994e-12
3.02862e-11 -2.5994e-12 -1.80497

8.03798 -5.02008 -3.62698e-11
-5.02008 4.05586 2.85852e-11
-3.62698e-11 2.85852e-11 0.710386

-4.61181 -5.95693 8.47289e-12
-5.95693 0.909331 2.88821e-12
8.47289e-12 2.88821e-12 -1.37511

2.40241 -5.88388 5.18225e-11
-5.88388 6.41103 -8.16787e-11
5.18225e-11 -8.16787e-11 0.367247

2.42353 6.0266 1.57447e-11
6.0266 6.33415 -2.74018e-11
1.57447e-11 -2.74018e-11 0.364323

3.73954 -2.19093 -1.37711e-11
-2.19093 -1.6335 1.44921e-13
-1.37711e-11 1.44921e-13 -0.465953

3.25093 -0.327158 1.30968e-11
-0.327158 -9.96768 2.89348e-11
1.30968e-11 2.89348e-11 -2.1931

3.5297 0.366058 1.52162e-11
0.366058 -9.63299 2.128e-11
1.52162e-11 2.128e-11 -2.02707

-1.15914 3.19677 -7.82672e-12
3.19677 6.7344 -2.92798e-11
-7.82672e-12 -2.92798e-11 -0.164525

1.10186 -4.83732 3.70817e-11
-4.83732 2.53986 -4.08357e-11
3.70817e-11 -4.08357e-11 -0.19692

-0.813188 -0.107965 -9.17444e-12
-0.107965 10.6584 9.82562e-12
-9.17444e-12 9.82562e-12 0.328309

-0.689503 0.237602 -1.26646e-11
0.237602 10.9352 -1.93623e-13
-1.26646e-11 -1.93623e-13 0.412109

10.3613 -0.0389113 -9.00509e-12
-0.0389113 0.832422 -3.70937e-11
-9.00509e-12 -3.70937e-11 0.574574

7.37828 4.71319 -2.25899e-11
4.71319 7.48344 -4.65728e-11
-2.25899e-11 -4.65728e-11 1.33672

3.71881 -5.52656 2.59088e-11
-5.52656 3.07703 2.0224e-11
2.59088e-11 2.0224e-11 -0.0432849

-15.4301 -2.71131 4.04789e-11
-2.71131 -9.5527 -3.98695e-11
4.04789e-11 -3.98695e-11 -14.373

-15.3677 -2.50104 -1.08725e-10
-2.50104 -9.52626 3.65952e-11
-1.08725e-10 3.65952e-11 -14.321

6.4878 -2.83065 -5.68316e-12
-2.83065 -0.138059 2.42941e-11
-5.68316e-12 2.42941e-11 -0.0237763

-2.7327 6.55973 8.61781e-12
6.55973 4.45449 -1.13637e-11
8.61781e-12 -1.13637e-11 -0.377144

4.47502 -0.173523 -1.70458e-11
-0.173523 -3.52786 1.30238e-12
-1.70458e-11 1.30238e-12 -0.353566

-1.2575 -3.14584 1.61784e-11
-3.14584 6.97321 1.37739e-11
1.61784e-11 1.37739e-11 -0.137748

-5.71905 5.87233 7.75198e-12
5.87233 1.2133 4.23768e-12
7.75198e-12 4.23768e-12 -1.87421

-6.17366 5.527 7.07582e-12
5.527 0.763083 -2.1186e-11
7.07582e-12 -2.1186e-11 -1.91761

-3.98622 -7.04668 3.86143e-11
-7.04668 2.4913 1.07813e-11
3.86143e-11 1.07813e-11 -0.945162

-4.56769 6.79498 -2.33035e-11
6.79498 3.36279 -2.29226e-11
-2.33035e-11 -2.29226e-11 -0.767484

-2.99348 5.73465 -3.22503e-12
5.73465 3.69438 1.10757e-11
-3.22503e-12 1.10757e-11 -0.466541

2.5917 0.01277 6.16314e-12
0.01277 -5.06046 -8.22996e-12
6.16314e-12 -8.22996e-12 -0.53871

4.09608 5.42352 1.56969e-11
5.42352 2.88992 -1.90218e-13
1.56969e-11 -1.90218e-13 -0.0103956

-4.91537 -6.02519 3.27383e-12
-6.02519 2.2107 1.63677e-12
3.27383e-12 1.63677e-12 -1.05177

2.97648 4.7399 -1.92591e-11
4.7399 5.13345 1.32429e-11
-1.92591e-11 1.32429e-11 0.33899

5.68392 -4.09265 -6.42942e-11
-4.09265 8.51947 2.27801e-11
-6.42942e-11 2.27801e-11 1.24644

-2.16572 -5.00904 -8.66722e-12
-5.00904 1.81968 -2.04163e-11
-8.66722e-12 -2.04163e-11 -0.842765

1.88826 -2.85557 -2.33552e-11
-2.85557 11.0972 2.67318e-11
-2.33552e-11 2.67318e-11 1.07374

1.83193 2.78365 -1.52999e-11
2.78365 10.9941 1.07878e-11
-1.52999e-11 1.07878e-11 1.04209

9.84823 -1.96118 -4.74392e-11
-1.96118 4.05511 2.30678e-11
-4.74392e-11 2.30678e-11 1.22934

3.0833 -4.86965 3.60294e-11
-4.86965 5.25471 -1.41101e-10
3.60294e-11 -1.41101e-10 0.362063

-0.603784 0.7549 3.95558e-11
0.7549 6.92587 -2.88214e-13
3.95558e-11 -2.88214e-13 0.169816

-0.61753 -0.00880065 2.08611e-11
-0.00880065 6.83325 -3.85188e-12
2.08611e-11 -3.85188e-12 0.154584

4.73284 -5.62135 -2.84669e-11
-5.62135 8.27369 5.67376e-11
-2.84669e-11 5.67376e-11 0.874179

4.13348 5.6908 1.32872e-11
5.6908 8.14489 -2.65377e-11
1.32872e-11 -2.65377e-11 0.753017

2.67578 -0.501903 7.70354e-12
-0.501903 -6.01694 -2.78016e-11
7.70354e-12 -2.78016e-11 -0.879443

2.66994 0.526099 1.38667e-11
0.526099 -6.04351 1.75761e-12
1.38667e-11 1.75761e-12 -0.876019

-2.72491 6.18338 -4.52512e-12
6.18338 3.94458 8.37859e-12
-4.52512e-12 8.37859e-12 -0.448356

-5.86822 -5.62419 7.60812e-12
-5.62419 1.23126 -3.85221e-12
7.60812e-12 -3.85221e-12 -1.67641

-2.61141 4.09518 -1.73351e-11
4.09518 -0.451161 -1.435e-11
-1.73351e-11 -1.435e-11 -1.48924

11.5681 4.53537 -1.2088e-11
4.53537 5.65684 2.66821e-11
-1.2088e-11 2.66821e-11 1.75535

-1.2303 3.87981 -1.18091e-13
3.87981 7.79811 4.75819e-11
-1.18091e-13 4.75819e-11 0.0107725

-2.10295 2.70991 5.26716e-11
2.70991 -2.42047 -2.97015e-11
5.26716e-11 -2.97015e-11 -2.24041

-2.05995 -2.72954 -4.43031e-12
-2.72954 -2.38299 -4.03468e-11
-4.43031e-12 -4.03468e-11 -2.23781

0.909397 -3.69666 -4.63178e-11
-3.69666 0.183263 9.34371e-12
-4.63178e-11 9.34371e-12 -0.690497

0.841106 3.66763 -1.14579e-11
3.66763 0.141529 7.70162e-13
-1.14579e-11 7.70162e-13 -0.697185

12.7626 1.21176 4.97261e-12
1.21176 27.3183 1.09808e-11
4.97261e-12 1.09808e-11 6.71367

25.6823 1.25429 3.84285e-13
1.25429 14.122 -9.31995e-12
3.84285e-13 -9.31995e-12 6.66128

-1.6132 -3.68127 -8.66518e-12
-3.68127 7.74031 -3.72745e-11
-8.66518e-12 -3.72745e-11 -0.0711886

-6.13633 -2.93892 4.92959e-11
-2.93892 -5.36037 3.87025e-11
4.92959e-11 3.87025e-11 -6.08436

-6.15042 2.94848 -1.8873e-11
2.94848 -5.3602 -2.49419e-11
-1.8873e-11 -2.49419e-11 -6.07706

1.92308 4.50883 -3.55353e-11
4.50883 2.12116 1.94031e-11
-3.55353e-11 1.94031e-11 -0.17001

13.3388 2.47087 1.61361e-11
2.47087 3.65397 3.6736e-12
1.61361e-11 3.6736e-12 1.71245

6.52002 -0.470499 4.42994e-12
-0.470499 -0.309951 3.33905e-12
4.42994e-12 3.33905e-12 0.18808

-4.72315 -3.23666 -2.15114e-11
-3.23666 2.31768 6.83764e-12
-2.15114e-11 6.83764e-12 -1.39798

-4.56246 -3.54101 -3.93258e-11
-3.54101 2.53937 2.60244e-12
-3.93258e-11 2.60244e-12 -1.39294

2.92773 -5.35631 -3.55896e-11
-5.35631 4.90095 7.70643e-12
-3.55896e-11 7.70643e-12 0.203148

-4.60834 -6.8237 2.57089e-11
-6.8237 3.38521 5.10129e-12
2.57089e-11 5.10129e-12 -0.785869

2.00499 -4.55749 5.11392e-11
-4.55749 2.27313 -1.2139e-11
5.11392e-11 -1.2139e-11 -0.143405

-5.26869 6.53535 -2.598e-12
6.53535 2.21762 1.60827e-11
-2.598e-12 1.60827e-11 -0.93688

-4.17964 4.72455 5.32249e-11
4.72455 -0.377799 -1.83886e-11
5.32249e-11 -1.83886e-11 -2.81146

-4.07924 4.2912 -2.53649e-13
4.2912 -0.884544 -3.94821e-12
-2.53649e-13 -3.94821e-12 -2.79149

-2.86352 -6.21056 2.28692e-11
-6.21056 3.97594 2.12814e-11
2.28692e-11 2.12814e-11 -0.476172

-2.75047 5.60547 2.79287e-11
5.60547 3.20957 1.61814e-11
2.79287e-11 1.61814e-11 -0.515598

6.82963 3.88114 3.15459e-11
3.88114 0.947395 -1.15515e-12
3.15459e-11 -1.15515e-12 0.210852

-4.57348 7.19236 -2.8935e-11
7.19236 2.98524 1.82937e-11
-2.8935e-11 1.82937e-11 -0.763304

-3.36192 -4.39609 1.0111e-11
-4.39609 4.12863 1.30034e-11
1.0111e-11 1.30034e-11 -0.689397

-2.94617 1.71225 -1.99598e-11
1.71225 6.0676 1.098e-11
-1.99598e-11 1.098e-11 -0.491557

-1.14245 5.22265 -1.91626e-11
5.22265 1.15307 1.43479e-11
-1.91626e-11 1.43479e-11 -0.885719

-2.57081 2.20009 2.84821e-11
2.20009 6.11229 7.73307e-13
2.84821e-11 7.73307e-13 -0.426865

-5.31352 -6.1038 -1.20489e-12
-6.1038 1.75155 1.4638e-11
-1.20489e-12 1.4638e-11 -1.59821

10.0703 -5.24511 5.09228e-11
-5.24511 10.6506 9.50863e-11
5.09228e-11 9.50863e-11 2.50973

10.3408 -5.30243 -4.67093e-12
-5.30243 10.3691 1.62211e-12
-4.67093e-12 1.62211e-12 2.51844

-1.12032 -5.25371 1.50226e-11
-5.25371 1.17888 4.6031e-11
1.50226e-11 4.6031e-11 -0.891547

3.94462 -1.98603 1.63721e-11
-1.98603 -2.3784 8.04578e-12
1.63721e-11 8.04578e-12 -0.490766

-7.82024 6.22929 1.70801e-10
6.22929 -10.6305 -7.20942e-11
1.70801e-10 -7.20942e-11 -10.6002

-7.81966 -6.22986 -9.49329e-11
-6.22986 -10.6299 -1.69386e-11
-9.49329e-11 -1.69386e-11 -10.6075

-2.94175 -6.5196 -1.59859e-11
-6.5196 4.38405 8.47611e-12
-1.59859e-11 8.47611e-12 -0.43378

-7.41963 1.36939 6.54536e-12
1.36939 -6.2478 -5.63307e-11
6.54536e-12 -5.63307e-11 -6.7841

-7.49275 -1.25883 3.52421e-11
-1.25883 -6.32128 -3.11986e-11
3.52421e-11 -3.11986e-11 -6.91331

7.05576 0.0859246 -1.06056e-12
0.0859246 -5.95429 -1.09973e-11
-1.06056e-12 -1.09973e-11 -0.374384

-5.25411 -6.56696 -5.39235e-12
-6.56696 2.35114 -5.58583e-12
-5.39235e-12 -5.58583e-12 -0.914531

8.33104 6.3914 5.89608e-11
6.3914 8.89255 4.79067e-11
5.89608e-11 4.79067e-11 1.67106

7.46 6.05376 1.07416e-11
6.05376 8.6743 1.8425e-11
1.07416e-11 1.8425e-11 1.48153

5.88564 -4.54858 7.71768e-12
-4.54858 14.2488 -3.84581e-13
7.71768e-12 -3.84581e-13 2.22262

5.92706 4.76943 4.68508e-11
4.76943 14.2111 -1.2182e-11
4.68508e-11 -1.2182e-11 2.24182

13.6148 -3.78389 6.23777e-11
-3.78389 7.38505 -1.27394e-11
6.23777e-11 -1.27394e-11 2.38796

-4.58086 -7.22333 2.73482e-11
-7.22333 3.16515 -2.81234e-11
2.73482e-11 -2.81234e-11 -0.739736

2.21065 1.67594 9.93346e-12
1.67594 15.0265 -2.03778e-11
9.93346e-12 -2.03778e-11 1.6799

14.1072 2.14014 2.1628e-11
2.14014 3.93696 -9.65679e-12
2.1628e-11 -9.65679e-12 1.83732

-6.59044 -2.23078 -1.5105e-11
-2.23078 -2.9201 -5.19999e-12
-1.5105e-11 -5.19999e-12 -5.33494

-6.51023 -2.70038 7.49834e-12
-2.70038 -2.94422 9.0495e-12
7.49834e-12 9.0495e-12 -5.39037

3.71503 0.850328 -1.94539e-11
0.850328 -3.25251 -1.42992e-11
-1.94539e-11 -1.42992e-11 -0.80469

5.91733 0.0527034 2.42696e-11
0.0527034 -9.38814 -1.05922e-11
2.42696e-11 -1.05922e-11 -0.980081

1.35752 -4.12701 -4.15597e-11
-4.12701 8.71099 -2.71108e-11
-4.15597e-11 -2.71108e-11 0.426803

1.25085 4.03632 3.27523e-12
4.03632 8.6661 1.48349e-11
3.27523e-12 1.48349e-11 0.403961

6.82117 -0.00021759 -1.48324e-11
-0.00021759 -6.35425 5.55396e-12
-1.48324e-11 5.55396e-12 -0.481493

-3.21854 -4.98234 -9.4373e-12
-4.98234 4.57509 -1.43488e-11
-9.4373e-12 -1.43488e-11 -0.642557

-3.62186 -2.13659 2.68599e-11
-2.13659 -4.10434 4.05342e-11
2.68599e-11 4.05342e-11 -4.11995

-3.66427 2.13232 1.31907e-11
2.13232 -4.12204 3.5288e-11
1.31907e-11 3.5288e-11 -4.12051

-0.532072 2.93895 3.00447e-11
2.93895 -0.0134002 -2.01262e-11
3.00447e-11 -2.01262e-11 -1.11491

-2.88946 -5.5807 -4.03504e-11
-5.5807 3.22637 1.22334e-11
-4.03504e-11 1.22334e-11 -0.553307

4.0024 0.849167 3.85255e-12
0.849167 -6.70691 2.74446e-11
3.85255e-12 2.74446e-11 -1.28859

5.98388 4.65844 -3.46779e-11
4.65844 5.11763 -2.0136e-11
-3.46779e-11 -2.0136e-11 0.63309

-3.0441 -5.73217 2.83581e-11
-5.73217 3.62278 1.42513e-11
2.83581e-11 1.42513e-11 -0.508856

11.4589 -10.0712 -2.04281e-13
-10.0712 11.8172 -2.6749e-11
-2.04281e-13 -2.6749e-11 3.90278

-2.71102 -1.37373 -2.13546e-11
-1.37373 5.84052 -3.10145e-11
-2.13546e-11 -3.10145e-11 -0.495968

-2.38693 -1.88179 4.1895e-12
-1.88179 5.89704 -1.64704e-11
4.1895e-12 -1.64704e-11 -0.44181

-7.59522 -0.444496 -4.5219e-11
-0.444496 -4.94761 3.62066e-11
-4.5219e-11 3.62066e-11 -6.56261

-7.53323 -0.255598 -3.29284e-11
-0.255598 -5.00909 2.56132e-11
-3.29284e-11 2.56132e-11 -6.56284

1.19663 -1.56344 -1.8102e-11
-1.56344 -5.32877 1.2662e-11
-1.8102e-11 1.2662e-11 -1.22106

1.15383 1.56605 3.35088e-11
1.56605 -5.34258 6.47654e-12
3.35088e-11 6.47654e-12 -1.21749

-4.26804 -3.07611 4.01534e-11
-3.07611 -3.57164 3.84248e-13
4.01534e-11 3.84248e-13 -3.19898

-3.84326 3.174 1.55022e-11
3.174 -3.66154 -1.55037e-11
1.55022e-11 -1.55037e-11 -3.04403

-6.2074 -2.72886 1.77163e-11
-2.72886 -3.2298 1.59854e-11
1.77163e-11 1.59854e-11 -5.21743

-6.20637 2.84049 -1.25178e-11
2.84049 -3.19343 -1.86793e-11
-1.25178e-11 -1.86793e-11 -5.17706

-7.80518 4.24526 -1.54432e-12
4.24526 -8.14044 3.26984e-12
-1.54432e-12 3.26984e-12 -8.86186

-7.80313 -4.23896 -6.22007e-11
-4.23896 -8.13878 5.71966e-11
-6.22007e-11 5.71966e-11 -8.86971

-4.66671 -7.00114 -7.60688e-12
-7.00114 1.52126 6.64622e-12
-7.60688e-12 6.64622e-12 -1.37996

-4.6559 7.02529 2.00281e-11
7.02529 1.44068 -5.96758e-12
2.00281e-11 -5.96758e-12 -1.37917

2.29045 4.18589 -5.77464e-13
4.18589 0.334134 -2.16694e-11
-5.77464e-13 -2.16694e-11 -0.486066

-1.45525 -3.2988 -3.65677e-11
-3.2988 5.09547 -4.15084e-11
-3.65677e-11 -4.15084e-11 -0.17004

-1.54939 -4.11867 2.26175e-12
-4.11867 5.62595 9.34201e-12
2.26175e-12 9.34201e-12 -0.138209

8.03055 -4.16467 -3.02487e-11
-4.16467 6.84928 2.82236e-11
-3.02487e-11 2.82236e-11 1.35937

2.32032 -4.17928 2.48471e-11
-4.17928 0.516244 -2.08997e-11
2.48471e-11 -2.08997e-11 -0.463664

-1.40763 3.11297 -6.74259e-12
3.11297 5.02305 -3.1779e-12
-6.74259e-12 -3.1779e-12 -0.168916

0.928942 5.86031 2.21535e-11
5.86031 3.16708 1.86858e-11
2.21535e-11 1.86858e-11 -0.251035

-5.97011 -6.06427 -4.23802e-12
-6.06427 0.0555955 1.73359e-12
-4.23802e-12 1.73359e-12 -2.03639

-5.96967 5.95284 1.8288e-12
5.95284 -0.0223026 -1.3964e-11
1.8288e-12 -1.3964e-11 -2.06933

0.908411 -5.94805 -5.11369e-11
-5.94805 3.19686 -3.01868e-11
-5.11369e-11 -3.01868e-11 -0.270377

3.16099 -0.592242 -1.53115e-11
-0.592242 -3.67549 1.46361e-11
-1.53115e-11 1.46361e-11 -1.1173

-15.038 1.68133 5.0623e-11
1.68133 -12.1519 9.43923e-12
5.0623e-11 9.43923e-12 -14.8434

-14.9179 1.4774 -5.25e-11
1.4774 -12.2588 4.04314e-12
-5.25e-11 4.04314e-12 -14.8219

-2.9616 -5.2224 2.07522e-11
-5.2224 3.18068 -3.13e-11
2.07522e-11 -3.13e-11 -0.837385

-0.302347 2.55867 2.77371e-11
2.55867 -3.62516 -4.81652e-13
2.77371e-11 -4.81652e-13 -1.69495

1.38909 -0.627382 2.86965e-11
-0.627382 -7.36646 -1.36736e-11
2.86965e-11 -1.36736e-11 -3.16281

10.1109 -5.62386 1.00007e-11
-5.62386 10.9748 -4.62913e-11
1.00007e-11 -4.62913e-11 2.50137

10.1569 -5.49283 6.23791e-11
-5.49283 10.9095 -3.22273e-11
6.23791e-11 -3.22273e-11 2.4964

0.711381 -1.76472 3.65885e-12
-1.76472 -5.98397 7.36803e-11
3.65885e-12 7.36803e-11 -1.8885

0.632295 1.79415 3.48577e-11
1.79415 -5.98254 1.30144e-12
3.48577e-11 1.30144e-12 -1.88521

1.22177 0.516195 2.46529e-11
0.516195 -7.38722 -2.77785e-11
2.46529e-11 -2.77785e-11 -3.29931

-1.44025 4.08879 -1.88992e-11
4.08879 5.50913 -2.7064e-11
-1.88992e-11 -2.7064e-11 -0.13191

6.1113 3.22453 2.68704e-11
3.22453 2.6498 -2.27263e-11
2.68704e-11 -2.27263e-11 0.523732

-2.29544 -4.6589 4.62326e-12
-4.6589 0.947939 -5.1615e-11
4.62326e-12 -5.1615e-11 -1.34669

-2.33016 4.62275 -1.45409e-11
4.62275 0.927388 -1.07871e-11
-1.45409e-11 -1.07871e-11 -1.34498

-12.2611 -0.843765 1.15571e-12
-0.843765 -16.7788 -9.92426e-11
1.15571e-12 -9.92426e-11 -15.269

-12.1098 0.853107 2.2148e-11
0.853107 -16.0842 -9.4922e-11
2.2148e-11 -9.4922e-11 -15.0101

-4.51657 -5.98494 -3.1583e-11
-5.98494 2.94659 -3.71705e-11
-3.1583e-11 -3.71705e-11 -0.965874

4.33804 2.56914 2.30179e-11
2.56914 -0.793743 -2.56157e-11
2.30179e-11 -2.56157e-11 -0.190705

-0.723883 1.78403 -5.6802e-12
1.78403 -2.92766 -4.37894e-12
-5.6802e-12 -4.37894e-12 -2.03904

-0.66562 -1.79319 -1.52115e-11
-1.79319 -2.91491 -5.86393e-11
-1.52115e-11 -5.86393e-11 -2.03906

-3.06572 -4.64486 6.74757e-13
-4.64486 2.58044 -1.31945e-11
6.74757e-13 -1.31945e-11 -0.881023

-4.71952 -6.38621 8.86156e-12
-6.38621 2.40708 -2.13799e-11
8.86156e-12 -2.13799e-11 -0.880323

11.5665 -10.4425 -2.34908e-11
-10.4425 12.1219 2.24529e-11
-2.34908e-11 2.24529e-11 3.96209

-6.11409 4.355 1.24207e-11
4.355 -0.00687768 -1.36753e-11
1.24207e-11 -1.36753e-11 -2.81549

-6.19048 -4.4207 -6.35669e-12
-4.4207 0.0117942 2.71572e-11
-6.35669e-12 2.71572e-11 -2.83311

-4.92606 -5.53339 1.55033e-11
-5.53339 2.44292 3.46538e-12
1.55033e-11 3.46538e-12 -1.04097

6.28994 -3.47909 2.21408e-12
-3.47909 2.48622 1.05939e-11
2.21408e-12 1.05939e-11 0.533255

-0.448125 -2.7729 -1.75277e-11
-2.7729 -0.271024 1.57938e-11
-1.75277e-11 1.57938e-11 -1.21342

-4.28062 3.7709 2.23391e-11
3.7709 -1.19331 -3.16816e-11
2.23391e-11 -3.16816e-11 -2.56166

-4.43088 -3.91361 3.78442e-11
-3.91361 -1.14062 -1.82966e-11
3.78442e-11 -1.82966e-11 -2.61015

3.47054 -0.565788 -9.63104e-12
-0.565788 -7.38652 7.51077e-12
-9.63104e-12 7.51077e-12 -1.57061

-1.54951 1.38745 1.65633e-11
1.38745 -5.27461 4.97784e-11
1.65633e-11 4.97784e-11 -3.05269

-1.48814 -1.37392 5.00718e-12
-1.37392 -5.29014 -5.77867e-12
5.00718e-12 -5.77867e-12 -3.05722

-11.8149 0.611616 1.22195e-11
0.611616 -5.07925 3.56277e-11
1.22195e-11 3.56277e-11 -11.0656

-11.7655 0.407213 -3.26272e-11
0.407213 -5.10906 -7.56819e-11
-3.26272e-11 -7.56819e-11 -11.0695

11.9252 0.438814 -6.42285e-11
0.438814 27.3236 2.88788e-11
-6.42285e-11 2.88788e-11 6.57088

25.329 0.390245 2.41152e-11
0.390245 12.0701 -9.60415e-12
2.41152e-11 -9.60415e-12 6.22292

-3.46675 -5.98042 3.08156e-11
-5.98042 2.921 6.54428e-12
3.08156e-11 6.54428e-12 -0.916118

-3.46549 5.96343 -1.48283e-11
5.96343 2.88414 -4.62466e-12
-1.48283e-11 -4.62466e-12 -0.908877

-4.63996 -6.8055 -3.19198e-11
-6.8055 3.23606 -2.6383e-11
-3.19198e-11 -2.6383e-11 -0.824186

9.71052 -4.90791 -3.75001e-11
-4.90791 21.049 -5.24736e-12
-3.75001e-11 -5.24736e-12 4.92121

19.9101 -4.69157 8.50253e-12
-4.69157 10.6934 1.75797e-11
8.50253e-12 1.75797e-11 4.8895

-13.0904 -6.25066 8.89437e-11
-6.25066 -8.23612 1.69069e-10
8.89437e-11 1.69069e-10 -11.2594

-13.0954 6.2496 -1.00895e-10
6.2496 -8.23293 9.34831e-11
-1.00895e-10 9.34831e-11 -11.2533

-2.7527 -4.13135 -1.56011e-11
-4.13135 -0.58237 1.49256e-11
-1.56011e-11 1.49256e-11 -1.54578

0.0026846 -5.74214 -1.76266e-11
-5.74214 3.99647 4.9504e-11
-1.76266e-11 4.9504e-11 -0.190574

-3.22051 -6.04458 9.53349e-12
-6.04458 1.33924 -2.21575e-12
9.53349e-12 -2.21575e-12 -1.24068

-3.2376 6.02101 -2.61956e-11
6.02101 1.30814 -6.0864e-11
-2.61956e-11 -6.0864e-11 -1.23801

-2.15354 -6.48557 1.79136e-11
-6.48557 3.48801 -1.55064e-11
1.79136e-11 -1.55064e-11 -0.567525

0.0408783 5.7439 2.04159e-11
5.7439 3.86108 1.08834e-11
2.04159e-11 1.08834e-11 -0.199162

4.70495 -1.86229 -2.23587e-11
-1.86229 15.4405 -2.16656e-12
-2.23587e-11 -2.16656e-12 2.2467

4.01582 2.25513 1.42079e-11
2.25513 14.5569 5.49042e-12
1.42079e-11 5.49042e-12 1.93704

14.2319 -1.4188 5.31785e-11
-1.4188 6.58204 -2.3239e-11
5.31785e-11 -2.3239e-11 2.36635

-2.0874 6.45202 1.92365e-13
6.45202 3.47032 -1.99355e-11
1.92365e-13 -1.99355e-11 -0.549715

2.40962 -1.15835 -5.01144e-11
-1.15835 15.8942 -2.26426e-12
-5.01144e-11 -2.26426e-12 1.91537

15.0153 -1.12188 -3.32327e-12
-1.12188 3.06749 -2.35597e-11
-3.32327e-12 -2.35597e-11 1.90869

-4.17881 -5.90567 -2.04157e-11
-5.90567 0.484658 2.51331e-11
-2.04157e-11 2.51331e-11 -1.88811

-4.16626 5.87169 7.01986e-11
5.87169 0.456513 1.07928e-11
7.01986e-11 1.07928e-11 -1.87682

-4.58496 -5.14063 -1.11711e-11
-5.14063 0.396823 -9.73388e-14
-1.11711e-11 -9.73388e-14 -2.20018

-4.58696 5.12035 6.01812e-11
5.12035 0.357969 6.02871e-11
6.01812e-11 6.02871e-11 -2.19645

10.188 -4.9349 2.03908e-11
-4.9349 21.2735 9.41363e-11
2.03908e-11 9.41363e-11 5.13042

20.4064 -4.56475 9.32706e-12
-4.56475 10.6142 -2.49543e-11
9.32706e-12 -2.49543e-11 5.05322

-1.28967 5.4506 -2.34972e-11
5.4506 2.75073 -2.45583e-11
-2.34972e-11 -2.45583e-11 -0.534625

-1.26188 -5.49459 -4.52608e-12
-5.49459 2.82925 7.99309e-12
-4.52608e-12 7.99309e-12 -0.527197

-8.22183 -0.879303 -1.50643e-11
-0.879303 -6.10969 2.19536e-11
-1.50643e-11 2.19536e-11 -7.81801

-8.2313 -1.16746 -4.99858e-12
-1.16746 -6.01834 1.5406e-11
-4.99858e-12 1.5406e-11 -7.81875

-5.58671 -5.92939 1.34751e-12
-5.92939 1.70668 2.84067e-11
1.34751e-12 2.84067e-11 -1.9753

-5.60933 5.95661 2.22419e-11
5.95661 1.65316 -1.8581e-11
2.22419e-11 -1.8581e-11 -1.97635

-3.20601 -2.33293 -1.53995e-12
-2.33293 -5.76612 -6.73034e-11
-1.53995e-12 -6.73034e-11 -3.8248

-3.23916 2.33355 3.12944e-11
2.33355 -5.74846 3.72135e-11
3.12944e-11 3.72135e-11 -3.81506

-3.73246 4.90807 -2.81188e-11
4.90807 1.10264 -6.3576e-12
-2.81188e-11 -6.3576e-12 -1.40314

-3.81349 -4.88775 -4.23711e-11
-4.88775 1.25058 -9.14711e-12
-4.23711e-11 -9.14711e-12 -1.38995

-11.2825 -1.83525 2.51746e-11
-1.83525 -4.05908 -5.60434e-11
2.51746e-11 -5.60434e-11 -9.23399

-4.99573 -3.35083 3.46618e-11
-3.35083 -6.69581 -1.75273e-11
3.46618e-11 -1.75273e-11 -6.06954

-7.92273 -3.44541 2.84994e-11
-3.44541 -9.26648 5.89192e-11
2.84994e-11 5.89192e-11 -8.7083

-5.02976 3.36943 -3.29285e-11
3.36943 -6.68419 -1.6083e-11
-3.29285e-11 -1.6083e-11 -6.0637

-7.93291 3.45369 -6.47041e-11
3.45369 -9.26553 3.87968e-11
-6.47041e-11 3.87968e-11 -8.70204

-11.3758 -1.42423 9.25223e-12
-1.42423 -3.91339 2.92712e-11
9.25223e-12 2.92712e-11 -9.19443

-8.29047 -3.75567 3.52407e-11
-3.75567 -8.432 4.52362e-12
3.52407e-11 4.52362e-12 -9.54462

-8.45297 3.88444 1.36765e-11
3.88444 -8.37075 2.98493e-11
1.36765e-11 2.98493e-11 -9.51256

-9.41326 -4.87654 6.95089e-11
-4.87654 -6.70542 -7.47283e-11
6.95089e-11 -7.47283e-11 -9.42415

0.214482 -3.64011 1.36141e-10
-3.64011 -12.6255 -1.71763e-10
1.36141e-10 -1.71763e-10 -10.6779

0.215352 3.63745 -5.754e-10
3.63745 -12.6134 -8.8162e-11
-5.754e-10 -8.8162e-11 -10.6673

-9.42677 4.87895 -6.93142e-11
4.87895 -6.71373 -6.99126e-11
-6.93142e-11 -6.99126e-11 -9.41955

-5.49951 -5.17326 -2.88865e-12
-5.17326 -5.68162 1.00138e-11
-2.88865e-12 1.00138e-11 -7.02752

-4.94191 -4.17297 1.90636e-11
-4.17297 -0.80207 -1.34866e-12
1.90636e-11 -1.34866e-12 -3.61602

-9.73996 -3.9875 -3.65866e-11
-3.9875 -9.75266 -5.33372e-11
-3.65866e-11 -5.33372e-11 -10.6865

-5.5093 5.1758 3.38945e-11
5.1758 -5.7058 6.83655e-11
3.38945e-11 6.83655e-11 -7.025

-9.74342 3.99091 2.30875e-12
3.99091 -9.7489 6.39294e-11
2.30875e-12 6.39294e-11 -10.6779

-4.94557 4.17183 -4.3809e-11
4.17183 -0.833856 -1.45415e-11
-4.3809e-11 -1.45415e-11 -3.61262

-6.84824 -4.30412 3.75833e-12
-4.30412 -2.77839 -7.45272e-11
3.75833e-12 -7.45272e-11 -4.98122

-6.65494 -3.50639 2.33005e-11
-3.50639 -5.33226 -4.89137e-11
2.33005e-11 -4.89137e-11 -6.67048

-6.84855 4.30113 -1.18447e-11
4.30113 -2.80049 -3.611e-11
-1.18447e-11 -3.611e-11 -4.97495

-6.6727 3.5014 1.71359e-11
3.5014 -5.35495 -3.11013e-11
1.71359e-11 -3.11013e-11 -6.66895

-2.05778 2.81763 -2.90833e-11
2.81763 1.47295 1.53958e-12
-2.90833e-11 1.53958e-12 -0.670038

-5.60692 -0.813789 2.94652e-11
-0.813789 3.01316 -3.85344e-12
2.94652e-11 -3.85344e-12 -0.851482

3.264 -0.907592 -2.88898e-11
-0.907592 -4.98868 2.69687e-11
-2.88898e-11 2.69687e-11 -0.0493341

5.15503 0.0288613 -2.56208e-11
0.0288613 -2.70038 1.021e-11
-2.56208e-11 1.021e-11 0.934482

-6.72947 2.82558 9.61046e-13
2.82558 -2.55865 -3.85202e-11
9.61046e-13 -3.85202e-11 -3.35522

-9.69083 -1.22985 -8.66812e-12
-1.22985 1.94222 -4.23957e-12
-8.66812e-12 -4.23957e-12 -2.9674

4.89359 1.58738 -9.0575e-12
1.58738 -2.92639 -2.89226e-12
-9.0575e-12 -2.89226e-12 0.827699

0.856068 2.02064 -1.37737e-11
2.02064 -7.23002 -8.85865e-12
-1.37737e-11 -8.85865e-12 -1.23945

1.97551 4.02636 6.93601e-12
4.02636 7.64866 2.19575e-11
6.93601e-12 2.19575e-11 3.88437

3.06423 3.90142 -6.9326e-12
3.90142 8.55087 1.79175e-11
-6.9326e-12 1.79175e-11 4.28126

8.35958 3.5106 2.17673e-11
3.5106 3.23444 -1.92635e-11
2.17673e-11 -1.92635e-11 4.41954

-4.3201 1.77164 3.85543e-12
1.77164 0.326019 1.73332e-11
3.85543e-12 1.73332e-11 -2.4226

-3.67129 -3.41704 -2.2534e-11
-3.41704 -1.7427 2.11956e-12
-2.2534e-11 2.11956e-12 -2.65491

0.0191091 -4.35125 -2.67713e-11
-4.35125 1.23253 1.93138e-12
-2.67713e-11 1.93138e-12 0.249876

-9.67677 1.47622 -4.31387e-11
1.47622 2.17587 -1.04001e-11
-4.31387e-11 -1.04001e-11 -2.96831

-6.78924 -1.63478 2.0797e-11
-1.63478 -2.77267 1.91328e-13
2.0797e-11 1.91328e-13 -3.3803

4.58969 1.12462 5.10547e-12
1.12462 -5.12295 -9.62902e-12
5.10547e-12 -9.62902e-12 -0.149699

0.899774 1.85626 -6.93064e-12
1.85626 8.75461 -4.62297e-12
-6.93064e-12 -4.62297e-12 3.19263

2.17131 1.41375 -8.96198e-12
1.41375 8.24097 -7.12822e-12
-8.96198e-12 -7.12822e-12 3.18783

9.11316 1.08503 6.36173e-12
1.08503 2.41489 1.09744e-11
6.36173e-12 1.09744e-11 3.61322

-0.0825858 4.33953 -1.15559e-11
4.33953 4.86441 2.17653e-11
-1.15559e-11 2.17653e-11 1.10662

-1.7868 -2.60356 -2.61912e-11
-2.60356 4.66051 -1.73372e-11
-2.61912e-11 -1.73372e-11 1.08034

3.17892 2.50282 -1.75329e-11
2.50282 -5.61031 -1.13618e-11
-1.75329e-11 -1.13618e-11 -0.206331

7.40381 2.94342 -2.37049e-11
2.94342 11.6702 1.77266e-11
-2.37049e-11 1.77266e-11 7.57167

1.8878 -1.12121 -3.0046e-11
-1.12121 -8.28278 -1.11727e-11
-3.0046e-11 -1.11727e-11 -1.08376

-3.37144 0.757279 -3.6579e-12
0.757279 -2.45257 -3.40883e-11
-3.6579e-12 -3.40883e-11 -3.41408

-5.23571 -0.200544 -2.34945e-11
-0.200544 1.03147 -2.54231e-11
-2.34945e-11 -2.54231e-11 -3.17889

-0.394541 4.38637 -6.93538e-12
4.38637 -8.01267 9.24655e-12
-6.93538e-12 9.24655e-12 -9.03552

-1.28023 -1.96585 5.35382e-11
-1.96585 -11.9889 1.63689e-11
5.35382e-11 1.63689e-11 -9.53777

-0.985701 -4.97176 -3.21638e-11
-4.97176 1.33537 7.32007e-12
-3.21638e-11 7.32007e-12 0.10261

-0.640381 -4.18916 -1.44473e-11
-4.18916 4.42285 -1.15608e-11
-1.44473e-11 -1.15608e-11 1.04577

8.37457 -0.0490585 3.13998e-11
-0.0490585 0.840996 -4.91188e-11
3.13998e-11 -4.91188e-11 3.24891

-0.184045 2.71733 3.46841e-12
2.71733 -5.06408 -2.65778e-11
3.46841e-12 -2.65778e-11 -3.53269

-0.685481 -0.745967 -1.92883e-12
-0.745967 -5.58426 -1.38664e-11
-1.92883e-12 -1.38664e-11 -3.36667

0.623717 -0.440791 9.63183e-12
-0.440791 -9.5432 2.81189e-11
9.63183e-12 2.81189e-11 -1.50163

-1.80849 -3.18214 1.38696e-11
-3.18214 3.36339 5.08573e-11
1.38696e-11 5.08573e-11 0.845351

1.13912 0.619324 4.23709e-12
0.619324 -9.5585 -2.11919e-12
4.23709e-12 -2.11919e-12 -1.28768

4.86547 -3.1262 -2.3885e-11
-3.1262 1.46906 2.11527e-12
-2.3885e-11 2.11527e-12 1.78052

-0.565946 4.59905 5.77612e-12
4.59905 2.52933 -4.89292e-11
5.77612e-12 -4.89292e-11 0.865905

6.26812 3.41477 3.37105e-11
3.41477 -0.979933 -2.04142e-11
3.37105e-11 -2.04142e-11 1.76415

5.60905 -1.97498 -3.79502e-11
-1.97498 -1.0272 2.88955e-11
-3.79502e-11 2.88955e-11 1.59057

-0.941411 3.87788 -1.75327e-11
3.87788 4.69219 1.53388e-12
-1.75327e-11 1.53388e-12 1.19426

-7.15654 -2.88307 -6.45128e-12
-2.88307 1.99252 -7.70347e-12
-6.45128e-12 -7.70347e-12 -0.826554

-4.6677 5.14833 3.42837e-11
5.14833 1.71745 2.98574e-11
3.42837e-11 2.98574e-11 -0.863394

-0.0380315 -3.62839 1.67551e-11
-3.62839 4.53712 -9.05646e-12
1.67551e-11 -9.05646e-12 1.14248

-0.434351 4.76438 -8.08612e-12
4.76438 4.75514 2.83148e-11
-8.08612e-12 2.83148e-11 1.04827

22.222 -4.02283 1.25238e-11
-4.02283 22.8925 2.96719e-11
1.25238e-11 2.96719e-11 22.798

22.2022 4.62233 -3.31391e-11
4.62233 23.8776 1.53988e-12
-3.31391e-11 1.53988e-12 22.9005

-8.55885 3.95165 5.50795e-11
3.95165 0.322047 1.03984e-11
5.50795e-11 1.03984e-11 -2.25573

-5.89628 -4.61539 -1.42507e-11
-4.61539 -0.616099 9.24564e-12
-1.42507e-11 9.24564e-12 -2.02676

-3.28664 4.35274 -3.42888e-11
4.35274 3.32112 -6.56866e-11
-3.42888e-11 -6.56866e-11 -0.0588612

13.7719 1.4877 -2.29248e-11
1.4877 13.9448 -1.05992e-11
-2.29248e-11 -1.05992e-11 15.1535

13.584 -0.0245262 2.50274e-12
-0.0245262 15.0913 1.42547e-11
2.50274e-12 1.42547e-11 15.4514

-5.45861 -3.31876 -3.16724e-11
-3.31876 -4.04972 -1.88658e-11
-3.16724e-11 -1.88658e-11 -4.07172

-5.01115 1.61895 2.02246e-11
1.61895 -2.8407 -6.7409e-12
2.02246e-11 -6.7409e-12 -4.00199

5.40485 -0.0944647 -8.42489e-12
-0.0944647 -5.98405 -2.69632e-12
-8.42489e-12 -2.69632e-12 -0.171873

-5.45896 -3.09222 1.96173e-11
-3.09222 -4.0059 -3.15889e-11
1.96173e-11 -3.15889e-11 -4.17585

-5.38104 1.11159 -2.14064e-11
1.11159 -5.0381 -4.14068e-11
-2.14064e-11 -4.14068e-11 -4.55671

-4.88766 -2.73998 -3.45718e-11
-2.73998 3.21377 1.92816e-12
-3.45718e-11 1.92816e-12 -0.0099854

-2.07094 4.1473 1.19375e-11
4.1473 -6.79052 -1.92566e-11
1.19375e-11 -1.92566e-11 -7.4152

-1.80436 -3.41839 -3.35098e-11
-3.41839 -10.6345 1.00083e-11
-3.35098e-11 1.00083e-11 -7.71205

-2.94673 -3.31955 -9.58293e-12
-3.31955 -3.1314 2.49785e-12
-9.58293e-12 2.49785e-12 -1.87605

-2.80913 2.52787 2.33034e-11
2.52787 -2.56631 1.94027e-11
2.33034e-11 1.94027e-11 -2.00637

-8.93721 0.263535 1.57935e-11
0.263535 0.183405 1.46356e-11
1.57935e-11 1.46356e-11 -7.08903

-9.4 2.00242 1.34862e-12
2.00242 -5.09903 5.04573e-11
1.34862e-12 5.04573e-11 -8.08173

6.87278 1.37697 -2.69348e-12
1.37697 11.2682 -3.25624e-11
-2.69348e-12 -3.25624e-11 7.70113

11.0466 1.40817 5.2928e-12
1.40817 7.03938 1.6183e-11
5.2928e-12 1.6183e-11 7.72677

-4.57692 4.13265 -1.42517e-11
4.13265 2.04843 -3.8521e-12
-1.42517e-11 -3.8521e-12 -0.807232

-7.19325 -2.52091 -5.58638e-12
-2.52091 2.57991 -2.34999e-11
-5.58638e-12 -2.34999e-11 -0.888937

-11.0849 -5.44118 1.1327e-10
-5.44118 -4.88995 -7.3187e-11
1.1327e-10 -7.3187e-11 -13.7708

-10.435 3.24273 -3.33732e-10
3.24273 -15.9297 -9.06425e-12
-3.33732e-10 -9.06425e-12 -15.7973

3.6827 4.38615 3.02556e-11
4.38615 1.08314 5.4711e-11
3.02556e-11 5.4711e-11 1.48302

0.82864 1.6861 1.26171e-11
1.6861 -4.92897 2.30845e-12
1.26171e-11 2.30845e-12 -1.2314

0.665691 -2.2068 2.14762e-11
-2.2068 -4.94647 -2.00315e-11
2.14762e-11 -2.00315e-11 -1.10234

-0.728992 -2.37129 -3.85193e-11
-2.37129 -9.20358 -3.5438e-11
-3.85193e-11 -3.5438e-11 -3.41106

8.07978 1.00285 3.50631e-11
1.00285 0.671851 -2.69653e-11
3.50631e-11 -2.69653e-11 3.19812

-1.24282 0.305905 -8.08631e-12
0.305905 -12.4223 -4.44854e-11
-8.08631e-12 -4.44854e-11 -11.3358

-1.81779 -0.619063 5.81539e-11
-0.619063 -4.68396 -1.4251e-11
5.81539e-11 -1.4251e-11 -10.3976

0.962213 5.2639 -6.93305e-12
5.2639 -1.72858 1.5408e-11
-6.93305e-12 1.5408e-11 0.0371882

4.65597 1.39422 2.92211e-13
1.39422 -2.75378 1.53944e-12
2.92211e-13 1.53944e-12 0.240484

4.64015 4.2861 -1.61811e-11
4.2861 6.25715 2.85095e-11
-1.61811e-11 2.85095e-11 3.64839

-8.49122 -2.43561 -5.66091e-11
-2.43561 -0.802518 2.31094e-11
-5.66091e-11 2.31094e-11 -8.80939

-11.0047 1.52392 -5.66167e-11
1.52392 -8.39533 3.33181e-11
-5.66167e-11 3.33181e-11 -10.5246

-0.147212 4.41979 -2.8115e-11
4.41979 -7.29155 1.19408e-11
-2.8115e-11 1.19408e-11 -3.33189

-2.24169 -1.38574 1.30964e-11
-1.38574 1.27601 1.46374e-11
1.30964e-11 1.46374e-11 -0.7973

-5.83503 0.980695 -6.59609e-11
0.980695 3.08828 -1.38683e-11
-6.59609e-11 -1.38683e-11 -1.02709

3.34314 -0.676891 8.52281e-12
-0.676891 -7.46604 -1.46399e-11
8.52281e-12 -1.46399e-11 -0.993577

3.85002 0.499188 -9.53556e-12
0.499188 -7.76134 -3.35106e-11
-9.53556e-12 -3.35106e-11 -1.00302

6.85548 -2.82297 -1.01211e-11
-2.82297 5.08947 1.15804e-12
-1.01211e-11 1.15804e-12 3.97309

6.7071 0.146273 -1.1992e-11
0.146273 -2.51964 -3.8175e-13
-1.1992e-11 -3.8175e-13 1.03284

0.667528 0.56624 -1.30918e-11
0.56624 -7.28952 5.7196e-11
-1.30918e-11 5.7196e-11 -2.28971

-0.172252 -1.21113 8.3061e-12
-1.21113 -6.48042 -4.50662e-11
8.3061e-12 -4.50662e-11 -2.18058

4.29184 -1.6537 1.91598e-11
-1.6537 -3.30399 -1.04009e-11
1.91598e-11 -1.04009e-11 0.202369

3.09815 -0.778904 -1.6794e-13
-0.778904 -5.4634 -2.02234e-11
-1.6794e-13 -2.02234e-11 -0.844942

3.7417 0.335705 -8.20928e-12
0.335705 -5.46519 9.82429e-12
-8.20928e-12 9.82429e-12 -0.826763

2.91091 3.48608 7.75232e-13
3.48608 -4.03105 5.31564e-11
7.75232e-13 5.31564e-11 -0.115356

3.22839 -4.6254 1.00166e-11
-4.6254 2.73291 1.32897e-11
1.00166e-11 1.32897e-11 1.96582

-4.74447 6.02568 1.83042e-12
6.02568 1.14165 1.09781e-11
1.83042e-12 1.09781e-11 -1.06984

-6.04205 -5.12731 -9.77211e-12
-5.12731 -1.3167 2.46544e-11
-9.77211e-12 2.46544e-11 -1.1934

-7.3218 -3.82752 -2.03213e-11
-3.82752 -1.60006 3.73664e-11
-2.03213e-11 3.73664e-11 -1.52135

-4.6258 6.36074 2.68679e-11
6.36074 1.98632 1.7143e-11
2.68679e-11 1.7143e-11 -0.851059

6.53943 2.21134 7.79983e-12
2.21134 -1.73815 -6.73994e-12
7.79983e-12 -6.73994e-12 1.41207

9.98376 -2.64061 8.29203e-12
-2.64061 6.89314 -6.04938e-11
8.29203e-12 -6.04938e-11 6.74499

0.519545 5.02758 4.21813e-11
5.02758 -4.73639 -7.70606e-13
4.21813e-11 -7.70606e-13 -1.20824

3.2165 -1.68362 2.88399e-12
-1.68362 -3.30414 -1.29014e-11
2.88399e-12 -1.29014e-11 0.165605

10.2812 -2.05361 3.04405e-11
-2.05361 6.07885 -2.7548e-11
3.04405e-11 -2.7548e-11 6.55484

1.08251 -4.08398 -3.33234e-11
-4.08398 -1.38182 -1.23274e-11
-3.33234e-11 -1.23274e-11 0.0798079

-7.99701 0.0273436 -2.73499e-11
0.0273436 3.95313 1.07873e-11
-2.73499e-11 1.07873e-11 -1.06814

-5.43291 0.633533 1.52171e-11
0.633533 0.628306 1.44428e-11
1.52171e-11 1.44428e-11 -1.39591

2.07158 5.23562 2.02352e-11
5.23562 2.24301 4.39131e-11
2.02352e-11 4.39131e-11 1.57082

7.88312 -3.03531 -9.72274e-12
-3.03531 2.72303 2.92798e-11
-9.72274e-12 2.92798e-11 4.08487

-4.06004 5.57724 -6.54943e-12
5.57724 -2.35856 -4.96919e-11
-6.54943e-12 -4.96919e-11 -1.2913

-3.78058 -5.34381 -3.4476e-11
-5.34381 -0.108231 6.5495e-12
-3.4476e-11 6.5495e-12 -1.00697

1.42135 -3.94914 2.20626e-11
-3.94914 4.68019 -1.07894e-11
2.20626e-11 -1.07894e-11 1.97436

2.35448 -4.35389 2.15691e-11
-4.35389 4.65724 9.43764e-12
2.15691e-11 9.43764e-12 2.0282

2.86374 4.06366 2.61985e-11
4.06366 -3.08039 6.16177e-12
2.61985e-11 6.16177e-12 -0.0294599

1.05009 2.49968 3.77552e-11
2.49968 -11.6151 3.42767e-11
3.77552e-11 3.42767e-11 -2.59818

1.23944 -1.70415 1.23266e-11
-1.70415 -12.6638 7.69125e-13
1.23266e-11 7.69125e-13 -2.52341

-0.986679 3.23086 -2.98417e-12
3.23086 5.95737 2.87002e-11
-2.98417e-12 2.87002e-11 1.28884

1.01046 4.96725 2.71539e-11
4.96725 0.0528882 -6.00925e-11
2.71539e-11 -6.00925e-11 0.413462

-0.716176 0.467184 -2.88854e-12
0.467184 9.27674 -2.42778e-11
-2.88854e-12 -2.42778e-11 3.37267

0.578023 0.259738 -4.58504e-11
0.259738 9.05808 -1.42538e-11
-4.58504e-11 -1.42538e-11 3.46109

9.9156 0.212382 -4.91414e-12
0.212382 0.537631 4.23202e-12
-4.91414e-12 4.23202e-12 3.85003

3.24343 -3.73317 -1.5506e-11
-3.73317 0.633802 -3.65983e-11
-1.5506e-11 -3.65983e-11 1.4649

-15.0624 -2.56172 1.20163e-10
-2.56172 -10.3191 1.1157e-11
1.20163e-10 1.1157e-11 -14.4554

-1.35744 1.31905 -8.45312e-11
1.31905 -1.31364 -2.42609e-11
-8.45312e-11 -2.42609e-11 -10.3221

5.42792 4.48028 3.65463e-12
4.48028 -0.320145 1.00242e-11
3.65463e-12 1.00242e-11 1.81892

6.35619 -1.86539 -3.25572e-11
-1.86539 -2.0927 -1.04037e-11
-3.25572e-11 -1.04037e-11 1.3227

9.49618 3.14611 -9.05809e-12
3.14611 4.8398 -1.69547e-11
-9.05809e-12 -1.69547e-11 5.99548

-5.48228 -3.26563 -2.88728e-12
-3.26563 1.17864 -3.92932e-11
-2.88728e-12 -3.92932e-11 -0.468413

-2.95244 5.91383 5.01703e-11
5.91383 3.05579 -1.90645e-11
5.01703e-11 -1.90645e-11 -0.104453

5.48667 -0.0867951 -2.27777e-11
-0.0867951 -5.95039 1.11711e-11
-2.27777e-11 1.11711e-11 -0.118747

-2.946 2.97646 6.35401e-12
2.97646 5.58785 1.61851e-11
6.35401e-12 1.61851e-11 1.07539

-9.91407 -3.95472 -4.72807e-11
-3.95472 0.33622 2.15727e-11
-4.72807e-11 2.15727e-11 -2.2915

-6.12198 5.54942 8.37819e-12
5.54942 0.204166 5.58564e-12
8.37819e-12 5.58564e-12 -1.94973

4.69994 3.48634 -2.8026e-11
3.48634 6.79596 1.90702e-11
-2.8026e-11 1.90702e-11 3.69574

6.77319 3.6761 1.82935e-11
3.6761 6.13249 1.09803e-11
1.82935e-11 1.09803e-11 4.07843

9.54216 2.82391 -3.12036e-11
2.82391 4.87141 1.8881e-11
-3.12036e-11 1.8881e-11 5.94155

-5.12397 6.10518 -4.9553e-14
6.10518 2.52663 -7.12617e-12
-4.9553e-14 -7.12617e-12 -0.865436

-7.44391 -4.4133 2.7918e-12
-4.4133 -2.98931 2.73493e-11
2.7918e-12 2.73493e-11 -1.68673

4.85828 0.177498 -1.39165e-11
0.177498 -8.57629 -2.69587e-12
-1.39165e-11 -2.69587e-12 -0.813914

-5.96407 4.17021 2.5027e-12
4.17021 -3.11727 5.39527e-12
2.5027e-12 5.39527e-12 -1.7144

-4.62453 -5.1994 -7.31722e-12
-5.1994 1.38803 -1.02078e-11
-7.31722e-12 -1.02078e-11 -0.860793

-2.10492 5.04803 2.19552e-11
5.04803 -1.13982 1.61838e-11
2.19552e-11 1.61838e-11 -0.575916

0.289605 -1.09364 -2.88904e-11
-1.09364 8.19587 -3.42945e-11
-2.88904e-11 -3.42945e-11 2.81182

1.72319 -1.44857 2.50266e-12
-1.44857 8.03096 -2.92846e-11
2.50266e-12 -2.92846e-11 2.86596

8.136 -0.889978 -2.58148e-11
-0.889978 1.5867 -2.311e-12
-2.58148e-11 -2.311e-12 3.08557

2.29594 -3.08402 8.0939e-12
-3.08402 2.24231 -3.08598e-12
8.0939e-12 -3.08598e-12 1.49657

-0.590165 0.537367 1.90719e-11
0.537367 4.73798 -7.73603e-13
1.90719e-11 -7.73603e-13 0.811341

-3.69629 0.177407 -1.05926e-11
0.177407 5.75503 3.31381e-11
-1.05926e-11 3.31381e-11 0.621319

4.30123 -3.45118 1.61834e-11
-3.45118 7.77811 9.05217e-12
1.61834e-11 9.05217e-12 4.26278

4.02904 -3.28469 3.65972e-11
-3.28469 6.85597 7.69784e-12
3.65972e-11 7.69784e-12 4.16905

5.09112 -0.194736 -8.28258e-12
-0.194736 -8.13531 -1.63696e-11
-8.28258e-12 -1.63696e-11 -0.807166

4.58366 0.21696 -2.04892e-11
0.21696 -7.80601 -7.70345e-12
-2.04892e-11 -7.70345e-12 -0.809305

-4.36808 -4.07881 5.61491e-11
-4.07881 -0.403714 -2.19631e-11
5.61491e-11 -2.19631e-11 -0.578144

-3.21918 5.3584 1.94547e-11
5.3584 2.91302 2.3694e-11
1.94547e-11 2.3694e-11 -0.2402

-9.5926 3.45604 -5.9757e-12
3.45604 0.0918825 -1.65653e-11
-5.9757e-12 -1.65653e-11 -2.18694

-5.74716 -5.07644 1.36746e-11
-5.07644 0.140705 4.04402e-12
1.36746e-11 4.04402e-12 -1.63485

-1.79019 -4.06602 1.71416e-11
-4.06602 -2.44001 -7.51084e-12
1.71416e-11 -7.51084e-12 -1.13991

-2.85359 -2.13584 -3.37022e-11
-2.13584 6.09189 -3.73711e-11
-3.37022e-11 -3.73711e-11 1.22679

-2.20291 0.643384 2.64824e-11
0.643384 -4.34884 -1.06108e-12
2.64824e-11 -1.06108e-12 -2.79725

-2.98304 -2.03483 -3.19736e-11
-2.03483 -5.12076 -2.01757e-12
-3.19736e-11 -2.01757e-12 -2.90442

1.57581 -3.14078 2.79517e-12
-3.14078 -0.815736 -2.58097e-11
2.79517e-12 -2.58097e-11 0.315694

0.564805 -2.66676 1.86893e-11
-2.66676 -2.97024 -2.81194e-11
1.86893e-11 -2.81194e-11 -0.751873

1.08056 2.24746 -1.42086e-11
2.24746 -1.48118 -1.04009e-11
-1.42086e-11 -1.04009e-11 -0.606438

12.3573 -1.22885 3.06348e-11
-1.22885 7.94866 -1.27159e-11
3.06348e-11 -1.27159e-11 14.0149

2.14925 5.29631 -1.17511e-11
5.29631 4.24212 2.42724e-11
-1.17511e-11 2.42724e-11 1.75204

9.57672 2.53658 -3.91098e-11
2.53658 12.9821 1.34847e-11
-3.91098e-11 1.34847e-11 14.2858

-1.1074 -2.84739 -1.50271e-11
-2.84739 5.72245 1.73383e-11
-1.50271e-11 1.73383e-11 1.27211

-8.20941 -2.78751 -2.11839e-11
-2.78751 -5.0297 4.81469e-11
-2.11839e-11 4.81469e-11 -7.69167

-6.55843 1.11825 5.40482e-12
1.11825 -7.76709 -2.12201e-12
5.40482e-12 -2.12201e-12 -7.99506

1.98455 3.44615 -6.26388e-12
3.44615 0.565866 -1.73409e-12
-6.26388e-12 -1.73409e-12 0.400136

6.6274 -0.187269 7.56062e-12
-0.187269 -2.84816 2.3112e-11
7.56062e-12 2.3112e-11 0.988921

4.34058 4.29646 1.15323e-12
4.29646 1.0454 -3.08464e-12
1.15323e-12 -3.08464e-12 1.63668

-7.01736 2.08006 -2.12097e-12
2.08006 3.42656 -3.54417e-11
-2.12097e-12 -3.54417e-11 -0.85865

-4.64053 -2.87044 1.30976e-11
-2.87044 1.09901 -4.62349e-12
1.30976e-11 -4.62349e-12 -1.04187

-4.07636 4.7603 1.96439e-11
4.7603 -1.47273 -3.56289e-12
1.96439e-11 -3.56289e-12 -2.79728

-4.23958 -2.63575 -1.93327e-13
-2.63575 -0.455009 1.48277e-11
-1.93327e-13 1.48277e-11 -2.53318

-5.28578 6.48202 -5.19969e-12
6.48202 1.9213 1.92583e-12
-5.19969e-12 1.92583e-12 -0.920597

-10.1179 -6.14356 -3.47015e-12
-6.14356 -1.57172 4.81534e-11
-3.47015e-12 4.81534e-11 -1.81446

-4.49215 3.36127 1.34444e-12
3.36127 2.90804 3.23577e-11
1.34444e-12 3.23577e-11 -0.0694218

-2.85414 1.70423 2.16715e-11
1.70423 4.5781 -2.23442e-11
2.16715e-11 -2.23442e-11 0.400419

-1.51105 -3.77186 1.57026e-11
-3.77186 -2.1209 -4.08322e-11
1.57026e-11 -4.08322e-11 -0.721432

-1.34112 3.99034 -1.06912e-11
3.99034 -0.957499 -1.3289e-11
-1.06912e-11 -1.3289e-11 -0.775476

3.2549 4.06838 1.13623e-11
4.06838 3.56753 -2.88917e-11
1.13623e-11 -2.88917e-11 1.70339

-3.32082 -3.98815 -5.00766e-12
-3.98815 2.92619 -1.73432e-12
-5.00766e-12 -1.73432e-12 -0.0734619

-4.5475 -0.708146 1.84903e-11
-0.708146 5.87579 4.81594e-11
1.84903e-11 4.81594e-11 0.589107

11.5244 2.87397 1.34886e-11
2.87397 13.5206 4.83567e-11
1.34886e-11 4.83567e-11 11.2744

13.1632 2.97425 4.20074e-11
2.97425 11.6242 -5.77412e-12
4.20074e-11 -5.77412e-12 11.2181

5.20358 -3.4488 1.05946e-11
-3.4488 6.35168 -6.35891e-12
1.05946e-11 -6.35891e-12 3.91725

4.31431 -1.29248 3.55411e-11
-1.29248 -5.11068 1.5794e-11
3.55411e-11 1.5794e-11 -0.13458

-10.407 -4.32737 4.79869e-11
-4.32737 -7.93727 -7.89497e-11
4.79869e-11 -7.89497e-11 -12.9668

-6.7655 4.49247 -1.40801e-10
4.49247 -13.3359 1.25155e-10
-1.40801e-10 1.25155e-10 -13.3175

-3.84171 4.39605 3.07935e-12
4.39605 -3.76678 -1.07885e-11
3.07935e-12 -1.07885e-11 -5.81087

-5.93533 -1.15165 -4.15989e-11
-1.15165 -8.35351 2.56117e-11
-4.15989e-11 2.56117e-11 -6.75248

2.41473 -0.0488551 -3.42843e-11
-0.0488551 -6.29916 7.67627e-13
-3.42843e-11 7.67627e-13 -0.40185

-4.95752 -5.76004 -1.17471e-11
-5.76004 1.294 -3.46512e-12
-1.17471e-11 -3.46512e-12 -0.802705

-9.06701 6.01724 2.23397e-11
6.01724 -1.76291 -2.23409e-11
2.23397e-11 -2.23409e-11 -1.80877

9.25534 -2.80192 -9.82014e-12
-2.80192 10.5951 -4.18067e-11
-9.82014e-12 -4.18067e-11 8.72812

9.19514 3.61441 3.85033e-12
3.61441 9.26003 -2.90064e-13
3.85033e-12 -2.90064e-13 8.47862

4.98062 -1.30541 -1.86873e-11
-1.30541 10.8339 5.24052e-11
-1.86873e-11 5.24052e-11 6.80936

5.81512 -1.60619 -1.27152e-11
-1.60619 10.6733 6.10655e-11
-1.27152e-11 6.10655e-11 6.5386

11.2481 -1.1233 3.56425e-11
-1.1233 5.38129 -2.05229e-11
3.56425e-11 -2.05229e-11 6.8389

5.06371 4.25245 -6.36084e-12
4.25245 4.24685 -1.54027e-11
-6.36084e-12 -1.54027e-11 3.46995

5.65144 1.2672 1.59881e-11
1.2672 12.8302 1.84966e-11
1.59881e-11 1.84966e-11 8.55767

12.2893 0.279129 -1.7912e-11
0.279129 5.77217 3.66022e-12
-1.7912e-11 3.66022e-12 8.38715

-6.19434 -0.503263 -6.54847e-12
-0.503263 0.596861 8.08849e-12
-6.54847e-12 8.08849e-12 -4.60096

-6.44905 -1.84901 -2.56129e-11
-1.84901 -4.03559 -1.39616e-11
-2.56129e-11 -1.39616e-11 -5.37056

1.5811 -1.43882 -2.44604e-11
-1.43882 -4.53264 -1.54036e-11
-2.44604e-11 -1.54036e-11 -0.82258

1.31534 0.636585 1.541e-11
0.636585 -13.16 7.71134e-13
1.541e-11 7.71134e-13 -1.87894

1.21317 -2.80433 3.5637e-11
-2.80433 6.98607 -3.75661e-11
3.5637e-11 -3.75661e-11 2.78591

0.6117 -2.01914 2.7921e-11
-2.01914 6.65487 -5.01421e-12
2.7921e-11 -5.01421e-12 2.7153

2.97274 1.34401 -3.02443e-11
1.34401 -5.99436 -2.69616e-12
-3.02443e-11 -2.69616e-12 -0.235948

-5.62717 -1.33564 -2.23183e-11
-1.33564 -4.78121 -1.00182e-11
-2.23183e-11 -1.00182e-11 -5.3487

-3.96272 -0.0173429 -4.82435e-11
-0.0173429 -6.20386 7.89842e-12
-4.82435e-11 7.89842e-12 -5.42604

-0.628408 -2.83715 5.31593e-11
-2.83715 -1.71962 1.63709e-11
5.31593e-11 1.63709e-11 -0.897327

-2.49528 4.69911 1.67581e-11
4.69911 -0.651442 7.74233e-13
1.67581e-11 7.74233e-13 -0.409788

-3.05026 -4.9419 -6.93401e-12
-4.9419 2.24785 -5.00629e-12
-6.93401e-12 -5.00629e-12 -0.205686

1.97794 -1.27965 -2.87007e-11
-1.27965 -7.45995 1.50216e-11
-2.87007e-11 1.50216e-11 -1.0581

-4.63948 3.94573 -1.92594e-11
3.94573 0.747294 1.11685e-11
-1.92594e-11 1.11685e-11 -0.498869

-2.80708 -5.236 -1.2329e-11
-5.236 2.13662 2.48493e-11
-1.2329e-11 2.48493e-11 -0.160183

23.2819 -5.85941 -1.63781e-11
-5.85941 23.7108 1.75366e-11
-1.63781e-11 1.75366e-11 24.0081

-4.28757 1.25344 3.27333e-12
1.25344 5.87399 1.88825e-11
3.27333e-12 1.88825e-11 0.612912

-2.35042 -1.13766 2.5037e-12
-1.13766 4.22282 5.7702e-13
2.5037e-12 5.7702e-13 0.458361

-8.40903 0.616484 -3.54316e-11
0.616484 2.13021 -4.23723e-11
-3.54316e-11 -4.23723e-11 -5.38107

-7.49281 -0.0694747 1.32881e-11
-0.0694747 -5.79401 1.58888e-11
1.32881e-11 1.58888e-11 -6.55658

2.37641 -0.240956 3.17727e-12
-0.240956 -8.19669 -3.42807e-11
3.17727e-12 -3.42807e-11 -1.72191

3.25382 0.387081 1.37254e-11
0.387081 -8.85652 9.04891e-12
1.37254e-11 9.04891e-12 -1.74502

-1.7074 5.64223 9.43734e-12
5.64223 -4.54242 3.46848e-12
9.43734e-12 3.46848e-12 -2.6117

-2.94014 -3.21708 3.58247e-11
-3.21708 -5.20985 1.71403e-11
3.58247e-11 1.71403e-11 -2.7787

-0.853779 2.06524 2.27245e-11
2.06524 -3.78374 3.13885e-11
2.27245e-11 3.13885e-11 -4.3172

-3.5252 -1.1273 -4.39111e-11
-1.1273 -3.83064 2.81173e-11
-4.39111e-11 2.81173e-11 -4.6184

-8.57661 2.35119 -2.10848e-11
2.35119 -10.8732 6.70157e-11
-2.10848e-11 6.70157e-11 -11.3831

-7.98855 -6.66231 4.79812e-11
-6.66231 -5.0475 -7.24129e-11
4.79812e-11 -7.24129e-11 -10.0631

-5.76293 5.87332 2.38362e-11
5.87332 0.28182 2.65803e-11
2.38362e-11 2.65803e-11 -1.87112

-8.38879 -7.26198 -3.17306e-11
-7.26198 -3.53285 -1.11681e-11
-3.17306e-11 -1.11681e-11 -2.44252

2.44588 3.14431 1.25229e-11
3.14431 -2.00951 -4.8167e-12
1.25229e-11 -4.8167e-12 0.0414335

-4.34876 2.49897 8.47978e-12
2.49897 3.75391 3.85229e-11
8.47978e-12 3.85229e-11 0.043644

0.147993 -4.06959 -2.6773e-11
-4.06959 0.0233544 -3.92943e-11
-2.6773e-11 -3.92943e-11 0.354107

-1.52187 -3.12511 -1.0783e-11
-3.12511 3.46532 -2.83158e-11
-1.0783e-11 -2.83158e-11 0.322588

2.10093 -2.92703 -1.79177e-11
-2.92703 -2.45464 -8.86173e-12
-1.79177e-11 -8.86173e-12 0.0706347

-1.57508 3.479 -3.51058e-11
3.479 3.82649 -5.81695e-11
-3.51058e-11 -5.81695e-11 0.337039

0.968349 4.94304 4.52646e-11
4.94304 1.21566 2.71611e-11
4.52646e-11 2.71611e-11 0.45947

-6.11087 6.52498 1.63699e-11
6.52498 -3.27612 3.47007e-12
1.63699e-11 3.47007e-12 -2.35709

-5.03887 -4.85683 8.66858e-12
-4.85683 -0.938337 -2.6003e-11
8.66858e-12 -2.6003e-11 -1.83797

1.76641 2.9794 -1.42499e-11
2.9794 -4.52419 3.81373e-11
-1.42499e-11 3.81373e-11 -1.0944

-1.572 2.19926 7.56926e-11
2.19926 -2.81808 1.00901e-10
7.56926e-11 1.00901e-10 -10.7306

-14.8661 2.10236 8.85965e-12
2.10236 -13.3308 1.34836e-11
8.85965e-12 1.34836e-11 -15.0498

-0.0882972 -3.01159 4.25691e-11
-3.01159 -4.43804 -1.25158e-11
4.25691e-11 -1.25158e-11 -1.10069

0.201426 0.195104 1.57959e-11
0.195104 -8.0671 -3.25466e-11
1.57959e-11 -3.25466e-11 -3.16863

10.8168 -2.55786 1.29028e-11
-2.55786 12.797 -1.7728e-11
1.29028e-11 -1.7728e-11 10.6437

12.3952 -2.10516 7.89827e-12
-2.10516 10.2558 -8.38233e-12
7.89827e-12 -8.38233e-12 10.2548

0.71002 0.235053 -5.70623e-12
0.235053 -7.54228 -4.46799e-11
-5.70623e-12 -4.46799e-11 -2.40835

2.16441 -0.348567 6.14105e-12
-0.348567 -8.22275 1.42492e-11
6.14105e-12 1.42492e-11 -2.344

0.466888 0.606964 4.00588e-11
0.606964 -4.75923 -2.08039e-11
4.00588e-11 -2.08039e-11 -2.84589

-4.36266 -1.83288 2.55166e-11
-1.83288 4.03106 4.81542e-11
2.55166e-11 4.81542e-11 0.152765

6.12291 2.43984 2.34562e-11
2.43984 0.816263 4.23743e-12
2.34562e-11 4.23743e-12 1.69302

-3.28329 -3.8023 -7.90582e-12
-3.8023 -3.14238 -1.19488e-11
-7.90582e-12 -1.19488e-11 -1.88176

-2.71692 3.14675 4.95926e-11
3.14675 -0.399054 1.17474e-11
4.95926e-11 1.17474e-11 -1.5831

-4.25602 0.379194 3.31155e-11
0.379194 -0.500317 9.67313e-11
3.31155e-11 9.67313e-11 -10.8256

-8.27344 3.58152 7.39493e-11
3.58152 -16.3352 -6.49805e-12
7.39493e-11 -6.49805e-12 -14.3234

2.6311 -2.38495 -2.50155e-12
-2.38495 -2.17362 -4.43038e-12
-2.50155e-12 -4.43038e-12 0.167382

-0.142025 -0.10297 2.19202e-12
-0.10297 -5.03431 -1.46391e-11
2.19202e-12 -1.46391e-11 -2.57778

-0.98154 -0.843946 -2.1579e-12
-0.843946 -4.19739 3.19719e-11
-2.1579e-12 3.19719e-11 -2.43284

-2.99713 -4.313 -2.15707e-11
-4.313 1.23108 -1.75271e-11
-2.15707e-11 -1.75271e-11 -0.706892

-5.61662 2.23466 6.06663e-11
2.23466 1.1049 2.54231e-11
6.06663e-11 2.54231e-11 -1.02053

-6.78214 4.1299 -2.25351e-11
4.1299 -1.99645 -1.84898e-11
-2.25351e-11 -1.84898e-11 -1.47953

-4.58573 -5.84479 7.89698e-12
-5.84479 1.45596 -2.88873e-12
7.89698e-12 -2.88873e-12 -0.740129

24.7923 7.47931 5.39376e-12
7.47931 24.1006 -8.86354e-12
5.39376e-12 -8.86354e-12 24.4474

-5.58313 4.28578 3.85186e-11
4.28578 -1.72145 1.214e-11
3.85186e-11 1.214e-11 -2.88011

-5.31788 -3.28367 5.29594e-11
-3.28367 -1.12364 -8.28491e-12
5.29594e-11 -8.28491e-12 -2.6403

-6.48665 3.91441 -1.40558e-11
3.91441 0.451167 2.11854e-11
-1.40558e-11 2.11854e-11 -0.98936

-4.70011 -4.93831 -1.35072e-12
-4.93831 1.30231 1.75271e-11
-1.35072e-12 1.75271e-11 -0.794979

5.80944 -2.32671 -2.41736e-11
-2.32671 -0.256037 -3.73682e-11
-2.41736e-11 -3.73682e-11 1.50687

-0.0884882 4.23271 2.06137e-11
4.23271 -2.73234 3.42811e-11
2.06137e-11 3.42811e-11 -1.11146

-0.937378 4.53505 -2.31128e-11
4.53505 -4.20721 -3.42828e-11
-2.31128e-11 -3.42828e-11 -2.22838

-2.74484 -3.00126 4.06336e-11
-3.00126 -2.81597 3.58235e-11
4.06336e-11 3.58235e-11 -2.25126

2.1661 2.8495 -2.59973e-11
2.8495 -7.95327 2.77388e-11
-2.59973e-11 2.77388e-11 -1.31938

-1.90924 0.553133 -2.91746e-11
0.553133 -5.16795 1.38665e-11
-2.91746e-11 1.38665e-11 -3.70767

-0.777342 -0.808369 -1.85979e-11
-0.808369 -7.04825 -3.40853e-11
-1.85979e-11 -3.40853e-11 -3.95332

-11.7481 0.961032 -1.32885e-11
0.961032 -5.73407 1.32895e-11
-1.32885e-11 1.32895e-11 -11.1495

-9.91562 -1.51682 -5.96618e-12
-1.51682 0.27455 -1.15506e-11
-5.96618e-12 -1.15506e-11 -9.96253

14.3936 -0.702286 2.56313e-11
-0.702286 9.97444 3.60301e-11
2.56313e-11 3.60301e-11 14.654

8.40351 -0.146991 3.25597e-11
-0.146991 14.3206 1.81093e-11
3.25597e-11 1.81093e-11 14.4546

-3.99509 4.89438 -3.71681e-11
4.89438 1.80672 1.65626e-11
-3.71681e-11 1.65626e-11 -1.03358

-4.8809 -4.21429 -1.54166e-12
-4.21429 -2.17261 -3.86598e-13
-1.54166e-12 -3.86598e-13 -1.46033

15.3642 2.63003 -1.29054e-11
2.63003 15.1064 -1.85019e-11
-1.29054e-11 -1.85019e-11 16.9215

15.4454 3.40009 2.0996e-11
3.40009 14.0771 6.93653e-12
2.0996e-11 6.93653e-12 16.4673

-21.7142 -5.38675 -8.38751e-12
-5.38675 -4.61942 -1.52142e-10
-8.38751e-12 -1.52142e-10 -15.0793

-15.6462 4.02025 -5.37568e-11
4.02025 -7.39391 1.25949e-10
-5.37568e-11 1.25949e-10 -14.4434

-0.578906 5.14485 4.96933e-11
5.14485 -2.84127 -7.32096e-12
4.96933e-11 -7.32096e-12 -0.931011

-3.84095 4.68872 5.15351e-12
4.68872 -0.388709 1.92524e-12
5.15351e-12 1.92524e-12 -1.41839

-4.02196 -4.69452 -3.9201e-11
-4.69452 -2.20478 -4.16011e-11
-3.9201e-11 -4.16011e-11 -1.37124

-0.233142 4.73435 9.24594e-12
4.73435 2.23257 1.40607e-11
9.24594e-12 1.40607e-11 0.364117

-0.863862 -3.77815 1.86814e-11
-3.77815 1.35005 6.20215e-11
1.86814e-11 6.20215e-11 0.431624

4.77041 -0.599238 -1.86906e-11
-0.599238 10.6545 3.93006e-11
-1.86906e-11 3.93006e-11 6.54661

5.45534 -1.21574 -3.314e-11
-1.21574 10.5035 3.2174e-11
-3.314e-11 3.2174e-11 6.34976

11.1496 -0.514921 4.66206e-11
-0.514921 5.59482 1.15569e-11
4.66206e-11 1.15569e-11 6.7278

-2.43168 5.45728 7.41681e-12
5.45728 1.82531 1.7355e-12
7.41681e-12 1.7355e-12 -0.308588

-3.31005 -4.23146 5.72073e-11
-4.23146 0.0785789 -3.8601e-12
5.72073e-11 -3.8601e-12 -0.386906

7.05774 0.846419 -3.85288e-12
0.846419 12.8811 1.86888e-11
-3.85288e-12 1.86888e-11 8.8324

12.8361 1.30699 2.43753e-11
1.30699 7.29043 3.33301e-11
2.43753e-11 3.33301e-11 8.96188

-5.33272 -5.40822 -4.23579e-11
-5.40822 -3.95601 2.32277e-12
-4.23579e-11 2.32277e-12 -2.54505

-5.10218 4.45484 -1.81003e-11
4.45484 -0.91676 3.75579e-11
-1.81003e-11 3.75579e-11 -2.38269

-5.41077 -4.78429 -3.03352e-11
-4.78429 -2.24321 6.16666e-12
-3.03352e-11 6.16666e-12 -2.63828

-5.2867 3.5578 5.48946e-12
3.5578 -1.38805 -5.77582e-12
5.48946e-12 -5.77582e-12 -2.80736

15.2204 -2.22219 -1.2718e-11
-2.22219 15.7052 5.00999e-12
-1.2718e-11 5.00999e-12 17.2399

15.1902 -2.23505 2.47637e-11
-2.23505 15.6737 1.04113e-11
2.47637e-11 1.04113e-11 17.3013

-1.59183 4.31454 -6.64261e-12
4.31454 1.43708 1.1171e-11
-6.64261e-12 1.1171e-11 -0.367048

-2.00798 -3.95219 -2.88784e-12
-3.95219 -1.10883 -1.65594e-11
-2.88784e-12 -1.65594e-11 -0.53858

-6.94846 1.12909 7.70661e-12
1.12909 -1.91316 3.33183e-11
7.70661e-12 3.33183e-11 -6.88598

-8.20922 -0.638738 7.68533e-13
-0.638738 -7.23861 4.63184e-11
7.68533e-13 4.63184e-11 -7.91156

-7.99602 -4.96242 3.17886e-12
-4.96242 -1.30468 3.85343e-12
3.17886e-12 3.85343e-12 -2.67822

-6.51082 4.66257 1.45441e-11
4.66257 0.369759 3.79425e-11
1.45441e-11 3.79425e-11 -2.59113

-4.81597 -1.03815 -5.70085e-12
-1.03815 -7.76779 5.39261e-11
-5.70085e-12 5.39261e-11 -5.08897

-3.13286 0.100433 -9.36759e-11
0.100433 -8.68734 -5.58451e-11
-9.36759e-11 -5.58451e-11 -5.05154

-3.39002 4.59427 1.14871e-12
4.59427 -2.47726 -5.73934e-11
1.14871e-12 -5.73934e-11 -1.54239

-2.96563 -4.51159 -3.85543e-12
-4.51159 -0.252715 2.36883e-11
-3.85543e-12 2.36883e-11 -1.09018

-5.0559 1.3903 2.57808e-11
1.3903 -10.012 -4.45511e-11
2.57808e-11 -4.45511e-11 -8.49704

-9.30127 0.413201 -7.72328e-11
0.413201 -11.8071 9.20513e-11
-7.72328e-11 9.20513e-11 -11.7425

-7.39332 -1.24999 -5.41463e-12
-1.24999 -8.59843 1.22579e-11
-5.41463e-12 1.22579e-11 -8.60849

-13.8638 -0.163464 9.02078e-11
-0.163464 -8.37002 1.0284e-10
9.02078e-11 1.0284e-10 -11.9145

-10.3942 0.805348 4.82273e-12
0.805348 0.184877 1.84882e-11
4.82273e-12 1.84882e-11 -8.41675

-2.90365 4.55665 1.69454e-11
4.55665 -6.24709 4.85341e-11
1.69454e-11 4.85341e-11 -8.25686

-7.09444 -1.78256 4.35257e-11
-1.78256 -9.5181 -8.16519e-11
4.35257e-11 -8.16519e-11 -9.42794

-11.3103 -1.07279 -1.46331e-11
-1.07279 -4.99392 3.13924e-11
-1.46331e-11 3.13924e-11 -9.32208

-12.9068 2.66714 2.92621e-11
2.66714 -9.78152 1.18836e-10
2.92621e-11 1.18836e-10 -12.3337

2.40878 2.71028 -3.71157e-10
2.71028 -19.6047 4.75081e-11
-3.71157e-10 4.75081e-11 -13.9041

0.192921 -1.78362 2.9754e-10
-1.78362 -1.08108 4.85202e-10
2.9754e-10 4.85202e-10 -10.7375

-9.29804 -6.13262 1.09845e-10
-6.13262 -4.0448 8.04995e-12
1.09845e-10 8.04995e-12 -10.3582

-7.68903 3.45918 -3.90263e-11
3.45918 -7.92777 -5.06488e-11
-3.90263e-11 -5.06488e-11 -9.17997

-6.13171 2.51303 2.60944e-11
2.51303 -2.23194 1.59858e-11
2.60944e-11 1.59858e-11 -4.75896

-11.7057 0.738237 1.69028e-11
0.738237 -12.8247 -7.395e-11
1.69028e-11 -7.395e-11 -13.5892

-5.19405 -5.72287 -8.67454e-13
-5.72287 -7.12987 6.62434e-11
-8.67454e-13 6.62434e-11 -8.32752

-9.66076 -6.57449 -1.66569e-11
-6.57449 -3.95076 8.85877e-12
-1.66569e-11 8.85877e-12 -11.4276

-5.68637 -3.21249 -1.93057e-11
-3.21249 -3.75664 2.34986e-11
-1.93057e-11 2.34986e-11 -4.61216

-6.68616 -5.36089 2.80209e-11
-5.36089 -3.51627 5.004e-12
2.80209e-11 5.004e-12 -5.69659

-9.4866 -3.56547 -8.30442e-11
-3.56547 -6.09555 -4.31346e-11
-8.30442e-11 -4.31346e-11 -8.66103

-8.24465 2.24726 5.26263e-11
2.24726 -5.02193 7.68439e-11
5.26263e-11 7.68439e-11 -6.51337

-7.41903 1.34497 1.46498e-11
1.34497 -7.66905 7.20203e-11
1.46498e-11 7.20203e-11 -8.6582

-0.044736 3.8239 1.69555e-11
3.8239 3.55626 -1.63839e-12
1.69555e-11 -1.63839e-12 1.167

-3.16038 1.91847 -2.2148e-11
1.91847 1.86624 2.77354e-11
-2.2148e-11 2.77354e-11 -0.674241

-4.53572 1.64253 3.54336e-11
1.64253 1.15193 -5.39361e-12
3.54336e-11 -5.39361e-12 -0.919017

4.03663 2.17109 -5.00819e-11
2.17109 -5.18434 1.84659e-11
-5.00819e-11 1.84659e-11 0.0128726

5.67962 0.736045 -2.15756e-11
0.736045 -3.41666 2.11099e-11
-2.15756e-11 2.11099e-11 0.897915

-7.49707 1.17624 -2.06118e-11
1.17624 -1.42731 -6.54906e-12
-2.06118e-11 -6.54906e-12 -3.17787

-8.92343 2.70938 -1.42539e-11
2.70938 -0.704332 -1.07835e-11
-1.42539e-11 -1.07835e-11 -3.1529

6.06214 -0.864401 -1.04044e-11
-0.864401 -2.95776 -1.05584e-11
-1.04044e-11 -1.05584e-11 1.0445

0.933347 -1.73603 -1.89767e-11
-1.73603 -7.07727 2.69624e-11
-1.89767e-11 2.69624e-11 -1.27262

3.10594 3.48195 -2.38846e-11
3.48195 6.71802 -1.38242e-11
-2.38846e-11 -1.38242e-11 3.89136

3.73772 -3.47896 -2.58143e-11
-3.47896 7.17388 -4.30619e-13
-2.58143e-11 -4.30619e-13 4.41025

8.50141 -3.18976 -1.36793e-11
-3.18976 2.64373 1.72201e-11
-1.36793e-11 1.72201e-11 4.21671

-5.50618 -3.27785 3.38917e-11
-3.27785 -1.36606 2.25358e-11
3.38917e-11 2.25358e-11 -2.74194

-3.57466 -2.26726 -7.31707e-12
-2.26726 -1.09962 -1.56953e-11
-7.31707e-12 -1.56953e-11 -2.52158

-3.41147 3.25778 9.23543e-12
3.25778 1.43688 6.83638e-12
9.23543e-12 6.83638e-12 -0.0868439

-6.0613 3.92095 5.78732e-12
3.92095 0.220069 4.709e-11
5.78732e-12 4.709e-11 -0.92299

-8.69848 -2.54069 3.6594e-11
-2.54069 -0.565596 1.10736e-11
3.6594e-11 1.10736e-11 -3.1409

-7.96053 -0.742798 -4.23735e-12
-0.742798 -1.43758 -2.31171e-12
-4.23735e-12 -2.31171e-12 -3.27202

4.9855 0.999383 -4.4978e-11
0.999383 -5.55094 1.76097e-11
-4.4978e-11 1.76097e-11 -0.187365

2.10536 1.25294 -2.15764e-11
1.25294 7.86595 -7.32229e-12
-2.15764e-11 -7.32229e-12 3.21156

2.12764 -1.02367 -7.72863e-13
-1.02367 7.73748 2.33095e-11
-7.72863e-13 2.33095e-11 3.25427

9.66609 -0.884191 5.58886e-12
-0.884191 1.93511 4.95047e-11
5.58886e-12 4.95047e-11 3.54354

0.22156 4.39446 5.43143e-11
4.39446 1.62314 -1.24267e-11
5.43143e-11 -1.24267e-11 0.853912

6.37435 -2.92165 3.04361e-11
-2.92165 -2.11846 1.45638e-11
3.04361e-11 1.45638e-11 1.50675

1.45581 4.65543 2.88924e-11
4.65543 -0.748479 -7.17744e-12
2.88924e-11 -7.17744e-12 0.37376

-0.53452 3.71057 1.30974e-11
3.71057 4.44095 3.65983e-11
1.30974e-11 3.65983e-11 1.05099

3.67095 -1.84243 2.31178e-12
-1.84243 -5.81845 -1.40947e-11
2.31178e-12 -1.40947e-11 -0.199587

8.63558 2.44864 2.31044e-11
2.44864 11.1069 4.02197e-11
2.31044e-11 4.02197e-11 7.68826

2.34424 2.28467 5.04634e-11
2.28467 -7.09507 -5.53113e-12
5.04634e-11 -5.53113e-12 -0.920795

12.2656 -2.11642 -1.15774e-12
-2.11642 7.97234 2.70706e-11
-1.15774e-12 2.70706e-11 7.96352

-4.69744 -0.806026 -1.6178e-11
-0.806026 -1.50641 -2.30882e-12
-1.6178e-11 -2.30882e-12 -3.38832

-4.78918 1.43029 -6.16131e-12
1.43029 -1.3814 -6.35662e-12
-6.16131e-12 -6.35662e-12 -3.36198

-0.383505 -4.35541 2.30675e-12
-4.35541 -7.9755 -1.09751e-11
2.30675e-12 -1.09751e-11 -9.02368

-0.41908 4.50652 -1.849e-11
4.50652 -8.00839 -4.13073e-11
-1.849e-11 -4.13073e-11 -8.96104

9.17377 -1.16294 -1.59914e-11
-1.16294 1.24352 1.81769e-11
-1.59914e-11 1.81769e-11 3.61056

-1.42298 5.08775 5.77523e-12
5.08775 -1.84274 -9.4376e-12
5.77523e-12 -9.4376e-12 -0.545743

-0.105773 -2.63974 -2.31128e-11
-2.63974 -5.17948 3.33158e-11
-2.31128e-11 3.33158e-11 -3.546

0.0210462 2.63011 1.11728e-11
2.63011 -4.98551 -1.14612e-11
1.11728e-11 -1.14612e-11 -3.32057

0.718542 0.9159 -2.00317e-11
0.9159 -8.37118 9.60541e-12
-2.00317e-11 9.60541e-12 -1.44467

-0.831078 4.19264 1.5607e-11
4.19264 4.47876 4.9506e-11
1.5607e-11 4.9506e-11 1.0145

5.40876 -3.62757 1.3481e-11
-3.62757 -0.706332 3.2744e-11
1.3481e-11 3.2744e-11 1.4858

1.31771 -0.225509 -1.07874e-11
-0.225509 -8.89718 1.44612e-11
-1.07874e-11 1.44612e-11 -1.23126

0.104548 -4.41035 1.69556e-11
-4.41035 1.77265 -9.24387e-12
1.69556e-11 -9.24387e-12 0.86632

-0.0779667 -3.61636 -2.11924e-11
-3.61636 3.54768 3.8578e-12
-2.11924e-11 3.8578e-12 1.14941

-4.81135 4.12978 1.6952e-11
4.12978 1.90164 -3.08279e-12
1.6952e-11 -3.08279e-12 -0.729983

4.91502 -5.04454 2.58133e-11
-5.04454 1.23399 2.47447e-11
2.58133e-11 2.47447e-11 2.10151

23.7831 -3.84633 -2.08083e-11
-3.84633 21.5978 -1.34632e-11
-2.08083e-11 -1.34632e-11 22.7923

23.8726 5.34309 -1.38731e-11
5.34309 23.1444 -1.39948e-11
-1.38731e-11 -1.39948e-11 23.3408

-8.64231 -4.93031 -5.16116e-11
-4.93031 -0.747035 -1.86834e-11
-5.16116e-11 -1.86834e-11 -2.26721

16.2074 0.700978 -1.46451e-11
0.700978 13.8488 5.579e-11
-1.46451e-11 5.579e-11 15.9469

13.9025 -1.29139 -2.11965e-11
-1.29139 13.2041 1.9917e-11
-2.11965e-11 1.9917e-11 15.0556

-4.91384 -1.156 4.19833e-11
-1.156 -3.50403 -9.63193e-13
4.19833e-11 -9.63193e-13 -4.06015

-4.86968 1.20023 -1.77178e-11
1.20023 -3.5892 1.97399e-11
-1.77178e-11 1.97399e-11 -4.06273

6.15046 -0.0822083 4.44952e-11
-0.0822083 -6.53666 5.59016e-13
4.44952e-11 5.59016e-13 -0.194543

-5.30686 -0.627549 6.93149e-12
-0.627549 -5.76156 2.67204e-11
6.93149e-12 2.67204e-11 -4.65902

-5.24303 0.689796 -3.67875e-11
0.689796 -5.74821 -6.44699e-11
-3.67875e-11 -6.44699e-11 -4.6359

-3.54956 3.84581 1.04033e-11
3.84581 3.34758 1.01095e-11
1.04033e-11 1.01095e-11 0.00985695

-2.02295 -4.07696 1.92588e-11
-4.07696 -6.66703 -3.00423e-11
1.92588e-11 -3.00423e-11 -7.39876

-2.12309 4.09612 -5.8159e-11
4.09612 -6.72847 4.17852e-11
-5.8159e-11 4.17852e-11 -7.37971

-2.69046 -2.0447 3.42832e-11
-2.0447 -3.14897 5.18079e-11
3.42832e-11 5.18079e-11 -2.05034

-2.68964 2.06232 1.50226e-11
2.06232 -3.18109 5.58524e-12
1.50226e-11 5.58524e-12 -2.05556

8.9005 -3.47674 1.46415e-11
-3.47674 2.62059 2.01554e-11
1.46415e-11 2.01554e-11 4.69744

-11.1015 2.02128 3.5823e-11
2.02128 -1.38514 4.62082e-12
3.5823e-11 4.62082e-12 -7.48299

-8.58825 -0.387876 -9.24457e-12
-0.387876 -5.01692 1.67535e-11
-9.24457e-12 1.67535e-11 -7.84981

-0.807481 -4.2378 4.0064e-11
-4.2378 4.4727 1.82938e-11
4.0064e-11 1.82938e-11 1.00587

7.29947 -1.06618 5.27833e-11
-1.06618 10.6602 -2.05693e-11
5.27833e-11 -2.05693e-11 7.86849

11.9225 -1.10102 1.84951e-11
-1.10102 6.08094 -2.78932e-12
1.84951e-11 -2.78932e-12 8.08523

-5.25286 3.30259 1.54113e-11
3.30259 2.19452 3.56219e-12
1.54113e-11 3.56219e-12 -0.783373

-5.81071 3.29408 -3.46684e-12
3.29408 0.695043 4.72341e-12
-3.46684e-12 4.72341e-12 -0.928588

-10.4531 -3.28219 1.16898e-10
-3.28219 -18.4191 2.11517e-10
1.16898e-10 2.11517e-10 -16.3885

-10.3073 3.03475 6.93279e-11
3.03475 -17.4925 -5.22748e-11
6.93279e-11 -5.22748e-11 -16.1284

-7.01077 4.32248 -1.27111e-11
4.32248 -2.34726 -5.78004e-12
-1.27111e-11 -5.78004e-12 -1.55637

0.994329 1.31809 -1.57933e-11
1.31809 -5.51548 3.02386e-11
-1.57933e-11 3.02386e-11 -1.30738

1.09387 -1.37059 2.75446e-11
-1.37059 -5.52401 -3.88551e-11
2.75446e-11 -3.88551e-11 -1.28662

-3.97271 5.80026 1.38706e-11
5.80026 -2.8169 1.4445e-11
1.38706e-11 1.4445e-11 -1.30517

-6.27458 -3.90712 -8.08777e-12
-3.90712 -0.374912 -1.37703e-11
-8.08777e-12 -1.37703e-11 -2.06364

8.99084 -0.0671047 7.70939e-13
-0.0671047 0.208367 -3.81639e-11
7.70939e-13 -3.81639e-11 3.47246

7.27341 0.0836894 -1.50247e-11
0.0836894 -2.85597 2.43589e-11
-1.50247e-11 2.43589e-11 1.038

7.31748 2.60729 1.46385e-11
2.60729 -1.09458 -9.19696e-12
1.46385e-11 -9.19696e-12 2.02653

0.156258 4.33717 5.39147e-12
4.33717 -7.45822 -1.13155e-11
5.39147e-12 -1.13155e-11 -3.12264

-1.65384 -0.643997 -2.84984e-11
-0.643997 -4.96966 -2.5072e-11
-2.84984e-11 -2.5072e-11 -10.35

-1.81569 0.640392 -1.19401e-11
0.640392 -4.65458 -3.11015e-11
-1.19401e-11 -3.11015e-11 -10.3899

5.72663 3.78992 2.65809e-11
3.78992 5.29695 -1.18461e-11
2.65809e-11 -1.18461e-11 3.655

1.97567 -4.82827 1.07877e-11
-4.82827 -2.17484 3.10548e-11
1.07877e-11 3.10548e-11 0.160401

4.99518 -1.19919 -2.88917e-12
-1.19919 -3.07178 -2.6556e-11
-2.88917e-12 -2.6556e-11 0.245185

-10.7402 4.66284 2.58078e-11
4.66284 -2.40722 -1.5428e-12
2.58078e-11 -1.5428e-12 -9.19197

-10.1674 -1.22532 1.57927e-11
-1.22532 -8.57236 6.54365e-12
1.57927e-11 6.54365e-12 -10.3807

0.0278992 -4.24186 -1.15562e-11
-4.24186 -7.18613 4.86363e-12
-1.15562e-11 4.86363e-12 -3.30188

-4.52052 -1.22808 5.62369e-11
-1.22808 1.33487 -6.45151e-12
5.62369e-11 -6.45151e-12 -1.02282

-3.74058 -1.28494 7.73483e-13
-1.28494 1.75561 7.31948e-12
7.73483e-13 7.31948e-12 -0.887854

4.36417 -0.338818 3.48635e-11
-0.338818 -8.36786 2.99225e-11
3.48635e-11 2.99225e-11 -1.07726

4.43241 0.319031 2.23425e-11
0.319031 -8.5554 -3.60616e-11
2.23425e-11 -3.60616e-11 -1.0977

7.36832 3.2656 5.03796e-11
3.2656 5.30368 5.21596e-11
5.03796e-11 5.21596e-11 4.00311

1.06093 -0.258434 -1.05937e-11
-0.258434 -8.02203 2.57112e-11
-1.05937e-11 2.57112e-11 -2.37915

1.05959 0.234356 -2.3063e-11
0.234356 -7.9634 -1.88739e-11
-2.3063e-11 -1.88739e-11 -2.35814

5.10986 1.19004 -3.23592e-11
1.19004 -3.14629 -9.40396e-13
-3.23592e-11 -9.40396e-13 0.256842

-0.62444 -3.771 1.92598e-12
-3.771 4.46886 -6.54987e-12
1.92598e-12 -6.54987e-12 1.02209

4.33448 -0.125905 2.61953e-11
-0.125905 -5.89025 -3.16814e-11
2.61953e-11 -3.16814e-11 -0.814652

4.38054 0.15991 2.67747e-11
0.15991 -6.0366 1.39607e-12
2.67747e-11 1.39607e-12 -0.831841

3.48779 -2.89144 -8.47322e-12
-2.89144 -4.07255 4.30497e-11
-8.47322e-12 4.30497e-11 -0.0457557

-4.74854 5.32272 -7.31841e-12
5.32272 0.723498 -3.17946e-12
-7.31841e-12 -3.17946e-12 -1.02497

4.6136 4.05117 3.50554e-11
4.05117 0.599113 -4.72252e-12
3.50554e-11 -4.72252e-12 1.58869

-5.83692 4.31928 -1.42527e-11
4.31928 -3.26157 1.36732e-11
-1.42527e-11 1.36732e-11 -1.6395

-4.77108 5.29628 1.17484e-11
5.29628 1.41411 -1.26148e-11
1.17484e-11 -1.26148e-11 -0.845393

6.85205 -2.05901 9.82399e-12
-2.05901 -2.04074 2.85792e-11
9.82399e-12 2.85792e-11 1.38949

0.952774 -4.72991 8.95173e-12
-4.72991 -4.8668 2.29164e-11
8.95173e-12 2.29164e-11 -1.15858

3.85434 2.8875 -3.42831e-11
2.8875 -3.35203 1.40103e-11
-3.42831e-11 1.40103e-11 0.218567

2.86296 4.7254 5.74088e-11
4.7254 1.43947 1.63204e-11
5.74088e-11 1.63204e-11 1.56328

1.98682 4.85357 2.69858e-12
4.85357 -2.1472 -2.13817e-11
2.69858e-12 -2.13817e-11 0.195618

-6.5293 0.444689 -3.08399e-12
0.444689 1.59495 -1.97176e-13
-3.08399e-12 -1.97176e-13 -1.22361

-6.39713 0.157222 -9.6307e-12
0.157222 1.56079 1.29974e-11
-9.6307e-12 1.29974e-11 -1.23036

8.33948 3.41489 2.77434e-11
3.41489 2.51441 3.54812e-11
2.77434e-11 3.54812e-11 4.07137

-4.03134 -5.79473 3.46652e-12
-5.79473 -2.89028 -2.64834e-11
3.46652e-12 -2.64834e-11 -1.33305

2.11532 -4.61922 2.88944e-11
-4.61922 4.40528 1.69983e-11
2.88944e-11 1.69983e-11 1.85647

2.06108 4.67643 -1.07907e-11
4.67643 4.65961 -7.5558e-11
-1.07907e-11 -7.5558e-11 1.90697

3.16661 -3.48598 -1.23275e-11
-3.48598 -3.85929 2.45578e-11
-1.23275e-11 2.45578e-11 -0.135039

1.14581 -2.30899 1.34781e-11
-2.30899 -11.1771 2.67216e-11
1.34781e-11 2.67216e-11 -2.56177

1.20829 2.32738 -2.50402e-11
2.32738 -10.5127 -1.28568e-11
-2.50402e-11 -1.28568e-11 -2.35994

-1.36255 2.55839 -8.85893e-12
2.55839 4.3452 5.5859e-12
-8.85893e-12 5.5859e-12 1.13238

1.70056 -4.86425 5.39946e-12
-4.86425 -0.64677 -7.89724e-12
5.39946e-12 -7.89724e-12 0.438119

0.409145 -0.198155 -6.1606e-12
-0.198155 8.36779 -1.30512e-11
-6.1606e-12 -1.30512e-11 3.35763

0.456324 0.0790053 -1.34841e-11
0.0790053 8.4569 1.33406e-11
-1.34841e-11 1.33406e-11 3.42101

10.3442 0.246034 3.10177e-11
0.246034 0.320576 -1.228e-12
3.10177e-11 -1.228e-12 3.80835

7.20545 -3.38782 -2.09998e-11
-3.38782 5.65351 -5.10244e-12
-2.09998e-11 -5.10244e-12 4.04259

3.66265 4.11845 -2.5232e-11
4.11845 0.763192 -2.17707e-11
-2.5232e-11 -2.17707e-11 1.42513

-11.307 -8.37903 -3.81303e-11
-8.37903 -7.57052 5.58554e-11
-3.81303e-11 5.58554e-11 -13.1802

-8.18535 3.62169 -5.85341e-11
3.62169 -5.80408 4.46799e-11
-5.85341e-11 4.46799e-11 -12.14

6.74539 1.87603 -6.74113e-12
1.87603 -2.19654 -1.95019e-11
-6.74113e-12 -1.95019e-11 1.28933

-3.36866 5.12603 7.7048e-12
5.12603 2.71934 -1.66633e-11
7.7048e-12 -1.66633e-11 -0.132534

6.25573 0.0753003 3.42858e-11
0.0753003 -6.44901 1.19404e-11
3.42858e-11 1.19404e-11 -0.153632

-1.50562 -2.4743 -1.53792e-12
-2.4743 4.39387 -3.16868e-11
-1.53792e-12 -3.16868e-11 1.10021

-10.3908 5.10424 -1.92452e-12
5.10424 -0.777952 -1.14616e-11
-1.92452e-12 -1.14616e-11 -2.4494

-5.88093 4.17952 2.23404e-11
4.17952 0.0148551 2.24388e-11
2.23404e-11 2.24388e-11 -1.79363

-4.73915 -5.30995 -1.9245e-12
-5.30995 0.672716 -2.72539e-11
-1.9245e-12 -2.72539e-11 -1.04001

-5.18536 5.36544 -8.66622e-12
5.36544 1.7327 -2.02272e-12
-8.66622e-12 -2.02272e-12 -0.871957

-4.30526 4.06813 4.43014e-11
4.06813 -0.270827 8.18308e-12
4.43014e-11 8.18308e-12 -0.550118

5.84791 0.046008 -3.04335e-11
0.046008 -9.44768 -1.18822e-11
-3.04335e-11 -1.18822e-11 -0.91497

4.16492 -4.06501 -1.11728e-11
-4.06501 0.921575 -1.98376e-11
-1.11728e-11 -1.98376e-11 1.60475

-5.92035 -4.33962 1.07859e-11
-4.33962 -3.31689 2.66753e-11
1.07859e-11 2.66753e-11 -1.67231

2.97038 -3.47729 3.85003e-12
-3.47729 3.27362 -5.69672e-11
3.85003e-12 -5.69672e-11 1.63899

5.77976 -3.37134 -2.54382e-11
-3.37134 5.87126 1.77208e-11
-2.54382e-11 1.77208e-11 4.09503

-1.62305 -5.02118 2.96607e-11
-5.02118 -1.75167 1.14586e-11
2.96607e-11 1.14586e-11 -0.573465

1.54427 -2.05928 2.04197e-11
-2.05928 7.5749 2.08473e-11
2.04197e-11 2.08473e-11 2.83017

1.48985 1.95353 -5.81646e-11
1.95353 7.603 -1.79636e-11
-5.81646e-11 -1.79636e-11 2.80277

8.47069 1.17825 5.47102e-11
1.17825 1.70086 6.97079e-12
5.47102e-11 6.97079e-12 3.11988

2.91819 3.62609 -4.12255e-11
3.62609 3.24385 -3.03929e-11
-4.12255e-11 -3.03929e-11 1.6279

-1.8742 0.641163 -1.46361e-11
0.641163 4.67373 -3.11082e-11
-1.46361e-11 -3.11082e-11 0.716863

-1.86992 -0.137639 1.19468e-11
-0.137639 4.65359 9.72541e-12
1.19468e-11 9.72541e-12 0.731505

4.56702 -3.97048 3.66633e-12
-3.97048 6.58667 -2.35053e-11
3.66633e-12 -2.35053e-11 4.07326

4.82331 3.97761 8.48321e-12
3.97761 6.64384 4.78229e-11
8.48321e-12 4.78229e-11 4.15728

5.93336 0.318947 -3.64043e-11
0.318947 -8.71481 -2.26265e-12
-3.64043e-11 -2.26265e-12 -0.848377

6.01748 -0.302581 -1.63728e-11
-0.302581 -8.81144 -3.0452e-11
-1.63728e-11 -3.0452e-11 -0.839169

-3.35668 4.67332 -1.15352e-12
4.67332 2.50083 3.56444e-12
-1.15352e-12 3.56444e-12 -0.233163

-10.7993 -4.55721 -1.38642e-11
-4.55721 -1.00705 2.98787e-12
-1.38642e-11 2.98787e-12 -2.42971

-0.210218 5.13966 6.54858e-11
5.13966 -3.3957 7.61206e-12
6.54858e-11 7.61206e-12 -0.932113

10.3248 2.38527 -6.55017e-12
2.38527 3.99267 1.45904e-11
-6.55017e-12 1.45904e-11 5.94846

-1.49008 3.10066 -3.65971e-11
3.10066 5.89747 1.6275e-11
-3.65971e-11 1.6275e-11 1.31229

-1.94132 0.304874 3.94835e-11
0.304874 -4.95068 1.62262e-11
3.94835e-11 1.62262e-11 -2.83332

-1.93962 -0.272618 1.73358e-12
-0.272618 -4.89017 5.20484e-11
1.73358e-12 5.20484e-11 -2.82376

2.12282 2.99356 3.27375e-12
2.99356 0.15348 1.29063e-11
3.27375e-12 1.29063e-11 0.394707

1.35026 -1.8505 2.8699e-11
-1.8505 -1.92247 3.39947e-11
2.8699e-11 3.39947e-11 -0.598817

1.33331 1.88609 -8.08975e-12
1.88609 -1.91889 -1.8201e-11
-8.08975e-12 -1.8201e-11 -0.601509

13.5292 -1.87738 -2.31244e-11
-1.87738 9.28323 1.97761e-11
-2.31244e-11 1.97761e-11 14.3714

8.12433 2.36643 2.31219e-11
2.36643 12.5025 -5.68498e-12
2.31219e-11 -5.68498e-12 14.1531

-1.75097 -3.04712 5.77518e-12
-3.04712 5.8227 -1.3005e-11
5.77518e-12 -1.3005e-11 1.23362

-6.38704 -0.686796 -5.00803e-12
-0.686796 -8.60404 2.74418e-11
-5.00803e-12 2.74418e-11 -8.1495

-6.33504 0.78278 2.40704e-11
0.78278 -8.51334 -3.95717e-11
2.40704e-11 -3.95717e-11 -8.10968

10.7276 2.05022 4.27686e-11
2.05022 3.85604 -4.35393e-11
4.27686e-11 -4.35393e-11 6.06765

-6.1321 -2.52574 2.50414e-11
-2.52574 1.40036 -1.07877e-11
2.50414e-11 -1.07877e-11 -0.987097

-5.34958 -2.46543 -3.07921e-12
-2.46543 1.93186 2.23467e-11
-3.07921e-12 2.23467e-11 -0.954457

3.3618 -4.96472 -9.63067e-12
-4.96472 2.40741 -1.01075e-12
-9.63067e-12 -1.01075e-12 1.94307

-5.14256 -5.39942 -1.15571e-11
-5.39942 1.7146 2.50401e-11
-1.15571e-11 2.50401e-11 -0.873968

-9.28804 6.44176 -5.00666e-12
6.44176 -2.14453 -4.23828e-12
-5.00666e-12 -4.23828e-12 -1.81797

-3.74649 2.91839 1.65615e-11
2.91839 -1.60178 1.28063e-11
1.65615e-11 1.28063e-11 -2.65801

-5.62364 4.02782 3.85142e-11
4.02782 -1.79508 -3.09135e-11
3.85142e-11 -3.09135e-11 -2.83286

-3.46579 -4.71972 -2.8889e-11
-4.71972 2.48287 -3.42826e-11
-2.8889e-11 -3.42826e-11 -0.266964

-2.02555 4.95474 -2.92737e-11
4.95474 -1.39481 2.5617e-11
-2.92737e-11 2.5617e-11 -0.407266

2.06471 -3.03923 4.81348e-12
-3.03923 0.174987 3.36819e-12
4.81348e-12 3.36819e-12 0.381312

6.37951 3.62758 2.62027e-11
3.62758 -0.856817 4.18006e-11
2.62027e-11 4.18006e-11 1.95649

7.13605 -0.111143 -3.79506e-11
-0.111143 -2.96833 1.00731e-11
-3.79506e-11 1.00731e-11 0.982416

-5.2024 5.62986 1.29053e-11
5.62986 1.49087 -3.75414e-12
1.29053e-11 -3.75414e-12 -0.808301

-3.65682 -3.39062 -1.54136e-11
-3.39062 1.38067 1.16581e-11
-1.54136e-11 1.16581e-11 -0.157527

-3.28767 1.23753 -4.35248e-11
1.23753 4.29842 1.92705e-12
-4.35248e-11 1.92705e-12 0.504582

-1.33329 3.47077 -5.39287e-12
3.47077 -1.39048 -3.78452e-11
-5.39287e-12 -3.78452e-11 -0.798533

-3.10212 1.53765 -3.38988e-11
1.53765 4.74621 -3.31311e-11
-3.38988e-11 -3.31311e-11 0.526765

-5.28247 -4.34775 6.74031e-12
-4.34775 0.508323 -2.02219e-11
6.74031e-12 -2.02219e-11 -1.49003

12.105 -2.43917 3.89196e-11
-2.43917 12.6305 3.55524e-11
3.89196e-11 3.55524e-11 11.4546

14.3586 -2.45477 7.32274e-12
-2.45477 10.7477 9.66153e-12
7.32274e-12 9.66153e-12 11.6538

4.83377 -0.980444 5.76798e-13
-0.980444 -5.53669 -1.44442e-12
5.76798e-13 -1.44442e-12 -0.218131

-1.35373 -3.47944 -3.56327e-11
-3.47944 -1.42878 3.71774e-11
-3.56327e-11 3.71774e-11 -0.811156

-6.5482 -4.6577 1.93347e-10
-4.6577 -14.7898 -7.87407e-13
1.93347e-10 -7.87407e-13 -13.6316

-6.39473 4.46122 3.92834e-11
4.46122 -14.407 -5.99769e-11
3.92834e-11 -5.99769e-11 -13.5009

-3.48527 -5.05591 2.88905e-11
-5.05591 2.6276 -3.3516e-11
2.88905e-11 -3.3516e-11 -0.194812

-3.77622 -4.33378 5.89303e-11
-4.33378 -3.74348 -1.83939e-11
5.89303e-11 -1.83939e-11 -5.79126

-3.83844 4.40464 -1.38672e-11
4.40464 -3.70062 -2.33982e-11
-1.38672e-11 -2.33982e-11 -5.70167

2.80604 0.952846 3.35144e-11
0.952846 -6.0182 3.52955e-12
3.35144e-11 3.52955e-12 -0.377134

-9.42399 -6.44994 1.30952e-11
-6.44994 -2.3226 2.31131e-11
1.30952e-11 2.31131e-11 -1.87346

10.0979 -2.90418 -9.63052e-12
-2.90418 9.83086 9.66693e-12
-9.63052e-12 9.66693e-12 8.99163

10.4344 2.91505 1.65681e-11
2.91505 8.37044 3.44338e-11
1.65681e-11 3.44338e-11 8.47406

6.31491 -2.16483 -1.35048e-12
-2.16483 10.3887 -3.61785e-12
-1.35048e-12 -3.61785e-12 6.78897

5.78457 2.01336 -2.56199e-11
2.01336 10.5419 3.27494e-11
-2.56199e-11 3.27494e-11 6.76258

11.4603 1.24059 -3.27753e-12
1.24059 5.21843 -1.39652e-11
-3.27753e-12 -1.39652e-11 6.96224

-5.16241 -5.6734 -1.34812e-11
-5.6734 1.59025 1.26176e-11
-1.34812e-11 1.26176e-11 -0.786582

6.30078 0.64484 -1.42526e-11
0.64484 11.8627 3.92317e-11
-1.42526e-11 3.92317e-11 8.38385

13.3885 -0.701858 -1.23291e-11
-0.701858 6.36293 -6.35703e-12
-1.23291e-11 -6.35703e-12 8.88319

-8.37698 -1.78874 -8.48325e-12
-1.78874 -1.21293 3.1007e-11
-8.48325e-12 3.1007e-11 -5.08285

-5.54541 -0.109886 -1.03984e-11
-0.109886 -3.49428 2.6e-11
-1.03984e-11 2.6e-11 -5.10302

2.22186 2.81771 -9.24749e-12
2.81771 -4.48375 -2.96135e-11
-9.24749e-12 -2.96135e-11 -0.832279

1.41975 -0.199612 -3.85399e-12
-0.199612 -12.1967 -1.9524e-11
-3.85399e-12 -1.9524e-11 -1.82281

1.49925 2.86167 -2.50925e-12
2.86167 6.73878 -5.22102e-11
-2.50925e-12 -5.22102e-11 2.74906

1.43807 -2.99466 3.56421e-11
-2.99466 6.72946 3.6843e-11
3.56421e-11 3.6843e-11 2.75382

3.33238 -0.536756 1.15582e-11
-0.536756 -5.85784 -4.22005e-11
1.15582e-11 -4.22005e-11 -0.231313

-3.69013 -3.83564 -1.34818e-11
-3.83564 3.42804 -6.64661e-12
-1.34818e-11 -6.64661e-12 -0.020228

-3.64575 0.402018 3.23563e-11
0.402018 -7.01787 1.16982e-11
3.23563e-11 1.16982e-11 -5.52685

-3.66776 -0.347602 -3.44749e-11
-0.347602 -6.9963 -4.64089e-11
-3.44749e-11 -4.64089e-11 -5.51772

0.234451 4.28153 2.273e-11
4.28153 -2.76339 3.62101e-11
2.273e-11 3.62101e-11 -0.944846

-2.15252 -4.8323 4.23754e-11
-4.8323 -1.44112 -7.72419e-13
4.23754e-11 -7.72419e-13 -0.441085

2.61451 2.56942 -6.93349e-12
2.56942 -7.33228 2.9417e-11
-6.93349e-12 2.9417e-11 -1.05561

6.36384 3.78485 1.38676e-11
3.78485 3.41613 9.14964e-12
1.38676e-11 9.14964e-12 3.59222

-4.30189 -4.18877 1.44412e-11
-4.18877 -0.140617 -3.17324e-12
1.44412e-11 -3.17324e-12 -0.531688

24.2561 6.51299 9.24782e-12
6.51299 22.8298 -3.77877e-11
9.24782e-12 -3.77877e-11 24.1708

-3.1185 -0.924986 3.12012e-11
-0.924986 4.20531 8.95891e-12
3.12012e-11 8.95891e-12 0.502532

-2.87845 -1.37745 1.2323e-11
-1.37745 4.56749 -1.86809e-11
1.2323e-11 -1.86809e-11 0.543655

-8.92097 1.90755 9.62219e-12
1.90755 -2.19527 -7.31607e-12
9.62219e-12 -7.31607e-12 -6.04701

-7.91399 -2.85268 5.39459e-12
-2.85268 -3.09566 -4.12097e-11
5.39459e-12 -4.12097e-11 -6.04757

3.86892 -0.15122 -2.42682e-11
-0.15122 -9.5147 2.0606e-11
-2.42682e-11 2.0606e-11 -1.8438

3.89631 0.141215 -1.36756e-11
0.141215 -9.57439 2.40226e-11
-1.36756e-11 2.40226e-11 -1.83415

-1.54378 -5.59384 -3.54391e-11
-5.59384 -4.66585 1.26176e-11
-3.54391e-11 1.26176e-11 -2.59862

-1.22072 5.64218 2.31348e-12
5.64218 -5.09842 1.72365e-11
2.31348e-12 1.72365e-11 -2.50149

-0.825108 -2.0381 9.35951e-11
-2.0381 -3.83868 -2.70062e-12
9.35951e-11 -2.70062e-12 -4.30653

-0.913256 2.03341 2.65759e-11
2.03341 -3.76876 -1.17468e-11
2.65759e-11 -1.17468e-11 -4.26886

-8.6349 -1.77932 -1.86846e-11
-1.77932 -12.2633 1.69457e-11
-1.86846e-11 1.69457e-11 -11.7108

-8.54229 1.91514 -1.52138e-11
1.91514 -11.9441 -5.88304e-11
-1.52138e-11 -5.88304e-11 -11.5995

-5.74622 -5.35411 1.34793e-11
-5.35411 -0.317807 3.04306e-11
1.34793e-11 3.04306e-11 -1.79844

-5.72549 5.32655 -1.42513e-11
5.32655 -0.360847 1.29992e-11
-1.42513e-11 1.29992e-11 -1.81694

2.51729 -2.77588 2.36916e-11
-2.77588 -2.43026 -9.10194e-12
2.36916e-11 -9.10194e-12 -0.0143097

-3.07278 -2.34536 2.23403e-11
-2.34536 2.55449 2.63856e-11
2.23403e-11 2.63856e-11 0.104032

0.783359 4.51378 -1.05938e-11
4.51378 0.732999 1.65571e-11
-1.05938e-11 1.65571e-11 0.384778

-2.58348 -3.28899 1.15566e-11
-3.28899 3.78238 1.64742e-11
1.15566e-11 1.64742e-11 0.251261

7.44119 -3.49655 -1.1174e-11
-3.49655 4.76252 6.48238e-11
-1.1174e-11 6.48238e-11 4.28798

2.58067 2.74022 4.42927e-12
2.74022 -2.40644 -3.47652e-11
4.42927e-12 -3.47652e-11 0.014498

-2.71414 2.33185 1.35294e-11
2.33185 2.63588 3.09189e-11
1.35294e-11 3.09189e-11 0.209526

-6.1811 -6.65642 -2.54211e-11
-6.65642 -3.5298 7.90389e-12
-2.54211e-11 7.90389e-12 -2.37173

-6.16652 6.66099 3.46708e-12
6.66099 -3.57548 2.37841e-11
3.46708e-12 2.37841e-11 -2.38176

1.88323 -2.67691 1.23302e-11
-2.67691 -4.74512 -1.05935e-11
1.23302e-11 -1.05935e-11 -1.14509

-7.91657 -4.98314 7.7805e-11
-4.98314 -3.7459 -1.06678e-10
7.7805e-11 -1.06678e-10 -11.7983

-11.1305 5.099 -6.77847e-11
5.099 -14.3038 3.94762e-11
-6.77847e-11 3.94762e-11 -14.4782

-3.3513 -3.7713 -1.98376e-11
-3.7713 1.8089 3.29421e-11
-1.98376e-11 3.29421e-11 -0.632032

1.07077 4.71023 2.69821e-12
4.71023 -4.56616 -1.54395e-12
2.69821e-12 -1.54395e-12 -0.943279

0.373001 0.30368 -4.15991e-11
0.30368 -4.93308 3.87111e-11
-4.15991e-11 3.87111e-11 -2.82135

0.757009 -4.414 -2.77371e-11
-4.414 0.945206 -2.45059e-11
-2.77371e-11 -2.45059e-11 0.416601

11.5927 2.8264 -5.6645e-11
2.8264 12.615 9.85079e-12
-5.6645e-11 9.85079e-12 10.6856

12.9062 2.79519 5.81848e-11
2.79519 10.1141 -2.62462e-11
5.81848e-11 -2.62462e-11 10.4673

2.72606 0.557071 -2.40739e-11
0.557071 -8.85157 1.74526e-11
-2.40739e-11 1.74526e-11 -2.41009

2.63082 -0.56233 1.9454e-11
-0.56233 -8.88571 -2.50348e-11
1.9454e-11 -2.50348e-11 -2.42141

0.446011 -0.492919 -6.54621e-12
-0.492919 -4.73562 -1.38201e-11
-6.54621e-12 -1.38201e-11 -2.88209

-2.40345 3.13234 1.92376e-11
3.13234 3.71995 1.99374e-11
1.92376e-11 1.99374e-11 0.282044

6.3835 -2.20484 2.02164e-12
-2.20484 0.525401 -2.45578e-11
2.02164e-12 -2.45578e-11 1.68784

-2.59284 -2.6777 -7.51332e-12
-2.6777 -1.0114 -1.9235e-12
-7.51332e-12 -1.9235e-12 -1.60458

-2.57992 2.68154 2.58086e-11
2.68154 -1.0077 -3.75463e-12
2.58086e-11 -3.75463e-12 -1.60086

-4.23249 -0.368329 -3.35088e-11
-0.368329 -0.482965 -8.79384e-11
-3.35088e-11 -8.79384e-11 -10.8053

-4.19902 0.363187 -7.31371e-12
0.363187 -0.569687 -7.99002e-11
-7.31371e-12 -7.99002e-11 -10.7803

-5.11196 -4.57238 1.30957e-11
-4.57238 1.72823 4.84416e-11
1.30957e-11 4.84416e-11 -0.771314

3.5208 3.62244 2.54244e-11
3.62244 -3.16071 -3.12467e-11
2.54244e-11 -3.12467e-11 0.143978

0.235526 -0.44407 -3.71738e-11
-0.44407 -5.76885 3.53864e-11
-3.71738e-11 3.53864e-11 -2.64064

0.245104 0.48397 -2.71529e-11
0.48397 -5.77997 3.59661e-11
-2.71529e-11 3.59661e-11 -2.64676

-5.72414 -2.90416 -4.50711e-11
-2.90416 -0.192678 3.31265e-11
-4.50711e-11 3.31265e-11 -1.15091

-6.94279 -4.63963 4.23499e-12
-4.63963 -2.47269 2.46556e-11
4.23499e-12 2.46556e-11 -1.45795

24.2088 -6.75589 -7.51398e-11
-6.75589 24.4131 -2.65809e-11
-7.51398e-11 -2.65809e-11 24.4303

-5.54664 -4.3337 -3.19675e-11
-4.3337 -1.79138 -3.25409e-11
-3.19675e-11 -3.25409e-11 -2.86104

-5.47934 4.37186 3.73626e-11
4.37186 -1.81274 -2.00276e-11
3.73626e-11 -2.00276e-11 -2.82598

-6.26256 -4.46014 -1.65656e-11
-4.46014 -0.702502 3.39022e-11
-1.65656e-11 3.39022e-11 -1.05201

6.39203 2.33831 -2.83163e-11
2.33831 0.366637 -2.89413e-11
-2.83163e-11 -2.89413e-11 1.61547

0.36006 -4.11052 3.65811e-12
-4.11052 -3.04122 -9.5346e-12
3.65811e-12 -9.5346e-12 -1.07951

-0.836322 -4.5639 -5.62419e-11
-4.5639 -4.47163 -1.06845e-11
-5.62419e-11 -1.06845e-11 -2.23831

-0.606625 4.45341 4.6209e-12
4.45341 -4.5552 5.09905e-12
4.6209e-12 5.09905e-12 -2.17348

2.38311 -2.55177 -8.86321e-12
-2.55177 -7.79688 2.85027e-11
-8.86321e-12 2.85027e-11 -1.29444

-0.325886 1.11746 1.25164e-11
1.11746 -7.88382 -4.74698e-11
1.25164e-11 -4.74698e-11 -4.07277

-0.367852 -1.09634 2.25346e-11
-1.09634 -7.79223 3.47602e-11
2.25346e-11 3.47602e-11 -4.05125

-12.422 -1.77054 -1.00138e-11
-1.77054 -2.98514 1.31041e-11
-1.00138e-11 1.31041e-11 -10.7488

-10.6031 3.86469 -9.39651e-11
3.86469 -3.67338 3.13931e-11
-9.39651e-11 3.13931e-11 -10.4838

14.7541 0.574098 -3.46917e-11
0.574098 8.11743 -1.16107e-12
-3.46917e-11 -1.16107e-12 14.6529

10.2255 1.07395 3.31396e-11
1.07395 13.4798 -7.63403e-12
3.31396e-11 -7.63403e-12 14.734

-4.04062 4.26858 -3.043e-11
4.26858 1.12424 -9.63224e-12
-3.043e-11 -9.63224e-12 -1.06373

-4.02704 -4.27119 2.67716e-11
-4.27119 1.14324 -5.50887e-11
2.67716e-11 -5.50887e-11 -1.0563

-4.99973 -5.45392 6.20135e-11
-5.45392 1.64188 3.33172e-11
6.20135e-11 3.33172e-11 -0.779401

14.924 -2.84893 -7.43794e-11
-2.84893 14.3523 8.76558e-13
-7.43794e-11 8.76558e-13 16.588

15.5796 -2.3519 -4.93224e-11
-2.3519 14.661 -3.69725e-11
-4.93224e-11 -3.69725e-11 16.8342

-15.3234 3.76415 3.8701e-11
3.76415 -7.81305 -6.27796e-11
3.8701e-11 -6.27796e-11 -14.532

-15.4258 -3.95668 -1.5806e-10
-3.95668 -8.2114 -2.9628e-10
-1.5806e-10 -2.9628e-10 -14.634

-0.316332 -5.16885 2.15719e-11
-5.16885 -3.42516 -3.76118e-12
2.15719e-11 -3.76118e-12 -0.973278

-0.398855 -4.17615 -4.04482e-11
-4.17615 2.18139 2.40808e-11
-4.04482e-11 2.40808e-11 0.40093

-3.83324 4.11485 -6.02842e-11
4.11485 -0.839703 -1.47378e-11
-6.02842e-11 -1.47378e-11 -1.41489

-3.83239 -4.11313 2.92755e-11
-4.11313 -0.847027 -1.98427e-11
2.92755e-11 -1.98427e-11 -1.41517

-2.66735 -4.85969 -2.42687e-11
-4.85969 1.43971 9.80697e-14
-2.42687e-11 9.80697e-14 -0.338827

-0.295523 4.23437 -1.34794e-11
4.23437 2.12796 3.23583e-11
-1.34794e-11 3.23583e-11 0.412733

5.61589 -1.55723 -1.11726e-11
-1.55723 10.0204 1.19439e-11
-1.11726e-11 1.19439e-11 6.44869

5.92058 1.30971 -5.9952e-15
1.30971 10.5739 2.26423e-11
-5.9952e-15 2.26423e-11 6.68723

11.0613 1.12039 -2.92852e-11
1.12039 5.46146 -2.50677e-11
-2.92852e-11 -2.50677e-11 6.76026

-2.61883 4.84765 1.63725e-11
4.84765 1.45443 -3.17642e-12
1.63725e-11 -3.17642e-12 -0.323935

7.59519 -0.736059 -3.9689e-11
-0.736059 12.3865 -2.06827e-12
-3.9689e-11 -2.06827e-12 9.07691

13.1552 -0.442444 5.66445e-11
-0.442444 6.2514 -4.89046e-11
5.66445e-11 -4.89046e-11 9.01828

-5.11649 -3.97724 -5.00725e-12
-3.97724 -1.52571 -3.07183e-11
-5.00725e-12 -3.07183e-11 -2.39493

-5.07054 3.95751 3.79434e-11
3.95751 -1.51444 3.53447e-11
3.79434e-11 3.53447e-11 -2.38448

-5.2892 -3.02153 8.86025e-12
-3.02153 -2.00965 -5.03657e-11
8.86025e-12 -5.03657e-11 -2.84805

-5.26223 3.02081 3.06219e-11
3.02081 -2.08846 -1.21309e-11
3.06219e-11 -1.21309e-11 -2.85828

16.2391 2.6171 2.7164e-11
2.6171 14.6555 4.3883e-11
2.7164e-11 4.3883e-11 17.4322

16.1599 2.49633 -1.46458e-11
2.49633 14.9631 -3.38245e-11
-1.46458e-11 -3.38245e-11 17.5439

-1.56191 3.77883 -3.3705e-11
3.77883 1.03622 2.31089e-11
-3.3705e-11 2.31089e-11 -0.355863

-1.5554 -3.80394 -1.67539e-11
-3.80394 1.07181 1.60841e-11
-1.67539e-11 1.60841e-11 -0.347987

-8.80632 -3.6592 -7.71107e-12
-3.6592 -3.59953 1.02095e-11
-7.71107e-12 1.02095e-11 -7.26638

-7.70205 1.64852 -5.54626e-11
1.64852 -6.83079 3.67856e-11
-5.54626e-11 3.67856e-11 -7.70475

-6.48653 -4.10049 5.9693e-12
-4.10049 -0.281463 -8.57201e-12
5.9693e-12 -8.57201e-12 -2.56607

-6.51538 4.10256 1.09769e-11
4.10256 -0.421971 -1.52149e-11
1.09769e-11 -1.52149e-11 -2.61412

-2.80479 0.264113 2.27261e-11
0.264113 -9.42299 3.66851e-11
2.27261e-11 3.66851e-11 -5.1467

-2.8124 -0.22582 -5.97108e-12
-0.22582 -9.3862 6.2636e-11
-5.97108e-12 6.2636e-11 -5.13164

-3.12688 -4.64528 2.69621e-12
-4.64528 -2.70698 -1.72381e-11
2.69621e-12 -1.72381e-11 -1.50329

-2.95656 4.70467 2.77325e-11
4.70467 -2.84129 -1.194e-11
2.77325e-11 -1.194e-11 -1.49373

-4.75097 1.13195 -6.54739e-12
1.13195 -10.7141 7.70199e-13
-6.54739e-12 7.70199e-13 -8.63919

-9.04686 0.196487 -5.68159e-11
0.196487 -12.6574 -4.20805e-11
-5.68159e-11 -4.20805e-11 -11.9156

-4.75098 -1.14784 -3.15838e-11
-1.14784 -10.6958 1.27089e-11
-3.15838e-11 1.27089e-11 -8.63606

-9.06169 -0.310689 -4.96811e-11
-0.310689 -12.8784 5.62296e-11
-4.96811e-11 5.62296e-11 -11.963

-10.4983 0.190789 -1.73301e-11
0.190789 -5.41723 1.46383e-11
-1.73301e-11 1.46383e-11 -9.26372

-2.90485 4.56547 8.85584e-12
4.56547 -6.26777 1.15199e-12
8.85584e-12 1.15199e-12 -8.22165

-2.89348 -4.54774 7.27935e-11
-4.54774 -6.24787 -2.79294e-11
7.27935e-11 -2.79294e-11 -8.23776

-12.5192 -2.44673 -2.68822e-12
-2.44673 -0.729227 -5.91222e-11
-2.68822e-12 -5.91222e-11 -8.671

-12.7514 -2.15802 -2.57282e-10
-2.15802 -11.4839 1.45405e-10
-2.57282e-10 1.45405e-10 -12.6687

2.59966 -3.12723 -6.61621e-10
-3.12723 -23.0128 -5.2685e-10
-6.61621e-10 -5.2685e-10 -14.6561

-12.9739 2.27265 -5.10277e-11
2.27265 -11.0775 -6.86655e-11
-5.10277e-11 -6.86655e-11 -12.5716

2.64264 2.89151 -5.21181e-10
2.89151 -22.0618 3.56575e-10
-5.21181e-10 3.56575e-10 -14.3814

-7.62997 -2.95781 3.75554e-11
-2.95781 -8.87537 -6.62456e-11
3.75554e-11 -6.62456e-11 -9.33063

-6.12423 -2.06469 -5.27666e-11
-2.06469 -2.9905 -9.24251e-12
-5.27666e-11 -9.24251e-12 -4.80424

-11.8926 -0.172643 -8.85862e-12
-0.172643 -14.7944 -1.85638e-10
-8.85862e-12 -1.85638e-10 -14.0887

-7.73132 3.10484 2.21475e-11
3.10484 -8.82033 2.84062e-11
2.21475e-11 2.84062e-11 -9.30938

-6.08552 2.13514 -5.50779e-11
2.13514 -3.12573 -2.50369e-11
-5.50779e-11 -2.50369e-11 -4.82791

-11.8071 0.194627 -2.11901e-12
0.194627 -14.2161 5.58456e-11
-2.11901e-12 5.58456e-11 -13.8964

-8.31201 -1.70484 -1.38671e-11
-1.70484 -5.81332 9.72618e-12
-1.38671e-11 9.72618e-12 -6.64719

-7.2743 -0.957134 -4.179e-11
-0.957134 -8.58933 1.49256e-11
-4.179e-11 1.49256e-11 -8.82296

-8.22777 1.78515 1.44436e-11
1.78515 -5.8039 9.05213e-12
1.44436e-11 9.05213e-12 -6.61415

-7.22308 1.00028 3.02339e-11
1.00028 -8.54833 6.16244e-12
3.02339e-11 6.16244e-12 -8.78597

0.16881 4.02434 1.02109e-11
4.02434 4.81796 1.63737e-11
1.02109e-11 1.63737e-11 1.24766

-5.60854 0.813135 -6.93382e-12
0.813135 2.95077 3.85477e-12
-6.93382e-12 3.85477e-12 -0.868519

-2.02451 2.16648 1.69496e-11
2.16648 1.3292 1.84904e-11
1.69496e-11 1.84904e-11 -0.643936

3.64346 -2.63465 8.09279e-12
-2.63465 -5.11112 6.16977e-12
8.09279e-12 6.16977e-12 -0.0150702

5.06373 -1.61052 -1.21377e-11
-1.61052 -2.92408 1.42512e-11
-1.21377e-11 1.42512e-11 0.873538

-9.67441 1.23427 -8.66636e-12
1.23427 1.93622 -3.08166e-11
-8.66636e-12 -3.08166e-11 -2.96807

-6.68709 2.23737 2.04153e-11
2.23737 -2.64322 -4.14098e-12
2.04153e-11 -4.14098e-12 -3.30795

4.91175 -0.015053 -2.31489e-12
-0.015053 -2.70092 -2.69348e-12
-2.31489e-12 -2.69348e-12 0.873896

0.573653 1.01864 2.273e-11
1.01864 -8.75004 4.00571e-11
2.273e-11 4.00571e-11 -1.47673

2.90606 3.48123 -1.61792e-11
3.48123 8.01257 1.92742e-12
-1.61792e-11 1.92742e-12 4.0015

2.08857 2.75538 1.19434e-11
2.75538 8.40241 -9.63052e-12
1.19434e-11 -9.63052e-12 4.24082

8.08723 2.76089 -9.53652e-12
2.76089 3.16009 2.85061e-11
-9.53652e-12 2.85061e-11 4.44294

-3.76314 -4.20473 2.34945e-11
-4.20473 -1.41231 1.17476e-11
2.34945e-11 1.17476e-11 -2.72277

-4.31909 -1.76711 5.35376e-11
-1.76711 0.344649 -3.84988e-12
5.35376e-11 -3.84988e-12 -2.42175

0.212125 -4.85917 -7.6857e-13
-4.85917 -0.411262 3.58245e-11
-7.6857e-13 3.58245e-11 0.0783938

-3.17721 3.90583 1.11714e-11
3.90583 2.94918 -1.3482e-11
1.11714e-11 -1.3482e-11 -0.0182005

-4.43498 4.56128 -6.73922e-12
4.56128 1.26329 1.23265e-11
-6.73922e-12 1.23265e-11 -0.793939

-6.85582 -2.2045 3.6014e-11
-2.2045 -2.71045 -1.90683e-11
3.6014e-11 -1.90683e-11 -3.4258

-9.68758 -1.46176 1.40571e-11
-1.46176 2.18027 4.54565e-11
1.40571e-11 4.54565e-11 -2.97231

4.41208 1.22732 3.26523e-11
1.22732 -5.13625 -1.92424e-12
3.26523e-11 -1.92424e-12 -0.12269

2.02982 1.14392 2.12097e-12
1.14392 8.56552 -6.93356e-12
2.12097e-12 -6.93356e-12 3.20067

0.689486 0.506072 -3.21678e-11
0.506072 8.49013 -4.62445e-12
-3.21678e-11 -4.62445e-12 3.1571

9.06085 0.475873 2.60054e-11
0.475873 2.04639 -1.15182e-12
2.60054e-11 -1.15182e-12 3.57585

-1.72374 2.75156 -1.35787e-11
2.75156 4.96617 -1.30997e-11
-1.35787e-11 -1.30997e-11 1.12554

0.0286631 4.49617 -6.54891e-12
4.49617 3.86019 3.64036e-11
-6.54891e-12 3.64036e-11 1.07821

2.8827 0.765421 1.1942e-11
0.765421 -5.55025 2.85081e-11
1.1942e-11 2.85081e-11 -0.234237

7.8636 2.0805 -1.83025e-11
2.0805 11.7893 1.73479e-11
-1.83025e-11 1.73479e-11 7.56548

2.11709 -2.81464 -3.89244e-13
-2.81464 -7.44015 5.00981e-12
-3.89244e-13 5.00981e-12 -0.960051

-5.2311 0.213559 -4.04404e-11
0.213559 1.02301 -6.93208e-12
-4.04404e-11 -6.93208e-12 -3.1824

-3.37805 0.0598311 1.2902e-11
0.0598311 -2.50228 -6.54832e-12
1.2902e-11 -6.54832e-12 -3.42071

-1.25815 1.88827 1.11672e-11
1.88827 -11.8973 -5.77507e-12
1.11672e-11 -5.77507e-12 -9.56198

-0.419436 -4.54585 -3.81277e-11
-4.54585 -8.04543 4.61795e-12
-3.81277e-11 4.61795e-12 -8.9558

-0.828848 -5.15623 1.2712e-11
-5.15623 0.541964 -1.07852e-11
1.2712e-11 -1.07852e-11 0.164498

-1.28416 -4.17101 3.29348e-11
-4.17101 3.3484 1.27121e-11
3.29348e-11 1.27121e-11 0.893821

8.33686 -1.43575 1.10744e-11
-1.43575 0.621339 7.7464e-13
1.10744e-11 7.7464e-13 3.21893

-0.769268 0.741467 -4.62119e-12
0.741467 -5.89029 -1.7908e-11
-4.62119e-12 -1.7908e-11 -3.58795

-0.0768205 -2.69336 -3.4653e-12
-2.69336 -4.85879 3.85951e-13
-3.4653e-12 3.85951e-13 -3.30345

0.73364 -1.19649 3.54403e-11
-1.19649 -8.62906 1.96463e-11
3.54403e-11 1.96463e-11 -1.40012

1.27046 -0.355347 2.6004e-11
-0.355347 -9.35056 1.5791e-11
2.6004e-11 1.5791e-11 -1.17637

5.02149 -4.253 -4.61187e-12
-4.253 0.853149 -1.84939e-11
-4.61187e-12 -1.84939e-11 1.75502

6.22061 1.96588 1.81058e-11
1.96588 -0.887979 -9.05333e-12
1.81058e-11 -9.05333e-12 1.75741

5.77422 -3.47044 -5.9733e-12
-3.47044 -1.08651 1.61836e-11
-5.9733e-12 1.61836e-11 1.63252

-7.18041 2.85851 3.77489e-11
2.85851 1.98212 2.61993e-11
3.77489e-11 2.61993e-11 -0.839167

-1.30694 -3.45534 -5.20062e-12
-3.45534 4.65522 -3.15878e-11
-5.20062e-12 -3.15878e-11 1.13393

-1.58609 3.32281 1.75274e-11
3.32281 3.37371 1.50276e-11
1.75274e-11 1.50276e-11 0.869655

23.0851 -5.27722 -1.15411e-12
-5.27722 23.3179 -4.66271e-11
-1.15411e-12 -4.66271e-11 22.9986

21.5983 3.2463 1.61857e-11
3.2463 23.2866 1.42604e-11
1.61857e-11 1.42604e-11 22.704

-8.60419 -3.95327 1.81061e-11
-3.95327 0.317305 -3.50533e-11
1.81061e-11 -3.50533e-11 -2.27305

-4.95826 2.62458 -1.13668e-11
2.62458 3.28204 -5.23959e-11
-1.13668e-11 -5.23959e-11 -0.0229774

13.2323 0.548921 1.29088e-11
0.548921 13.7148 3.04424e-11
1.29088e-11 3.04424e-11 15.0802

13.7364 -1.06831 -4.14229e-11
-1.06831 15.3675 -2.85202e-11
-4.14229e-11 -2.85202e-11 15.4916

-5.08937 -1.57278 3.37512e-11
-1.57278 -2.72659 1.3676e-11
3.37512e-11 1.3676e-11 -3.9991

-5.42727 3.32353 -3.8278e-11
3.32353 -4.06777 -9.634e-12
-3.8278e-11 -9.634e-12 -4.0719

5.41606 0.0352895 7.56017e-12
0.0352895 -6.02348 -1.35077e-15
7.56017e-12 -1.35077e-15 -0.149999

-5.48168 -1.05464 8.54376e-12
-1.05464 -5.02286 -6.68267e-11
8.54376e-12 -6.68267e-11 -4.58081

-5.42843 3.10159 -5.70999e-11
3.10159 -4.02679 -2.38873e-11
-5.70999e-11 -2.38873e-11 -4.17566

-1.72279 3.40401 6.16068e-12
3.40401 -10.5617 -9.04969e-12
6.16068e-12 -9.04969e-12 -7.71516

-2.1945 -4.16461 2.00251e-11
-4.16461 -6.82176 2.85033e-11
2.00251e-11 2.85033e-11 -7.38429

-2.86362 -2.51725 -3.35435e-13
-2.51725 -2.50243 -1.96937e-11
-3.35435e-13 -1.96937e-11 -2.006

-2.9249 3.32419 5.60951e-11
3.32419 -3.15635 6.10101e-11
5.60951e-11 6.10101e-11 -1.87832

-8.921 -0.263507 1.21341e-11
-0.263507 0.181014 1.69468e-11
1.21341e-11 1.69468e-11 -7.08951

-9.25677 1.19336 -7.7038e-12
1.19336 -5.0994 -3.56226e-12
-7.7038e-12 -3.56226e-12 -7.96567

-0.720019 -4.75054 -9.43556e-12
-4.75054 4.69791 -3.73726e-11
-9.43556e-12 -3.73726e-11 0.975876

6.31816 0.500769 4.31541e-11
0.500769 11.3198 1.38765e-11
4.31541e-11 1.38765e-11 7.73655

10.9873 0.645131 -5.41428e-11
0.645131 6.88663 4.60809e-12
-5.41428e-11 4.60809e-12 7.74801

-7.21763 2.4965 8.08988e-12
2.4965 2.56778 3.85469e-13
8.08988e-12 3.85469e-13 -0.902779

-4.46257 3.66368 2.31142e-11
3.66368 1.54268 2.3693e-11
2.31142e-11 2.3693e-11 -0.80974

-10.594 -3.47068 8.10851e-11
-3.47068 -16.7892 -2.2703e-10
8.10851e-11 -2.2703e-10 -16.0451

-11.0244 5.39065 7.96918e-11
5.39065 -4.83714 1.61856e-11
7.96918e-11 1.61856e-11 -13.7612

3.65671 3.35864 4.0381e-12
3.35864 1.86862 -6.93164e-12
4.0381e-12 -6.93164e-12 1.55822

-4.48014 5.66688 1.7326e-12
5.66688 1.20509 -1.73339e-11
1.7326e-12 -1.73339e-11 -0.824535

0.654484 2.15492 -1.38203e-11
2.15492 -4.94811 -2.61936e-11
-1.38203e-11 -2.61936e-11 -1.10559

0.821604 -1.71658 4.42032e-11
-1.71658 -4.89309 8.66655e-12
4.42032e-11 8.66655e-12 -1.22808

-4.05443 5.38328 -1.19396e-11
5.38328 -0.443406 -4.81785e-12
-1.19396e-11 -4.81785e-12 -1.17006

-5.9268 -5.31072 -3.02344e-11
-5.31072 -0.121968 -2.90829e-11
-3.02344e-11 -2.90829e-11 -2.06529

-0.0715095 -4.545 -2.19561e-11
-4.545 -7.57809 1.19407e-11
-2.19561e-11 1.19407e-11 -3.16333

8.12828 -0.406093 2.25393e-11
-0.406093 0.822946 -3.58279e-11
2.25393e-11 -3.58279e-11 3.22736

-1.63787 0.632651 -5.66108e-11
0.632651 -4.97082 -1.69504e-11
-5.66108e-11 -1.69504e-11 -10.3312

-1.41162 -0.392201 -3.08042e-12
-0.392201 -12.1807 1.69443e-11
-3.08042e-12 1.69443e-11 -11.3601

0.754177 4.13388 -1.57947e-11
4.13388 -1.076 1.67572e-11
-1.57947e-11 1.67572e-11 0.064613

4.33176 1.57237 1.95494e-11
1.57237 -3.47615 -4.62334e-12
1.95494e-11 -4.62334e-12 0.174955

4.86428 3.52755 -3.19804e-11
3.52755 6.48183 -2.12059e-11
-3.19804e-11 -2.12059e-11 3.61804

-11.0294 0.837876 5.79634e-11
0.837876 -8.4272 1.57937e-11
5.79634e-11 1.57937e-11 -10.5188

-8.48729 2.43876 -4.96798e-11
2.43876 -0.802943 -1.3095e-11
-4.96798e-11 -1.3095e-11 -8.81228

-0.845113 2.25617 1.46347e-11
2.25617 -9.22842 -4.17883e-11
1.46347e-11 -4.17883e-11 -3.62256

-5.83284 -0.955152 9.72724e-12
-0.955152 3.1002 -1.19422e-11
9.72724e-12 -1.19422e-11 -1.02497

-2.28906 -2.04248 1.98405e-11
-2.04248 1.39861 8.08923e-12
1.98405e-11 8.08923e-12 -0.817799

3.39186 0.655941 1.11948e-11
0.655941 -7.60275 -4.23676e-12
1.11948e-11 -4.23676e-12 -1.00613

3.78117 -0.513708 4.55058e-12
-0.513708 -7.64903 -1.02071e-11
4.55058e-12 -1.02071e-11 -1.00235

7.15642 -3.53922 8.5724e-12
-3.53922 5.51054 -4.05091e-12
8.5724e-12 -4.05091e-12 3.96322

6.63604 0.0098477 1.23247e-11
0.0098477 -2.87953 -5.77433e-12
1.23247e-11 -5.77433e-12 0.978857

0.649481 -0.576875 -4.53573e-11
-0.576875 -7.31542 2.94664e-11
-4.53573e-11 2.94664e-11 -2.3089

-0.172596 1.1658 -9.33971e-12
1.1658 -6.44483 -1.38691e-11
-9.33971e-12 -1.38691e-11 -2.1657

4.59775 -1.47454 3.49585e-11
-1.47454 -2.53331 1.21348e-11
3.49585e-11 1.21348e-11 0.269738

-0.278885 -4.19319 -2.25359e-11
-4.19319 4.56316 -3.10126e-11
-2.25359e-11 -3.10126e-11 0.999365

3.70613 -0.339072 1.92616e-12
-0.339072 -5.3082 5.19966e-12
1.92616e-12 5.19966e-12 -0.810817

3.12738 0.751336 -7.1505e-12
0.751336 -5.59676 4.04447e-12
-7.1505e-12 4.04447e-12 -0.860377

2.57561 1.70935 5.27743e-11
1.70935 -4.2206 8.01282e-11
5.27743e-11 8.01282e-11 -0.175487

2.88416 -5.33796 -3.12005e-11
-5.33796 2.17731 -7.31615e-12
-3.12005e-11 -7.31615e-12 1.8955

-6.0375 5.14532 -3.59187e-11
5.14532 -1.30945 -3.12069e-11
-3.59187e-11 -3.12069e-11 -1.19527

-4.62087 5.0545 -2.67716e-11
5.0545 1.37588 -2.63893e-11
-2.67716e-11 -2.63893e-11 -0.888968

-7.32776 3.8144 2.88787e-12
3.8144 -1.58515 5.00755e-12
2.88787e-12 5.00755e-12 -1.52328

6.43174 1.8621 -7.03304e-12
1.8621 -1.77126 1.34881e-11
-7.03304e-12 1.34881e-11 1.45789

9.90673 -3.68158 -1.73438e-11
-3.68158 6.67612 -1.4256e-11
-1.73438e-11 -1.4256e-11 6.7571

-0.476949 3.10908 1.27098e-11
3.10908 -4.7923 -2.87007e-11
1.27098e-11 -2.87007e-11 -1.36405

3.53848 -3.31166 5.19362e-12
-3.31166 -3.24895 3.31259e-11
5.19362e-12 3.31259e-11 0.205848

10.0739 -3.19074 1.33227e-15
-3.19074 5.97345 -4.24805e-12
1.33227e-15 -4.24805e-12 6.53115

1.63581 -5.31786 8.67336e-12
-5.31786 -1.92902 -3.46785e-11
8.67336e-12 -3.46785e-11 0.139815

-5.4762 0.135173 -3.33214e-11
0.135173 0.628643 8.47359e-12
-3.33214e-11 8.47359e-12 -1.39831

-7.95446 0.000503999 -3.62089e-11
0.000503999 3.94707 -7.31866e-12
-3.62089e-11 -7.31866e-12 -1.06307

2.23494 4.5333 1.6944e-11
4.5333 2.63369 1.34566e-12
1.6944e-11 1.34566e-12 1.55394

8.11971 -3.77698 1.27149e-11
-3.77698 2.83149 5.01081e-12
1.27149e-11 5.01081e-12 4.05175

-3.7831 -5.5158 -1.42532e-11
-5.5158 -1.88631 1.11748e-11
-1.42532e-11 1.11748e-11 -1.10737

2.17634 -4.93429 -3.28442e-11
-4.93429 4.71997 8.47529e-12
-3.28442e-11 8.47529e-12 1.85506

2.1266 -4.98838 -4.23698e-12
-4.98838 4.36919 6.8586e-11
-4.23698e-12 6.8586e-11 2.07863

2.41557 2.55238 5.62433e-11
2.55238 -2.39116 7.70347e-13
5.62433e-11 7.70347e-13 0.0257753

1.24907 1.61113 -1.07881e-11
1.61113 -13.1817 -8.66566e-12
-1.07881e-11 -8.66566e-12 -2.67176

1.09869 -2.53767 2.69665e-11
-2.53767 -10.9038 8.85951e-12
2.69665e-11 8.85951e-12 -2.38856

-1.00034 2.8332 4.8167e-12
2.8332 5.4574 -1.11737e-11
4.8167e-12 -1.11737e-11 1.24709

-2.86015 1.93573 -3.0532e-11
1.93573 6.12747 -4.23831e-12
-3.0532e-11 -4.23831e-12 1.20703

0.389207 -0.412036 1.46438e-11
-0.412036 8.93076 1.4836e-11
1.46438e-11 1.4836e-11 3.33255

-0.428114 -0.547862 -1.32927e-11
-0.547862 9.44436 3.08217e-11
-1.32927e-11 3.08217e-11 3.52391

9.92586 -0.36312 2.71621e-11
-0.36312 0.612965 2.27596e-15
2.71621e-11 2.27596e-15 3.85575

3.6703 -4.49847 1.02116e-11
-4.49847 1.05554 1.34868e-11
1.02116e-11 1.34868e-11 1.44323

-15.3803 -3.31179 5.71946e-11
-3.31179 -10.3676 6.3534e-12
5.71946e-11 6.3534e-12 -14.5318

-1.353 -1.31639 1.56547e-10
-1.31639 -1.31326 -5.00771e-11
1.56547e-10 -5.00771e-11 -10.3254

5.15281 3.16969 5.85088e-13
3.16969 -0.167474 9.63481e-12
5.85088e-13 9.63481e-12 1.74787

6.4375 -2.16281 -3.23651e-11
-2.16281 -1.96089 -3.86672e-13
-3.23651e-11 -3.86672e-13 1.27894

9.60216 1.98098 -1.15559e-11
1.98098 5.02763 4.37318e-11
-1.15559e-11 4.37318e-11 5.9945

-5.48161 3.2507 4.78613e-11
3.2507 1.25457 -6.93075e-12
4.78613e-11 -6.93075e-12 -0.461169

5.48565 0.0518409 2.35461e-11
0.0518409 -5.88689 -4.04526e-12
2.35461e-11 -4.04526e-12 -0.140433

-6.05769 4.95081 -2.98538e-11
4.95081 -0.245779 -1.92611e-11
-2.98538e-11 -1.92611e-11 -1.85085

-9.91116 3.93481 -1.8967e-11
3.93481 0.329147 2.00312e-11
-1.8967e-11 2.00312e-11 -2.29522

3.99165 2.5515 6.90595e-11
2.5515 6.74177 -2.23503e-11
6.90595e-11 -2.23503e-11 3.74269

6.39027 2.8398 1.53115e-11
2.8398 5.62352 2.15741e-11
1.53115e-11 2.15741e-11 4.05483

-4.77085 -5.98461 1.72413e-11
-5.98461 1.08272 -3.0625e-11
1.72413e-11 -3.0625e-11 -1.09173

9.68161 1.60069 -7.77008e-13
1.60069 4.83223 -1.88802e-11
-7.77008e-13 -1.88802e-11 5.93943

-7.45018 4.42104 -1.43958e-11
4.42104 -2.99601 -2.04206e-11
-1.43958e-11 -2.04206e-11 -1.69309

-2.69437 5.38749 -8.66664e-12
5.38749 2.35099 1.54136e-12
-8.66664e-12 1.54136e-12 -0.0739594

4.87364 -0.0772484 -3.57307e-11
-0.0772484 -8.605 1.34684e-12
-3.57307e-11 1.34684e-12 -0.817432

-6.16977 -4.08404 -1.38654e-11
-4.08404 -2.93261 9.24828e-12
-1.38654e-11 9.24828e-12 -1.69465

0.584726 4.40901 -1.63729e-11
4.40901 0.871202 7.89406e-12
-1.63729e-11 7.89406e-12 0.356922

1.88038 -2.16205 2.31374e-12
-2.16205 7.89904 4.1226e-11
2.31374e-12 4.1226e-11 2.82515

0.373501 -2.05806 -2.11924e-11
-2.05806 8.13361 2.42758e-11
-2.11924e-11 2.42758e-11 2.81042

8.21324 -1.53467 1.35077e-12
-1.53467 2.04691 -1.73338e-11
1.35077e-12 -1.73338e-11 3.12746

2.99064 -4.03968 1.59774e-11
-4.03968 3.58352 4.06459e-11
1.59774e-11 4.06459e-11 1.65483

-3.68678 -0.265697 -4.256e-11
-0.265697 5.58472 -3.54448e-11
-4.256e-11 -3.54448e-11 0.587352

-0.577875 -0.0392818 -1.32925e-11
-0.0392818 4.89723 -1.81066e-11
-1.32925e-11 -1.81066e-11 0.85053

4.94298 -4.32614 -2.0037e-11
-4.32614 6.93035 1.35077e-12
-2.0037e-11 1.35077e-12 4.19119

3.70034 -4.203 3.08263e-11
-4.203 7.59008 -1.1947e-11
3.08263e-11 -1.1947e-11 4.24032

4.67562 -0.214138 -5.23432e-11
-0.214138 -7.89538 1.19384e-11
-5.23432e-11 1.19384e-11 -0.800775

5.00562 0.221567 -1.28086e-11
0.221567 -8.05319 -2.4074e-11
-1.28086e-11 -2.4074e-11 -0.817829

-4.33422 4.12044 5.87338e-12
4.12044 -0.346044 2.27294e-11
5.87338e-12 2.27294e-11 -0.56633

-9.60942 -3.47096 -5.77542e-12
-3.47096 0.112887 -1.8106e-11
-5.77542e-12 -1.8106e-11 -2.19226

-0.433926 -5.33727 -3.50523e-11
-5.33727 -3.39927 2.30997e-12
-3.50523e-11 2.30997e-12 -0.983679

-2.97835 2.03427 3.39682e-11
2.03427 -5.1619 5.05572e-11
3.39682e-11 5.05572e-11 -2.91248

-2.23851 -0.622293 -6.76681e-12
-0.622293 -4.26246 1.15611e-11
-6.76681e-12 1.15611e-11 -2.79112

1.03112 -2.22882 1.05019e-11
-2.22882 -1.42579 -3.46697e-11
1.05019e-11 -3.46697e-11 -0.60595

0.593544 2.68024 -1.35802e-11
2.68024 -2.99322 -2.61911e-11
-1.35802e-11 -2.61911e-11 -0.75247

12.8226 -2.23936 3.85922e-12
-2.23936 7.92864 -7.09038e-11
3.85922e-12 -7.09038e-11 14.0072

1.32049 4.24771 4.33527e-12
4.24771 3.99099 -5.43203e-11
4.33527e-12 -5.43203e-11 1.79288

9.72134 1.54507 -6.39705e-11
1.54507 12.9341 -2.92896e-11
-6.39705e-11 -2.92896e-11 14.3106

-2.10605 4.77605 -1.94514e-11
4.77605 0.569012 1.73307e-11
-1.94514e-11 1.73307e-11 -0.3933

-1.26059 -3.34754 7.70547e-12
-3.34754 5.91894 -2.36946e-11
7.70547e-12 -2.36946e-11 1.2199

-2.93152 -2.98426 3.06275e-11
-2.98426 5.82416 -2.04186e-11
3.06275e-11 -2.04186e-11 1.14125

-6.63674 -1.02663 -7.9319e-11
-1.02663 -7.83445 3.79358e-11
-7.9319e-11 3.79358e-11 -8.03408

-8.16184 2.81115 -2.53028e-11
2.81115 -5.04376 3.9674e-11
-2.53028e-11 3.9674e-11 -7.68978

1.66276 3.17053 5.10436e-11
3.17053 -0.78903 1.15579e-11
5.10436e-11 1.15579e-11 0.338984

6.71294 -0.324667 7.12541e-12
-0.324667 -2.43524 4.3728e-11
7.12541e-12 4.3728e-11 1.04431

4.00133 3.55247 -4.82558e-11
3.55247 0.716535 -2.00383e-11
-4.82558e-11 -2.00383e-11 1.6897

-6.99437 -2.04955 7.70527e-12
-2.04955 3.45285 6.54662e-12
7.70527e-12 6.54662e-12 -0.850371

-4.70027 -3.37861 1.25197e-11
-3.37861 1.33858 -5.39332e-12
1.25197e-11 -5.39332e-12 -1.07361

-5.09683 -6.13933 1.7141e-11
-6.13933 2.54299 4.23599e-12
1.7141e-11 4.23599e-12 -0.864422

1.87397 -3.41584 -2.60978e-11
-3.41584 0.553724 -5.40309e-15
-2.60978e-11 -5.40309e-15 0.372122

-5.01332 5.7148 -1.44451e-11
5.7148 1.16937 -1.79153e-11
-1.44451e-11 -1.79153e-11 -0.832161

-4.23212 2.63991 2.23411e-11
2.63991 -0.462091 2.59996e-12
2.23411e-11 2.59996e-12 -2.53597

-3.98932 3.99707 -2.02229e-11
3.99707 -1.93042 -9.63859e-13
-2.02229e-11 -9.63859e-13 -2.74687

-3.39198 -5.37629 1.25199e-11
-5.37629 2.88165 -4.04354e-12
1.25199e-11 -4.04354e-12 -0.286486

-2.5708 4.88144 -1.30966e-11
4.88144 2.10452 -1.69524e-11
-1.30966e-11 -1.69524e-11 -0.144457

-10.1321 6.14827 -1.81043e-11
6.14827 -1.55392 -5.00955e-12
-1.81043e-11 -5.00955e-12 -1.81747

-4.75107 0.578049 6.64927e-12
0.578049 5.86623 -4.3916e-11
6.64927e-12 -4.3916e-11 0.537462

-2.90119 1.33822 -6.35553e-12
1.33822 4.58173 -1.40602e-11
-6.35553e-12 -1.40602e-11 0.426252

-1.49706 3.7935 -3.38987e-11
3.7935 -2.1457 -2.58209e-11
-3.38987e-11 -2.58209e-11 -0.726326

2.68541 3.19003 -5.71167e-11
3.19003 2.29487 -2.23478e-11
-5.71167e-11 -2.23478e-11 1.58253

-4.65103 -3.3038 -2.85056e-11
-3.3038 3.04024 2.54273e-11
-2.85056e-11 2.54273e-11 -0.0690501

-5.65538 -5.76968 -6.9307e-12
-5.76968 0.648204 -3.29357e-11
-6.9307e-12 -3.29357e-11 -1.68655

11.023 1.91338 4.60438e-11
1.91338 13.7429 2.65929e-11
4.60438e-11 2.65929e-11 11.3189

13.0734 1.99477 6.9266e-11
1.99477 11.5173 2.31168e-11
6.9266e-11 2.31168e-11 11.2535

4.93331 -4.27355 8.48181e-12
-4.27355 5.99147 -6.6269e-11
8.48181e-12 -6.6269e-11 3.89018

-1.40757 -3.97185 -5.58006e-12
-3.97185 -0.913063 -3.15878e-11
-5.58006e-12 -3.15878e-11 -0.779155

4.46404 -1.18797 4.91172e-11
-1.18797 -5.08032 1.92592e-11
4.91172e-11 1.92592e-11 -0.171384

-10.3236 4.29868 2.89599e-11
4.29868 -7.9266 -4.19812e-11
2.89599e-11 -4.19812e-11 -12.9602

-6.92711 -4.67625 -1.70893e-11
-4.67625 -13.6791 -2.83041e-11
-1.70893e-11 -2.83041e-11 -13.4403

-3.2199 -5.87013 -1.74305e-11
-5.87013 2.83795 6.93564e-12
-1.74305e-11 6.93564e-12 -0.218523

-5.80143 1.08936 2.4263e-11
1.08936 -8.3387 -6.54795e-12
2.4263e-11 -6.54795e-12 -6.80181

-3.88786 -4.45686 2.15773e-11
-4.45686 -3.73794 -3.35041e-11
2.15773e-11 -3.35041e-11 -5.7093

2.53545 -1.55007 -1.90701e-11
-1.55007 -6.08228 3.04326e-11
-1.90701e-11 3.04326e-11 -0.36462

-8.96882 -6.09231 2.88969e-12
-6.09231 -1.86102 -8.47307e-12
2.88969e-12 -8.47307e-12 -1.80603

8.73549 -3.7329 3.23625e-11
-3.7329 10.3366 1.2708e-11
3.23625e-11 1.2708e-11 8.66296

9.72366 2.72038 6.35381e-12
2.72038 9.57759 -1.41594e-11
6.35381e-12 -1.41594e-11 8.56672

5.48393 -2.22529 1.34872e-11
-2.22529 10.8525 1.23292e-11
1.34872e-11 1.23292e-11 6.76948

5.3721 -2.44073 3.56359e-11
-2.44073 10.6032 7.70006e-12
3.56359e-11 7.70006e-12 6.56513

11.3923 -1.85373 2.44595e-11
-1.85373 5.5701 -4.84624e-11
2.44595e-11 -4.84624e-11 6.83499

5.45469 3.30115 -1.77138e-11
3.30115 4.79128 -2.56265e-11
-1.77138e-11 -2.56265e-11 3.57767

-5.25961 -6.52556 -3.56182e-12
-6.52556 2.0953 -1.56011e-11
-3.56182e-12 -1.56011e-11 -0.89043

6.15269 0.331268 4.16113e-11
0.331268 12.907 3.83376e-11
4.16113e-11 3.83376e-11 8.54709

12.2614 -0.989595 7.72567e-13
-0.989595 5.82055 -1.92702e-11
7.72567e-13 -1.92702e-11 8.3987

-6.19682 0.508417 -2.11803e-11
0.508417 0.599304 -8.05049e-11
-2.11803e-11 -8.05049e-11 -4.60439

-6.50834 -2.65459 1.79139e-11
-2.65459 -3.98203 -6.03772e-11
1.79139e-11 -6.03772e-11 -5.47162

1.97024 -3.04777 -1.19399e-11
-3.04777 -4.36972 -6.93194e-12
-1.19399e-11 -6.93194e-12 -0.823094

1.24007 -0.190229 3.42878e-11
-0.190229 -13.3003 1.00152e-11
3.42878e-11 1.00152e-11 -1.93172

0.47486 -3.27628 3.56393e-11
-3.27628 6.53938 2.92812e-11
3.56393e-11 2.92812e-11 2.71323

1.43079 -3.26857 -3.75566e-12
-3.26857 6.95788 4.91246e-11
-3.75566e-12 4.91246e-11 2.69742

2.92629 -0.181209 1.02084e-11
-0.181209 -6.54785 1.1944e-11
1.02084e-11 1.1944e-11 -0.345237

-3.3626 -4.48807 -1.62741e-11
-4.48807 3.27311 -2.73509e-11
-1.62741e-11 -2.73509e-11 -0.0994233

-3.96859 0.0651164 -2.36646e-11
0.0651164 -6.19462 -7.79958e-11
-2.36646e-11 -7.79958e-11 -5.43386

-5.62077 1.34181 -6.02808e-11
1.34181 -4.80083 1.23225e-11
-6.02808e-11 1.23225e-11 -5.35305

0.064727 -4.22893 -1.88756e-11
-4.22893 -2.78367 1.57951e-11
-1.88756e-11 1.57951e-11 -0.989202

-3.43347 -4.31984 5.78041e-12
-4.31984 -0.520714 -2.9273e-11
5.78041e-12 -2.9273e-11 -0.554212

2.40073 -3.03692 -1.96528e-11
-3.03692 -7.24791 2.65794e-11
-1.96528e-11 2.65794e-11 -1.02797

-4.60489 -3.80442 1.483e-11
-3.80442 1.16112 -1.42512e-11
1.483e-11 -1.42512e-11 -0.405012

23.5245 -7.24813 -2.73594e-11
-7.24813 24.2281 2.46623e-11
-2.73594e-11 2.46623e-11 24.2051

-2.37782 -1.66869 3.46698e-11
-1.66869 4.34199 -6.93815e-12
3.46698e-11 -6.93815e-12 0.451342

-4.09311 -1.25702 3.29387e-11
-1.25702 5.85263 -7.71383e-13
3.29387e-11 -7.71383e-13 0.651536

-8.39945 -0.61278 -5.43018e-11
-0.61278 2.1296 -4.62156e-12
-5.43018e-11 -4.62156e-12 -5.38248

-7.50332 -0.72483 1.92643e-12
-0.72483 -5.77394 -2.50429e-12
1.92643e-12 -2.50429e-12 -6.55192

3.23956 -0.407858 -1.97911e-11
-0.407858 -8.76322 3.2736e-12
-1.97911e-11 3.2736e-12 -1.74283

2.3879 0.201003 -1.77202e-11
0.201003 -8.24885 1.9252e-12
-1.77202e-11 1.9252e-12 -1.71669

-3.3308 3.17 -4.17922e-11
3.17 -5.21333 4.62082e-12
-4.17922e-11 4.62082e-12 -2.96881

-1.4539 -5.68989 7.71901e-13
-5.68989 -4.93921 -3.21965e-15
7.71901e-13 -3.21965e-15 -2.51248

-3.41717 1.13352 4.46797e-11
1.13352 -4.01763 -2.50429e-12
4.46797e-11 -2.50429e-12 -4.68188

-0.940914 -2.02994 6.43226e-11
-2.02994 -3.80702 1.4253e-11
6.43226e-11 1.4253e-11 -4.29046

-8.68584 -2.21687 7.03022e-11
-2.21687 -11.1575 -1.5348e-10
7.03022e-11 -1.5348e-10 -11.4893

-7.94358 6.65528 -5.18869e-11
6.65528 -5.04819 -2.31174e-11
-5.18869e-11 -2.31174e-11 -10.0636

-5.81815 -5.87703 -1.95007e-11
-5.87703 0.35268 2.58084e-11
-1.95007e-11 2.58084e-11 -1.85402

-8.38962 7.27547 -7.17456e-12
7.27547 -3.5323 3.46624e-12
-7.17456e-12 3.46624e-12 -2.44574

2.21217 2.94169 4.89265e-11
2.94169 -2.55013 2.697e-11
4.89265e-11 2.697e-11 0.0750465

-4.40488 -2.50945 2.69789e-12
-2.50945 3.76852 3.85236e-11
2.69789e-12 3.85236e-11 0.0381725

-1.6337 -3.80614 1.82977e-11
-3.80614 3.80574 1.65636e-11
1.82977e-11 1.65636e-11 0.31198

2.34018 -3.09675 -3.33262e-11
-3.09675 -1.85075 -9.43634e-12
-3.33262e-11 -9.43634e-12 0.0463884

-1.36948 2.86362 1.47308e-11
2.86362 3.49925 -3.85203e-12
1.47308e-11 -3.85203e-12 0.376003

-4.26987 1.69108 8.52233e-12
1.69108 4.16456 -4.39173e-11
8.52233e-12 -4.39173e-11 0.186242

0.263933 4.06487 -6.64698e-12
4.06487 0.0678477 2.96619e-11
-6.64698e-12 2.96619e-11 0.387394

-5.22862 4.87502 8.8568e-12
4.87502 -1.11135 -1.04003e-11
8.8568e-12 -1.04003e-11 -1.9568

-5.97607 -6.51554 1.30982e-11
-6.51554 -3.33966 3.08196e-12
1.30982e-11 3.08196e-12 -2.32491

0.781982 -4.97829 5.72045e-11
-4.97829 1.19357 -1.27115e-11
5.72045e-11 -1.27115e-11 0.413273

1.34814 1.44292 -5.58516e-12
1.44292 -4.85592 -4.71864e-11
-5.58516e-12 -4.71864e-11 -1.10584

-1.56906 -2.19774 -1.10152e-10
-2.19774 -2.82047 7.77841e-11
-1.10152e-10 7.77841e-11 -10.7354

-14.5802 1.33744 -7.39515e-11
1.33744 -13.3043 1.50299e-10
-7.39515e-11 1.50299e-10 -15.0069

-3.09923 -4.93037 -1.21347e-11
-4.93037 1.76387 2.40759e-11
-1.21347e-11 2.40759e-11 -0.713268

0.774853 -4.88555 -9.63067e-12
-4.88555 -4.43817 -2.38813e-11
-9.63067e-12 -2.38813e-11 -0.96771

0.381029 -0.422668 2.31088e-11
-0.422668 -4.93127 1.772e-11
2.31088e-11 1.772e-11 -2.77789

11.274 -3.43226 -1.75262e-11
-3.43226 12.5969 -1.90757e-11
-1.75262e-11 -1.90757e-11 10.5952

12.5142 -3.06367 -3.94994e-11
-3.06367 10.4173 -2.05186e-11
-3.94994e-11 -2.05186e-11 10.2375

2.22449 0.33611 -9.03031e-12
0.33611 -8.18624 6.16249e-11
-9.03031e-12 6.16249e-11 -2.33844

0.626192 -0.263959 -8.37832e-12
-0.263959 -7.60589 -1.38651e-11
-8.37832e-12 -1.38651e-11 -2.42495

0.237833 -0.0634393 -5.00736e-12
-0.0634393 -8.02908 -1.7335e-12
-5.00736e-12 -1.7335e-12 -3.25562

5.82925 2.08291 4.19072e-12
2.08291 -0.0976079 -3.42876e-11
4.19072e-12 -3.42876e-11 1.60366

-2.7761 -3.14236 2.3353e-11
-3.14236 -0.366201 7.58842e-11
2.3353e-11 7.58842e-11 -1.58721

-3.25684 3.81548 3.68355e-11
3.81548 -3.15718 -3.54362e-11
3.68355e-11 -3.54362e-11 -1.88185

-8.28164 -3.4886 8.09264e-12
-3.4886 -16.0736 -8.75967e-11
8.09264e-12 -8.75967e-11 -14.2508

-4.19665 -0.372305 -4.23791e-12
-0.372305 -0.531655 -6.26973e-11
-4.23791e-12 -6.26973e-11 -10.7649

-4.93437 -5.5377 -1.42525e-11
-5.5377 1.85041 2.33071e-11
-1.42525e-11 2.33071e-11 -0.84228

3.10717 -3.88812 5.58894e-12
-3.88812 -2.84578 -1.19399e-11
5.58894e-12 -1.19399e-11 0.124396

-0.993331 0.852487 -2.04111e-11
0.852487 -4.2137 5.58484e-11
-2.04111e-11 5.58484e-11 -2.43615

-0.153807 0.13159 -4.87232e-11
0.13159 -5.02133 -2.23394e-11
-4.87232e-11 -2.23394e-11 -2.58413

-5.60391 -2.22765 1.38684e-11
-2.22765 1.13448 3.07998e-12
1.38684e-11 3.07998e-12 -1.01993

-6.84206 -4.08307 2.65771e-11
-4.08307 -1.89657 -4.23755e-12
2.65771e-11 -4.23755e-12 -1.47457

24.5876 6.12865 3.37184e-11
6.12865 23.6125 1.73846e-12
3.37184e-11 1.73846e-12 24.2642

-5.39489 3.26819 -3.19688e-11
3.26819 -1.36362 1.30954e-11
-3.19688e-11 1.30954e-11 -2.77677

-5.36786 -4.2536 -2.30841e-12
-4.2536 -1.72087 1.42525e-11
-2.30841e-12 1.42525e-11 -2.78798

-6.62832 -3.8632 2.59992e-11
-3.8632 0.552599 -8.85965e-12
2.59992e-11 -8.85965e-12 -1.00225

6.0495 -2.60929 -2.07076e-11
-2.60929 0.657752 1.2716e-11
-2.07076e-11 1.2716e-11 1.57735

-0.706865 2.83432 2.98553e-11
2.83432 -1.63449 3.50502e-11
2.98553e-11 3.50502e-11 -0.990238

-2.7802 2.97541 -2.59986e-11
2.97541 -2.28699 -3.96777e-11
-2.59986e-11 -3.96777e-11 -2.22522

-0.740122 -4.58198 -4.23624e-12
-4.58198 -4.58928 4.35263e-11
-4.23624e-12 4.35263e-11 -2.19898

1.79193 1.14522 1.34819e-11
1.14522 -8.0594 6.33615e-11
1.34819e-11 6.33615e-11 -1.30036

-1.94135 -0.52728 -1.51422e-11
-0.52728 -5.15046 8.0882e-12
-1.51422e-11 8.0882e-12 -3.70369

-0.761367 0.825477 3.02964e-11
0.825477 -7.1171 -2.81145e-11
3.02964e-11 -2.81145e-11 -3.97397

-9.91453 1.51845 7.10532e-11
1.51845 0.275168 -4.77596e-11
7.10532e-11 -4.77596e-11 -9.9664

-11.7587 0.28713 1.07819e-11
0.28713 -5.70023 -5.03594e-11
1.07819e-11 -5.03594e-11 -11.1613

13.895 -1.56795 -4.14238e-11
-1.56795 9.88493 -1.15588e-11
-4.14238e-11 -1.15588e-11 14.6363

8.41191 -1.04214 -3.08168e-12
-1.04214 14.3602 3.89231e-11
-3.08168e-12 3.89231e-11 14.4619

-4.0409 -4.87755 2.51337e-11
-4.87755 1.85192 -7.70217e-13
2.51337e-11 -7.70217e-13 -1.03019

-4.85275 4.23074 -2.96112e-11
4.23074 -2.1842 -2.46569e-11
-2.96112e-11 -2.46569e-11 -1.46054

-4.82106 -6.52585 -1.42493e-11
-6.52585 2.32656 -2.29195e-11
-1.42493e-11 -2.29195e-11 -0.764915

15.385 1.67092 2.98695e-11
1.67092 15.1472 -6.47355e-11
2.98695e-11 -6.47355e-11 16.85

15.4805 2.51951 -1.13688e-11
2.51951 13.828 -1.50248e-11
-1.13688e-11 -1.50248e-11 16.3904

-21.5829 5.33699 -1.01413e-10
5.33699 -4.58575 -3.85357e-12
-1.01413e-10 -3.85357e-12 -15.0613

-15.7771 -4.20817 -4.50318e-11
-4.20817 -7.76044 -1.58109e-10
-4.50318e-11 -1.58109e-10 -14.5429

-1.99779 3.9438 1.56028e-11
3.9438 -1.82876 3.90978e-11
1.56028e-11 3.90978e-11 -1.09721

-0.375833 -4.70698 2.77389e-11
-4.70698 2.4027 -2.85068e-11
2.77389e-11 -2.85068e-11 0.369031

-3.89288 -4.67577 2.66738e-11
-4.67577 -0.349129 3.46693e-11
2.66738e-11 3.46693e-11 -1.41778

-3.99577 4.70648 -4.94529e-11
4.70648 -2.21895 -7.32355e-12
-4.94529e-11 -7.32355e-12 -1.37224

-2.56729 -5.4599 -6.07122e-12
-5.4599 1.78617 5.16212e-11
-6.07122e-12 5.16212e-11 -0.341846

-0.822149 3.79555 3.23584e-11
3.79555 1.22221 -1.0779e-11
3.23584e-11 -1.0779e-11 0.409991

4.33354 -1.99103 -1.27166e-11
-1.99103 10.2953 8.471e-12
-1.27166e-11 8.471e-12 6.23507

5.84378 -1.71299 2.25384e-11
-1.71299 10.6384 2.42713e-11
2.25384e-11 2.42713e-11 6.60026

11.2015 -1.39452 2.39893e-11
-1.39452 5.57146 1.32863e-11
2.39893e-11 1.32863e-11 6.7123

-3.27876 4.25881 2.37894e-11
4.25881 0.0825284 4.00665e-11
2.37894e-11 4.00665e-11 -0.385832

6.50024 -0.219373 -4.00717e-11
-0.219373 12.8946 -3.46848e-12
-4.00717e-11 -3.46848e-12 8.8554

12.7787 0.436025 -5.71306e-11
0.436025 7.33271 5.1626e-11
-5.71306e-11 5.1626e-11 8.96667

-5.18795 -4.46219 -1.01548e-11
-4.46219 -0.896279 -3.42842e-11
-1.01548e-11 -3.42842e-11 -2.3926

-5.30841 5.42063 3.3609e-11
5.42063 -3.96985 4.16114e-11
3.3609e-11 4.16114e-11 -2.54618

-5.36041 -3.55449 2.58527e-11
-3.55449 -1.28412 6.20124e-11
2.58527e-11 6.20124e-11 -2.7999

-5.38518 4.79459 5.74858e-11
4.79459 -2.26712 -6.53921e-12
5.74858e-11 -6.53921e-12 -2.64059

15.2601 -3.19938 4.04946e-12
-3.19938 15.7358 -3.27548e-11
4.04946e-12 -3.27548e-11 17.3357

15.152 -3.11935 3.10281e-11
-3.11935 16.0139 -8.07776e-12
3.10281e-11 -8.07776e-12 17.3929

-1.98546 3.97231 -4.62255e-11
3.97231 -1.10581 4.92993e-11
-4.62255e-11 4.92993e-11 -0.537085

-1.65314 -4.31069 1.72351e-11
-4.31069 1.48734 4.10242e-11
1.72351e-11 4.10242e-11 -0.367401

-6.94315 -1.1231 5.43092e-11
-1.1231 -1.91247 -5.19983e-11
5.43092e-11 -5.19983e-11 -6.88832

-8.23399 -1.34542 8.30007e-11
-1.34542 -7.12487 -5.64252e-11
8.30007e-11 -5.64252e-11 -7.92475

-6.52229 -4.64307 -1.36722e-11
-4.64307 0.53357 -1.09772e-11
-1.36722e-11 -1.09772e-11 -2.54435

-7.98724 4.96533 6.022e-12
4.96533 -1.31746 -1.84867e-11
6.022e-12 -1.84867e-11 -2.68234

-3.15291 -0.0653874 3.21165e-11
-0.0653874 -8.70262 -5.70021e-11
3.21165e-11 -5.70021e-11 -5.06672

-4.80025 1.05381 2.40948e-11
1.05381 -7.76099 5.39091e-12
2.40948e-11 5.39091e-12 -5.08242

-3.54162 4.41546 -1.34618e-12
4.41546 -0.393616 -2.25344e-11
-1.34618e-12 -2.25344e-11 -1.29401

-2.73656 -4.6792 -5.39332e-12
-4.6792 -2.5728 5.00492e-12
-5.39332e-12 5.00492e-12 -1.38539

-11.3617 -1.92864 -1.02079e-11
-1.92864 -5.03898 7.67439e-11
-1.02079e-11 7.67439e-11 -9.42703

-6.94805 1.87628 -1.11703e-11
1.87628 -9.44878 -1.29021e-11
-1.11703e-11 -1.29021e-11 -9.38054

-2.91137 -4.56665 3.77377e-11
-4.56665 -6.30604 2.69161e-12
3.77377e-11 2.69161e-12 -8.23681

-10.398 -0.805178 -2.21495e-11
-0.805178 0.186488 7.47233e-11
-2.21495e-11 7.47233e-11 -8.42151

-7.36856 1.28376 2.33756e-11
1.28376 -8.59761 -2.16572e-11
2.33756e-11 -2.16572e-11 -8.60563

-13.7741 0.165366 -3.40665e-11
0.165366 -8.36502 6.27779e-11
-3.40665e-11 6.27779e-11 -11.9058

-5.08005 -1.40573 -4.34276e-11
-1.40573 -9.98323 1.83878e-11
-4.34276e-11 1.83878e-11 -8.49526

-9.34224 -0.520033 -8.82247e-11
-0.520033 -11.9963 4.10143e-11
-8.82247e-11 4.10143e-11 -11.7871

-12.7215 -2.54049 2.28388e-10
-2.54049 -10.1466 -6.7014e-11
2.28388e-10 -6.7014e-11 -12.4285

-9.28621 6.12482 2.21836e-10
6.12482 -4.03965 3.57092e-10
2.21836e-10 3.57092e-10 -10.3637

0.203641 1.76086 2.24316e-10
1.76086 -1.07023 1.18239e-10
2.24316e-10 1.18239e-10 -10.7449

2.37719 -2.92514 6.73035e-10
-2.92514 -20.495 5.0609e-10
6.73035e-10 5.0609e-10 -14.1631

-7.61524 -3.30462 -3.09095e-11
-3.30462 -7.95219 2.73438e-11
-3.09095e-11 2.73438e-11 -9.19914

-6.20105 -2.43242 2.41201e-11
-2.43242 -2.07278 -8.85863e-12
2.41201e-11 -8.85863e-12 -4.73508

-5.1761 5.71628 -5.81606e-11
5.71628 -7.13603 -2.0418e-11
-5.81606e-11 -2.0418e-11 -8.33249

-5.65711 3.2077 -3.97655e-11
3.2077 -3.76034 -2.88935e-11
-3.97655e-11 -2.88935e-11 -4.61168

-9.62595 6.54624 -2.5005e-11
6.54624 -3.93152 -2.38817e-11
-2.5005e-11 -2.38817e-11 -11.4268

-11.8123 -0.705314 -2.49697e-12
-0.705314 -13.3561 1.95651e-10
-2.49697e-12 1.95651e-10 -13.775

-8.35609 -2.16619 1.46825e-11
-2.16619 -5.00394 6.76002e-11
1.46825e-11 6.76002e-11 -6.54501

-7.49385 -1.30017 -8.77407e-11
-1.30017 -7.67973 1.75233e-11
-8.77407e-11 1.75233e-11 -8.69248

-6.65908 5.36262 -4.43979e-11
5.36262 -3.54131 -1.42573e-11
-4.43979e-11 -1.42573e-11 -5.70087

-9.43361 3.55636 -6.81285e-12
3.55636 -6.1067 -4.19824e-11
-6.81285e-12 -4.19824e-11 -8.65936

-5.82016 1.25354 1.92503e-12
1.25354 3.08848 -7.74047e-13
1.92503e-12 -7.74047e-13 -0.847579

-0.813059 -0.48293 -1.77182e-11
-0.48293 1.7247 -5.78004e-12
-1.77182e-11 -5.78004e-12 -0.295265

5.14646 1.20352 1.63251e-11
1.20352 -4.72674 6.89503e-11
1.63251e-11 6.89503e-11 0.0295594

6.93385 0.291768 -5.78863e-11
0.291768 -2.20654 1.98394e-11
-5.78863e-11 1.98394e-11 1.12336

-9.81536 1.41891 -1.96439e-11
1.41891 1.99447 1.15534e-11
-1.96439e-11 1.15534e-11 -2.92858

-5.0123 0.369828 9.24216e-12
0.369828 -1.36301 2.13765e-11
9.24216e-12 2.13765e-11 -2.37644

6.86204 -0.463378 -3.55385e-11
-0.463378 -2.44608 -1.6564e-11
-3.55385e-11 -1.6564e-11 1.1031

4.02156 -0.277325 1.861e-11
-0.277325 -6.84829 2.07986e-11
1.861e-11 2.07986e-11 -0.826537

2.61612 -2.78239 -1.45464e-11
-2.78239 8.77629 1.57971e-11
-1.45464e-11 1.57971e-11 4.54027

3.87117 4.50753 -1.98403e-11
4.50753 8.68029 1.57945e-11
-1.98403e-11 1.57945e-11 4.15361

7.83721 4.26609 -4.10341e-11
4.26609 3.2256 -1.54847e-12
-4.10341e-11 -1.54847e-12 4.36056

-2.89904 5.15521 4.80579e-13
5.15521 0.202901 -6.35536e-12
4.80579e-13 -6.35536e-12 -1.89435

-4.73727 -1.74867 -2.2526e-11
-1.74867 0.49556 -6.39423e-11
-2.2526e-11 -6.39423e-11 -2.357

0.373631 4.39374 1.42052e-11
4.39374 2.6956 5.58886e-12
1.42052e-11 5.58886e-12 0.316099

-5.71538 3.87873 5.10181e-12
3.87873 -0.499112 1.34951e-12
5.10181e-12 1.34951e-12 -2.48102

-10.2457 -1.39495 -4.0629e-11
-1.39495 2.23466 -6.47168e-11
-4.0629e-11 -6.47168e-11 -2.97805

3.97305 -0.86515 1.93597e-11
-0.86515 -5.48029 1.54107e-11
1.93597e-11 1.54107e-11 0.0503403

2.73715 2.05688 -2.14765e-11
2.05688 9.08779 -1.34988e-12
-2.14765e-11 -1.34988e-12 3.27458

0.69057 -0.537913 -6.93508e-12
-0.537913 9.03262 1.50298e-11
-6.93508e-12 1.50298e-11 3.29098

9.01721 2.09615 -5.785e-12
2.09615 2.00329 7.32285e-12
-5.785e-12 7.32285e-12 3.62479

6.10164 -2.17331 -2.89206e-12
-2.17331 -1.23044 -1.04028e-11
-2.89206e-12 -1.04028e-11 1.49117

-1.23625 3.74215 -2.73475e-11
3.74215 4.70738 -3.47426e-12
-2.73475e-11 -3.47426e-12 1.1851

2.19412 -2.84088 -8.08538e-12
-2.84088 4.32519 -4.73831e-11
-8.08538e-12 -4.73831e-11 1.41451

5.13155 -1.39967 -2.76907e-11
-1.39967 -5.23063 -2.85061e-11
-2.76907e-11 -2.85061e-11 -0.00164849

8.71578 2.83253 -1.88814e-11
2.83253 11.9632 2.77405e-11
-1.88814e-11 2.77405e-11 7.68559

3.98308 0.297876 -5.60848e-12
0.297876 -7.18376 1.86823e-11
-5.60848e-12 1.86823e-11 -0.914233

11.4783 3.05982 8.08686e-12
3.05982 8.47551 -4.24157e-12
8.08686e-12 -4.24157e-12 8.06924

-5.58885 0.337108 3.00438e-11
0.337108 1.16264 -5.38976e-12
3.00438e-11 -5.38976e-12 -3.13765

-2.66639 1.77719 -3.27371e-12
1.77719 -1.01647 1.38655e-11
-3.27371e-12 1.38655e-11 -2.45243

-8.38873 -4.5644 -4.96851e-11
-4.5644 -7.91441 5.01051e-12
-4.96851e-11 5.01051e-12 -10.0782

-6.56667 1.98573 -6.14553e-11
1.98573 -9.73864 3.11918e-11
-6.14553e-11 3.11918e-11 -10.1117

9.56791 -0.649765 2.81234e-11
-0.649765 2.40763 1.00202e-11
2.81234e-11 1.00202e-11 3.77128

-1.02176 5.34754 7.9922e-12
5.34754 1.9612 2.15736e-11
7.9922e-12 2.15736e-11 -0.0587651

-2.37261 0.797319 -1.74727e-12
0.797319 -3.40679 3.65905e-11
-1.74727e-12 3.65905e-11 -3.44843

-4.21312 -2.43462 4.15149e-12
-2.43462 -4.71515 -3.65917e-11
4.15149e-12 -3.65917e-11 -3.9326

4.89886 -0.317826 4.95975e-12
-0.317826 -7.87657 5.39272e-12
4.95975e-12 5.39272e-12 -0.855424

-1.43 4.42247 2.09997e-11
4.42247 3.01506 -3.73705e-11
2.09997e-11 -3.73705e-11 0.83621

0.687001 -4.03144 -1.05955e-11
-4.03144 3.853 -6.16433e-12
-1.05955e-11 -6.16433e-12 1.0904

5.30829 -2.84536 2.43724e-11
-2.84536 0.579386 -3.12038e-11
2.43724e-11 -3.12038e-11 1.6616

4.82947 -0.674965 1.06898e-11
-0.674965 -7.80471 -5.00629e-12
1.06898e-11 -5.00629e-12 -0.66466

0.363421 5.21544 -7.12615e-12
5.21544 5.64255 3.255e-11
-7.12615e-12 3.255e-11 1.21699

-1.3402 -3.59799 1.38683e-11
-3.59799 3.2823 -5.39598e-12
1.38683e-11 -5.39598e-12 0.910836

0.411094 4.82342 1.35044e-12
4.82342 5.50718 3.10119e-11
1.35044e-12 3.10119e-11 1.16826

-1.89176 -2.89096 -3.17864e-12
-2.89096 5.19139 -2.85079e-11
-3.17864e-12 -2.85079e-11 1.1533

-1.25837 -2.3895 -6.55039e-12
-2.3895 0.750429 3.1393e-11
-6.55039e-12 3.1393e-11 -0.298057

-6.54154 3.36205 1.48291e-11
3.36205 1.87839 6.93297e-12
1.48291e-11 6.93297e-12 -0.750854

4.08435 -4.19485 -6.1684e-12
-4.19485 2.37339 -1.97028e-13
-6.1684e-12 -1.97028e-13 2.12828

23.6095 -3.71234 2.92871e-11
-3.71234 23.0781 -3.52623e-11
2.92871e-11 -3.52623e-11 23.303

22.4135 -3.98944 1.5602e-11
-3.98944 24.4149 4.23813e-12
1.5602e-11 4.23813e-12 23.5933

-5.21723 6.25026 3.12938e-11
6.25026 1.41423 -8.66577e-12
3.12938e-11 -8.66577e-12 -1.52704

-9.42393 -4.0749 5.56604e-11
-4.0749 0.288072 -1.73317e-11
5.56604e-11 -1.73317e-11 -2.30651

14.1456 -0.801996 2.46618e-11
-0.801996 14.1844 1.31017e-11
2.46618e-11 1.31017e-11 15.7048

13.99 -0.860349 1.25229e-11
-0.860349 14.6102 -6.74024e-12
1.25229e-11 -6.74024e-12 15.3432

-0.900223 3.57708 1.58011e-11
3.57708 -4.6975 -2.38758e-11
1.58011e-11 -2.38758e-11 -3.47613

0.196599 -2.72566 2.61941e-11
-2.72566 -5.16065 -2.3292e-11
2.61941e-11 -2.3292e-11 -2.49405

2.13161 -0.123633 -1.56006e-11
-0.123633 -6.93607 3.86173e-13
-1.56006e-11 3.86173e-13 -0.489428

-1.6733 5.02619 2.69969e-12
5.02619 -5.35814 4.0051e-11
2.69969e-12 4.0051e-11 -3.83635

-0.148053 -3.62932 2.8511e-11
-3.62932 -7.46183 -3.21501e-11
2.8511e-11 -3.21501e-11 -3.01173

-4.42877 3.55039 7.68385e-13
3.55039 3.08607 -6.55046e-12
7.68385e-13 -6.55046e-12 0.0355947

-1.44656 -2.80009 -1.57917e-11
-2.80009 2.84429 -8.09293e-12
-1.57917e-11 -8.09293e-12 0.177897

-4.22585 1.75364 1.20366e-11
1.75364 -9.52028 4.54377e-12
1.20366e-11 4.54377e-12 -8.03558

-6.63557 -2.30633 1.58646e-11
-2.30633 -8.19767 -2.72883e-11
1.58646e-11 -2.72883e-11 -8.21167

-0.700922 5.42207 -2.00311e-11
5.42207 -4.36163 3.03786e-11
-2.00311e-11 3.03786e-11 -1.73528

0.857593 -4.28774 -1.61741e-11
-4.28774 -4.85833 -2.79451e-12
-1.61741e-11 -2.79451e-12 -1.23739

8.60135 -2.89912 -6.5549e-12
-2.89912 3.95151 -1.92651e-11
-6.5549e-12 -1.92651e-11 4.82639

-9.1045 -0.148153 -1.48315e-11
-0.148153 0.214164 1.46337e-11
-1.48315e-11 1.46337e-11 -7.01049

-6.92679 1.08875 -5.19886e-12
1.08875 -3.89768 -1.20365e-11
-5.19886e-12 -1.20365e-11 -5.6036

6.80168 -0.511229 -1.06003e-11
-0.511229 12.1779 -8.09175e-12
-1.06003e-11 -8.09175e-12 8.22359

12.1525 -0.635193 -6.29002e-11
-0.635193 7.53998 -2.69051e-12
-6.29002e-11 -2.69051e-12 8.37397

-7.10838 3.01163 -3.65778e-12
3.01163 2.39315 9.62948e-12
-3.65778e-12 9.62948e-12 -0.903551

-3.05837 -1.75731 2.48412e-11
-1.75731 1.68164 4.23565e-12
2.48412e-11 4.23565e-12 -0.548053

-2.72794 -1.04054 -1.4904e-10
-1.04054 0.831419 1.0435e-10
-1.4904e-10 1.0435e-10 -11.1436

-2.40736 -3.31609 3.8525e-11
-3.31609 -12.4244 -2.96591e-11
3.8525e-11 -2.96591e-11 -10.1298

1.56155 4.8169 -2.4078e-11
4.8169 -5.32693 -9.63415e-12
-2.4078e-11 -9.63415e-12 -0.881409

2.26559 -3.17677 1.44392e-11
-3.17677 -5.74553 3.10059e-11
1.44392e-11 3.10059e-11 -0.65428

9.49741 0.0811096 2.90878e-11
0.0811096 1.70329 1.75315e-11
2.90878e-11 1.75315e-11 3.67057

5.5858 0.156314 1.29063e-11
0.156314 -2.72676 2.25745e-15
1.29063e-11 2.25745e-15 1.04609

7.52921 2.34217 -1.24215e-11
2.34217 -0.274465 -2.11869e-11
-1.24215e-11 -2.11869e-11 1.97955

-1.5126 0.858189 2.30949e-12
0.858189 -7.24133 -2.75386e-11
2.30949e-12 -2.75386e-11 -3.44277

-17.5226 -1.70291 9.33665e-11
-1.70291 -7.41051 3.50573e-11
9.33665e-11 3.50573e-11 -13.5167

-12.4493 0.874475 5.46441e-11
0.874475 -11.7086 -3.54321e-11
5.46441e-11 -3.54321e-11 -13.3491

5.70089 4.06445 3.4482e-11
4.06445 7.31563 2.52363e-11
3.4482e-11 2.52363e-11 3.72627

0.620734 -3.52596 3.94869e-12
-3.52596 -1.29919 1.5411e-11
3.94869e-12 1.5411e-11 0.068175

3.32454 3.86467 -3.23641e-11
3.86467 -3.89083 -2.35047e-11
-3.23641e-11 -2.35047e-11 0.0550276

-9.14711 1.65707 -7.47132e-11
1.65707 -5.9463 -1.93596e-11
-7.47132e-11 -1.93596e-11 -7.62376

-8.75788 2.45122 -1.38263e-10
2.45122 -0.81157 -7.32536e-12
-1.38263e-10 -7.32536e-12 -8.73028

-2.96658 -2.04405 -2.02189e-11
-2.04405 -6.6387 -2.65785e-11
-2.02189e-11 -2.65785e-11 -3.58655

-1.57013 3.17343 5.97071e-12
3.17343 2.38688 1.59854e-11
5.97071e-12 1.59854e-11 -0.451918

-6.33281 -0.576813 -1.96402e-11
-0.576813 3.37277 7.69533e-13
-1.96402e-11 7.69533e-13 -0.99704

1.9182 2.39436 1.04019e-11
2.39436 -8.76615 -8.46912e-12
1.04019e-11 -8.46912e-12 -1.09013

2.24472 -0.481637 2.81207e-11
-0.481637 -9.43456 7.31942e-12
2.81207e-11 7.31942e-12 -0.977839

7.73592 -3.15509 -6.45054e-12
-3.15509 5.71048 8.2816e-12
-6.45054e-12 8.2816e-12 4.20343

1.0682 4.32054 4.81452e-12
4.32054 -7.61307 3.3514e-11
4.81452e-12 3.3514e-11 -2.00112

1.51308 -2.72839 3.37062e-11
-2.72839 -9.32681 3.506e-11
3.37062e-11 3.506e-11 -1.74516

3.37461 -2.11014 2.00313e-11
-2.11014 -3.62431 1.17544e-11
2.00313e-11 1.17544e-11 0.170812

1.56936 3.13781 1.15582e-11
3.13781 -6.31276 -5.39232e-12
1.15582e-11 -5.39232e-12 -1.08587

1.26468 -1.59935 -9.62193e-16
-1.59935 -6.97982 1.10731e-11
-9.62193e-16 1.10731e-11 -0.981998

3.68318 -1.34336 -4.86411e-12
-1.34336 -3.70816 -1.61774e-11
-4.86411e-12 -1.61774e-11 -0.0539846

-4.68571 5.64919 -1.09774e-11
5.64919 -1.93182 7.70328e-12
-1.09774e-11 7.70328e-12 -1.15716

0.569568 -4.84659 1.69482e-11
-4.84659 -1.78948 -1.11709e-11
1.69482e-11 -1.11709e-11 -0.431635

4.72161 3.80834 -1.88812e-13
3.80834 3.36879 -3.40952e-11
-1.88812e-13 -3.40952e-11 1.80436

-2.79981 -3.54465 -2.11847e-12
-3.54465 -0.166873 1.67529e-11
-2.11847e-12 1.67529e-11 -0.728795

-7.22297 3.93768 -7.89709e-12
3.93768 -1.75887 6.1625e-12
-7.89709e-12 6.1625e-12 -1.56218

5.89661 3.47673 1.94555e-11
3.47673 -1.74192 1.54345e-12
1.94555e-11 1.54345e-12 1.49908

-1.1651 -3.10777 2.07057e-11
-3.10777 -4.27416 -4.23972e-12
2.07057e-11 -4.23972e-12 -1.37225

4.50319 1.30339 4.7969e-13
1.30339 -2.04713 -3.31288e-11
4.7969e-13 -3.31288e-11 0.316268

2.46116 4.95809 -1.99347e-11
4.95809 3.31772 -3.19793e-11
-1.99347e-11 -3.19793e-11 1.46192

1.54115 4.00332 3.70333e-11
4.00332 -0.68395 -1.03979e-11
3.70333e-11 -1.03979e-11 0.0190791

-4.33756 1.59395 -3.13939e-11
1.59395 1.92927 -2.02248e-11
-3.13939e-11 -2.02248e-11 -0.945929

-8.23071 0.447145 -1.42503e-11
0.447145 4.09001 -8.48003e-12
-1.42503e-11 -8.48003e-12 -1.04316

8.89166 -3.04734 -1.7536e-11
-3.04734 2.7013 6.55157e-12
-1.7536e-11 6.55157e-12 4.32573

-6.30731 -5.53255 2.15239e-11
-5.53255 -1.81573 -9.24831e-12
2.15239e-11 -9.24831e-12 -1.37215

-4.20682 6.06947 5.10373e-12
6.06947 1.576 9.4383e-12
5.10373e-12 9.4383e-12 -1.04471

4.17574 -4.48137 5.79018e-13
-4.48137 4.60663 -2.09948e-11
5.79018e-13 -2.09948e-11 2.23939

1.92123 5.39761 1.13535e-11
5.39761 4.65537 3.50621e-11
1.13535e-11 3.50621e-11 2.07361

2.7453 -2.51099 7.84632e-12
-2.51099 -2.79392 2.62838e-11
7.84632e-12 2.62838e-11 -0.0130642

1.43384 -0.646416 1.94056e-11
-0.646416 -8.71588 1.19426e-11
1.94056e-11 1.19426e-11 -2.08248

2.86096 0.187212 -1.02572e-11
0.187212 -8.91305 6.74076e-12
-1.02572e-11 6.74076e-12 -1.88561

0.166194 -4.20471 -4.21817e-11
-4.20471 0.905414 -3.08368e-12
-4.21817e-11 -3.08368e-12 0.499397

1.15535 0.861626 -5.39592e-12
0.861626 9.67944 1.54439e-12
-5.39592e-12 1.54439e-12 3.52897

-0.423977 0.739272 5.87535e-11
0.739272 9.71333 7.73011e-13
5.87535e-11 7.73011e-13 3.61033

9.43897 0.782722 -1.55998e-11
0.782722 0.62637 -9.82138e-12
-1.55998e-11 -9.82138e-12 3.86866

6.4714 4.46725 -2.63866e-11
4.46725 5.42957 -5.04775e-11
-2.63866e-11 -5.04775e-11 4.0159

5.02616 -4.3851 -1.27123e-11
-4.3851 0.740741 4.62334e-12
-1.27123e-11 4.62334e-12 1.74134

-13.625 5.00334 -5.60316e-11
5.00334 -7.41802 -2.84066e-11
-5.60316e-11 -2.84066e-11 -10.8895

-1.51265 -1.3147 -2.15671e-11
-1.3147 -1.24236 -8.46793e-12
-2.15671e-11 -8.46793e-12 -10.1693

6.43204 -1.48866 1.57921e-11
-1.48866 -2.1674 -2.3069e-12
1.57921e-11 -2.3069e-12 1.44096

-5.12474 3.94759 -7.31922e-12
3.94759 0.76718 1.92328e-12
-7.31922e-12 1.92328e-12 -0.521319

-0.385017 -4.46049 5.81831e-13
-4.46049 1.14622 -1.50241e-11
5.81831e-13 -1.50241e-11 0.0454724

2.86589 2.04399 -6.1627e-12
2.04399 -6.64536 -4.04432e-11
-6.1627e-12 -4.04432e-11 -0.335414

-0.272567 4.16921 -1.25065e-12
4.16921 6.62452 3.04348e-11
-1.25065e-12 3.04348e-11 1.40098

-3.06902 -1.8547 3.06262e-11
-1.8547 6.14224 -3.50604e-11
3.06262e-11 -3.50604e-11 1.18479

-9.90401 4.19537 -2.446e-11
4.19537 0.291855 3.46634e-12
-2.446e-11 3.46634e-12 -2.2885

-3.0824 -1.72874 -1.07832e-11
-1.72874 -0.591009 -2.88984e-12
-1.07832e-11 -2.88984e-12 -1.11568

-6.46867 4.24605 -9.43649e-12
4.24605 -3.092 2.61919e-11
-9.43649e-12 2.61919e-11 -1.63282

-1.52172 -4.29981 2.33047e-11
-4.29981 -1.0197 2.33034e-11
2.33047e-11 2.33034e-11 -0.650971

1.58841 0.344184 1.5411e-12
0.344184 -14.4995 6.93322e-12
1.5411e-12 6.93322e-12 -1.89108

4.0191 5.41474 1.27166e-11
5.41474 1.03476 1.46446e-11
1.27166e-11 1.46446e-11 1.79729

-4.5564 6.48037 -5.53772e-12
6.48037 3.10099 -5.58702e-12
-5.53772e-12 -5.58702e-12 -0.81609

-7.73937 -4.804 2.05153e-11
-4.804 -3.44678 -1.04027e-11
2.05153e-11 -1.04027e-11 -1.84784

2.54454 4.58612 4.10284e-11
4.58612 1.94987 6.08803e-11
4.10284e-11 6.08803e-11 1.50093

4.86628 -2.78684 1.82883e-12
-2.78684 7.49623 1.74187e-12
1.82883e-12 1.74187e-12 4.23618

-3.38881 -4.18193 -3.46737e-11
-4.18193 -0.529336 1.34816e-11
-3.46737e-11 1.34816e-11 -0.56913

3.21472 -0.890357 -2.46594e-11
-0.890357 8.40189 2.21494e-11
-2.46594e-11 2.21494e-11 3.11381

0.451464 2.37308 -3.4863e-11
2.37308 8.46271 -3.35199e-11
-3.4863e-11 -3.35199e-11 2.91299

8.23274 -0.913623 -5.10509e-11
-0.913623 2.04154 1.23297e-11
-5.10509e-11 1.23297e-11 3.30209

3.91742 -3.93156 -1.38751e-11
-3.93156 2.94241 1.07871e-11
-1.38751e-11 1.07871e-11 1.76636

-3.97587 0.647543 1.7301e-15
0.647543 5.97468 -2.11933e-11
1.7301e-15 -2.11933e-11 0.641245

0.433832 0.904753 -9.05326e-12
0.904753 5.37375 4.2372e-12
-9.05326e-12 4.2372e-12 1.01937

6.15921 -3.72377 1.38678e-11
-3.72377 7.25346 1.59914e-11
1.38678e-11 1.59914e-11 4.5181

4.03148 4.63013 -4.56499e-11
4.63013 7.15053 -3.85361e-11
-4.56499e-11 -3.85361e-11 4.20541

-0.0642233 0.891199 2.92773e-11
0.891199 -9.55374 -1.53673e-12
2.92773e-11 -1.53673e-12 -1.50598

-0.320799 0.00828472 -2.30863e-12
0.00828472 -10.4873 -2.90812e-11
-2.30863e-12 -2.90812e-11 -1.54695

-3.14159 4.72351 9.63377e-13
4.72351 -0.761027 -1.34812e-11
9.63377e-13 -1.34812e-11 -0.475079

-0.138492 -3.92084 7.50866e-12
-3.92084 0.892891 1.3096e-11
7.50866e-12 1.3096e-11 0.0402545

-5.20044 6.40148 2.3205e-11
6.40148 2.00845 -2.34934e-11
2.3205e-11 -2.34934e-11 -1.2882

-10.4973 -3.63669 -3.09097e-11
-3.63669 0.116011 -5.00984e-12
-3.09097e-11 -5.00984e-12 -2.20608

-2.60423 4.2183 2.79214e-12
4.2183 -0.9771 -3.08154e-12
2.79214e-12 -3.08154e-12 -1.29044

10.3784 2.63515 -1.96495e-11
2.63515 5.70195 -2.13875e-11
-1.96495e-11 -2.13875e-11 6.09582

0.0471836 -2.39665 -2.08e-11
-2.39665 5.96655 -2.46572e-11
-2.08e-11 -2.46572e-11 1.4084

-2.91885 3.23282 1.021e-11
3.23282 6.02411 6.9349e-12
1.021e-11 6.9349e-12 1.20666

0.394631 3.85881 -5.01066e-12
3.85881 -6.02634 8.08453e-12
-5.01066e-12 8.08453e-12 -2.47809

1.02573 -2.21707 2.88915e-11
-2.21707 -6.35518 -4.3241e-12
2.88915e-11 -4.3241e-12 -1.83438

2.94639 -3.67041 3.47167e-12
-3.67041 -0.640743 -1.52156e-11
3.47167e-12 -1.52156e-11 0.512948

1.60257 4.55866 -2.54211e-11
4.55866 -3.73008 2.04092e-11
-2.54211e-11 2.04092e-11 -0.70014

1.97379 -3.18512 -1.40541e-11
-3.18512 -3.1626 -1.36728e-11
-1.40541e-11 -1.36728e-11 -0.392588

13.8664 -1.21251 1.29127e-11
-1.21251 8.27115 4.62704e-12
1.29127e-11 4.62704e-12 14.5176

8.34459 -1.50453 -2.56219e-11
-1.50453 13.5166 -1.65706e-11
-2.56219e-11 -1.65706e-11 14.7115

-1.1873 5.13842 -2.57979e-11
5.13842 -5.88841 4.81392e-11
-2.57979e-11 4.81392e-11 -6.64959

-0.230329 -3.61363 -2.46592e-11
-3.61363 -9.90418 5.41e-11
-2.46592e-11 5.41e-11 -5.44437

2.22015 5.01055 9.05453e-12
5.01055 -1.28617 -9.62349e-12
9.05453e-12 -9.62349e-12 0.355785

10.8279 2.38477 -3.64103e-11
2.38477 5.10131 4.64237e-11
-3.64103e-11 4.64237e-11 6.16907

-4.06626 4.47051 1.04021e-11
4.47051 2.84202 2.061e-11
1.04021e-11 2.061e-11 -0.706864

-7.80968 -1.73008 -1.73367e-12
-1.73008 3.64409 3.04328e-11
-1.73367e-12 3.04328e-11 -0.884847

1.9412 -4.25459 -3.18279e-12
-4.25459 3.92535 2.92803e-11
-3.18279e-12 2.92803e-11 1.96581

-4.51496 2.75309 -3.27397e-12
2.75309 -0.49852 -1.44461e-11
-3.27397e-12 -1.44461e-11 -2.54852

-3.46937 -1.5574 1.81007e-11
-1.5574 -1.50607 1.72362e-11
1.81007e-11 1.72362e-11 -2.10323

6.65182 3.35092 -1.3006e-11
3.35092 0.846399 2.79315e-11
-1.3006e-11 2.79315e-11 2.06074

5.26841 1.80872 2.8707e-11
1.80872 -3.19825 2.04166e-11
2.8707e-11 2.04166e-11 0.888814

-9.57109 6.26429 4.04332e-12
6.26429 -1.65824 -9.24616e-12
4.04332e-12 -9.24616e-12 -1.79852

-0.393464 -3.21704 1.56009e-11
-3.21704 -0.581372 -7.31844e-12
1.56009e-11 -7.31844e-12 -0.226044

-2.88163 5.1819 -2.40769e-11
5.1819 4.43144 -2.31333e-12
-2.40769e-11 -2.31333e-12 0.0693914

-5.40467 -2.77566 -2.98631e-12
-2.77566 3.20891 2.00338e-11
-2.98631e-12 2.00338e-11 -0.106083

-0.208694 5.65918 1.05937e-11
5.65918 -2.80264 9.24594e-12
1.05937e-11 9.24594e-12 -0.628957

1.74329 -4.81814 3.21649e-11
-4.81814 -2.42627 2.89628e-12
3.21649e-11 2.89628e-12 -0.235891

-4.34419 1.60542 7.31929e-12
1.60542 5.97654 1.8878e-11
7.31929e-12 1.8878e-11 0.662336

-1.04306 -0.119877 2.65784e-11
-0.119877 5.0009 2.02284e-11
2.65784e-11 2.02284e-11 0.743455

11.7141 -1.83536 -2.62012e-11
-1.83536 14.6902 -4.2776e-11
-2.62012e-11 -4.2776e-11 11.9343

14.24 -1.78097 3.16929e-11
-1.78097 12.2546 1.34886e-11
3.16929e-11 1.34886e-11 11.9504

3.37466 2.93852 -4.14132e-11
2.93852 -5.24512 -5.39859e-12
-4.14132e-11 -5.39859e-12 -0.0724824

0.903615 0.894313 -1.17094e-10
0.894313 -5.96785 2.01019e-10
-1.17094e-10 2.01019e-10 -10.5217

-0.843911 -3.20642 1.35203e-10
-3.20642 -12.453 -7.89023e-11
1.35203e-10 -7.89023e-11 -9.13556

-7.63481 -4.25076 1.45407e-11
-4.25076 -3.01345 -8.08867e-11
1.45407e-11 -8.08867e-11 -5.95879

-7.47074 1.33221 -7.19669e-12
1.33221 -5.42595 4.91075e-11
-7.19669e-12 4.91075e-11 -6.55861

6.03057 -0.251586 7.7501e-12
-0.251586 -5.38862 7.569e-11
7.7501e-12 7.569e-11 0.055443

-4.96575 6.96507 -2.41685e-11
6.96507 2.94509 1.36717e-11
-2.41685e-11 1.36717e-11 -0.784785

-10.7255 -6.5386 1.57958e-11
-6.5386 -1.798 -2.27283e-11
1.57958e-11 -2.27283e-11 -1.91204

9.37657 3.48025 -2.50178e-12
3.48025 10.838 1.27143e-11
-2.50178e-12 1.27143e-11 9.14772

10.5863 3.65517 9.05668e-12
3.65517 10.0717 -9.14439e-12
9.05668e-12 -9.14439e-12 8.68188

6.02016 -1.33489 9.83029e-12
-1.33489 11.5507 5.97122e-12
9.83029e-12 5.97122e-12 7.07052

5.54424 2.76025 1.36828e-11
2.76025 10.9279 -2.31074e-12
1.36828e-11 -2.31074e-12 6.80139

11.6042 -0.667282 1.58001e-11
-0.667282 5.76408 -3.15986e-11
1.58001e-11 -3.15986e-11 7.23605

6.9315 1.62677 4.04114e-12
1.62677 13.4752 3.10165e-11
4.04114e-12 3.10165e-11 8.82519

12.7987 1.90661 -6.16411e-12
1.90661 7.13121 -1.53669e-12
-6.16411e-12 -1.53669e-12 9.10658

-6.62243 0.487203 -7.70332e-12
0.487203 0.630126 -1.77187e-11
-7.70332e-12 -1.77187e-11 -4.55163

-5.328 3.66399 2.11734e-12
3.66399 -1.35454 7.21882e-12
2.11734e-12 7.21882e-12 -3.95415

3.06208 0.589929 3.05764e-11
0.589929 -2.93651 4.62127e-12
3.05764e-11 4.62127e-12 -0.568848

4.91477 -0.112325 9.3429e-12
-0.112325 -8.55238 -1.07854e-11
9.3429e-12 -1.07854e-11 -0.812982

2.3697 -2.21717 5.58908e-12
-2.21717 7.18887 1.40606e-11
5.58908e-12 1.40606e-11 2.90934

0.751711 3.32892 -6.85816e-11
3.32892 6.59586 1.91795e-12
-6.85816e-11 1.91795e-12 2.74562

5.71695 -0.166025 3.32845e-13
-0.166025 -5.95631 1.88782e-11
3.32845e-13 1.88782e-11 -0.0899182

-0.974417 2.83945 -2.00306e-11
2.83945 -5.57105 6.12371e-11
-2.00306e-11 6.12371e-11 -4.72372

-0.161709 -2.02109 5.31489e-11
-2.02109 -7.67786 1.27252e-11
5.31489e-11 1.27252e-11 -3.68822

-0.628816 2.75208 -8.66499e-12
2.75208 0.164063 6.15889e-12
-8.66499e-12 6.15889e-12 -0.801753

-4.2674 -4.55889 -3.89998e-11
-4.55889 -0.447966 1.04008e-11
-3.89998e-11 1.04008e-11 -0.544653

-2.77093 5.85522 -1.56977e-11
5.85522 3.9647 -1.86846e-11
-1.56977e-11 -1.86846e-11 -0.0888653

3.42716 0.583051 7.66083e-12
0.583051 -6.33512 -2.31121e-11
7.66083e-12 -2.31121e-11 -0.95325

6.47999 4.1873 2.34065e-11
4.1873 5.29828 4.64245e-11
2.34065e-11 4.64245e-11 3.71491

-5.83738 -3.46998 -8.47296e-12
-3.46998 1.38253 1.46392e-11
-8.47296e-12 1.46392e-11 -0.469433

-2.55144 6.25837 -5.4893e-12
6.25837 3.53373 -1.73387e-12
-5.4893e-12 -1.73387e-12 -0.0933346

24.3666 7.31365 -5.20165e-12
7.31365 24.9145 1.34833e-11
-5.20165e-12 1.34833e-11 24.7373

-4.80636 -0.43791 2.17674e-11
-0.43791 6.08539 1.84934e-11
2.17674e-11 1.84934e-11 0.592502

-2.0168 2.38492 2.4075e-11
2.38492 5.29792 -5.58516e-12
2.4075e-11 -5.58516e-12 0.560609

-8.7074 -0.576061 2.11276e-12
-0.576061 2.14305 7.93454e-11
2.11276e-12 7.93454e-11 -5.32911

-6.04506 2.89606 -2.77296e-11
2.89606 -3.66278 -6.03734e-11
-2.77296e-11 -6.03734e-11 -4.82933

1.22024 2.36616 1.04026e-11
2.36616 -12.2275 2.11885e-11
1.04026e-11 2.11885e-11 -2.34508

1.50213 -1.61271 -3.15853e-11
-1.61271 -14.6575 1.34274e-12
-3.15853e-11 1.34274e-12 -2.32253

-3.79928 3.17222 -1.55043e-11
3.17222 -3.00584 1.15532e-11
-1.55043e-11 1.15532e-11 -2.73369

-4.57726 -4.77644 1.05912e-11
-4.77644 -3.6127 -3.62074e-11
1.05912e-11 -3.62074e-11 -2.70917

-6.29974 2.68447 3.78895e-11
2.68447 -2.32015 -4.81288e-12
3.78895e-11 -4.81288e-12 -5.01647

-6.06578 -3.75256 -2.52531e-11
-3.75256 -4.58946 -3.07786e-12
-2.52531e-11 -3.07786e-12 -5.04344

-2.00933 4.92423 1.19386e-10
4.92423 -4.69154 1.01311e-10
1.19386e-10 1.01311e-10 -9.01546

-0.851241 -3.47857 4.27593e-11
-3.47857 -10.5764 -5.37503e-12
4.27593e-11 -5.37503e-12 -7.30859

-6.70013 6.90223 2.38849e-11
6.90223 -3.6036 -1.1507e-12
2.38849e-11 -1.1507e-12 -2.29802

1.17519 -3.70541 -2.29208e-11
-3.70541 -2.98943 3.50453e-11
-2.29208e-11 3.50453e-11 -0.759648

2.55746 5.11368 1.05938e-11
5.11368 -2.67803 -1.153e-12
1.05938e-11 -1.153e-12 0.195106

-0.931768 4.41841 8.85853e-12
4.41841 4.57493 -3.33208e-11
8.85853e-12 -3.33208e-11 0.460611

-4.93798 -1.76552 -1.09778e-11
-1.76552 4.32038 3.42879e-11
-1.09778e-11 3.42879e-11 0.108407

2.66706 -5.17816 -3.89466e-13
-5.17816 0.0968232 1.42494e-11
-3.89466e-13 1.42494e-11 0.656019

7.14854 -2.79223 2.48484e-11
-2.79223 6.03127 -2.5429e-11
2.48484e-11 -2.5429e-11 4.4438

3.87586 -3.72166 1.84882e-11
-3.72166 -2.4403 3.13971e-11
1.84882e-11 3.13971e-11 0.463465

0.649228 5.63323 -7.89813e-12
5.63323 -0.287821 1.65674e-11
-7.89813e-12 1.65674e-11 0.383591

-9.04309 -7.5497 -2.11283e-12
-7.5497 -3.41601 -3.3513e-11
-2.11283e-12 -3.3513e-11 -2.60476

-5.8532 6.01562 -7.55866e-12
6.01562 0.682217 -2.19572e-11
-7.55866e-12 -2.19572e-11 -1.98672

1.7865 -1.33104 -1.42049e-11
-1.33104 -4.12532 -8.47448e-12
-1.42049e-11 -8.47448e-12 -0.982684

-1.71912 -2.2244 -2.83184e-11
-2.2244 -2.79683 5.81552e-11
-2.83184e-11 5.81552e-11 -10.58

-11.1348 1.91727 1.22853e-10
1.91727 -7.82921 1.68523e-11
1.22853e-10 1.68523e-11 -11.0135

-0.339544 2.30973 -7.41348e-12
2.30973 -3.46763 2.88791e-12
-7.41348e-12 2.88791e-12 -1.28714

0.826461 -0.918375 -2.21456e-12
-0.918375 -6.5941 -1.52132e-11
-2.21456e-12 -1.52132e-11 -3.00352

12.4057 -2.60505 5.78049e-12
-2.60505 14.0412 9.05424e-12
5.78049e-12 9.05424e-12 11.3222

14.1569 -2.47017 -7.51177e-12
-2.47017 11.0932 -2.07965e-11
-7.51177e-12 -2.07965e-11 11.0961

1.15578 0.758515 3.58231e-11
0.758515 -8.86895 2.0414e-11
3.58231e-11 2.0414e-11 -2.38018

0.940421 0.192841 -2.04136e-11
0.192841 -10.8471 1.98284e-11
-2.04136e-11 1.98284e-11 -2.17132

-0.544188 0.0732458 2.08238e-11
0.0732458 -5.42623 -7.70206e-12
2.08238e-11 -7.70206e-12 -3.01292

0.339161 -2.04954 4.23123e-11
-2.04954 3.44095 4.64175e-11
4.23123e-11 4.64175e-11 0.587122

-4.25451 2.66656 -1.2806e-11
2.66656 3.99851 3.46471e-12
-1.2806e-11 3.46471e-12 0.167045

5.31527 4.10765 1.9457e-11
4.10765 -0.336301 4.62264e-12
1.9457e-11 4.62264e-12 1.54061

-0.502658 4.69057 -1.38718e-11
4.69057 -3.87369 9.2442e-12
-1.38718e-11 9.2442e-12 -1.5971

0.748705 -3.67168 -2.61917e-11
-3.67168 -2.833 -5.97093e-12
-2.61917e-11 -5.97093e-12 -0.945093

-11.8812 0.610979 -6.21051e-11
0.610979 -14.3388 -3.03299e-11
-6.21051e-11 -3.03299e-11 -14.5076

-11.0021 -5.19367 -5.86116e-11
-5.19367 -3.99955 -3.62625e-11
-5.86116e-11 -3.62625e-11 -12.2598

3.767 2.06168 -6.93297e-12
2.06168 -0.527515 -1.3484e-11
-6.93297e-12 -1.3484e-11 0.398085

0.431729 3.30619 -2.22384e-11
3.30619 -5.0223 -1.00181e-11
-2.22384e-11 -1.00181e-11 -2.31721

0.648454 -2.46385 3.21624e-11
-2.46385 -6.53423 1.34847e-11
3.21624e-11 1.34847e-11 -1.89843

-6.31656 -2.00282 6.70233e-11
-2.00282 1.56912 8.47892e-12
6.70233e-11 8.47892e-12 -0.945934

-2.41081 5.67196 2.72524e-11
5.67196 2.79305 3.7947e-11
2.72524e-11 3.7947e-11 -0.423285

-3.97611 7.22127 1.30972e-11
7.22127 3.18633 2.29209e-11
1.30972e-11 2.29209e-11 -0.533522

-7.7341 -4.33944 -2.34984e-11
-4.33944 -2.02179 5.39174e-12
-2.34984e-11 5.39174e-12 -1.48915

26.6618 8.34953 -2.29283e-11
8.34953 26.8916 -5.20828e-12
-2.29283e-11 -5.20828e-12 25.9012

-5.87164 4.47442 5.39221e-12
4.47442 0.780459 -2.3111e-11
5.39221e-12 -2.3111e-11 -2.61796

-8.21115 -5.10298 2.58062e-11
-5.10298 -1.7927 -1.73304e-11
2.58062e-11 -1.73304e-11 -3.0134

-7.94104 -3.95809 -2.7826e-11
-3.95809 0.58786 -3.42887e-11
-2.7826e-11 -3.42887e-11 -1.09372

-4.49132 6.20118 -7.12334e-12
6.20118 3.06229 1.17478e-11
-7.12334e-12 1.17478e-11 -0.63865

5.91624 -2.74811 4.04284e-12
-2.74811 0.140393 2.50446e-11
4.04284e-12 2.50446e-11 1.63141

-1.55854 -3.3273 -5.77612e-13
-3.3273 -2.22864 -2.88901e-11
-5.77612e-13 -2.88901e-11 -1.11966

-4.43417 3.64175 -9.34282e-12
3.64175 -0.899718 1.86832e-11
-9.34282e-12 1.86832e-11 -2.43517

-4.79705 -4.95867 3.61042e-11
-4.95867 -4.04917 7.69936e-12
3.61042e-11 7.69936e-12 -2.62265

2.25055 -1.30049 -3.17975e-12
-1.30049 -7.11936 -1.11719e-11
-3.17975e-12 -1.11719e-11 -1.27315

-0.380369 1.36674 2.61927e-11
1.36674 -4.05185 -1.88741e-11
2.61927e-11 -1.88741e-11 -3.14949

-0.47651 -1.39968 -6.54284e-12
-1.39968 -7.91362 -2.19531e-11
-6.54284e-12 -2.19531e-11 -2.90096

-10.2273 1.52246 3.38921e-11
1.52246 0.285456 -4.9679e-11
3.38921e-11 -4.9679e-11 -9.86719

-9.69132 2.02084 5.46871e-11
2.02084 -3.34691 -7.3652e-11
5.46871e-11 -7.3652e-11 -8.34935

14.4098 1.57836 3.64176e-11
1.57836 10.2602 -5.0074e-12
3.64176e-11 -5.0074e-12 15.1359

10.4576 1.57246 -1.15534e-11
1.57246 15.1418 2.31923e-12
-1.15534e-11 2.31923e-12 15.1388

-3.01197 4.55751 -2.68829e-12
4.55751 -2.87713 -4.08296e-11
-2.68829e-12 -4.08296e-11 -1.36615

-0.190026 -4.68027 -4.23143e-12
-4.68027 -1.35333 -3.1968e-11
-4.23143e-12 -3.1968e-11 -0.642881

16.6694 3.11041 -1.13642e-11
3.11041 16.2413 -2.29328e-11
-1.13642e-11 -2.29328e-11 17.6928

16.048 3.40317 -1.52277e-11
3.40317 16.2406 -2.85161e-11
-1.52277e-11 -2.85161e-11 17.583

-3.29779 -1.2217 1.19929e-11
-1.2217 -6.52879 -1.90044e-10
1.19929e-11 -1.90044e-10 -9.05845

-2.34118 -0.786639 -5.19865e-11
-0.786639 -0.63934 -1.12457e-10
-5.19865e-11 -1.12457e-10 -10.6402

-3.14647 -4.48688 3.17298e-11
-4.48688 -2.36406 -3.83323e-13
3.17298e-11 -3.83323e-13 -1.15085

-1.95098 5.78155 -9.04795e-12
5.78155 -3.19472 4.73731e-11
-9.04795e-12 4.73731e-11 -1.26688

0.931951 -4.86271 -4.80867e-12
-4.86271 -2.93201 -3.06149e-11
-4.80867e-12 -3.06149e-11 -0.709454

0.161828 5.08919 -2.7346e-11
5.08919 1.13697 -5.2779e-11
-2.7346e-11 -5.2779e-11 0.563029

2.39206 -4.03733 -4.27587e-11
-4.03733 1.44953 -1.61857e-11
-4.27587e-11 -1.61857e-11 0.772308

6.82851 -0.747261 1.34862e-11
-0.747261 11.4531 3.06374e-11
1.34862e-11 3.06374e-11 6.94507

4.5456 2.09983 5.06648e-11
2.09983 10.7646 -7.31948e-12
5.06648e-11 -7.31948e-12 6.49779

11.4939 -0.310817 2.48551e-11
-0.310817 6.15267 -2.77446e-11
2.48551e-11 -2.77446e-11 7.15313

-2.42695 5.39573 -1.7912e-11
5.39573 -0.55366 1.9252e-12
-1.7912e-11 1.9252e-12 -0.399008

0.772551 -5.30919 1.93453e-12
-5.30919 -0.121061 -4.4493e-11
1.93453e-12 -4.4493e-11 0.0190165

6.91653 0.337865 5.68306e-11
0.337865 13.5188 -1.53655e-12
5.68306e-11 -1.53655e-12 9.283

13.3365 -0.0367275 -2.90911e-11
-0.0367275 7.84386 4.81708e-11
-2.90911e-11 4.81708e-11 9.28495

-2.20216 5.50345 -3.31316e-11
5.50345 -4.49442 -2.04252e-11
-3.31316e-11 -2.04252e-11 -2.20361

0.651066 -3.92349 -5.2368e-11
-3.92349 -3.64725 -4.10155e-11
-5.2368e-11 -4.10155e-11 -1.29851

-2.83364 5.44072 7.51865e-12
5.44072 -3.54306 -1.19464e-11
7.51865e-12 -1.19464e-11 -2.5517

-0.0142593 -4.76825 -1.7904e-11
-4.76825 -4.41855 -3.96626e-11
-1.7904e-11 -3.96626e-11 -1.75616

16.3768 3.18921 2.101e-11
3.18921 16.5228 -2.54329e-11
2.101e-11 -2.54329e-11 18.0151

16.4349 2.94439 2.62003e-11
2.94439 16.9625 -2.23497e-11
2.62003e-11 -2.23497e-11 18.0866

-0.446234 5.15531 1.54103e-11
5.15531 -1.7391 -2.07978e-11
1.54103e-11 -2.07978e-11 -0.42921

1.0606 -4.26072 3.19765e-11
-4.26072 -0.538899 -3.50392e-11
3.19765e-11 -3.50392e-11 -0.0598393

-6.56603 3.33395 2.40723e-11
3.33395 -4.17082 -4.27477e-11
2.40723e-11 -4.27477e-11 -5.82211

-7.27302 -1.07687 6.64316e-11
-1.07687 -1.84783 3.94887e-11
6.64316e-11 3.94887e-11 -6.80913

-6.13218 4.33828 4.71837e-11
4.33828 -1.65478 -5.38457e-12
4.71837e-11 -5.38457e-12 -2.58364

-0.238549 -4.93315 -3.38929e-11
-4.93315 -3.14493 -1.79105e-11
-3.38929e-11 -1.79105e-11 -1.48302

-0.49908 3.89256 -2.31141e-11
3.89256 -8.25489 -1.58007e-11
-2.31141e-11 -1.58007e-11 -4.38563

0.593973 -2.528 9.32107e-11
-2.528 -10.3725 2.15816e-11
9.32107e-11 2.15816e-11 -3.50832

-3.1511 5.23825 9.38893e-12
5.23825 1.68226 7.12724e-12
9.38893e-12 7.12724e-12 -1.01072

-5.35178 -4.39334 3.6062e-11
-4.39334 -1.85938 -2.54216e-11
3.6062e-11 -2.54216e-11 -1.53331

-9.34806 3.18561 -1.27059e-11
3.18561 -1.78212 -1.68533e-11
-1.27059e-11 -1.68533e-11 -7.02392

-8.54412 3.68691 -2.5784e-11
3.68691 -7.39381 -4.6799e-11
-2.5784e-11 -4.6799e-11 -9.31378

-6.55905 -6.56469 -2.79744e-11
-6.56469 -6.74711 3.27398e-11
-2.79744e-11 3.27398e-11 -8.53901

-10.7745 -0.894461 1.27061e-11
-0.894461 0.156614 2.88897e-11
1.27061e-11 2.88897e-11 -8.34311

-1.74515 3.8619 2.11828e-11
3.8619 -7.24212 2.31633e-12
2.11828e-11 2.31633e-12 -7.28181

-0.792782 0.819367 -2.23346e-11
0.819367 -6.9049 2.23411e-11
-2.23346e-11 2.23411e-11 -9.21792

-0.666715 -3.56449 -5.46917e-11
-3.56449 -11.289 9.61727e-12
-5.46917e-11 9.61727e-12 -6.07808

-0.651864 -1.17243 1.65227e-11
-1.17243 -11.606 1.80807e-10
1.65227e-11 1.80807e-10 -7.76666

-6.87938 4.53666 -4.66091e-11
4.53666 -2.9917 1.64435e-10
-4.66091e-11 1.64435e-10 -9.84972

1.4676 -0.90741 2.99667e-10
-0.90741 -1.04231 -2.55272e-10
2.99667e-10 -2.55272e-10 -10.6453

-0.39687 -3.17492 -3.00911e-10
-3.17492 -12.719 3.56902e-10
-3.00911e-10 3.56902e-10 -9.37391

-0.267399 -3.90428 -1.40257e-10
-3.90428 -9.81547 3.03453e-10
-1.40257e-10 3.03453e-10 -6.74986

-2.35397 4.36343 3.11943e-11
4.36343 -6.4441 4.96891e-11
3.11943e-11 4.96891e-11 -7.83273

-1.69495 1.95022 1.69453e-11
1.95022 -3.29359 1.54234e-12
1.69453e-11 1.54234e-12 -3.95192

-4.75911 2.18376 7.04923e-11
2.18376 -1.69632 -2.02568e-10
7.04923e-11 -2.02568e-10 -10.193

0.95223 -3.06258 -1.91898e-12
-3.06258 -9.17608 -1.48281e-11
-1.91898e-12 -1.48281e-11 -5.42104

-2.23294 -3.64263 1.96847e-11
-3.64263 -10.78 -2.56065e-11
1.96847e-11 -2.56065e-11 -8.18454

0.0601916 -2.4977 -3.158e-11
-2.4977 -4.45151 -8.28626e-12
-3.158e-11 -8.28626e-12 -2.80871

-2.94502 5.08201 2.88914e-11
5.08201 -4.97345 -5.08309e-11
2.88914e-11 -5.08309e-11 -5.45446

-1.24124 2.45971 -1.42544e-11
2.45971 -6.1282 -9.62998e-12
-1.42544e-11 -9.62998e-12 -7.23881

-0.50862 -3.83168 -2.50297e-11
-3.83168 -7.59191 -4.43616e-12
-2.50297e-11 -4.43616e-12 -4.07374

-0.567721 -2.25532 1.50148e-11
-2.25532 -8.7169 2.5803e-11
1.50148e-11 2.5803e-11 -5.59772

-1.42302 0.412996 6.54478e-12
0.412996 -1.21608 -4.00519e-11
6.54478e-12 -4.00519e-11 -0.24443

0.915665 -0.218943 5.00746e-12
-0.218943 -0.669592 -1.55961e-11
5.00746e-12 -1.55961e-11 -0.442994

0.976674 0.786048 2.02172e-11
0.786048 -1.49434 -9.34045e-12
2.02172e-11 -9.34045e-12 -0.404583

-0.903577 -0.816521 -3.04253e-11
-0.816521 -4.13698 -2.53857e-12
-3.04253e-11 -2.53857e-12 -0.535758

-0.743312 0.13906 -2.88825e-12
0.13906 -3.11231 1.59237e-11
-2.88825e-12 1.59237e-11 -0.252354

0.421149 -1.16529 3.46873e-12
-1.16529 -0.879124 -2.23355e-11
3.46873e-12 -2.23355e-11 -1.14172

-0.131968 2.09363 2.11435e-12
2.09363 -2.71396 -3.83185e-11
2.11435e-12 -3.83185e-11 -1.45569

-0.688126 -0.196726 -3.85173e-13
-0.196726 -3.46562 2.13363e-11
-3.85173e-13 2.13363e-11 -0.315052

0.613017 0.942669 1.44428e-11
0.942669 -5.1919 1.37684e-11
1.44428e-11 1.37684e-11 -0.816977

-0.803422 0.197555 2.07955e-11
0.197555 -1.47363 -9.48349e-12
2.07955e-11 -9.48349e-12 -0.116078

-0.76381 -0.184061 -1.50196e-11
-0.184061 -1.36241 1.24197e-11
-1.50196e-11 1.24197e-11 -0.0882593

-0.557806 0.109708 1.84845e-11
0.109708 0.146149 1.4456e-13
1.84845e-11 1.4456e-13 -0.0205501

2.51332 -1.19109 -2.15641e-11
-1.19109 -2.9961 -4.14248e-12
-2.15641e-11 -4.14248e-12 -1.08509

1.77776 0.0827675 -2.7724e-11
0.0827675 -0.177684 2.85932e-11
-2.7724e-11 2.85932e-11 -0.878175

-1.37673 1.54656 1.15545e-11
1.54656 -1.91031 1.74263e-11
1.15545e-11 1.74263e-11 -0.44537

-1.72529 2.19282 -3.27222e-12
2.19282 -1.58663 2.91724e-11
-3.27222e-12 2.91724e-11 -0.636275

-0.225283 -2.07348 4.24005e-12
-2.07348 -2.78223 -3.23486e-11
4.24005e-12 -3.23486e-11 -1.53604

0.314593 1.08292 2.5418e-11
1.08292 -0.824801 1.60755e-11
2.5418e-11 1.60755e-11 -1.11593

-0.323152 0.0595688 3.8027e-11
0.0595688 0.668278 -2.71634e-11
3.8027e-11 -2.71634e-11 -0.0728092

-1.2257 0.21071 5.39141e-12
0.21071 -0.635679 7.36506e-12
5.39141e-12 7.36506e-12 -0.124849

-1.24372 -0.237157 -2.38765e-11
-0.237157 -0.609028 5.77616e-12
-2.38765e-11 5.77616e-12 -0.129694

-0.786447 -0.250565 -1.92545e-12
-0.250565 0.400714 7.21946e-13
-1.92545e-12 7.21946e-13 -0.0581867

-1.27077 0.690671 3.65833e-12
0.690671 -1.73705 -2.21428e-12
3.65833e-12 -2.21428e-12 -0.2472

-1.2399 0.563282 -1.84859e-11
0.563282 -3.01426 2.8883e-11
-1.84859e-11 2.8883e-11 -0.343941

-1.98065 0.541422 -2.81137e-11
0.541422 -1.65685 3.46654e-12
-2.81137e-11 3.46654e-12 -0.381922

-0.100752 -0.365972 5.39066e-12
-0.365972 -0.272351 2.16614e-11
5.39066e-12 2.16614e-11 -0.137483

-0.457831 0.685253 -7.51021e-12
0.685253 -3.96988 2.56896e-11
-7.51021e-12 2.56896e-11 -0.419221

-1.20683 0.120668 5.73807e-11
0.120668 -0.709335 1.53555e-11
5.73807e-11 1.53555e-11 -0.0473184

-0.131993 -0.930852 -1.55982e-11
-0.930852 -6.17549 -1.75163e-11
-1.55982e-11 -1.75163e-11 -1.0063

-0.841575 -0.248404 -3.77389e-11
-0.248404 -0.0371285 -3.92312e-12
-3.77389e-11 -3.92312e-12 -0.066306

1.76147 -0.20769 -1.15508e-11
-0.20769 -1.54199 -1.65595e-11
-1.15508e-11 -1.65595e-11 -1.36787

1.80347 0.310804 -9.63004e-12
0.310804 -2.29825 -2.38753e-11
-9.63004e-12 -2.38753e-11 -1.47769

-4.80229 -1.04811 -2.63807e-11
-1.04811 -6.39296 -2.01209e-11
-2.63807e-11 -2.01209e-11 -6.54932

-4.82844 1.05399 -4.67914e-11
1.05399 -6.34463 -1.63849e-12
-4.67914e-11 -1.63849e-12 -6.57534

-0.807434 -0.242425 1.50195e-11
-0.242425 -2.20077 3.105e-12
1.50195e-11 3.105e-12 -0.094465

-2.29626 0.196404 -6.73934e-12
0.196404 -1.86634 1.39121e-11
-6.73934e-12 1.39121e-11 -0.568462

-3.3852 -1.68113 9.24248e-12
-1.68113 -3.36965 -4.23149e-11
9.24248e-12 -4.23149e-11 -2.52603

-3.62318 1.78259 4.4866e-11
1.78259 -3.46671 2.59977e-11
4.4866e-11 2.59977e-11 -2.68837

1.27547 -0.821301 -2.58045e-11
-0.821301 -4.89377 -2.53335e-11
-2.58045e-11 -2.53335e-11 -0.589435

-0.561226 -0.467612 -1.92545e-11
-0.467612 0.515889 4.81328e-12
-1.92545e-11 4.81328e-12 -0.0682965

-1.28873 0.0149989 5.96935e-12
0.0149989 -2.02313 1.6656e-11
5.96935e-12 1.6656e-11 -0.198338

1.05001 0.712975 7.79954e-12
0.712975 -5.16132 3.17724e-11
7.79954e-12 3.17724e-11 -0.550884

-1.24566 -0.642052 2.84987e-11
-0.642052 -1.64255 9.33946e-12
2.84987e-11 9.33946e-12 -0.220773

-1.48887 -0.422726 -2.81108e-11
-0.422726 -1.17355 -4.43853e-11
-2.81108e-11 -4.43853e-11 -0.252363

0.563939 -0.890042 -5.77482e-12
-0.890042 0.0317179 -1.77144e-11
-5.77482e-12 -1.77144e-11 -0.272306

-1.13541 0.0336838 7.62533e-11
0.0336838 -2.21565 -3.07954e-12
7.62533e-11 -3.07954e-12 -0.224961

-1.11012 0.344836 3.46596e-11
0.344836 -1.1889 4.21246e-12
3.46596e-11 4.21246e-12 -0.125269

-1.03041 0.445741 1.57895e-11
0.445741 -0.658849 6.1315e-11
1.57895e-11 6.1315e-11 -0.131573

0.228851 -3.27451 1.36697e-11
-3.27451 -3.76917 1.65615e-11
1.36697e-11 1.65615e-11 -1.16162

-0.970666 -0.182997 1.23233e-11
-0.182997 -0.398254 -1.45736e-11
1.23233e-11 -1.45736e-11 -0.0611933

-1.15543 0.200544 5.55112e-17
0.200544 -0.933997 5.36763e-12
5.55112e-17 5.36763e-12 -0.0335498

0.0484391 0.593914 1.03962e-11
0.593914 0.481315 -1.87734e-11
1.03962e-11 -1.87734e-11 -0.540357

0.0481639 -0.59157 4.50528e-11
-0.59157 0.484088 5.06389e-11
4.50528e-11 5.06389e-11 -0.539398

-0.169107 -0.239488 -2.00241e-11
-0.239488 0.726132 -1.26958e-11
-2.00241e-11 -1.26958e-11 -0.0690081

-0.0874098 0.256887 5.31397e-11
0.256887 0.651626 -2.73901e-11
5.31397e-11 -2.73901e-11 -0.536085

-0.088051 -0.255736 3.42715e-11
-0.255736 0.652219 1.47298e-11
3.42715e-11 1.47298e-11 -0.535843

-0.216713 -0.735276 -8.08631e-12
-0.735276 0.257458 -8.9539e-12
-8.08631e-12 -8.9539e-12 -0.151578

-4.00977 -1.36821 -6.95162e-11
-1.36821 -6.94391 -1.70859e-11
-6.95162e-11 -1.70859e-11 -5.6428

-4.05196 1.41254 -2.69585e-11
1.41254 -6.97895 -1.45391e-11
-2.69585e-11 -1.45391e-11 -5.67673

-0.190987 0.3426 -2.42604e-11
0.3426 0.75284 -9.33808e-12
-2.42604e-11 -9.33808e-12 -0.250926

-0.190576 -0.343158 -1.15523e-11
-0.343158 0.759109 4.52464e-12
-1.15523e-11 4.52464e-12 -0.249609

-1.15248 0.225423 2.73429e-11
0.225423 -2.00644 6.18632e-12
2.73429e-11 6.18632e-12 -0.170192

-0.718611 1.95192 2.27275e-11
1.95192 -4.05724 2.75324e-11
2.27275e-11 2.75324e-11 -3.99845

1.36546 -1.58097 2.1566e-11
-1.58097 -0.587243 1.92626e-12
2.1566e-11 1.92626e-12 -2.53861

-0.581153 0.458833 -7.70319e-13
0.458833 0.523975 5.77727e-13
-7.70319e-13 5.77727e-13 -0.0737686

-1.29145 -0.217504 -5.00662e-12
-0.217504 -0.656578 1.47064e-11
-5.00662e-12 1.47064e-11 -0.0626246

-0.898248 -0.319362 2.77277e-11
-0.319362 -1.37298 2.82276e-11
2.77277e-11 2.82276e-11 -0.0175744

-0.0558478 -0.735221 -2.31011e-12
-0.735221 0.403042 -6.74226e-13
-2.31011e-12 -6.74226e-13 -0.285779

-0.320202 1.99873 -2.07948e-11
1.99873 -2.37016 1.84856e-11
-2.07948e-11 1.84856e-11 -0.588757

-0.141754 0.416627 -1.4825e-10
0.416627 0.447243 5.56449e-11
-1.4825e-10 5.56449e-11 -1.8469

-0.145048 -0.413612 -9.01045e-11
-0.413612 0.440245 -1.77148e-11
-9.01045e-11 -1.77148e-11 -1.84932

0.519383 2.67986 -3.02317e-11
2.67986 -2.02773 1.53098e-11
-3.02317e-11 1.53098e-11 -0.338059

-0.242733 0.160976 -5.62216e-11
0.160976 0.746589 2.37313e-11
-5.62216e-11 2.37313e-11 -0.137088

-0.248196 -0.158765 7.70167e-12
-0.158765 0.765604 1.97392e-12
7.70167e-12 1.97392e-12 -0.135717

-3.603 1.28973 2.63786e-11
1.28973 -1.46036 -2.49381e-11
2.63786e-11 -2.49381e-11 -0.953978

0.733036 0.897215 -2.73388e-11
0.897215 0.820298 3.21558e-11
-2.73388e-11 3.21558e-11 -0.482792

-1.00893 0.238988 2.71506e-11
0.238988 -2.30428 -3.96664e-11
2.71506e-11 -3.96664e-11 -0.151906

-0.923812 -0.405577 8.81926e-11
-0.405577 -3.13334 -1.58629e-11
8.81926e-11 -1.58629e-11 -0.298011

-2.88176 -1.9978 -3.00402e-11
-1.9978 -5.54527 2.78745e-11
-3.00402e-11 2.78745e-11 -2.44708

-9.58124 2.18864 8.68401e-11
2.18864 -6.62961 5.48876e-11
8.68401e-11 5.48876e-11 -8.78742

-9.48153 -2.28397 -1.69064e-10
-2.28397 -6.78744 -1.14439e-11
-1.69064e-10 -1.14439e-11 -8.77678

-1.27835 0.371501 -4.15922e-11
0.371501 -1.26104 -1.24185e-11
-4.15922e-11 -1.24185e-11 -0.107108

-1.86583 0.546543 3.90903e-11
0.546543 -2.87045 -2.30097e-11
3.90903e-11 -2.30097e-11 -0.548745

-0.268044 -0.445065 7.31669e-12
-0.445065 0.58564 -5.63182e-12
7.31669e-12 -5.63182e-12 -0.0968322

0.330134 -0.0290304 -2.19473e-11
-0.0290304 -0.318939 -1.17461e-11
-2.19473e-11 -1.17461e-11 -3.34713

1.61658 1.64923 -2.0402e-11
1.64923 -5.89025 3.85028e-11
-2.0402e-11 3.85028e-11 -4.68517

-3.14441 2.10714 3.33138e-11
2.10714 -5.53451 -2.30094e-11
3.33138e-11 -2.30094e-11 -2.62355

0.777682 -0.674493 2.57061e-11
-0.674493 -1.45474 1.94497e-11
2.57061e-11 1.94497e-11 -0.527587

0.764134 0.204213 2.11783e-11
0.204213 -0.837917 -2.28186e-11
2.11783e-11 -2.28186e-11 -0.511742

-0.195551 -0.00140386 -5.00611e-12
-0.00140386 0.852056 -5.58376e-12
-5.00611e-12 -5.58376e-12 -0.108991

-0.190207 0.0103895 -2.9266e-11
0.0103895 0.841847 2.70761e-11
-2.9266e-11 2.70761e-11 -0.110447

-0.695967 0.430708 -3.56276e-12
0.430708 0.137986 -2.39721e-11
-3.56276e-12 -2.39721e-11 -0.0663137

-0.467947 -0.273977 1.84842e-11
-0.273977 0.587304 -2.00909e-11
1.84842e-11 -2.00909e-11 -0.0589685

-0.075735 0.168922 2.50784e-11
0.168922 0.75651 9.049e-12
2.50784e-11 9.049e-12 -0.250216

-0.0740181 -0.165672 1.25151e-11
-0.165672 0.757859 5.12612e-12
1.25151e-11 5.12612e-12 -0.249039

-0.295799 0.449631 4.73645e-11
0.449631 0.586852 -2.77748e-11
4.73645e-11 -2.77748e-11 -0.10167

-0.12366 0.33233 4.23706e-12
0.33233 -0.255288 2.77269e-11
4.23706e-12 2.77269e-11 -0.142233

-0.0903681 0.423632 -8.08653e-12
0.423632 0.642634 2.15406e-11
-8.08653e-12 2.15406e-11 -0.16988

-0.0704711 -0.41068 -1.15521e-11
-0.41068 0.636686 -1.35019e-11
-1.15521e-11 -1.35019e-11 -0.167766

-0.884815 0.906319 -1.94494e-11
0.906319 -4.2833 -2.5081e-11
-1.94494e-11 -2.5081e-11 -0.656369

0.515416 -0.52963 3.11914e-11
-0.52963 0.492006 1.74259e-11
3.11914e-11 1.74259e-11 -0.110338

-1.18521 0.157511 3.25424e-11
0.157511 -1.91701 -3.41831e-12
3.25424e-11 -3.41831e-12 -0.168388

-1.82048 2.08546 5.35325e-11
2.08546 -0.880213 1.23224e-11
5.35325e-11 1.23224e-11 -0.533203

0.751582 -0.556766 -3.46563e-11
-0.556766 0.721816 -2.14699e-11
-3.46563e-11 -2.14699e-11 -0.183149

-0.491025 0.0863374 1.19378e-11
0.0863374 0.444689 -1.50184e-11
1.19378e-11 -1.50184e-11 -0.0470881

-2.84205 1.27744 6.06565e-12
1.27744 -3.93729 1.09762e-11
6.06565e-12 1.09762e-11 -1.24871

-0.915688 -0.71962 -1.11688e-11
-0.71962 -3.94142 1.14578e-11
-1.11688e-11 1.14578e-11 -0.567053

-1.61162 -0.151139 4.23691e-12
-0.151139 -1.99759 1.97856e-11
4.23691e-12 1.97856e-11 -0.318424

-2.07424 -0.52197 -2.3108e-11
-0.52197 -2.81583 -4.41431e-11
-2.3108e-11 -4.41431e-11 -0.571049

-0.48273 1.38865 8.47117e-12
1.38865 -1.59644 -6.7397e-12
8.47117e-12 -6.7397e-12 -0.690136

-0.254724 -1.25399 5.19884e-11
-1.25399 -1.25003 1.06885e-11
5.19884e-11 1.06885e-11 -0.610153

-0.65945 -0.0991387 1.72323e-11
-0.0991387 0.194515 -4.19152e-11
1.72323e-11 -4.19152e-11 -0.037377

-3.68967 -1.37323 1.11686e-11
-1.37323 -1.41118 8.66862e-13
1.11686e-11 8.66862e-13 -0.96506

-0.432435 0.135328 -2.88822e-11
0.135328 0.0183091 -5.53495e-12
-2.88822e-11 -5.53495e-12 -0.0844467

-0.450851 -0.132417 -6.16102e-12
-0.132417 -0.0163451 -3.56228e-12
-6.16102e-12 -3.56228e-12 -0.0937135

-1.54098 0.616973 7.31807e-12
0.616973 -2.61963 -3.88482e-11
7.31807e-12 -3.88482e-11 -0.489379

0.2033 1.75216 4.04425e-12
1.75216 -7.09456 4.86252e-12
4.04425e-12 4.86252e-12 -1.66458

0.298066 -1.51482 1.79098e-11
-1.51482 -7.03197 1.16493e-11
1.79098e-11 1.16493e-11 -1.59354

-0.492194 0.754453 3.85036e-12
0.754453 -1.53355 -1.40565e-11
3.85036e-12 -1.40565e-11 -0.183154

-2.18655 -0.473475 2.00251e-11
-0.473475 -1.6293 1.94491e-11
2.00251e-11 1.94491e-11 -0.421259

-0.742374 0.599862 -7.70152e-13
0.599862 -0.734492 -1.44427e-12
-7.70152e-13 -1.44427e-12 -0.112221

-0.699252 -0.587603 7.70288e-12
-0.587603 -0.732674 -1.93507e-11
7.70288e-12 -1.93507e-11 -0.108725

-0.433711 0.0399954 1.57885e-11
0.0399954 0.0817312 2.4682e-11
1.57885e-11 2.4682e-11 -0.033879

-0.764266 -0.429343 6.16115e-12
-0.429343 0.114256 9.53121e-12
6.16115e-12 9.53121e-12 -0.0824085

-0.537659 0.0547712 -3.04221e-11
0.0547712 0.410151 -5.34269e-12
-3.04221e-11 -5.34269e-12 -0.0436454

3.57956 0.631092 -4.58238e-11
0.631092 -1.72992 -2.11832e-11
-4.58238e-11 -2.11832e-11 -4.19327

3.21281 -3.14149 4.62193e-12
-3.14149 -3.66516 7.12332e-12
4.62193e-12 7.12332e-12 -5.17557

-0.430769 -0.0377784 -1.3093e-11
-0.0377784 0.434021 1.87972e-11
-1.3093e-11 1.87972e-11 -0.0427154

0.20535 -0.290818 -2.07945e-11
-0.290818 0.477896 -5.68081e-12
-2.07945e-11 -5.68081e-12 -0.10067

-0.206364 0.246577 -5.50666e-11
0.246577 0.721607 -4.22852e-12
-5.50666e-11 -4.22852e-12 -0.076353

-0.501966 -0.725193 -7.70067e-12
-0.725193 -1.45506 -2.8113e-11
-7.70067e-12 -2.8113e-11 -0.176519

1.60825 -1.39709 -2.34885e-11
-1.39709 0.61241 -2.17582e-11
-2.34885e-11 -2.17582e-11 -0.327331

-1.05661 3.70796 -2.04119e-11
3.70796 -2.92735 2.60036e-12
-2.04119e-11 2.60036e-12 -1.17758

0.538584 0.579098 -1.00126e-11
0.579098 0.474013 5.68024e-12
-1.00126e-11 5.68024e-12 -0.115255

0.428237 -0.680663 -2.77264e-11
-0.680663 0.727345 7.31631e-12
-2.77264e-11 7.31631e-12 -0.111561

-0.925934 1.25666 9.43525e-12
1.25666 -1.28984 -1.49237e-11
9.43525e-12 -1.49237e-11 -0.233305

-0.151995 -0.00701117 1.80986e-11
-0.00701117 1.13086 4.48392e-12
1.80986e-11 4.48392e-12 -0.0521431

-0.483342 -0.0420217 1.53986e-12
-0.0420217 0.30601 2.49349e-11
1.53986e-12 2.49349e-11 -0.0497674

-1.93212 -2.08704 2.61906e-11
-2.08704 -0.822238 -3.36037e-11
2.61906e-11 -3.36037e-11 -0.545624

-0.539962 -0.470234 -2.81111e-11
-0.470234 0.581013 -1.1842e-11
-2.81111e-11 -1.1842e-11 -0.0311333

-1.59111 -0.236288 -1.15537e-11
-0.236288 -1.25204 1.92074e-11
-1.15537e-11 1.92074e-11 -0.177672

-2.1435 -0.258983 1.96412e-11
-0.258983 -1.86371 -6.64271e-12
1.96412e-11 -6.64271e-12 -0.545007

-0.440124 0.176044 2.1565e-11
0.176044 -0.6103 -1.43941e-11
2.1565e-11 -1.43941e-11 -0.106994

-0.428653 -0.194307 -1.19366e-11
-0.194307 -0.632669 -2.869e-11
-1.19366e-11 -2.869e-11 -0.110304

-0.78726 0.224907 4.23585e-12
0.224907 0.468696 -1.54047e-12
4.23585e-12 -1.54047e-12 -0.0533896

-0.539185 0.482914 -1.00124e-11
0.482914 0.536847 -4.18771e-12
-1.00124e-11 -4.18771e-12 -0.038226

0.0055639 -0.283703 1.30914e-11
-0.283703 -0.74731 3.85105e-11
1.30914e-11 3.85105e-11 -0.197321

0.0419276 0.336156 -1.73296e-11
0.336156 -0.728387 4.33266e-12
-1.73296e-11 4.33266e-12 -0.164264

-0.620569 -0.0481426 2.27205e-11
-0.0481426 -0.0646379 -1.03501e-11
2.27205e-11 -1.03501e-11 -0.0387971

-0.640674 0.0377883 -3.19632e-11
0.0377883 0.00624917 2.57048e-11
-3.19632e-11 2.57048e-11 -0.0320117

0.0940205 0.139806 2.84957e-11
0.139806 0.853704 -7.46106e-12
2.84957e-11 -7.46106e-12 -0.0734604

0.100789 -0.133135 -7.70089e-13
-0.133135 0.853757 6.6905e-12
-7.70089e-13 6.6905e-12 -0.0716983

0.0798192 -0.779146 -1.6173e-11
-0.779146 0.668129 -8.8572e-12
-1.6173e-11 -8.8572e-12 -0.090551

-1.14047 -3.37003 1.90665e-11
-3.37003 -2.2321 -1.04943e-11
1.90665e-11 -1.04943e-11 -0.993697

-3.80725 0.0476979 4.5638e-11
0.0476979 -2.32975 3.42745e-11
4.5638e-11 3.42745e-11 -1.11682

-1.24804 0.124576 -3.42743e-11
0.124576 -1.32911 4.01481e-11
-3.42743e-11 4.01481e-11 -0.0698819

-0.724942 -0.345699 2.27191e-11
-0.345699 0.0674693 4.20731e-11
2.27191e-11 4.20731e-11 -0.10575

0.06874 0.490871 4.58241e-11
0.490871 0.501358 -2.84101e-12
4.58241e-11 -2.84101e-12 -0.358315

0.0701693 -0.487465 2.34902e-11
-0.487465 0.506066 -4.09137e-12
2.34902e-11 -4.09137e-12 -0.357107

-0.168104 0.607636 -2.21422e-11
0.607636 0.565345 6.8352e-12
-2.21422e-11 6.8352e-12 -0.184873

-0.172774 -0.610264 2.83029e-11
-0.610264 0.567366 2.84004e-11
2.83029e-11 2.84004e-11 -0.185698

-1.11649 -0.0922015 -1.73292e-11
-0.0922015 -0.428263 8.12571e-11
-1.73292e-11 8.12571e-11 -0.0285124

-0.698482 -0.0608825 1.96397e-11
-0.0608825 -0.106321 2.53441e-11
1.96397e-11 2.53441e-11 -0.00416219

-0.722165 0.399514 3.54292e-11
0.399514 0.096834 9.72283e-12
3.54292e-11 9.72283e-12 -0.0989067

0.0299085 0.0279231 -7.00832e-11
0.0279231 0.466923 -1.65575e-11
-7.00832e-11 -1.65575e-11 -0.977529

0.0293008 -0.0267924 4.19726e-11
-0.0267924 0.463103 6.45006e-11
4.19726e-11 6.45006e-11 -0.978285

-0.227512 -0.534479 1.46345e-11
-0.534479 0.500113 -4.89055e-11
1.46345e-11 -4.89055e-11 -0.0877197

-0.91622 -0.217667 1.07831e-11
-0.217667 -2.16461 -4.62853e-11
1.07831e-11 -4.62853e-11 -0.142531

-0.473664 0.281736 3.04216e-11
0.281736 0.593516 3.03703e-12
3.04216e-11 3.03703e-12 -0.0595624

-0.611625 -1.82995 -1.54049e-11
-1.82995 -1.92485 7.79797e-12
-1.54049e-11 7.79797e-12 -0.64688

0.0875145 0.920982 3.4657e-11
0.920982 -0.252062 -1.82943e-11
3.4657e-11 -1.82943e-11 -0.419308

-1.67319 0.118858 1.07831e-11
0.118858 -1.58262 1.01092e-11
1.07831e-11 1.01092e-11 -0.256757

0.463569 0.6759 -1.15512e-11
0.6759 0.701537 4.45739e-11
-1.15512e-11 4.45739e-11 -0.115921

-0.25507 0.546844 5.66078e-11
0.546844 0.510869 1.54028e-11
5.66078e-11 1.54028e-11 -0.0900717

-2.84431 3.33706 3.71671e-11
3.33706 -1.47729 1.96416e-11
3.71671e-11 1.96416e-11 -0.815033

1.85753 -0.0395293 4.15913e-11
-0.0395293 0.207392 -5.67803e-12
4.15913e-11 -5.67803e-12 -0.813817

2.667 1.66664 4.737e-11
1.66664 -3.68308 -1.1848e-11
4.737e-11 -1.1848e-11 -1.1667

0.0444683 0.809648 1.9639e-11
0.809648 0.648294 -9.33887e-12
1.9639e-11 -9.33887e-12 -0.10869

-2.28924 1.61562 3.46271e-12
1.61562 -1.55381 -4.37114e-11
3.46271e-12 -4.37114e-11 -0.547298

-1.48791 -0.198664 5.35313e-11
-0.198664 -2.05304 2.02656e-11
5.35313e-11 2.02656e-11 -0.224424

1.33397 -1.02094 5.39233e-12
-1.02094 0.545727 -2.02163e-11
5.39233e-12 -2.02163e-11 -0.0165921

-1.2151 -1.59118 -5.66149e-11
-1.59118 -1.84183 4.70773e-11
-5.66149e-11 4.70773e-11 -0.413477

-0.950183 1.08311 -2.5802e-11
1.08311 -1.16901 9.3392e-12
-2.5802e-11 9.3392e-12 -0.329973

-0.287864 -0.282754 6.00724e-11
-0.282754 0.72592 1.95446e-11
6.00724e-11 1.95446e-11 -0.120219

-0.255907 -0.792955 1.73275e-11
-0.792955 -0.595709 3.98585e-11
1.73275e-11 3.98585e-11 -0.224265

1.94106 1.21544 -1.00098e-11
1.21544 0.554466 3.1769e-11
-1.00098e-11 3.1769e-11 -0.226913

-1.23638 0.134694 2.27206e-11
0.134694 -1.15203 6.02694e-11
2.27206e-11 6.02694e-11 -0.117161

-1.03977 -0.0728217 -4.23599e-12
-0.0728217 -1.57902 -1.23717e-11
-4.23599e-12 -1.23717e-11 -0.126899

-0.284571 0.286125 6.66198e-11
0.286125 0.72548 2.78211e-11
6.66198e-11 2.78211e-11 -0.119548

-0.320126 -0.0398545 3.48982e-11
-0.0398545 0.684735 1.81137e-11
3.48982e-11 1.81137e-11 -0.068625

0.262938 0.294196 -5.96876e-11
0.294196 -0.0092836 -5.78559e-11
-5.96876e-11 -5.78559e-11 -1.66609

0.260174 -0.291037 3.35035e-11
-0.291037 -0.0141255 -7.25855e-11
3.35035e-11 -7.25855e-11 -1.66786

0.224048 0.348609 1.65578e-11
0.348609 0.426732 -1.80035e-11
1.65578e-11 -1.80035e-11 -0.125093

-5.97468 -1.92372 2.29145e-11
-1.92372 -4.67249 -2.45522e-11
2.29145e-11 -2.45522e-11 -4.52398

-6.06891 1.95769 5.719e-11
1.95769 -4.66044 -3.51396e-11
5.719e-11 -3.51396e-11 -4.58711

0.422823 -0.253029 6.74039e-12
-0.253029 -4.31969 -4.44506e-11
6.74039e-12 -4.44506e-11 -0.348421

-2.89256 -3.28653 2.00253e-11
-3.28653 -1.34842 7.41414e-12
2.00253e-11 7.41414e-12 -0.797858

-0.786046 0.195613 1.07831e-11
0.195613 -0.13511 -5.07846e-11
1.07831e-11 -5.07846e-11 -0.0293006

-0.993323 0.0151158 6.16186e-12
0.0151158 -1.61033 2.35158e-11
6.16186e-12 2.35158e-11 -0.130743

-0.823959 0.374294 1.27074e-11
0.374294 -0.395534 -2.84976e-11
1.27074e-11 -2.84976e-11 -0.080865

-0.835332 -0.38145 5.19785e-12
-0.38145 -0.437274 4.35644e-11
5.19785e-12 4.35644e-11 -0.0995534

-0.602199 0.168305 -3.85096e-11
0.168305 -0.0931721 -3.09999e-11
-3.85096e-11 -3.09999e-11 -0.0374037

1.35221 0.985098 -3.69671e-11
0.985098 0.572133 1.74253e-11
-3.69671e-11 1.74253e-11 -0.0105573

-1.01217 0.340523 7.69653e-13
0.340523 -0.896395 -1.94476e-11
7.69653e-13 -1.94476e-11 -0.104928

-0.59482 0.0978894 -3.04226e-11
0.0978894 -0.217329 2.64273e-11
-3.04226e-11 2.64273e-11 -0.0446263

0.963121 -1.15113 -1.93016e-12
-1.15113 -3.02303 2.27218e-11
-1.93016e-12 2.27218e-11 -2.37627

2.22016 1.24774 -1.30896e-11
1.24774 -0.770643 3.61973e-11
-1.30896e-11 3.61973e-11 -1.6949

-0.849235 -1.36886 -2.9269e-11
-1.36886 -3.14262 3.75982e-11
-2.9269e-11 3.75982e-11 -0.7175

1.53203 -0.228359 -2.00284e-11
-0.228359 -7.08585 -9.36308e-12
-2.00284e-11 -9.36308e-12 -0.956084

-0.738984 -0.504672 -3.58132e-11
-0.504672 0.0419111 -1.16498e-11
-3.58132e-11 -1.16498e-11 -0.0673602

-0.762083 0.499065 3.65827e-11
0.499065 0.0748774 -3.01346e-11
3.65827e-11 -3.01346e-11 -0.0664819

0.227692 -0.17321 -2.59968e-11
-0.17321 -5.27708 2.92645e-11
-2.59968e-11 2.92645e-11 -0.580937

-0.22305 0.764404 9.62576e-12
0.764404 0.321607 -2.31061e-11
9.62576e-12 -2.31061e-11 -0.153115

-0.152171 0.460215 -6.46941e-11
0.460215 0.45908 -3.8026e-11
-6.46941e-11 -3.8026e-11 -0.740012

-0.150726 -0.457781 4.69794e-11
-0.457781 0.458039 6.88374e-12
4.69794e-11 6.88374e-12 -0.739733

-2.35887 -0.522237 4.19778e-11
-0.522237 -2.2246 8.65271e-13
4.19778e-11 8.65271e-13 -0.881744

-2.36252 -1.64923 1.94492e-11
-1.64923 -1.56178 -1.13601e-11
1.94492e-11 -1.13601e-11 -0.566044

-0.84854 -1.43886 -2.81149e-11
-1.43886 -4.4824 1.5165e-11
-2.81149e-11 1.5165e-11 -0.829557

-1.08015 0.0394033 -4.91018e-11
0.0394033 -2.17705 2.92211e-11
-4.91018e-11 2.92211e-11 -0.197989

-1.15468 -1.22843 2.56121e-11
-1.22843 -1.27081 -2.17575e-11
2.56121e-11 -2.17575e-11 -0.289536

-1.29196 -0.263117 1.15534e-11
-0.263117 -1.28789 -1.23352e-11
1.15534e-11 -1.23352e-11 -0.172862

-1.01852 -1.01893 3.08048e-12
-1.01893 -1.01388 3.56272e-12
3.08048e-12 3.56272e-12 -0.325543

-0.198824 0.77501 3.42736e-11
0.77501 -0.849851 -1.94104e-13
3.42736e-11 -1.94104e-13 -0.24917

1.23935 -1.2029 -2.38762e-11
-1.2029 -1.4788 2.90727e-11
-2.38762e-11 2.90727e-11 -2.29039

0.694737 0.871912 -6.54025e-12
0.871912 -1.68867 4.52488e-11
-6.54025e-12 4.52488e-11 -2.44023

-0.106955 0.0254214 -1.27078e-11
0.0254214 0.970729 7.50885e-12
-1.27078e-11 7.50885e-12 -0.174415

-0.117669 -0.0275006 1.42478e-11
-0.0275006 0.964692 4.91697e-11
1.42478e-11 4.91697e-11 -0.177241

-4.16464 -0.894205 9.62351e-13
-0.894205 -3.34263 -3.79345e-11
9.62351e-13 -3.79345e-11 -1.98774

-4.35616 0.940437 -9.43538e-12
0.940437 -3.3111 1.46337e-11
-9.43538e-12 1.46337e-11 -2.09455

-5.20644 -0.479363 -1.15526e-11
-0.479363 -2.74695 -9.63304e-13
-1.15526e-11 -9.63304e-13 -3.51546

-5.26555 0.535148 7.22096e-11
0.535148 -2.82349 2.79669e-12
7.22096e-11 2.79669e-12 -3.56131

0.0469193 0.0249295 -1.65589e-11
0.0249295 0.294819 -5.83386e-11
-1.65589e-11 -5.83386e-11 -1.37841

0.0440462 -0.0230631 -2.1562e-11
-0.0230631 0.290446 -7.06614e-11
-2.1562e-11 -7.06614e-11 -1.37989

0.900825 0.655508 2.42597e-11
0.655508 0.388744 6.64217e-12
2.42597e-11 6.64217e-12 -0.147671

0.89907 -0.662837 -3.46631e-12
-0.662837 0.401463 9.4347e-12
-3.46631e-12 9.4347e-12 -0.143624

-0.476335 -0.142664 -1.77137e-11
-0.142664 0.679363 -8.95325e-12
-1.77137e-11 -8.95325e-12 -0.0796589

-0.0260539 -0.730236 -3.46702e-12
-0.730236 -1.33303 3.28307e-11
-3.46702e-12 3.28307e-11 -0.200077

0.0115399 0.168305 1.57886e-11
0.168305 -0.122499 6.73831e-12
1.57886e-11 6.73831e-12 -0.199538

-1.02158 -0.340857 2.23353e-11
-0.340857 -1.84092 6.91754e-11
2.23353e-11 6.91754e-11 -0.130731

-0.464684 0.151954 5.39112e-11
0.151954 0.687758 -2.00735e-11
5.39112e-11 -2.00735e-11 -0.0753396

-0.3371 0.606119 -3.06177e-11
0.606119 -1.07212 -1.18418e-11
-3.06177e-11 -1.18418e-11 -0.186954

-0.551548 -0.252535 -3.38869e-11
-0.252535 0.578134 -2.6283e-11
-3.38869e-11 -2.6283e-11 -0.0982642

-4.84002 -2.0914 6.35215e-12
-2.0914 -1.35139 2.93682e-11
6.35215e-12 2.93682e-11 -1.55767

-4.8318 2.09837 -9.04841e-12
2.09837 -1.4211 2.21457e-11
-9.04841e-12 2.21457e-11 -1.57418

-0.565933 0.260217 -5.39203e-12
0.260217 0.571449 -3.47541e-11
-5.39203e-12 -3.47541e-11 -0.101074

-1.12396 1.54489 -1.15536e-11
1.54489 -3.25134 8.95376e-12
-1.15536e-11 8.95376e-12 -0.916558

3.89594 0.351168 8.9743e-11
0.351168 -8.90421 -8.37309e-11
8.9743e-11 -8.37309e-11 -6.15508

3.22244 -0.744179 -5.27525e-11
-0.744179 0.321005 2.1575e-11
-5.27525e-11 2.1575e-11 -3.85986

0.878101 0.33251 -3.04217e-11
0.33251 0.0523361 1.01091e-11
-3.04217e-11 1.01091e-11 -0.313262

-2.74999 -1.18715 5.12218e-11
-1.18715 -3.84037 1.17924e-11
5.12218e-11 1.17924e-11 -1.126

-1.17322 -2.25687 -7.70384e-13
-2.25687 -4.51154 7.3647e-12
-7.70384e-13 7.3647e-12 -2.13833

-0.750143 -0.125467 1.84851e-11
-0.125467 -0.466074 2.29854e-11
1.84851e-11 2.29854e-11 -0.0667782

-1.01957 0.0375067 3.27331e-11
0.0375067 0.0370889 -1.10719e-11
3.27331e-11 -1.10719e-11 -0.050755

0.258023 0.245221 3.84671e-13
0.245221 0.667105 -2.88838e-12
3.84671e-13 -2.88838e-12 -0.245586

0.265279 -0.234266 3.88929e-11
-0.234266 0.665164 1.08321e-12
3.88929e-11 1.08321e-12 -0.243664

-1.24509 2.25381 1.13615e-11
2.25381 -4.5115 -3.79822e-11
1.13615e-11 -3.79822e-11 -2.2186

0.0348367 -0.237504 -1.07609e-11
-0.237504 -0.252749 5.19877e-11
-1.07609e-11 5.19877e-11 -0.221387

-0.542609 -0.451265 2.9842e-12
-0.451265 0.516637 1.91584e-11
2.9842e-12 1.91584e-11 -0.0618794

-0.0744731 0.688884 -2.69559e-11
0.688884 0.580865 2.89237e-13
-2.69559e-11 2.89237e-13 -0.276355

-0.073567 -0.687138 -3.88911e-11
-0.687138 0.586256 -4.24555e-11
-3.88911e-11 -4.24555e-11 -0.274869

-8.64667 -3.30842 2.96579e-11
-3.30842 -10.3496 -4.95183e-11
2.96579e-11 -4.95183e-11 -9.82168

-8.73619 3.36947 -7.66397e-11
3.36947 -10.3398 -1.26091e-11
-7.66397e-11 -1.26091e-11 -9.84097

0.471857 0.982867 -1.00108e-11
0.982867 0.53295 3.07109e-11
-1.00108e-11 3.07109e-11 -0.171502

-1.28547 -0.418556 -3.04251e-11
-0.418556 -2.50487 -2.73423e-11
-3.04251e-11 -2.73423e-11 -0.38258

-0.228309 0.51818 2.02153e-11
0.51818 0.732744 -4.64504e-11
2.02153e-11 -4.64504e-11 -0.38317

-0.224923 -0.516284 -8.04912e-16
-0.516284 0.732253 3.13838e-11
-8.04912e-16 3.13838e-11 -0.382487

0.786655 -1.45947 -1.7714e-11
-1.45947 -1.65669 -2.13751e-11
-1.7714e-11 -2.13751e-11 -0.324206

0.270614 -2.82503 -9.24346e-12
-2.82503 -1.6484 7.9915e-12
-9.24346e-12 7.9915e-12 -0.261634

-1.2063 -0.407825 -1.23229e-11
-0.407825 -0.576503 2.55131e-12
-1.23229e-11 2.55131e-12 -0.134787

-4.36941 0.199316 1.54197e-12
0.199316 -0.939797 2.78262e-11
1.54197e-12 2.78262e-11 -1.80583

-4.42527 -0.199993 -3.42736e-11
-0.199993 -0.978839 -2.03185e-11
-3.42736e-11 -2.03185e-11 -1.83665

-1.68474 -2.79125 3.33159e-11
-2.79125 -2.21742 -2.97493e-11
3.33159e-11 -2.97493e-11 -0.71945

-0.520356 0.4522 -2.8496e-11
0.4522 0.46381 2.53198e-11
-2.8496e-11 2.53198e-11 -0.0726456

-2.43639 0.556471 -3.17724e-12
0.556471 -2.23008 -9.63026e-14
-3.17724e-12 -9.63026e-14 -0.966373

-4.37638 0.174411 -1.03976e-11
0.174411 -2.29777 2.79228e-12
-1.03976e-11 2.79228e-12 -1.86073

-4.46849 -0.20722 -2.38737e-11
-0.20722 -2.25875 -5.95038e-11
-2.38737e-11 -5.95038e-11 -1.89057

-1.12095 1.76641 7.12484e-12
1.76641 -4.96886 -3.27314e-12
7.12484e-12 -3.27314e-12 -1.05077

-0.14826 0.329929 -2.58e-11
0.329929 0.807325 2.81101e-11
-2.58e-11 2.81101e-11 -0.507704

-0.145621 -0.327266 4.85185e-11
-0.327266 0.802916 5.31415e-11
4.85185e-11 5.31415e-11 -0.507631

0.758126 -0.0769314 4.61997e-12
-0.0769314 -1.5363 6.73903e-12
4.61997e-12 6.73903e-12 -4.17262

0.105826 1.59124 -8.89615e-11
1.59124 -1.92465 -3.36827e-11
-8.89615e-11 -3.36827e-11 -4.30698

-1.07463 0.112441 -3.73546e-11
0.112441 -0.393217 7.50905e-12
-3.73546e-11 7.50905e-12 -0.0280003

-0.290653 -0.0712207 1.0783e-11
-0.0712207 -1.46719 5.87889e-12
1.0783e-11 5.87889e-12 0.0602752

-0.00642235 0.64204 -3.73555e-11
0.64204 0.766524 -6.6138e-11
-3.73555e-11 -6.6138e-11 -0.183024

0.00696452 -0.639416 -1.73292e-11
-0.639416 0.770368 1.2515e-11
-1.73292e-11 1.2515e-11 -0.178372

0.689231 0.706688 2.31142e-12
0.706688 0.705069 1.0686e-11
2.31142e-12 1.0686e-11 -0.165296

-0.934528 0.1612 -3.11922e-11
0.1612 -0.479637 6.80666e-11
-3.11922e-11 6.80666e-11 -0.0498668

-0.6062 -0.0590016 4.04353e-11
-0.0590016 -0.606692 -6.49854e-12
4.04353e-11 -6.49854e-12 -0.0714955

-0.31488 -0.361561 -1.19754e-10
-0.361561 0.329516 -7.27799e-11
-1.19754e-10 -7.27799e-11 -1.7899

-0.311861 0.364486 5.8532e-11
0.364486 0.333707 7.17184e-11
5.8532e-11 7.17184e-11 -1.78815

-3.89471 -0.0612479 -3.71643e-11
-0.0612479 -2.38416 1.29966e-11
-3.71643e-11 1.29966e-11 -1.15868

-0.050417 0.491311 3.85109e-12
0.491311 0.248236 1.27088e-11
3.85109e-12 1.27088e-11 -0.087953

0.0855229 0.432971 -3.77377e-11
0.432971 0.633197 2.58976e-11
-3.77377e-11 2.58976e-11 -0.162069

0.0868391 -0.430069 -1.03959e-11
-0.430069 0.637251 -4.64028e-11
-1.03959e-11 -4.64028e-11 -0.160189

-0.177198 0.309452 1.11657e-11
0.309452 0.601241 -4.11085e-11
1.11657e-11 -4.11085e-11 -0.108715

-0.049641 -0.467692 -1.54044e-11
-0.467692 0.228784 2.41639e-11
-1.54044e-11 2.41639e-11 -0.0905875

-1.0079 -0.0253512 -2.34912e-11
-0.0253512 -0.307284 -9.00114e-12
-2.34912e-11 -9.00114e-12 -0.0473853

-1.00902 -0.0336845 -4.62261e-12
-0.0336845 -0.222882 7.15329e-11
-4.62261e-12 7.15329e-11 -0.0387607

-0.823917 -0.120446 -3.7739e-11
-0.120446 0.234032 -1.92294e-13
-3.7739e-11 -1.92294e-13 -0.0301351

-0.183262 -0.301928 -2.73423e-11
-0.301928 0.611118 2.49344e-11
-2.73423e-11 2.49344e-11 -0.10561

-0.906981 -0.308183 -5.31439e-11
-0.308183 -0.910579 -8.28033e-12
-5.31439e-11 -8.28033e-12 -0.102536

-1.0729 0.178496 1.81e-11
0.178496 -1.55441 -2.31001e-11
1.81e-11 -2.31001e-11 -0.0799454

0.277801 0.595117 7.04683e-11
0.595117 0.463713 -3.6969e-11
7.04683e-11 -3.6969e-11 -0.297384

0.280104 -0.598247 -1.46321e-11
-0.598247 0.465809 -1.58842e-11
-1.46321e-11 -1.58842e-11 -0.295738

-0.0175649 0.400731 4.00458e-11
0.400731 0.782858 -7.04711e-11
4.00458e-11 -7.04711e-11 -0.331137

-0.0152562 -0.398862 2.54145e-11
-0.398862 0.786074 3.43695e-11
2.54145e-11 3.43695e-11 -0.329597

-1.27491 -0.312503 2.25276e-11
-0.312503 -0.721154 8.0367e-11
2.25276e-11 8.0367e-11 -0.0814899

-0.932978 -0.281331 -1.81e-11
-0.281331 -0.941574 3.55737e-11
-1.81e-11 3.55737e-11 0.0142749

-0.167284 -0.683394 9.01101e-11
-0.683394 0.625108 -1.10697e-11
9.01101e-11 -1.10697e-11 -0.142382

-0.174193 0.689863 2.77243e-11
0.689863 0.614256 -4.25525e-11
2.77243e-11 -4.25525e-11 -0.146684

1.5986 -0.385521 5.7377e-11
-0.385521 -4.9928 2.25363e-11
5.7377e-11 2.25363e-11 -3.42068

0.918795 -0.0360396 -7.35451e-11
-0.0360396 -1.32099 7.62559e-11
-7.35451e-11 7.62559e-11 -2.74399

0.336963 0.416623 -3.84461e-13
0.416623 0.794912 3.05172e-11
-3.84461e-13 3.05172e-11 -0.258695

0.356705 -0.407751 -2.00221e-11
-0.407751 0.794922 -5.16971e-11
-2.00221e-11 -5.16971e-11 -0.253652

-0.00407779 0.218175 -3.42718e-11
0.218175 0.590555 -4.95771e-12
-3.42718e-11 -4.95771e-12 -0.567769

-0.00218302 -0.217521 8.08569e-12
-0.217521 0.589293 4.11551e-11
8.08569e-12 4.11551e-11 -0.567286

-2.9134 -0.499605 5.00863e-12
-0.499605 -1.24908 -3.75485e-11
5.00863e-12 -3.75485e-11 -0.893832

-2.82562 0.502616 3.15797e-11
0.502616 -1.33714 -1.29022e-11
3.15797e-11 -1.29022e-11 -0.888887

-0.760707 -2.80012 -8.46212e-12
-2.80012 -4.5551 -5.02551e-11
-8.46212e-12 -5.02551e-11 -4.65195

-7.75851 0.138325 -3.36996e-11
0.138325 -5.29021 4.63108e-11
-3.36996e-11 4.63108e-11 -6.57284

-0.169318 0.0819578 -1.03969e-10
0.0819578 0.384345 -1.17461e-11
-1.03969e-10 -1.17461e-11 -1.07614

0.105216 -0.250423 -1.23608e-10
-0.250423 0.0327294 3.76396e-11
-1.23608e-10 3.76396e-11 -1.41265

-0.17109 -0.0802735 -2.00236e-11
-0.0802735 0.391784 -9.72338e-12
-2.00236e-11 -9.72338e-12 -1.07505

0.106804 0.252007 5.39098e-11
0.252007 0.0374254 -2.10847e-11
5.39098e-11 -2.10847e-11 -1.41129

0.947472 1.70606 2.19538e-11
1.70606 -0.256892 3.40776e-11
2.19538e-11 3.40776e-11 -2.96572

-7.7387 -0.121325 3.48542e-11
-0.121325 -5.30634 4.72719e-11
3.48542e-11 4.72719e-11 -6.57023

-0.0028052 0.00185053 1.88691e-11
0.00185053 -0.00122074 1.0397e-10
1.88691e-11 1.0397e-10 -1.49461

0.283929 -0.266029 4.39376e-10
-0.266029 -0.048671 -2.654e-10
4.39376e-10 -2.654e-10 -1.86038

0.284334 0.268055 -3.86251e-10
0.268055 -0.0427628 -6.56141e-10
-3.86251e-10 -6.56141e-10 -1.85875

0.00249308 0.00164465 1.30838e-11
0.00164465 0.00108497 -2.03802e-10
1.30838e-11 -2.03802e-10 -1.49321

0.324684 -0.17356 1.34772e-11
-0.17356 -0.0749645 2.94588e-11
1.34772e-11 2.94588e-11 -1.17319

0.270874 -0.648348 -5.62193e-11
-0.648348 0.263777 -2.46456e-11
-5.62193e-11 -2.46456e-11 -0.650541

-0.295246 -0.192203 1.69441e-11
-0.192203 0.408841 -1.44403e-11
1.69441e-11 -1.44403e-11 -1.61148

0.327904 0.177952 3.00368e-11
0.177952 -0.0729854 2.53184e-11
3.00368e-11 2.53184e-11 -1.17248

-0.292038 0.194074 3.84806e-12
0.194074 0.414021 -1.11768e-10
3.84806e-12 -1.11768e-10 -1.60966

0.271646 0.652251 -1.65581e-11
0.652251 0.266247 3.87002e-11
-1.65581e-11 3.87002e-11 -0.650616

0.151082 0.221931 -2.54146e-11
0.221931 0.497399 -8.27922e-12
-2.54146e-11 -8.27922e-12 -0.751605

-0.03009 0.449146 -3.73516e-11
0.449146 0.0913601 1.45366e-11
-3.73516e-11 1.45366e-11 -1.14675

0.149917 -0.220582 -5.00583e-11
-0.220582 0.497094 -2.91699e-11
-5.00583e-11 -2.91699e-11 -0.75149

-0.030818 -0.446149 2.92661e-11
-0.446149 0.08934 7.12419e-12
2.92661e-11 7.12419e-12 -1.14717

-1.85318 3.10279 3.56289e-12
3.10279 5.15488 -2.69692e-11
3.56289e-12 -2.69692e-11 1.16153

-0.782694 0.503073 1.32899e-11
0.503073 1.68941 8.85706e-12
1.32899e-11 8.85706e-12 -0.300391

-6.00426 0.874866 -4.04356e-12
0.874866 3.17932 7.31785e-12
-4.04356e-12 7.31785e-12 -0.840878

4.84601 1.59186 -2.92951e-13
1.59186 -4.81868 -2.42698e-11
-2.92951e-13 -2.42698e-11 0.0572591

6.76187 0.457535 3.2268e-11
0.457535 -2.68813 -3.85214e-12
3.2268e-11 -3.85214e-12 1.0555

-4.97596 -0.344456 1.52128e-11
-0.344456 -1.36026 -4.72133e-12
1.52128e-11 -4.72133e-12 -2.37433

-10.0784 1.3286 -1.52166e-11
1.3286 2.01401 -1.81047e-11
-1.52166e-11 -1.81047e-11 -2.94915

6.9135 -0.440393 3.07243e-11
-0.440393 -1.79541 2.27213e-11
3.07243e-11 2.27213e-11 1.1679

4.38008 0.359824 -9.12396e-12
0.359824 -7.05946 1.84873e-11
-9.12396e-12 1.84873e-11 -0.891832

2.04789 2.78575 2.21515e-11
2.78575 8.12277 1.53551e-12
2.21515e-11 1.53551e-12 3.97137

4.44543 -4.50521 -3.75629e-12
-4.50521 9.27363 -1.92659e-11
-3.75629e-12 -1.92659e-11 4.72656

8.81504 2.8063 -1.25177e-11
2.8063 3.02076 1.53803e-12
-1.25177e-11 1.53803e-12 4.4173

-2.88038 -5.14301 -1.41528e-11
-5.14301 0.250897 -2.7154e-11
-1.41528e-11 -2.7154e-11 -1.89051

-4.69307 -1.79794 -1.8874e-11
-1.79794 0.405108 1.42533e-11
-1.8874e-11 1.42533e-11 -2.3974

-5.15694 2.66679 -6.64946e-12
2.66679 3.22591 -8.09138e-12
-6.64946e-12 -8.09138e-12 -0.0393471

-7.5438 3.09415 2.62899e-11
3.09415 2.04133 4.353e-11
2.62899e-11 4.353e-11 -0.83862

-10.1279 -1.4726 6.74015e-12
-1.4726 2.2226 -4.62556e-12
6.74015e-12 -4.62556e-12 -2.97888

-5.69708 -3.85057 -2.27256e-11
-3.85057 -0.47491 -2.65746e-11
-2.27256e-11 -2.65746e-11 -2.4808

3.48834 -2.74239 -3.91981e-11
-2.74239 -5.29263 3.25529e-11
-3.91981e-11 3.25529e-11 -0.0490292

0.614068 0.879957 2.64881e-11
0.879957 9.15309 4.04509e-11
2.64881e-11 4.04509e-11 3.22033

2.71602 -1.75735 8.57299e-12
-1.75735 8.97944 -3.66211e-12
8.57299e-12 -3.66211e-12 3.33254

9.09164 0.660303 5.39035e-12
0.660303 2.35824 1.15546e-11
5.39035e-12 1.15546e-11 3.66414

-1.2274 3.59627 -1.12669e-11
3.59627 3.04282 -3.04375e-11
-1.12669e-11 -3.04375e-11 0.88218

6.56625 -2.47154 3.17864e-12
-2.47154 -1.06308 7.12863e-12
3.17864e-12 7.12863e-12 1.47438

-0.0463684 3.94974 -1.55991e-11
3.94974 0.695289 -1.59847e-11
-1.55991e-11 -1.59847e-11 0.420476

2.22436 2.7986 1.71427e-11
2.7986 4.20179 -2.15678e-11
1.71427e-11 -2.15678e-11 1.39419

5.38692 -0.845571 -2.86734e-13
-0.845571 -5.1512 2.34972e-11
-2.86734e-13 2.34972e-11 -0.0345109

7.73657 1.88986 1.00125e-11
1.88986 12.0914 -6.1267e-11
1.00125e-11 -6.1267e-11 7.6995

3.58017 0.947459 -4.62745e-11
0.947459 -6.96107 -1.92169e-12
-4.62745e-11 -1.92169e-12 -0.858764

11.969 1.76281 2.44785e-11
1.76281 8.79696 8.66381e-12
2.44785e-11 8.66381e-12 8.14683

-2.64113 -1.75242 -5.76539e-13
-1.75242 -1.00917 -1.65618e-11
-5.76539e-13 -1.65618e-11 -2.45325

-5.63136 0.222906 3.65546e-12
0.222906 1.19878 -1.30973e-11
3.65546e-12 -1.30973e-11 -3.13317

-6.56622 -1.87898 -3.85403e-12
-1.87898 -9.72472 2.13745e-11
-3.85403e-12 2.13745e-11 -10.2056

-8.43721 4.54702 3.29787e-11
4.54702 -7.96117 3.00446e-11
3.29787e-11 3.00446e-11 -10.0266

9.64064 -1.19869 2.98665e-12
-1.19869 3.03194 1.05977e-11
2.98665e-12 1.05977e-11 3.82692

-3.26777 4.18996 3.76577e-11
4.18996 -0.567271 3.92972e-11
3.76577e-11 3.92972e-11 -0.550076

-3.79851 2.39552 -3.7231e-11
2.39552 -4.52203 1.38642e-11
-3.7231e-11 1.38642e-11 -3.66483

-2.75513 -0.674315 1.52861e-11
-0.674315 -3.70416 1.94507e-11
1.52861e-11 1.94507e-11 -3.73223

4.51873 0.362107 2.19579e-11
0.362107 -7.68043 -1.73347e-11
2.19579e-11 -1.73347e-11 -0.823075

0.758601 3.94754 -1.40582e-11
3.94754 3.8001 1.11736e-11
-1.40582e-11 1.11736e-11 1.0906

5.78965 -3.12803 -5.30006e-12
-3.12803 1.73831 7.70184e-12
-5.30006e-12 7.70184e-12 1.71246

5.28089 -0.0368578 -8.14019e-12
-0.0368578 -7.90399 -3.5435e-11
-8.14019e-12 -3.5435e-11 -0.630951

0.317156 -5.3803 5.4885e-12
-5.3803 5.40222 -5.20169e-12
5.4885e-12 -5.20169e-12 1.18063

0.494531 -4.691 1.08829e-11
-4.691 5.64825 -1.15592e-11
1.08829e-11 -1.15592e-11 1.21105

-1.25072 2.37621 3.85062e-13
2.37621 0.701936 -1.7909e-11
3.85062e-13 -1.7909e-11 -0.308158

4.99926 -5.3864 6.9251e-11
-5.3864 3.3417 -1.4069e-11
6.9251e-11 -1.4069e-11 2.19947

23.7199 -5.36818 -7.32292e-12
-5.36818 23.309 1.50313e-11
-7.32292e-12 1.50313e-11 23.3173

23.593 -5.68892 -1.93253e-13
-5.68892 25.0721 -3.12141e-11
-1.93253e-13 -3.12141e-11 24.0186

-5.20557 -6.25039 -9.54792e-14
-6.25039 1.47226 -1.21326e-11
-9.54792e-14 -1.21326e-11 -1.52155

15.1308 -2.12413 -1.73668e-12
-2.12413 14.6883 -2.75545e-11
-1.73668e-12 -2.75545e-11 16.0202

13.7452 -1.74047 -2.0809e-11
-1.74047 14.9155 1.23328e-11
-2.0809e-11 1.23328e-11 15.401

0.256938 2.71425 1.19331e-11
2.71425 -5.17438 -1.9067e-11
1.19331e-11 -1.9067e-11 -2.48052

-0.890896 -3.59226 1.00147e-11
-3.59226 -4.69706 -7.31963e-12
1.00147e-11 -7.31963e-12 -3.47025

2.39717 -1.87573 -5.00666e-12
-1.87573 -6.84528 2.73463e-11
-5.00666e-12 2.73463e-11 -0.461606

-0.0804051 3.6536 8.46493e-12
3.6536 -7.40388 -4.52536e-11
8.46493e-12 -4.52536e-11 -2.97996

-1.67332 -5.03881 1.11711e-11
-5.03881 -5.40375 -1.96482e-11
1.11711e-11 -1.96482e-11 -3.84149

-1.39455 2.76275 3.65944e-12
2.76275 2.79127 1.77235e-11
3.65944e-12 1.77235e-11 0.177162

-4.20217 -1.74437 8.16025e-12
-1.74437 -9.60714 -2.50027e-11
8.16025e-12 -2.50027e-11 -8.10055

-6.6311 2.34541 4.10213e-11
2.34541 -8.13222 2.80233e-11
4.10213e-11 2.80233e-11 -8.14943

0.894075 4.27904 2.73526e-11
4.27904 -4.85637 2.4459e-12
2.73526e-11 2.4459e-12 -1.22809

-0.676616 -5.44196 5.31578e-11
-5.44196 -4.39164 2.94538e-11
5.31578e-11 2.94538e-11 -1.73487

9.17675 -3.71707 2.75485e-11
-3.71707 4.0732 1.30974e-11
2.75485e-11 1.30974e-11 4.8297

-6.90304 -1.06155 -2.50317e-12
-1.06155 -3.89589 1.45387e-11
-2.50317e-12 1.45387e-11 -5.60549

-9.22578 -0.175073 9.44145e-12
-0.175073 0.205624 3.84959e-12
9.44145e-12 3.84959e-12 -7.011

-1.59593 -4.54486 3.12022e-11
-4.54486 2.95035 -5.78559e-12
3.12022e-11 -5.78559e-12 0.77918

7.66819 -1.56683 -4.43312e-12
-1.56683 12.2676 2.17697e-11
-4.43312e-12 2.17697e-11 8.24796

12.2288 -1.46589 2.96684e-11
-1.46589 7.91083 3.85418e-12
2.96684e-11 3.85418e-12 8.38213

-3.01323 1.76185 3.23557e-11
1.76185 1.66222 -3.65944e-12
3.23557e-11 -3.65944e-12 -0.545196

-7.55582 2.65232 -1.75277e-11
2.65232 2.55144 1.50246e-11
-1.75277e-11 1.50246e-11 -0.919266

-2.30551 3.46034 -7.66636e-11
3.46034 -12.3934 -1.04713e-10
-7.66636e-11 -1.04713e-10 -10.0527

-2.7381 1.02885 -1.88698e-10
1.02885 0.82576 1.31183e-11
-1.88698e-10 1.31183e-11 -11.1437

-7.70505 3.99071 6.93105e-12
3.99071 -1.71669 -2.3123e-12
6.93105e-12 -2.3123e-12 -1.5571

2.37458 3.15796 -1.61762e-11
3.15796 -5.73847 3.13931e-11
-1.61762e-11 3.13931e-11 -0.635618

1.49656 -4.80783 6.06735e-11
-4.80783 -5.29081 -3.39011e-11
6.06735e-11 -3.39011e-11 -0.884631

-6.22988 5.47704 -1.72432e-11
5.47704 -1.72593 4.84797e-15
-1.72432e-11 4.84797e-15 -1.34475

-8.73524 -4.16496 1.1364e-11
-4.16496 0.265662 -1.15826e-12
1.1364e-11 -1.15826e-12 -2.2136

9.50212 -0.39463 1.12732e-11
-0.39463 1.34319 -1.73339e-11
1.12732e-11 -1.73339e-11 3.62407

5.76872 -1.59324 6.93268e-12
-1.59324 -3.07326 -3.848e-12
6.93268e-12 -3.848e-12 1.02187

7.14327 1.95644 1.58957e-11
1.95644 -0.347678 -5.0067e-12
1.58957e-11 -5.0067e-12 1.9911

-2.53633 2.17151 -1.459e-11
2.17151 -6.73939 -2.50365e-11
-1.459e-11 -2.50365e-11 -3.34283

-17.458 1.47775 2.04057e-11
1.47775 -7.73021 7.01018e-11
2.04057e-11 7.01018e-11 -13.5059

-12.4973 -1.08862 1.05887e-10
-1.08862 -11.8897 9.72482e-11
1.05887e-10 9.72482e-11 -13.4723

4.93435 3.14217 -4.31461e-11
3.14217 6.75221 -9.24275e-12
-4.31461e-11 -9.24275e-12 3.7613

1.58477 -4.03887 5.20073e-12
-4.03887 -0.0208944 6.16581e-12
5.20073e-12 6.16581e-12 0.155854

3.37679 2.18629 -1.09751e-11
2.18629 -3.59207 3.60211e-11
-1.09751e-11 3.60211e-11 0.168065

-8.77285 2.43638 -8.20275e-11
2.43638 -0.803699 -1.14379e-12
-8.20275e-11 -1.14379e-12 -8.71732

-9.11832 -1.63032 1.15402e-12
-1.63032 -5.94029 -2.18545e-11
1.15402e-12 -2.18545e-11 -7.62351

-1.92885 -0.595605 2.98522e-11
-0.595605 -7.23652 3.31243e-11
2.98522e-11 3.31243e-11 -3.70561

-1.5405 -3.14219 -2.18597e-11
-3.14219 2.42615 -2.31068e-11
-2.18597e-11 -2.31068e-11 -0.446001

-6.23439 -1.01645 -6.06631e-12
-1.01645 3.36808 6.9349e-12
-6.06631e-12 6.9349e-12 -0.999029

2.2283 0.697111 1.96408e-11
0.697111 -9.28671 -1.77217e-11
1.96408e-11 -1.77217e-11 -0.961358

1.92625 -2.19011 1.92601e-12
-2.19011 -8.96707 -1.15563e-11
1.92601e-12 -1.15563e-11 -1.1156

6.94628 -4.46333 4.02613e-11
-4.46333 5.03928 -2.6598e-11
4.02613e-11 -2.6598e-11 4.07701

1.53473 2.755 4.2664e-11
2.755 -9.34437 4.46701e-11
4.2664e-11 4.46701e-11 -1.74885

1.06606 -4.28437 -4.02532e-11
-4.28437 -7.53568 3.08177e-11
-4.02532e-11 3.08177e-11 -1.97478

3.36784 -3.81543 -1.07827e-11
-3.81543 -3.96557 2.04191e-11
-1.07827e-11 2.04191e-11 0.0567409

-1.451 -3.80115 -5.20291e-12
-3.80115 4.72443 -3.12099e-11
-5.20291e-12 -3.12099e-11 1.12779

1.31799 1.65702 -5.00918e-12
1.65702 -6.69231 2.5036e-11
-5.00918e-12 2.5036e-11 -0.924296

1.52715 -3.0729 1.0786e-11
-3.0729 -6.58696 -2.05107e-11
1.0786e-11 -2.05107e-11 -1.13853

4.10763 -1.00491 1.87694e-12
-1.00491 -3.08759 -1.54096e-11
1.87694e-12 -1.54096e-11 -0.0259274

0.543627 4.79142 1.15523e-11
4.79142 -1.82483 1.34685e-12
1.15523e-11 1.34685e-12 -0.446608

4.08966 3.17756 2.61999e-11
3.17756 1.92973 5.47085e-11
2.61999e-11 5.47085e-11 1.70969

-7.66483 4.75991 -2.4319e-11
4.75991 -3.3412 -3.23573e-11
-2.4319e-11 -3.23573e-11 -1.815

-2.78111 3.54033 -1.21328e-11
3.54033 -0.174144 -1.38637e-11
-1.21328e-11 -1.38637e-11 -0.729256

6.51304 1.7684 -1.13685e-11
1.7684 -1.94715 -2.06101e-11
-1.13685e-11 -2.06101e-11 1.54337

-0.678119 -2.36848 -2.03621e-11
-2.36848 -3.56105 3.12009e-11
-2.03621e-11 3.12009e-11 -1.46716

3.88133 1.48003 -8.57425e-12
1.48003 -3.01227 -7.43452e-11
-8.57425e-12 -7.43452e-11 0.184996

1.33725 3.80408 1.44751e-12
3.80408 2.70839 5.58652e-11
1.44751e-12 5.58652e-11 1.50632

0.446281 3.59342 -1.75328e-11
3.59342 -1.21008 1.30979e-11
-1.75328e-11 1.30979e-11 0.080402

-8.33821 0.0422329 2.27251e-11
0.0422329 4.11417 2.7734e-11
2.27251e-11 2.7734e-11 -1.05556

-4.28248 -1.5489 7.12406e-12
-1.5489 1.94328 -1.61773e-11
7.12406e-12 -1.61773e-11 -0.93749

7.95432 -4.48042 7.41318e-12
-4.48042 2.89183 2.6964e-11
7.41318e-12 2.6964e-11 4.27533

-4.46243 -6.11195 2.05099e-11
-6.11195 1.36353 3.06218e-11
2.05099e-11 3.06218e-11 -1.16684

1.90527 -5.39036 -1.7141e-11
-5.39036 4.66552 6.08706e-11
-1.7141e-11 6.08706e-11 2.06822

4.17919 4.37349 -3.85795e-12
4.37349 4.31885 -2.36944e-11
-3.85795e-12 -2.36944e-11 2.17264

3.23827 -1.99722 1.63731e-11
-1.99722 -1.36671 8.27819e-12
1.63731e-11 8.27819e-12 0.0712483

2.64667 -0.155501 -7.07778e-12
-0.155501 -9.26911 1.54069e-11
-7.07778e-12 1.54069e-11 -2.05332

1.81972 0.642097 -1.53138e-11
0.642097 -8.35991 -3.04278e-11
-1.53138e-11 -3.04278e-11 -1.88512

-3.00563 2.00473 5.29804e-12
2.00473 6.10986 -2.23449e-11
5.29804e-12 -2.23449e-11 1.19552

0.918379 -4.81513 -1.33873e-11
-4.81513 2.54481 2.12193e-12
-1.33873e-11 2.12193e-12 0.478812

-0.695362 -0.660852 2.31177e-11
-0.660852 9.59908 4.58497e-11
2.31177e-11 4.58497e-11 3.45268

1.45676 -0.836706 -1.65594e-11
-0.836706 9.78459 2.6199e-11
-1.65594e-11 2.6199e-11 3.69043

9.49767 -1.10691 -1.48318e-11
-1.10691 0.601042 1.34796e-11
-1.48318e-11 1.34796e-11 3.87977

7.2574 3.18477 1.82994e-11
3.18477 5.89586 1.07868e-11
1.82994e-11 1.07868e-11 4.10017

3.67359 -5.53025 -2.11872e-11
-5.53025 0.645665 1.15659e-11
-2.11872e-11 1.15659e-11 1.61892

-1.51274 -1.31241 5.81459e-11
-1.31241 -1.24848 -5.50769e-11
5.81459e-11 -5.50769e-11 -10.1591

-13.5673 -4.98197 -1.95256e-10
-4.98197 -7.40296 1.69739e-11
-1.95256e-10 1.69739e-11 -10.8819

5.84079 -3.27481 1.23294e-11
-3.27481 -2.0636 -2.42721e-11
1.23294e-11 -2.42721e-11 1.38289

-0.367182 4.42525 -1.92559e-11
4.42525 1.10185 1.59864e-11
-1.92559e-11 1.59864e-11 0.0391964

2.60357 0.29482 -2.42693e-11
0.29482 -6.73956 -1.11725e-11
-2.42693e-11 -1.11725e-11 -0.357053

-0.13374 -4.01337 3.17804e-11
-4.01337 6.72615 -2.50469e-11
3.17804e-11 -2.50469e-11 1.45545

-10.358 4.17714 1.3385e-11
4.17714 0.285348 1.69471e-11
1.3385e-11 1.69471e-11 -2.31524

-3.07446 1.7395 -5.00566e-12
1.7395 -0.611382 3.85277e-12
-5.00566e-12 3.85277e-12 -1.12323

-4.58448 -5.69112 -1.27142e-11
-5.69112 -2.00665 2.11849e-11
-1.27142e-11 2.11849e-11 -1.15163

-1.5395 4.26074 5.96786e-12
4.26074 -1.00289 -3.07876e-12
5.96786e-12 -3.07876e-12 -0.656654

-5.94996 3.37496 3.32235e-11
3.37496 1.14364 3.31313e-11
3.32235e-11 3.31313e-11 -0.531513

1.60205 -0.40177 -1.61814e-11
-0.40177 -14.5212 -1.5404e-11
-1.61814e-11 -1.5404e-11 -1.88949

5.41105 4.16305 6.74505e-12
4.16305 0.950197 -5.969e-12
6.74505e-12 -5.969e-12 1.89579

-4.53475 -6.4672 1.18916e-11
-6.4672 3.14285 1.07849e-11
1.18916e-11 1.07849e-11 -0.819294

3.86898 3.74753 3.04174e-11
3.74753 2.90719 -7.18489e-11
3.04174e-11 -7.18489e-11 1.73819

5.79795 -3.67801 -1.67546e-11
-3.67801 8.01277 -2.88717e-12
-1.67546e-11 -2.88717e-12 4.23231

-1.99715 -5.29417 -3.17872e-12
-5.29417 2.18407 1.34692e-12
-3.17872e-12 1.34692e-12 -0.340435

0.398819 -2.3894 2.69185e-12
-2.3894 8.55895 1.30953e-11
2.69185e-12 1.30953e-11 2.90253

3.26632 0.911986 -6.73417e-12
0.911986 8.25691 3.35224e-11
-6.73417e-12 3.35224e-11 3.09601

8.04539 -2.24923 8.86461e-12
-2.24923 1.64 -1.27149e-11
8.86461e-12 -1.27149e-11 3.23523

2.75377 -4.82337 -1.07877e-11
-4.82337 2.039 -1.19349e-11
-1.07877e-11 -1.19349e-11 1.57745

-4.01357 -0.228772 2.36861e-11
-0.228772 6.0547 -1.34865e-11
2.36861e-11 -1.34865e-11 0.648858

0.477222 -0.865199 -2.08076e-11
-0.865199 5.31168 -4.69947e-11
-2.08076e-11 -4.69947e-11 1.01568

4.37701 -4.82648 6.55076e-12
-4.82648 7.33326 -3.73725e-11
6.55076e-12 -3.73725e-11 4.40032

5.94729 3.57882 -3.8504e-12
3.57882 7.12901 -7.7048e-12
-3.8504e-12 -7.7048e-12 4.35997

-0.215009 0.0174348 -2.70054e-12
0.0174348 -10.3828 -2.86939e-11
-2.70054e-12 -2.86939e-11 -1.50859

-0.176511 -0.855757 -8.47607e-12
-0.855757 -9.64066 -2.69632e-11
-8.47607e-12 -2.69632e-11 -1.53458

-0.132518 3.86774 1.48302e-11
3.86774 0.860299 -5.00289e-12
1.48302e-11 -5.00289e-12 0.0338826

-5.16469 -6.38915 -8.65197e-13
-6.38915 2.06196 -1.79104e-11
-8.65197e-13 -1.79104e-11 -1.28002

-3.02489 4.3833 1.30325e-12
4.3833 -2.29947 4.56489e-11
1.30325e-12 4.56489e-11 -1.10698

10.0274 2.01462 -1.39715e-11
2.01462 5.52536 9.24845e-12
-1.39715e-11 9.24845e-12 6.12277

0.0904824 2.4066 -2.94627e-11
2.4066 5.87045 2.50466e-12
-2.94627e-11 2.50466e-12 1.39957

1.06737 2.22105 3.00494e-11
2.22105 -6.30881 3.46101e-12
3.00494e-11 3.46101e-12 -1.81297

0.38516 -3.87336 -1.5026e-11
-3.87336 -6.09546 1.55124e-12
-1.5026e-11 1.55124e-12 -2.49203

1.97417 3.16677 -1.29077e-11
3.16677 -3.17376 -4.61668e-12
-1.29077e-11 -4.61668e-12 -0.393638

1.62018 -4.57726 6.39491e-11
-4.57726 -3.76246 1.19345e-11
6.39491e-11 1.19345e-11 -0.702444

12.6849 -2.28931 3.6413e-11
-2.28931 8.40048 -4.35481e-11
3.6413e-11 -4.35481e-11 14.2935

8.27957 -2.67865 1.61793e-11
-2.67865 13.6781 2.2739e-11
1.61793e-11 2.2739e-11 14.7224

-3.28681 -3.04038 3.92952e-11
-3.04038 5.91011 -3.00571e-11
3.92952e-11 -3.00571e-11 1.08777

-0.188217 3.6327 -1.14242e-12
3.6327 -9.88497 4.37071e-11
-1.14242e-12 4.37071e-11 -5.41349

-1.18152 -5.13753 -1.27148e-11
-5.13753 -5.89554 -6.43151e-11
-1.27148e-11 -6.43151e-11 -6.64555

2.90864 3.68303 7.30734e-12
3.68303 -0.687211 -4.41031e-11
7.30734e-12 -4.41031e-11 0.492515

10.5473 1.48801 -8.38352e-12
1.48801 5.19815 -1.65753e-11
-8.38352e-12 -1.65753e-11 6.18316

-4.05521 -4.43713 1.05908e-11
-4.43713 2.89458 1.23263e-11
1.05908e-11 1.23263e-11 -0.703221

-7.41498 -2.13052 -2.86967e-11
-2.13052 3.63022 -1.33227e-15
-2.86967e-11 -1.33227e-15 -0.850347

3.13216 -5.28464 1.43546e-11
-5.28464 4.51571 -4.31536e-11
1.43546e-11 -4.31536e-11 1.94699

-6.57033 -4.27979 7.03141e-16
-4.27979 -3.09226 -6.16362e-12
7.03141e-16 -6.16362e-12 -1.65083

2.27522 -4.97274 -3.64108e-11
-4.97274 -1.30169 -2.04112e-11
-3.64108e-11 -2.04112e-11 0.371403

-10.5627 6.47676 -2.01279e-11
6.47676 -1.5175 -8.09005e-12
-2.01279e-11 -8.09005e-12 -1.8404

-3.44497 1.57842 2.81145e-11
1.57842 -1.52008 -5.68249e-12
2.81145e-11 -5.68249e-12 -2.10744

-4.59892 2.71631 5.97211e-12
2.71631 -0.427986 1.64657e-11
5.97211e-12 1.64657e-11 -2.51125

-3.27385 -4.76396 -2.73517e-11
-4.76396 -0.780763 5.04704e-11
-2.73517e-11 5.04704e-11 -0.501708

-4.1346 4.6496 5.29668e-11
4.6496 -0.353282 6.5542e-12
5.29668e-11 6.5542e-12 -0.504473

6.04602 3.09425 1.32902e-11
3.09425 0.485664 -2.3116e-11
1.32902e-11 -2.3116e-11 2.0705

5.10409 -0.00842351 1.98354e-11
-0.00842351 -2.8475 -2.23421e-11
1.98354e-11 -2.23421e-11 0.925337

-0.443582 3.20957 1.19375e-11
3.20957 -0.625731 -2.67672e-11
1.19375e-11 -2.67672e-11 -0.249602

-2.8275 -5.14545 7.32059e-12
-5.14545 4.57052 8.47537e-12
7.32059e-12 8.47537e-12 0.0997985

-4.99208 0.780458 -7.03493e-12
0.780458 6.21519 -3.46582e-12
-7.03493e-12 -3.46582e-12 0.587065

1.73695 4.80786 1.4639e-11
4.80786 -2.45789 9.62845e-12
1.4639e-11 9.62845e-12 -0.2441

-0.989011 0.134565 -3.10136e-11
0.134565 4.95488 -4.70008e-11
-3.10136e-11 -4.70008e-11 0.747494

-10.0994 -3.58479 -1.86846e-11
-3.58479 -0.0448232 1.65645e-11
-1.86846e-11 1.65645e-11 -2.21039

12.6994 -3.02769 -1.09808e-11
-3.02769 14.4426 5.93371e-11
-1.09808e-11 5.93371e-11 11.9949

14.6065 -3.09549 -3.30419e-11
-3.09549 12.5348 2.31134e-12
-3.30419e-11 2.31134e-12 12.0054

3.86643 1.062 -2.60014e-12
1.062 -5.42453 -1.9251e-11
-2.60014e-12 -1.9251e-11 0.0334091

-0.163499 -5.66695 -2.17644e-11
-5.66695 -2.81272 -1.14782e-12
-2.17644e-11 -1.14782e-12 -0.619095

-0.894234 3.21556 -3.62036e-11
3.21556 -12.4172 5.21146e-12
-3.62036e-11 5.21146e-12 -9.09979

0.891757 -0.904294 -2.07586e-10
-0.904294 -5.97914 -5.38964e-11
-2.07586e-10 -5.38964e-11 -10.5231

-5.15413 -3.99343 -3.54386e-11
-3.99343 0.804023 1.31008e-11
-3.54386e-11 1.31008e-11 -0.523972

-7.49653 -1.21074 4.98379e-12
-1.21074 -5.49632 1.73039e-12
4.98379e-12 1.73039e-12 -6.68244

-7.6283 4.18677 -4.58118e-11
4.18677 -2.99435 3.54314e-11
-4.58118e-11 3.54314e-11 -5.86604

5.88751 0.376415 -5.20499e-11
0.376415 -5.88482 2.0416e-11
-5.20499e-11 2.0416e-11 -0.0238787

-4.94776 -6.93164 1.91624e-11
-6.93164 2.98818 -5.2021e-12
1.91624e-11 -5.2021e-12 -0.785705

10.734 2.33008 3.3717e-11
2.33008 10.9258 1.34849e-11
3.3717e-11 1.34849e-11 9.32653

9.6763 2.24645 -1.59838e-11
2.24645 9.72937 4.82281e-13
-1.59838e-11 4.82281e-13 8.54968

4.97258 -2.69744 -2.94785e-11
-2.69744 11.2572 -8.0839e-12
-2.94785e-11 -8.0839e-12 6.97868

6.60133 1.34256 3.27502e-11
1.34256 11.1863 6.1647e-12
3.27502e-11 6.1647e-12 6.88323

11.2273 -2.29122 1.4803e-15
-2.29122 5.57698 1.5304e-11
1.4803e-15 1.5304e-11 7.19913

-9.75542 -6.36345 9.61361e-13
-6.36345 -1.97124 -2.42725e-11
9.61361e-13 -2.42725e-11 -1.88029

5.82766 0.128161 3.44805e-11
0.128161 13.1947 -4.9326e-11
3.44805e-11 -4.9326e-11 8.70032

13.2744 0.190119 5.78012e-12
0.190119 7.01172 7.32618e-12
5.78012e-12 7.32618e-12 9.15423

-6.52917 0.427424 -2.23355e-11
0.427424 0.638718 -1.1554e-11
-2.23355e-11 -1.1554e-11 -4.54184

-5.31528 -3.65091 4.42757e-12
-3.65091 -1.33573 2.4077e-12
4.42757e-12 2.4077e-12 -3.95686

2.33209 1.46455 2.18153e-11
1.46455 -3.83301 2.61922e-11
2.18153e-11 2.61922e-11 -0.65486

4.71502 0.243716 1.93107e-11
0.243716 -8.55882 -1.9273e-12
1.93107e-11 -1.9273e-12 -0.84541

0.582381 -3.4434 1.03951e-11
-3.4434 6.56241 4.39213e-11
1.03951e-11 4.39213e-11 2.69751

2.44784 2.2031 1.75299e-11
2.2031 7.07696 -1.9275e-12
1.75299e-11 -1.9275e-12 2.89357

5.72032 0.288756 -5.97132e-11
0.288756 -5.77558 -1.69456e-11
-5.97132e-11 -1.69456e-11 -0.072519

-4.71636 -3.50361 -1.21336e-11
-3.50361 2.96416 1.15562e-11
-1.21336e-11 1.15562e-11 -0.0541933

-0.146308 2.04333 -4.31466e-11
2.04333 -7.61266 -2.59858e-11
-4.31466e-11 -2.59858e-11 -3.66091

-0.967701 -2.83376 -1.00202e-11
-2.83376 -5.60465 -2.69592e-11
-1.00202e-11 -2.69592e-11 -4.72493

-1.56493 3.33564 -1.84472e-11
3.33564 -1.81433 1.14941e-12
-1.84472e-11 1.14941e-12 -0.950147

-2.83189 -5.85497 1.06889e-11
-5.85497 3.83843 2.36894e-11
1.06889e-11 2.36894e-11 -0.152916

2.79393 1.51165 1.6898e-11
1.51165 -6.52106 -7.0107e-11
1.6898e-11 -7.0107e-11 -0.951943

5.53745 3.06061 -4.2572e-11
3.06061 4.53502 -9.24779e-12
-4.2572e-11 -9.24779e-12 3.57992

-2.55013 -6.31522 3.95003e-12
-6.31522 3.71299 6.35514e-12
3.95003e-12 6.35514e-12 -0.0716572

24.3634 5.60106 4.27688e-11
5.60106 24.4604 -1.23308e-11
4.27688e-11 -1.23308e-11 24.7146

-2.06489 -2.30963 3.87147e-11
-2.30963 5.35999 -1.52222e-11
3.87147e-11 -1.52222e-11 0.564743

-4.29097 -1.36491 2.86924e-11
-1.36491 6.13835 -1.65687e-11
2.86924e-11 -1.65687e-11 0.698642

-8.78912 -0.61162 -9.43327e-12
-0.61162 2.15253 4.23861e-12
-9.43327e-12 4.23861e-12 -5.3369

-6.02072 -2.87147 1.77175e-11
-2.87147 -3.64885 1.65605e-11
1.77175e-11 1.65605e-11 -4.82933

1.42613 1.59948 8.48107e-12
1.59948 -14.5855 2.61926e-11
8.48107e-12 2.61926e-11 -2.32691

1.26934 -2.36249 -2.00306e-11
-2.36249 -12.3136 -8.85967e-12
-2.00306e-11 -8.85967e-12 -2.34187

-4.2265 4.82916 1.48754e-11
4.82916 -4.00658 3.31305e-11
1.48754e-11 3.31305e-11 -2.6131

-4.28048 -3.09389 -5.10532e-12
-3.09389 -2.99796 -5.0057e-12
-5.10532e-12 -5.0057e-12 -2.94726

-6.13913 3.71449 -2.40218e-11
3.71449 -4.5159 2.75397e-11
-2.40218e-11 2.75397e-11 -5.00587

-6.25962 -2.58413 -3.56966e-11
-2.58413 -2.3259 -4.10201e-11
-3.56966e-11 -4.10201e-11 -5.04775

-0.689019 3.53286 -1.54233e-11
3.53286 -10.5 -3.00346e-11
-1.54233e-11 -3.00346e-11 -7.22798

-2.01751 -4.93886 -3.23529e-11
-4.93886 -4.70273 -1.11548e-11
-3.23529e-11 -1.11548e-11 -9.01568

1.07411 3.64676 -2.52291e-11
3.64676 -3.00085 -2.88835e-11
-2.52291e-11 -2.88835e-11 -0.795467

-6.71095 -6.8888 -2.69566e-12
-6.8888 -3.64708 -3.69777e-11
-2.69566e-12 -3.69777e-11 -2.30451

3.75457 3.81296 -6.93023e-12
3.81296 -2.52386 2.92811e-11
-6.93023e-12 2.92811e-11 0.41558

-0.802245 -4.31489 -1.1169e-11
-4.31489 4.72312 5.77827e-12
-1.1169e-11 5.77827e-12 0.510816

-4.86225 -2.60682 7.71568e-13
-2.60682 3.96494 5.47031e-11
7.71568e-13 5.47031e-11 0.0294123

7.77964 -3.83235 2.572e-11
-3.83235 6.91065 3.00528e-11
2.572e-11 3.00528e-11 4.522

2.68451 -5.06076 -2.85027e-11
-5.06076 -2.61449 3.8903e-11
-2.85027e-11 3.8903e-11 0.244111

-4.48821 1.74234 -9.92005e-12
1.74234 4.41233 1.46387e-11
-9.92005e-12 1.46387e-11 0.231307

2.58041 5.06876 1.84813e-11
5.06876 0.214968 -3.33219e-11
1.84813e-11 -3.33219e-11 0.65699

-9.01484 7.5211 1.83135e-12
7.5211 -3.41952 -1.07871e-11
1.83135e-12 -1.07871e-11 -2.60792

-5.93088 -6.10944 -2.33526e-11
-6.10944 0.743459 1.9263e-11
-2.33526e-11 1.9263e-11 -1.98283

0.677599 -5.76487 -5.41303e-11
-5.76487 -0.395349 -7.31363e-12
-5.41303e-11 -7.31363e-12 0.377407

2.62633 -0.412501 -1.98368e-11
-0.412501 -3.0658 4.62225e-11
-1.98368e-11 4.62225e-11 -0.839117

-11.0939 -1.90436 2.9074e-11
-1.90436 -7.82014 -2.58981e-11
2.9074e-11 -2.58981e-11 -11.0117

-1.72208 -2.21547 -3.21545e-11
-2.21547 -2.79977 -6.7009e-11
-3.21545e-11 -6.7009e-11 -10.5737

-6.18528 -2.24329 4.61928e-12
-2.24329 1.43235 3.85151e-12
4.61928e-12 3.85151e-12 -0.998731

-0.970995 3.11298 2.43953e-13
3.11298 -3.99488 2.92742e-11
2.43953e-13 2.92742e-11 -1.16533

-0.39485 -0.229734 -1.2109e-11
-0.229734 -5.58682 -4.15974e-11
-1.2109e-11 -4.15974e-11 -2.91626

11.0657 -3.92119 -1.50217e-11
-3.92119 13.8222 4.31573e-11
-1.50217e-11 4.31573e-11 11.1072

13.2039 -3.52224 -4.85491e-11
-3.52224 10.8199 2.17781e-11
-4.85491e-11 2.17781e-11 10.9212

0.952972 -0.146821 -1.88679e-11
-0.146821 -10.5365 4.89151e-11
-1.88679e-11 4.89151e-11 -2.1107

1.14264 -0.729416 1.15576e-12
-0.729416 -9.19728 1.38646e-11
1.15576e-12 1.38646e-11 -2.43508

0.686596 0.78488 -1.40109e-11
0.78488 -6.60573 -4.23609e-12
-1.40109e-11 -4.23609e-12 -3.14012

0.364764 2.04765 2.20264e-11
2.04765 3.34544 1.84895e-11
2.20264e-11 1.84895e-11 0.572069

5.65538 2.65125 -1.07322e-11
2.65125 0.352006 2.90816e-11
-1.07322e-11 2.90816e-11 1.66013

0.778486 3.62624 -1.52126e-11
3.62624 -2.85425 2.11774e-11
-1.52126e-11 2.11774e-11 -0.943509

-0.483565 -4.74587 4.77668e-11
-4.74587 -3.9308 -1.93664e-12
4.77668e-11 -1.93664e-12 -1.59987

-12.0033 -0.601487 2.14602e-12
-0.601487 -15.0505 -2.33798e-12
2.14602e-12 -2.33798e-12 -14.7663

-11.0786 5.20191 -1.33676e-11
5.20191 -4.04647 -1.16037e-10
-1.33676e-11 -1.16037e-10 -12.2524

-6.86983 -4.06033 -3.89094e-11
-4.06033 0.38182 -6.1248e-11
-3.89094e-11 -6.1248e-11 -0.993043

3.27654 2.66548 -2.41111e-12
2.66548 -2.02223 2.27279e-11
-2.41111e-12 2.27279e-11 0.309605

0.693349 2.46217 3.73697e-11
2.46217 -6.4678 -3.92649e-13
3.73697e-11 -3.92649e-13 -1.87257

0.401311 -3.32018 -3.98601e-11
-3.32018 -5.06865 -2.19486e-11
-3.98601e-11 -2.19486e-11 -2.32864

-2.38969 -5.6596 -4.71985e-12
-5.6596 2.90504 -2.8888e-12
-4.71985e-12 -2.8888e-12 -0.405145

-4.00987 -7.24204 8.66594e-12
-7.24204 3.23638 -4.42996e-12
8.66594e-12 -4.42996e-12 -0.542197

25.386 6.69394 5.56781e-11
6.69394 26.1062 -5.39409e-12
5.56781e-11 -5.39409e-12 25.4236

-8.12884 5.11302 6.06741e-12
5.11302 -1.76673 3.23573e-11
6.06741e-12 3.23573e-11 -2.96999

-6.00104 -4.51425 -3.37003e-11
-4.51425 0.805472 -2.69597e-11
-3.37003e-11 -2.69597e-11 -2.65742

-4.49211 -6.22901 1.47321e-11
-6.22901 3.15356 2.69414e-12
1.47321e-11 2.69414e-12 -0.631428

5.57206 -4.23457 -1.13635e-11
-4.23457 -0.492737 7.70443e-12
-1.13635e-11 7.70443e-12 1.52488

-0.677064 -2.79723 -2.44615e-11
-2.79723 0.337457 -2.60019e-11
-2.44615e-11 -2.60019e-11 -0.864848

-4.61241 4.83404 1.41565e-11
4.83404 -4.09952 1.27091e-11
1.41565e-11 1.27091e-11 -2.56569

-4.48817 -3.87308 -3.59149e-11
-3.87308 -0.461842 -2.25297e-11
-3.59149e-11 -2.25297e-11 -2.41472

2.93445 -0.388899 -1.68057e-11
-0.388899 -6.99805 6.16459e-12
-1.68057e-11 6.16459e-12 -1.27076

-0.535327 1.42167 -2.89066e-11
1.42167 -7.89226 -7.0859e-11
-2.89066e-11 -7.0859e-11 -2.90142

-0.305525 -1.36866 1.15524e-11
-1.36866 -4.07013 -9.63074e-12
1.15524e-11 -9.63074e-12 -3.13182

-9.67332 -1.99977 -3.11942e-11
-1.99977 -3.34054 5.219e-11
-3.11942e-11 5.219e-11 -8.35234

-10.2044 1.52526 -9.67189e-13
1.52526 0.278809 -5.39218e-11
-9.67189e-13 -5.39218e-11 -9.85695

15.4884 0.513469 -5.01154e-12
0.513469 10.218 1.9155e-13
-5.01154e-12 1.9155e-13 15.3592

10.4487 0.463412 -2.07151e-11
0.463412 15.1178 1.42562e-11
-2.07151e-11 1.42562e-11 15.1389

-0.173148 4.60965 -2.50733e-12
4.60965 -1.38882 -3.92865e-11
-2.50733e-12 -3.92865e-11 -0.649403

-3.05241 -4.6057 -3.08472e-12
-4.6057 -2.93237 2.31125e-11
-3.08472e-12 2.31125e-11 -1.38186

-7.07377 -4.41076 -5.68168e-11
-4.41076 -1.93197 5.0116e-12
-5.68168e-11 5.0116e-12 -1.42532

15.7194 1.64175 2.90941e-11
1.64175 15.792 -1.81125e-11
2.90941e-11 -1.81125e-11 17.3819

15.6969 1.78949 -1.46426e-11
1.78949 15.7656 -2.69927e-12
-1.46426e-11 -2.69927e-12 17.4418

-2.35636 0.776553 4.198e-11
0.776553 -0.648842 1.35558e-10
4.198e-11 1.35558e-10 -10.6423

-3.32908 1.25086 7.93201e-11
1.25086 -6.56271 -6.99132e-11
7.93201e-11 -6.99132e-11 -9.03584

-2.76953 -4.14161 -2.58099e-11
-4.14161 -0.280607 -2.54263e-11
-2.58099e-11 -2.54263e-11 -1.21801

0.153477 -5.134 -4.35341e-11
-5.134 1.19973 -2.58109e-11
-4.35341e-11 -2.58109e-11 0.579883

0.964255 4.82176 2.51044e-12
4.82176 -2.96502 4.06279e-11
2.51044e-12 4.06279e-11 -0.71053

-1.92735 -5.80734 3.27257e-12
-5.80734 -3.21712 -3.31317e-11
3.27257e-12 -3.31317e-11 -1.261

-2.46925 -5.44848 -2.54181e-11
-5.44848 -0.610267 -2.27244e-11
-2.54181e-11 -2.27244e-11 -0.41296

2.34966 3.95302 1.42533e-11
3.95302 1.36449 -1.54232e-12
1.42533e-11 -1.54232e-12 0.74433

4.84485 -1.78336 7.13034e-12
-1.78336 11.2529 1.34852e-11
7.13034e-12 1.34852e-11 6.72254

6.49076 1.05936 -3.67908e-11
1.05936 11.0888 3.67958e-11
-3.67908e-11 3.67958e-11 6.73539

10.9708 -1.64927 5.52906e-11
-1.64927 6.21233 1.42433e-11
5.52906e-11 1.42433e-11 7.07485

0.776303 5.25227 1.92957e-13
5.25227 -0.151354 -3.27049e-12
1.92957e-13 -3.27049e-12 0.0126048

8.00132 -1.28154 -4.21884e-11
-1.28154 13.7231 9.63407e-12
-4.21884e-11 9.63407e-12 9.39392

13.4865 -0.877577 3.12035e-11
-0.877577 7.68049 1.50292e-11
3.12035e-11 1.50292e-11 9.27966

0.720235 3.85264 -2.92664e-11
3.85264 -3.66812 1.04055e-11
-2.92664e-11 1.04055e-11 -1.29156

-2.24186 -5.60447 1.65659e-11
-5.60447 -4.49878 6.16144e-12
1.65659e-11 6.16144e-12 -2.21021

0.0372025 4.73228 -3.54356e-11
4.73228 -4.42763 1.61785e-11
-3.54356e-11 1.61785e-11 -1.74807

-2.8404 -5.48283 4.50702e-11
-5.48283 -3.55559 1.61666e-11
4.50702e-11 1.61666e-11 -2.55057

16.4932 2.01541 3.4879e-11
2.01541 16.7114 6.82073e-11
3.4879e-11 6.82073e-11 18.1248

16.5276 1.97021 -1.59917e-11
1.97021 16.6308 1.11697e-11
-1.59917e-11 1.11697e-11 18.0196

1.06133 4.21478 1.54083e-11
4.21478 -0.580968 7.31297e-12
1.54083e-11 7.31297e-12 -0.0690135

-0.419905 -5.20475 -4.68005e-11
-5.20475 -1.71208 -1.91203e-12
-4.68005e-11 -1.91203e-12 -0.413987

-6.54179 -3.31017 -7.89324e-12
-3.31017 -4.15122 8.52123e-11
-7.89324e-12 8.52123e-11 -5.82147

-7.28552 -1.13478 2.92717e-11
-1.13478 -1.85669 1.5019e-11
2.92717e-11 1.5019e-11 -6.81382

-0.269393 4.80351 -3.17761e-11
4.80351 -3.18506 -1.61745e-11
-3.17761e-11 -1.61745e-11 -1.50768

-5.98679 -4.28867 2.83152e-11
-4.28867 -1.64181 4.2367e-11
2.83152e-11 4.2367e-11 -2.55095

0.609185 2.5264 -1.2336e-11
2.5264 -10.3193 -1.63654e-11
-1.2336e-11 -1.63654e-11 -3.48731

-0.493606 -3.90588 -2.11876e-11
-3.90588 -8.28796 -2.04119e-11
-2.11876e-11 -2.04119e-11 -4.38494

-5.17072 4.40664 -4.71876e-11
4.40664 -1.92546 2.81214e-11
-4.71876e-11 2.81214e-11 -1.51296

-3.61968 -5.12064 -2.86463e-11
-5.12064 1.89361 -2.44587e-11
-2.86463e-11 -2.44587e-11 -1.10524

-8.3521 -3.55976 -8.95014e-12
-3.55976 -7.44021 -6.93278e-11
-8.95014e-12 -6.93278e-11 -9.33868

-9.33766 -3.18055 5.77686e-12
-3.18055 -1.77262 -2.05094e-11
5.77686e-12 -2.05094e-11 -7.02894

-0.655446 3.57016 2.1954e-11
3.57016 -11.3083 2.30445e-12
2.1954e-11 2.30445e-12 -6.06073

-0.649022 1.165 2.9653e-11
1.165 -11.5689 -8.47751e-12
2.9653e-11 -8.47751e-12 -7.73198

-1.72906 -3.86037 2.69727e-12
-3.86037 -7.25583 -2.85026e-11
2.69727e-12 -2.85026e-11 -7.27778

-0.803169 -0.8249 -6.1622e-11
-0.8249 -6.92007 -7.4708e-11
-6.1622e-11 -7.4708e-11 -9.2195

-10.6897 -0.888798 5.58368e-12
-0.888798 0.162436 -5.66206e-11
5.58368e-12 -5.66206e-11 -8.32843

-6.58393 6.55716 -9.46502e-12
6.55716 -6.72195 -1.15571e-11
-9.46502e-12 -1.15571e-11 -8.51923

0.32468 3.91977 7.24157e-11
3.91977 -9.82181 1.82471e-11
7.24157e-11 1.82471e-11 -6.58871

-0.526874 3.24509 -6.01506e-10
3.24509 -12.4318 6.5401e-10
-6.01506e-10 6.5401e-10 -9.28086

1.4634 0.902688 -8.16565e-10
0.902688 -1.03472 -8.15927e-10
-8.16565e-10 -8.15927e-10 -10.6412

-6.90903 -4.55621 -1.5054e-10
-4.55621 -3.00459 3.81328e-10
-1.5054e-10 3.81328e-10 -9.85443

1.33248 2.97201 -6.16966e-12
2.97201 -9.16898 -2.36822e-11
-6.16966e-12 -2.36822e-11 -5.3189

0.199954 2.38666 6.54484e-12
2.38666 -4.45244 -2.00261e-11
6.54484e-12 -2.00261e-11 -2.7814

-1.9814 3.84079 -4.58428e-11
3.84079 -10.6955 -3.45575e-12
-4.58428e-11 -3.45575e-12 -8.06911

-2.3737 -4.38606 -1.65542e-11
-4.38606 -6.47887 2.8503e-11
-1.65542e-11 2.8503e-11 -7.8397

-4.76677 -2.19876 3.42836e-11
-2.19876 -1.70344 8.20271e-11
3.42836e-11 8.20271e-11 -10.1923

-1.6994 -1.96407 -1.57849e-11
-1.96407 -3.3491 2.85049e-11
-1.57849e-11 2.85049e-11 -3.96011

-0.319842 3.87467 1.57961e-11
3.87467 -7.54522 4.1395e-11
1.57961e-11 4.1395e-11 -4.01474

-0.516124 2.27391 -1.04013e-11
2.27391 -8.66373 9.61009e-13
-1.04013e-11 9.61009e-13 -5.55492

-2.94214 -5.08758 1.73308e-11
-5.08758 -5.00306 -1.04053e-11
1.73308e-11 -1.04053e-11 -5.45596

-1.24592 -2.46876 4.15897e-11
-2.46876 -6.16041 -3.08158e-11
4.15897e-11 -3.08158e-11 -7.24214

VECTORS fluid_flux_TPM float
-8.43873e-05 -0.000253137 2.18279e-20
-2.60723e-05 0.000207747 8.00355e-20
4.13531e-05 -0.000207884 2.54659e-20
-0.000188658 -3.58932e-05 5.94203e-20
-0.000236937 -6.24671e-05 2.42532e-21
-3.12435e-05 0.000267849 1.06714e-19
4.65281e-05 -0.000268062 1.33393e-20
-0.000254556 6.39355e-05 4.85064e-21
-7.96996e-05 0.000128398 4.9719e-20
-0.000133786 -0.000310845 5.1538e-20
-0.000128244 0.000332543 2.66785e-20
0.000347982 0.000141717 -6.0633e-22
0.000184135 0.000178335 6.18456e-20
-0.000169689 -0.000177737 2.66785e-20
-8.39044e-05 -0.000175641 1.94026e-20
-2.59148e-05 -0.000166501 1.57646e-20
2.69918e-05 0.000273853 9.94381e-20
-1.21757e-05 -0.000273996 -1.69772e-20
0.000241043 2.42263e-05 -4.00178e-20
-0.000100687 -0.000375088 3.03165e-21
-0.00010165 0.000383596 3.63798e-20
0.000418024 9.651e-05 1.15203e-20
-0.000161747 -0.000167638 7.03343e-20
-0.000260952 6.11223e-05 -2.42532e-21
-0.000185799 -0.000168893 7.27596e-20
0.000111807 0.000247142 9.94381e-20
-0.000179002 3.37881e-05 2.18279e-20
-0.000271044 -0.000565146 -3.63798e-21
-0.000155436 -7.86631e-05 4.72937e-20
0.000602201 0.000284915 -6.0633e-21
-8.48317e-07 0.000256035 1.12777e-19
1.57766e-05 -0.000256108 -1.57646e-20
-0.00058767 -0.000298594 -5.6995e-20
-0.000589725 0.000287321 -1.18841e-19
-0.000383215 0.00012533 3.69861e-20
-0.00013621 -0.00011023 -1.45519e-20
-0.00023855 -0.000120033 3.63798e-20
-0.000249785 0.00012218 0
-4.13111e-05 -8.37039e-05 1.33393e-20
0.000168317 0.000171825 1.03076e-19
-0.000245465 0.000164084 2.36469e-20
-7.22905e-05 1.18582e-06 4.24431e-20
-0.000158767 0.000173476 2.91038e-20
-8.57208e-05 0.000251905 3.75924e-20
3.89769e-05 0.00016648 8.85242e-20
-0.000248613 0.000163812 5.3357e-20
-0.000615359 -0.000615359 -2.06152e-20
0.000637441 0.000637441 4.54747e-21
5.64859e-05 0.000130003 2.42532e-21
0.000639733 0.00067621 -8.79178e-21
-0.000653423 -0.000617192 -1.75836e-20
0.000295083 -3.05096e-05 4.85064e-20
0.000294868 3.0343e-05 -5.3357e-20
0.00020739 3.66882e-05 -9.45875e-20
0.000281162 -0.000128433 8.60988e-20
0.000280922 0.000128448 1.94026e-20
0.000105885 0.000172835 1.38243e-19
-0.000247305 -0.000463582 -1.81899e-20
-0.00024805 0.000465422 3.03165e-20
0.000225005 -8.59325e-05 4.00178e-20
0.000224651 8.54309e-05 3.03165e-20
-0.000336832 0.000147388 5.03254e-20
-0.000268086 0.000423074 2.78912e-20
0.00028513 -0.000426547 7.51849e-20
0.000164334 -0.000169687 1.81899e-20
-0.00029782 0.000570892 2.27374e-20
-0.000570817 0.000302405 2.78912e-20
3.3251e-05 0.000165263 1.1399e-19
-1.87644e-05 -0.000164828 4.60811e-20
0.000500767 -0.000207424 1.6856e-19
0.000500913 0.000207485 -2.07365e-19
3.56463e-05 -5.2534e-05 2.42532e-20
0.000228939 7.90506e-05 -6.30583e-20
0.000229432 -7.91619e-05 8.00355e-20
-0.000120527 -8.28723e-05 2.18279e-20
-4.18657e-05 -0.000127829 5.94203e-20
-0.000354237 -7.5576e-05 1.81899e-20
-0.000305713 -4.47464e-05 3.15291e-20
-0.000223041 -0.000188431 3.39545e-20
-0.00026077 0.000451656 -1.94026e-20
-0.00026014 -0.000450561 -9.70128e-21
-0.000268808 -0.000301487 4.48684e-20
-0.000196988 0.000116385 1.81899e-20
0.00023739 8.62236e-05 -1.69772e-20
-4.06742e-05 0.000478394 2.66785e-20
5.20199e-05 -0.000483241 9.09495e-20
-0.00023077 0.000207469 1.57646e-20
2.38766e-05 0.000220598 1.35818e-19
-8.10569e-06 -0.000220565 1.81899e-20
0.000201824 -3.36657e-05 -1.81899e-20
0.000199694 3.14887e-05 -7.63976e-20
0.000355537 -0.000244273 4.79001e-20
0.000286417 4.69578e-05 -8.48862e-21
0.000213282 -0.000106365 8.12482e-20
0.000212172 0.00010656 -5.6995e-20
0.000240247 -8.79627e-05 9.33748e-20
0.000105438 -0.000245512 -1.57646e-20
0.000192182 -8.42159e-05 4.24431e-20
0.000189266 8.24026e-05 -6.0633e-20
-0.000206629 9.44026e-05 2.78912e-20
0.000117409 7.24365e-05 8.97368e-20
-0.000247596 -0.000172867 8.97368e-20
-8.8301e-05 2.09491e-05 2.30405e-20
-2.26702e-05 5.03182e-05 7.76102e-20
0.000295961 4.19154e-05 3.27418e-20
-0.000202215 0.00012162 3.15291e-20
-0.000213312 -9.94146e-05 6.4271e-20
-0.00016355 -0.000204802 6.30583e-20
-0.000188965 -0.00012667 5.45697e-20
4.24339e-06 -0.000226983 1.33393e-20
1.14449e-05 0.000227057 1.03076e-19
0.000351505 -0.000138632 1.45519e-20
-0.000120272 8.21964e-05 2.78912e-20
0.000177159 -0.00025034 1.81899e-20
0.000178012 0.000252663 8.54925e-20
-0.0001966 0.000116407 -2.66785e-20
-7.78323e-05 0.000126562 2.42532e-20
-7.96368e-05 -0.000131227 -2.18279e-20
-4.29155e-05 -0.000235507 2.06152e-20
-0.000184101 0.000176895 4.00178e-20
3.83938e-05 -0.000329987 6.0633e-21
5.5157e-05 0.000338013 2.66785e-20
0.000373682 -1.78263e-05 -1.21266e-20
0.000364254 0.000242691 4.72937e-20
0.000251906 -0.00014649 1.94026e-20
0.000329821 -0.00057134 1.43094e-19
-0.000328974 0.000569808 -3.75924e-20
0.00028829 -5.13757e-05 3.15291e-20
5.06728e-05 0.000127681 9.70128e-20
0.000210063 -3.98017e-05 -3.03165e-20
-4.04096e-05 0.00023873 6.54836e-20
-6.11257e-05 0.000133672 5.45697e-20
7.28408e-05 -0.000133165 -8.48862e-21
0.000119853 -7.46095e-05 -1.33393e-20
8.97544e-05 -2.68863e-05 6.18456e-20
-3.65218e-05 -0.000128309 2.42532e-20
0.000156019 1.46396e-06 -1.28542e-19
0.000247184 0.000158128 6.79089e-20
-8.38713e-05 -2.68639e-05 -1.09139e-20
0.000247495 0.00016143 9.94381e-20
-0.000260483 0.00032387 2.54659e-20
-0.000135428 0.000105096 2.06152e-20
0.000102589 -0.000366541 -3.63798e-21
0.000108046 0.000366419 4.9719e-20
0.000407771 -9.35258e-05 2.42532e-20
0.000252658 -0.000167507 1.21266e-21
9.56997e-06 0.000264687 8.12482e-20
6.10185e-06 -0.00026431 7.27596e-21
0.000200424 -0.000335695 -6.0633e-21
0.00019728 0.000321685 2.06152e-20
0.000127573 -4.54609e-05 -8.85242e-20
0.00012807 4.38487e-05 -1.09139e-19
0.000140972 8.81782e-05 1.07927e-19
8.50798e-05 0.000119791 4.00178e-20
-0.000189366 -0.000114222 -1.69772e-20
-0.000378351 -0.000298398 1.39456e-20
5.94882e-05 0.000244688 1.01863e-19
0.000251857 8.47551e-05 -2.42532e-21
0.000252344 -8.51261e-05 7.51849e-20
0.00022852 -8.95621e-05 7.88229e-20
0.000228091 8.8994e-05 2.30405e-20
-0.000115414 -0.00111521 -1.06108e-20
0.00114521 0.000176237 5.03254e-20
5.95012e-05 -0.000238965 -1.33393e-20
0.00034637 -0.000229591 5.6995e-20
0.000346189 0.00023013 -9.94381e-20
0.000233402 0.000122006 4.72937e-20
-0.000472463 -3.0069e-05 5.45697e-20
0.000286824 -5.22314e-05 1.57646e-20
-9.96144e-06 0.000203601 8.00355e-20
2.48699e-05 -0.000204533 6.30583e-20
-0.000168565 0.000253874 3.09228e-20
8.50129e-05 2.76864e-05 8.48862e-21
0.000234375 -0.000122625 2.06152e-20
-3.49148e-05 -6.0757e-05 2.42532e-21
-0.00017152 0.000140895 1.12777e-19
0.000187312 -0.00014066 3.03165e-20
0.000140204 -8.66667e-05 8.48862e-21
-0.000138477 -9.43978e-05 3.63798e-21
-0.000243573 -0.000156849 4.36557e-20
4.01322e-05 5.60173e-05 4.36557e-20
-7.99104e-05 0.00017168 4.36557e-20
-4.19445e-05 -0.000238251 -2.18279e-20
0.000199853 9.30905e-05 5.21444e-20
6.12721e-05 0.000240344 8.85242e-20
-7.47757e-05 -0.000116298 5.3357e-20
-0.000299819 0.000548398 1.57646e-20
-0.000538191 0.000305625 1.54614e-20
0.000200452 -9.36179e-05 6.18456e-20
0.000242564 -2.81563e-05 0
0.000507199 0.000222617 -1.44306e-19
0.000506967 -0.00022235 1.3218e-19
5.09165e-05 -0.000130266 2.42532e-21
-0.000333301 -0.00024115 -4.12304e-20
-0.000340945 0.000235206 -4.72937e-20
-0.000142057 -6.3022e-05 3.63798e-20
-2.98453e-05 5.24437e-05 2.91038e-20
0.000323726 0.000396226 -5.1538e-21
-0.000361681 -0.000297621 1.81899e-21
0.000322096 -0.000441803 7.27596e-21
0.000327305 0.000447131 -4.85064e-21
0.000498969 -0.000274948 1.15203e-20
3.95175e-05 -4.66037e-05 4.60811e-20
-3.30271e-05 -0.000492832 7.27596e-21
0.000528606 3.83836e-05 1.42487e-20
0.000271719 0.000357586 2.42532e-21
-0.000256489 -0.000355358 3.03165e-20
-0.000164128 -0.00013232 6.4271e-20
-7.09346e-05 2.82488e-06 -8.48862e-21
0.000190442 -0.000261543 -1.03076e-20
0.000191606 0.000265736 5.6995e-20
-0.000162274 4.73378e-05 5.6995e-20
0.000100168 -0.000168701 2.91038e-20
0.000265524 -0.000134312 4.24431e-20
0.000264977 0.000134419 -8.60988e-20
-0.000198235 -0.000106288 4.48684e-20
-0.000138039 9.28537e-05 2.42532e-21
-0.00015853 -7.50125e-05 7.15469e-20
-0.000302073 -0.000169836 5.27507e-20
-3.72974e-05 0.000137989 9.70128e-21
-0.000630897 0.000630897 3.03165e-22
-3.83185e-05 0.000244228 8.12482e-20
5.6005e-05 -0.000246734 1.69772e-20
5.40591e-05 -0.000480597 -1.45519e-20
-3.91223e-05 0.000480406 9.45875e-20
0.00015067 -7.56372e-05 -3.63798e-20
0.000150533 7.31321e-05 -8.60988e-20
-0.00023646 0.000125981 3.63798e-20
-0.000233819 -0.000121962 1.81899e-20
-0.000414022 -7.55502e-05 -3.03165e-20
-0.000407458 7.71358e-05 -1.21266e-20
0.000480105 0.000224203 0
0.000480088 -0.000223924 1.15203e-19
0.000152424 1.40977e-05 1.69772e-20
0.000152665 -1.31742e-05 5.21444e-20
0.000242434 8.54558e-05 2.42532e-20
-8.10828e-06 0.000216353 5.21444e-20
2.3661e-05 -0.000211591 1.21266e-20
-0.000342948 0.000237615 3.63798e-20
0.00024166 -8.77406e-05 4.36557e-20
-1.99542e-05 -0.00022781 1.81899e-20
0.000207162 0.000125631 7.39722e-20
-0.000151974 -4.73584e-06 2.66785e-20
-0.000150224 1.20112e-06 3.27418e-20
0.000206632 -0.000127472 3.03165e-20
-0.000156339 0.000137787 2.30405e-20
0.000270177 0.000468011 -6.18456e-20
-0.000265748 -0.000460287 -5.21444e-20
-4.10851e-05 -0.000159527 6.0633e-21
-0.000199253 -0.000119992 3.51671e-20
-2.23237e-05 -0.000266604 -1.21266e-21
0.000335937 -0.000573364 8.18545e-21
0.000579323 -0.000271472 1.90994e-20
0.000127013 -0.000105012 4.60811e-20
0.000125309 0.000102804 -4.60811e-20
-3.33516e-05 0.000279278 4.36557e-20
3.37788e-05 0.000219854 9.58001e-20
0.000298894 0.000127575 3.51671e-20
0.00022924 -5.19427e-05 1.69772e-20
0.000228987 5.09314e-05 3.51671e-20
-0.000540124 -4.32897e-09 -7.51849e-20
-0.000540271 3.0081e-09 -7.88229e-20
5.23662e-05 -0.00012185 3.03165e-20
-0.000204646 -0.000124429 3.39545e-20
0.000211653 0.000127601 -2.91038e-20
0.000212805 -0.000127655 1.00651e-19
5.83129e-05 0.000156136 2.06152e-20
2.63244e-05 4.30052e-05 3.51671e-20
0.000628493 -0.000628493 -2.42532e-21
-0.00017754 5.62186e-05 5.21444e-20
-0.000179296 -6.01946e-05 2.42532e-20
-3.93765e-05 0.000124915 1.21266e-21
0.000293346 -0.000129648 5.82077e-20
-0.000201148 0.000102553 3.51671e-20
-0.000259641 -3.47833e-05 1.81899e-20
-0.000260861 3.40108e-05 4.60811e-20
-0.000156183 7.50837e-05 3.39545e-20
0.000149193 0.000221547 -9.45875e-20
0.000150337 -0.000220972 2.42532e-20
0.000111548 0.000629113 -3.27418e-20
-9.95224e-05 -0.00062912 -7.88229e-20
-5.66699e-05 0.00113738 -1.51582e-20
-0.00111111 5.81805e-05 -9.09495e-22
0.000172097 -1.22472e-05 -1.00309e-36
0.000173023 1.03117e-05 8.60988e-20
-7.4794e-06 -4.00097e-05 3.39545e-20
0.000617052 -0.000750468 -3.94114e-21
0.000784838 -0.000604177 1.27329e-20
0.00020552 -0.000496204 1.05501e-19
0.000205664 0.000496551 -5.21444e-20
-0.000189037 0.000112884 6.0633e-21
0.000180536 -0.00017209 2.91038e-20
0.000183344 -7.58277e-05 2.91038e-20
0.000183127 7.47766e-05 8.48862e-20
0.000136106 -0.000113132 -2.42532e-21
0.000179233 0.000173744 1.22479e-19
1.22176e-06 -0.000528711 -2.42532e-21
2.06265e-05 0.000486695 3.03165e-21
0.000564503 4.67323e-06 1.09139e-20
0.000136604 0.000111959 1.05501e-19
6.21953e-05 0.000536262 -1.42487e-20
-0.000524124 -7.07101e-05 1.18234e-20
0.000229415 -2.43986e-05 4.72937e-20
0.000230409 2.13991e-05 1.16415e-19
0.000223393 -4.49475e-05 4.72937e-20
0.000223692 4.46776e-05 5.3357e-20
-0.000620513 0.000768015 -1.21266e-21
-0.000761639 0.000620457 -1.03076e-20
0.000200515 8.72539e-05 8.00355e-20
0.000201009 -8.83491e-05 1.21266e-20
6.97631e-05 0.000369337 7.51849e-20
-5.73389e-05 -0.000366955 -1.33393e-20
0.000172818 7.24257e-05 3.27418e-20
0.000171511 -7.19922e-05 7.27596e-20
0.000262828 -0.000158886 7.03343e-20
0.000262251 0.000159148 -9.33748e-20
-0.000153534 -3.80309e-05 3.27418e-20
-0.000150402 3.56516e-05 1.21266e-20
-0.000245121 -0.000465642 3.27418e-20
0.000241555 -0.000288918 5.09317e-20
0.00028966 -0.000244405 4.85064e-21
0.000241036 0.000289959 -1.11565e-19
0.000289764 0.000244869 -6.18456e-20
0.00026006 0.000470637 -8.36735e-20
-0.000536758 8.62404e-06 -8.24609e-20
-0.000536218 -1.009e-05 -5.21444e-20
0.000389536 0.00016136 3.75924e-20
0.00093705 0.000123354 2.51021e-19
0.000937322 -0.00012339 -2.61934e-19
0.000389439 -0.00016132 -3.51671e-20
0.000488982 1.06123e-05 1.04289e-19
0.000346351 0.000105057 7.88229e-20
0.000458806 -0.000129082 1.35818e-19
0.000488956 -1.0464e-05 5.21444e-20
0.000458788 0.0001292 -8.85242e-20
0.000346378 -0.000104874 8.00355e-20
0.000363289 -0.000102664 9.21621e-20
0.000361047 -0.000103363 7.03343e-20
0.000363308 0.000102744 -9.70128e-21
0.000360914 0.00010349 1.21266e-21
-3.34931e-05 0.000211856 2.66785e-20
-3.56352e-05 -0.000212918 -1.45519e-19
-0.000190931 3.48806e-05 -1.78261e-19
-0.000243966 6.3466e-05 -2.65572e-19
-3.89465e-05 0.000275265 4.24431e-20
-4.10497e-05 -0.000275878 -2.35256e-19
-0.000244141 -6.27294e-05 -1.89175e-19
-8.19052e-05 -0.00012845 -6.79089e-20
-0.000137037 -0.00030876 -1.6856e-19
0.000140633 0.000318118 1.09139e-19
0.000322883 0.000146857 1.27329e-20
0.000178602 -0.000185524 -2.94676e-19
0.000182928 0.000182902 -6.18456e-20
-0.000196145 0.000117252 3.39545e-20
2.04844e-05 -0.000281625 -2.15853e-19
2.23393e-05 0.00028062 4.85064e-20
0.000199288 3.11785e-05 3.51671e-20
-0.000102906 -0.000374489 -1.01863e-19
0.000101385 0.000378195 1.17022e-19
0.000391599 0.000104639 3.63798e-21
9.40322e-05 0.000253574 7.51849e-20
9.71862e-05 -0.000249816 -2.77699e-19
-0.000179581 -3.67302e-05 -1.44306e-19
-0.000268058 -0.000557113 -1.07624e-19
-0.000158661 7.98452e-05 -1.12777e-19
-6.0245e-06 0.000262468 2.91038e-20
-8.35363e-06 -0.00026317 -2.58297e-19
-0.000592491 -0.000286534 2.61934e-19
-0.00058992 0.00029712 1.57646e-19
-0.000128208 0.000173303 4.72937e-20
-0.000154941 0.00018347 5.57823e-20
-0.00035778 0.000115498 -1.69166e-19
-0.000252733 -0.000121773 1.22479e-19
-0.000241839 0.000118552 1.94026e-20
-4.1443e-05 8.50241e-05 -1.43094e-19
0.000150341 -0.000178967 -2.8255e-19
-7.45685e-05 -2.54527e-06 -1.21266e-19
-0.000257401 0.000168127 -1.34605e-19
-0.000169222 -0.000171247 -1.57646e-19
-0.000297264 -4.65751e-05 -1.70379e-19
-0.000271161 5.45545e-05 -2.09184e-19
-9.32406e-05 -0.000253405 -1.54008e-19
2.72913e-05 -0.00017275 -1.51582e-19
2.94876e-05 0.00017159 2.91038e-20
-8.41935e-05 0.000254927 2.06152e-20
0.00015564 0.000181057 7.27596e-20
-0.000602278 -0.000602218 5.97235e-20
-0.000593044 0.000593065 2.91038e-20
5.31981e-05 -0.000138039 -2.71636e-19
5.3365e-05 0.000133811 -8.85242e-20
9.09614e-05 0.000179123 7.63976e-20
-0.000594783 0.000647234 -1.34908e-19
-0.000627385 -0.000603429 -2.35256e-19
0.000309018 -5.65159e-05 -1.28542e-19
0.000306396 6.12478e-05 9.21621e-20
0.000145375 5.1151e-05 -1.69772e-20
0.000289498 -0.000193798 -1.07927e-19
0.000287341 0.000195365 1.09139e-19
9.15153e-05 -0.000178723 -2.17066e-19
-0.000250797 -0.000463245 7.15469e-20
-0.000250623 0.000459688 5.09317e-20
0.000212525 -0.000122235 -1.20053e-19
0.000212619 0.000124247 7.15469e-20
-0.000280248 -0.000434737 -1.64922e-19
-0.000279344 0.00043481 1.09139e-19
0.000291893 0.000550957 1.11262e-19
0.000553211 0.00029214 -1.24298e-20
2.42336e-05 0.000170486 -1.09139e-20
2.20191e-05 -0.00017163 -1.75836e-19
0.000605736 -0.000250866 -1.54008e-19
0.000598992 0.000248112 -1.33393e-20
-0.000246036 -0.000171403 -7.45786e-20
0.000201442 0.000110681 8.85242e-20
0.000201507 -0.000108487 -1.52795e-19
-0.000225974 0.000188525 -2.30405e-20
-0.000345078 -7.79548e-05 -1.49763e-19
-0.000259933 0.000450242 8.24609e-20
-0.000261075 -0.000452121 2.37681e-19
-0.000194135 -0.000119902 -4.36557e-20
0.000194915 0.000105142 1.26117e-19
-0.000275814 -0.00029999 -2.2131e-19
-4.75288e-05 -0.000491331 -1.90388e-19
-4.56439e-05 0.000491651 3.51671e-20
-0.000233736 -0.000206979 5.3357e-20
1.90284e-05 0.000224854 1.57646e-20
1.71497e-05 -0.000224607 -2.25555e-19
0.000144925 -5.08977e-05 -9.82254e-20
0.000142421 4.91557e-05 5.21444e-20
0.000325622 -0.00024846 -3.38938e-19
0.000245072 5.41602e-05 -4.85064e-21
0.000174449 0.000165231 8.36735e-20
0.00017594 -0.000163869 -1.20053e-19
0.000198118 -0.000105729 -1.92813e-19
0.000132146 -0.000117896 -1.33393e-19
0.000128562 0.000116841 6.54836e-20
-0.000210302 -9.38835e-05 -5.21444e-20
-0.000220752 0.000173858 -2.24342e-20
0.000111309 8.54826e-05 1.33393e-20
0.000107906 -8.28973e-05 -2.58297e-19
-3.3867e-05 -5.7523e-05 -2.25555e-19
-3.18237e-05 5.6241e-05 1.57646e-20
0.000262852 4.47809e-05 2.66785e-20
-0.000370726 0.000361326 -1.20053e-19
-0.000204809 -0.000122292 7.88229e-20
-0.000211754 0.000100388 -1.98876e-19
-0.000504112 8.25039e-05 -1.52795e-19
-0.000196286 0.00011981 -3.15291e-20
2.18515e-06 -0.000232382 -1.97664e-19
5.4845e-06 0.000231892 1.45519e-20
-0.000172945 -0.000207257 -1.54008e-19
0.000321405 -0.000137967 -1.89175e-19
-0.000122207 -8.38864e-05 -1.45519e-20
-0.000122497 9.07435e-05 3.27418e-20
0.000159319 -0.000253457 -3.32269e-19
-0.000167797 0.000271041 1.69772e-20
-0.000201602 -0.000119323 -3.63798e-20
-8.1338e-05 -0.000127892 2.42532e-21
-8.31352e-05 0.000136718 -1.38243e-19
4.75042e-05 0.000243953 5.6995e-20
-0.000183365 -0.000174087 -6.91216e-20
2.83721e-05 -0.000328677 -1.58858e-19
-4.28602e-05 0.000338588 8.00355e-20
0.000343058 -3.64503e-05 -2.54659e-20
0.000224861 -0.00015314 -3.31056e-19
-0.000337197 0.00058411 5.82077e-20
-0.000336559 -0.00058299 -1.94026e-20
-0.000241712 -0.000145491 -1.24904e-19
0.000253848 -5.48582e-05 -1.56433e-19
-0.000383579 -0.000304167 -1.62496e-19
3.85461e-05 -0.000135409 -2.21917e-19
4.00235e-05 0.00013719 4.36557e-20
0.000149048 -5.3968e-05 -9.70128e-20
-4.88346e-05 -0.000238316 -6.91216e-20
-7.23524e-05 -0.000140957 -1.26117e-19
-7.02941e-05 0.000139638 3.63798e-20
0.000228057 0.000320908 3.75924e-20
0.000338462 0.00022836 2.97102e-20
-0.000483597 -2.16609e-05 -1.65528e-19
8.31381e-05 -1.59339e-05 1.57646e-20
7.93481e-05 1.96714e-05 -2.91038e-19
6.90427e-05 4.24506e-06 -8.48862e-21
-8.63036e-05 2.37295e-05 7.39722e-20
-7.95543e-05 -2.29833e-05 8.48862e-20
-0.000139932 -0.000104834 -6.66963e-20
9.34727e-05 -0.000363644 -1.83718e-19
-8.55682e-05 0.000362908 4.85064e-21
0.00037144 -9.63472e-05 -1.33999e-19
0.000225946 -0.000172307 -3.62585e-19
3.85745e-06 0.00026462 -2.91038e-20
5.06953e-07 -0.000266069 -1.28542e-19
-0.000173351 0.000346992 2.91038e-20
0.000180484 -0.00032645 -3.06197e-19
2.62068e-05 6.9215e-05 4.00178e-20
2.39691e-05 -7.01088e-05 -9.94381e-20
0.00012796 -9.62957e-05 -2.80124e-19
0.000130675 9.84365e-05 3.75924e-20
8.71653e-05 -0.00012591 -2.20704e-19
8.33186e-05 0.000123387 -8.12482e-20
-0.000188662 0.000115438 -1.09139e-20
4.71296e-05 -0.000247467 -1.916e-19
0.000239581 0.000123576 6.79089e-20
0.000241316 -0.000121386 -1.33393e-20
0.000208254 -0.000134693 -3.51671e-19
0.000201317 -0.000110653 -1.62496e-19
0.000201287 0.000112508 8.60988e-20
-0.000117122 -0.00108741 1.05198e-19
0.000160917 0.000250741 7.63976e-20
-0.0011204 0.000131416 -3.13473e-19
-4.14137e-05 0.000249121 1.21266e-21
0.000385979 -0.000348726 -1.41881e-19
0.000381765 0.000348434 1.95238e-19
0.000209905 0.000136627 1.04289e-19
0.000245532 -5.97098e-05 -1.00651e-19
0.000228878 0.000159524 6.4271e-20
-1.5593e-05 -0.000208161 -1.43094e-19
-1.42302e-05 0.000208165 -3.03165e-20
-0.00018082 0.000146873 4.24431e-20
-0.000182201 -0.000148149 -2.23129e-19
3.61927e-05 6.23974e-05 1.09139e-20
2.96928e-05 -6.32906e-05 -2.97102e-19
-8.49973e-05 -0.000173199 -4.48684e-20
4.88471e-05 0.000240238 5.3357e-20
0.000183421 -0.000113244 -2.55871e-19
0.000184717 0.000114912 8.00355e-20
0.000229907 0.00017468 9.21621e-20
-8.04121e-05 0.000174896 -1.21266e-21
4.8834e-05 -0.000243316 -1.75836e-19
0.000293897 0.000532515 3.42576e-20
0.000540199 0.000293361 -2.66785e-20
-0.000335293 0.00025093 -6.4271e-20
0.000200843 -3.54032e-05 -1.21266e-19
0.000627831 -0.00030405 -8.36735e-20
0.000621918 0.000303298 1.3218e-19
-0.000343568 -0.000234398 8.00355e-20
-0.000336814 0.000239959 9.70128e-20
-0.000142639 6.11142e-05 -8.12482e-20
-3.33833e-05 5.4403e-05 4.00178e-20
-3.37315e-05 -5.34448e-05 -2.30405e-20
-0.000282228 0.000376966 -1.21872e-19
-0.000354446 -0.000303008 -1.79474e-19
0.000303768 -0.000433968 -1.40669e-19
-0.000275929 0.000451158 1.21266e-21
0.000454756 -0.000264925 -1.06714e-19
-0.000309641 -0.00016744 -2.26767e-19
-3.74925e-05 -0.000486198 -1.21266e-20
-0.000460447 4.21161e-06 -2.11003e-19
0.000266753 -0.00036596 -1.94026e-19
0.000272304 0.00036581 -6.79089e-20
-0.000165158 0.000130603 -8.00355e-20
-7.23444e-05 -5.23407e-06 -1.47944e-19
-0.000164098 0.000268283 8.48862e-21
0.000173553 -0.000267152 -3.34088e-19
-0.000164535 -4.86826e-05 -1.37031e-19
0.000262981 -0.000203767 -1.09139e-19
0.000260426 0.000205445 9.21621e-20
-0.000202271 0.00010627 -1.09139e-20
-0.000142144 -9.58462e-05 -7.88229e-20
-0.000125734 9.2267e-05 5.21444e-20
-0.000162379 7.54588e-05 -8.85242e-20
-4.13496e-05 -0.000140495 -9.58001e-20
-3.69625e-05 0.000150703 8.48862e-21
0.000623724 0.000623701 -2.53143e-19
-4.58042e-05 -0.000246284 -3.88051e-20
-4.16599e-05 0.000248588 -1.09139e-20
-4.73192e-05 -0.000491602 -3.27418e-19
-4.52078e-05 0.000492216 3.39545e-20
6.97612e-05 -0.000129941 -9.82254e-20
7.05283e-05 0.000126992 8.73115e-20
-0.000238977 -0.000125697 1.24904e-19
-0.000234911 0.000121377 4.12304e-20
-0.000416834 7.71228e-05 4.00178e-20
-0.000410603 -7.67678e-05 1.47944e-19
0.000551673 0.000307412 1.06714e-19
0.000559489 -0.000308051 -9.82254e-20
0.000148788 -1.6303e-06 8.48862e-21
0.000143842 5.6107e-06 -2.29193e-19
0.000217538 0.000101675 1.24904e-19
-1.428e-05 -0.000217197 6.0633e-21
0.000186918 -0.000138523 -3.01952e-19
-1.25476e-05 0.000219381 -8.48862e-21
0.000214763 -0.000103113 -2.37681e-19
2.5153e-05 0.000226066 5.3357e-20
0.000188725 0.000140631 5.94203e-20
-0.000150951 2.71617e-06 6.91216e-20
-0.000155503 -3.30651e-06 9.58001e-20
-0.000160494 -0.000138416 6.91216e-20
0.000273396 -0.000473638 5.6995e-20
0.000275076 0.000476477 8.73115e-20
-0.000201441 0.000117816 -3.27418e-20
-2.86709e-05 0.000265378 -3.88051e-20
0.000316863 -0.000558234 -7.27596e-21
0.000549986 -0.000261303 -1.58858e-19
4.41054e-05 -0.000161797 -1.75836e-19
4.28591e-05 0.000159545 6.54836e-20
-3.75183e-05 -0.000278369 2.91038e-20
2.25243e-05 -0.000223709 -2.44957e-19
0.000265641 0.000139476 7.39722e-20
0.000219104 -6.98313e-05 -2.11003e-19
0.000219027 7.32249e-05 5.94203e-20
-0.000543034 -1.79261e-08 2.34043e-19
-0.000542762 4.77173e-08 1.18841e-19
-0.00020284 0.000118902 -9.21621e-20
0.000173747 0.000193744 9.82254e-20
0.0001753 -0.000192392 -7.27596e-20
5.54116e-05 0.000159523 -3.27418e-20
5.46837e-05 -0.000159306 -1.44306e-19
2.42648e-05 -4.3699e-05 -1.28542e-19
2.71208e-05 4.73043e-05 -1.09139e-20
0.000604676 -0.000604712 -4.54747e-21
-0.000179974 6.16401e-05 5.3357e-20
-0.000180764 -5.58641e-05 9.21621e-20
-4.33395e-05 -0.000127979 -1.12777e-19
-4.09677e-05 0.000130232 -4.9719e-20
0.000259301 -0.000139293 -2.07365e-19
-0.000203382 -0.0001022 1.62496e-19
-0.000262899 -3.41266e-05 1.04289e-19
-0.000261441 4.34795e-05 6.91216e-20
-0.000159214 -7.45564e-05 -5.21444e-20
8.04773e-05 -0.000342619 -1.60071e-19
7.96588e-05 0.000342437 1.09139e-19
0.000109863 0.000644278 5.6995e-20
0.000106934 -0.000642688 -1.16415e-19
5.03612e-05 0.00108006 -1.5613e-19
0.00108871 7.55378e-05 -1.22479e-19
0.000165352 2.50961e-05 3.03165e-20
0.00016354 -2.07503e-05 -2.66785e-19
0.000589928 -0.000734915 -9.15558e-20
0.000717862 -0.000587251 2.12215e-21
0.000263218 -0.000635283 -1.44306e-19
0.000261388 0.00063087 1.34605e-19
-0.00019147 -0.00011253 3.63798e-20
0.000176379 9.54033e-05 4.9719e-20
0.000174841 -9.28593e-05 -2.4617e-19
0.000164061 0.000182528 5.3357e-20
0.000162255 -0.000181058 -3.28631e-19
-6.98555e-06 -0.000517995 -1.22479e-19
-1.25294e-05 0.000477766 8.30672e-20
0.000495774 -1.54348e-05 -6.60899e-20
0.000125338 0.000125813 3.88051e-20
0.000122854 -0.000124085 -3.06803e-19
-5.18493e-05 0.000528478 6.94248e-20
0.000522137 -3.80874e-05 -9.39811e-21
0.000233983 -3.43611e-05 -2.29193e-19
0.000234509 3.84588e-05 1.94026e-20
0.000222568 -7.39233e-05 -1.72198e-19
0.000223093 7.80274e-05 7.27596e-20
0.000611791 0.000752642 -4.21399e-20
0.000755998 0.000612385 -6.91216e-20
0.000186156 0.000102419 5.94203e-20
0.000184932 -0.0001001 -2.6436e-19
6.43169e-05 -0.000377735 -1.67347e-19
6.69858e-05 0.000377764 -1.33393e-20
0.000165723 7.38883e-05 -1.83112e-19
0.000169154 -6.51836e-05 2.18279e-20
0.000258527 -0.000244357 -8.00355e-20
0.000256062 0.000245065 1.26117e-19
-0.000153401 -3.57113e-05 4.12304e-20
-0.000163683 3.9975e-05 1.94026e-20
0.000239296 0.000461341 1.28542e-19
0.000353244 0.000355885 1.26117e-19
0.000241612 -0.000462651 8.48862e-21
0.000356379 -0.000356457 -1.09139e-20
0.00025515 -0.000478372 -1.92813e-19
-0.000540132 -7.45293e-06 -4.36557e-20
-0.000538747 1.00476e-05 1.87962e-19
0.000260504 0.00048026 -4.60811e-20
0.000428841 -0.000177655 4.00178e-20
0.00112078 -0.000147518 -1.21266e-20
0.00113345 0.000149193 2.30405e-20
0.000439664 0.000182076 -6.30583e-20
0.000554461 1.27462e-05 7.51849e-20
0.000377561 -0.00010438 5.3357e-20
0.000520665 0.000169261 6.0633e-20
0.00056392 -6.31647e-06 -6.0633e-21
0.000528535 -0.000170071 -4.36557e-20
0.000381558 0.000114459 -8.12482e-20
0.000403648 -0.000156634 -1.11565e-19
0.000408494 -0.000155125 -2.91038e-20
0.00039908 0.000159288 1.01863e-19
0.000403918 0.000157781 1.67347e-19
-8.94829e-05 -0.000252609 -4.85064e-21
-3.60161e-05 0.000211931 6.0633e-20
3.48686e-05 -0.000212335 6.79089e-20
-0.000191106 -3.53138e-05 -3.10441e-19
-0.000238773 -6.15502e-05 -3.09228e-19
-4.14227e-05 0.000274783 5.3357e-20
4.03189e-05 -0.000275727 2.66785e-20
-0.000256287 6.40945e-05 -2.12215e-19
-8.2166e-05 0.000128773 -1.61284e-19
-0.000139116 -0.000309524 4.60811e-20
-0.00013459 0.000327778 3.94114e-20
0.000322117 -0.000139522 3.15291e-20
0.000178084 0.000185069 -1.33393e-20
-0.000180443 -0.0001849 1.09139e-19
-8.90185e-05 -0.000178145 -4.60811e-20
-2.89065e-05 -0.000170581 -6.54836e-20
2.01195e-05 0.000281078 1.21266e-20
-2.15014e-05 -0.000282033 1.30967e-19
0.000200229 2.93628e-05 -4.36557e-20
-0.000107178 -0.000371517 6.30583e-20
-0.000107911 0.000378998 7.15469e-20
0.000381443 -0.0001013 1.33393e-20
-0.000166252 -0.00016776 4.9719e-20
-0.000262409 6.14015e-05 -1.66741e-19
-0.000189046 -0.00016895 8.24609e-20
9.70703e-05 0.00024908 1.69772e-20
-0.00018106 3.40786e-05 -1.37031e-19
-0.000277998 -0.000566842 7.24564e-20
-0.000157825 -7.92167e-05 -2.14641e-19
0.000568015 -0.000279267 1.57646e-20
-9.25241e-06 0.00026228 -2.06152e-20
7.99183e-06 -0.00026316 1.09139e-19
-0.000591338 0.0002861 8.60988e-20
-0.00058987 -0.000296832 6.79089e-20
-0.000383619 0.000125056 -4.30494e-20
-0.000139335 -0.000110138 -5.82077e-20
-0.000252089 0.000121536 1.1399e-19
-0.000241886 -0.000119086 2.06152e-20
-4.13385e-05 -8.43662e-05 -2.12215e-19
0.00014947 0.000179234 -1.45519e-20
-0.000247104 0.000163146 -9.70128e-21
-7.47818e-05 2.01881e-06 -1.5522e-19
-0.000162489 0.000172959 5.3357e-20
-9.04084e-05 0.000250354 2.66785e-20
2.82983e-05 0.00017165 5.09317e-20
-0.000250292 0.000162871 8.85242e-20
-0.000598689 -0.000598691 9.06463e-20
0.000606149 -0.000606194 2.09184e-20
5.29887e-05 0.000137701 1.69772e-20
0.000608347 -0.000643854 -7.12438e-20
-0.000653109 -0.000601319 1.27026e-19
0.000308066 -5.95213e-05 -1.5037e-19
0.000307428 5.98745e-05 -2.42532e-20
0.000142721 5.00866e-05 -6.91216e-20
0.000288754 -0.000195419 -2.04939e-19
0.000288093 0.000195927 -6.0633e-20
9.14077e-05 0.000178087 2.78912e-20
-0.000250267 0.000462526 1.79474e-19
-0.000250582 -0.000459357 9.45875e-20
0.000212791 -0.000123798 -7.88229e-20
0.000212237 0.000123843 -5.45697e-20
-0.000336619 0.000147407 7.45786e-20
0.000279451 -0.000434335 -7.51849e-20
-0.000282744 0.000434678 9.33748e-20
0.000148506 -0.000176452 -2.54659e-20
-0.000292361 0.000549541 1.35818e-19
-0.000568401 0.000300968 1.13687e-19
2.20762e-05 0.000170328 4.85064e-20
-2.47785e-05 -0.000169615 -4.24431e-20
0.000603246 -0.000249909 -7.27596e-20
0.000603301 0.000249931 6.91216e-20
3.22792e-05 -5.7312e-05 -6.4271e-20
0.000200945 0.000112507 -5.3357e-20
0.000201497 -0.000108859 -6.18456e-20
-0.000122027 -8.34565e-05 -1.45519e-20
-5.2652e-05 -0.000135004 7.51849e-20
-0.000354966 -7.35858e-05 -8.12482e-20
0.000248456 5.52318e-05 -1.21266e-20
-0.000307963 -4.37227e-05 -2.98921e-19
-0.000226214 -0.000188199 -8.85242e-20
-0.000259825 -0.000449979 5.21444e-20
-0.000260608 0.000451335 2.15853e-19
-0.000273185 -0.000300233 5.39634e-20
-0.000199299 0.000116107 -1.09139e-20
0.000196693 -0.000104991 -8.48862e-20
4.70172e-05 -0.000490847 5.6995e-20
-4.8245e-05 0.000491726 -7.51849e-20
-0.000233061 0.000206878 2.30405e-20
1.67763e-05 0.00022392 3.15291e-20
-1.72189e-05 -0.000225803 1.27329e-19
0.000144185 -5.09812e-05 -6.4271e-20
0.00013923 4.78903e-05 -7.63976e-20
0.000325148 0.000249551 4.06241e-20
0.000175282 -0.000164894 -9.70128e-20
0.00017351 0.000166453 -7.51849e-20
0.000194052 0.000106311 -3.75924e-20
9.20886e-05 -0.000249087 -7.27596e-21
0.000131116 -0.000118657 -7.76102e-20
0.00012667 0.000116803 -1.01863e-19
-0.000208595 9.44911e-05 -5.6995e-20
0.000110054 8.38578e-05 1.21266e-21
-0.000250883 -0.000172105 -4.91127e-20
-8.94975e-05 2.13597e-05 2.54659e-20
-3.33883e-05 5.54201e-05 6.18456e-20
0.000261827 -4.59043e-05 -3.88051e-20
-0.000204396 0.0001214 7.39722e-20
-0.000215867 -9.91098e-05 -3.06803e-19
-0.00016799 -0.000203603 1.81899e-21
-0.000192272 -0.000125923 -1.16415e-19
-4.32297e-06 -0.000232504 9.45875e-20
2.09678e-06 0.000231547 4.85064e-20
0.000320636 0.00013863 -2.60722e-20
-0.000122094 8.2894e-05 1.45519e-20
0.000160889 -0.000254601 -4.85064e-21
0.000158538 0.000254468 2.06152e-20
-0.000198728 0.000116138 -4.12304e-20
-8.11975e-05 0.000127821 -1.28542e-19
-8.32405e-05 -0.000136317 -1.00651e-19
-5.12331e-05 -0.000236347 3.27418e-20
-0.000186501 0.0001762 6.30583e-20
2.40353e-05 -0.000328965 6.0633e-20
4.38418e-05 0.000334882 9.21621e-20
0.000339599 1.91597e-05 -4.36557e-20
0.000338107 -0.000244875 2.18279e-20
0.000224389 0.000154552 -2.30405e-20
-0.000336611 0.00058316 -7.76102e-20
0.000336377 -0.000582625 8.60988e-20
0.000253004 5.2645e-05 -9.70128e-21
3.92208e-05 0.000135413 2.06152e-20
0.00014896 -5.44712e-05 -5.21444e-20
-4.83607e-05 0.000238127 8.48862e-21
7.0758e-05 -0.000140734 -8.12482e-20
-7.17094e-05 0.00013849 1.00651e-19
0.000112128 -8.48128e-05 -4.12304e-20
8.16719e-05 -1.80658e-05 3.63798e-20
-4.03168e-05 -0.000129493 -6.0633e-20
6.8363e-05 2.82472e-06 -5.3357e-20
0.000224044 -0.000162232 -6.79089e-20
-8.64819e-05 -2.38208e-05 -5.6995e-20
0.0002249 -0.000171284 -7.27596e-20
-0.000261898 0.00031943 1.38243e-19
-0.000138351 0.000105168 3.88051e-20
8.8945e-05 -0.000365928 2.30405e-20
9.25756e-05 0.000361057 7.27596e-20
0.000376526 9.44382e-05 -6.0633e-21
0.00022554 0.0001729 -1.45519e-20
4.20509e-07 0.000265193 9.45875e-20
-2.63681e-06 -0.000266373 4.00178e-20
0.000178793 -0.00032045 3.15291e-20
0.000178307 0.000328487 4.66874e-20
2.33499e-05 -7.12914e-05 -8.73115e-20
2.50799e-05 7.0426e-05 -6.66963e-20
0.000128659 9.62871e-05 -2.91038e-20
8.69554e-05 0.000125572 3.75924e-20
-0.000191903 -0.000114086 4.85064e-21
-0.000380633 -0.000292741 1.27329e-20
4.69707e-05 0.00024673 7.51849e-20
0.00023979 0.000123231 -3.63798e-20
0.000240531 -0.00012297 -8.12482e-20
0.000208037 0.000135877 -8.00355e-20
0.000201234 -0.000111874 -6.79089e-20
0.000200978 0.000112128 -3.88051e-20
-9.74485e-05 -0.00109996 7.15469e-20
0.00109211 -0.000165778 -1.3794e-19
4.73322e-05 -0.000242708 9.70128e-21
0.000384317 -0.000349796 -2.08577e-19
0.000383828 0.000350929 -4.48684e-20
-0.0004735 -2.79611e-05 7.39722e-20
-1.58762e-05 0.000207519 1.69772e-20
1.3949e-05 -0.00021065 8.73115e-20
-0.000171996 0.000250965 1.08533e-19
7.54479e-05 2.28751e-05 -4.00178e-20
-3.31122e-05 -6.49336e-05 -7.27596e-21
-0.000183909 0.00014583 8.60988e-20
0.000181487 -0.000147987 -3.51671e-20
0.000128045 -9.42428e-05 -6.30583e-20
-0.000141376 -9.58818e-05 -3.63798e-20
0.000208386 -0.000135197 -6.4271e-20
-0.000246491 -0.000154619 -1.36424e-19
0.000237578 -5.91771e-05 -5.3357e-20
3.40286e-05 6.15379e-05 2.78912e-20
-8.48194e-05 0.000173187 1.69772e-20
-4.96272e-05 -0.000240886 4.48684e-20
0.00018348 0.000114668 -5.09317e-20
4.8729e-05 0.000242448 8.12482e-20
-8.62666e-05 -0.000123227 9.45875e-20
-0.000292248 0.000551224 8.76147e-20
-0.000534698 0.000304292 1.81899e-21
0.000200443 -3.73886e-05 -4.48684e-20
0.000183977 -0.000114367 -4.60811e-20
0.000625957 -0.000304585 -1.22479e-19
0.000626238 0.000305151 1.21266e-21
3.93948e-05 -0.000137532 9.70128e-21
-0.000342826 0.000234045 -9.70128e-20
-0.000336103 -0.000239528 1.78261e-19
-0.000143819 -6.2842e-05 -2.13428e-19
-3.38423e-05 5.3449e-05 1.81899e-20
0.000309662 -0.000382716 1.69772e-20
-0.000371005 -0.000292291 1.03379e-19
0.000315556 -0.000452399 3.51671e-20
0.000291159 0.000426905 1.46732e-19
0.000468047 0.0002726 -7.51849e-20
2.88006e-05 -5.33018e-05 -1.21266e-21
-1.42768e-05 -0.00048671 5.36602e-20
0.000496594 -3.25648e-05 -1.00044e-19
0.000266279 0.000365585 -3.63798e-20
-0.000268488 -0.000365085 -1.94026e-20
-0.000167056 -0.000131855 -1.5522e-19
-7.20453e-05 5.32695e-06 -1.5037e-19
0.000171048 0.000266498 2.42532e-20
0.000173338 -0.000265065 1.09139e-20
-0.000164093 4.78222e-05 -1.24904e-19
8.69828e-05 -0.000174673 1.21266e-21
0.000261895 -0.000205519 -1.57646e-19
0.000260926 0.000206086 -7.51849e-20
-0.000201149 -0.000105816 1.21266e-21
-0.000140719 9.40673e-05 5.09317e-20
-0.000161492 -7.48908e-05 -2.00089e-19
-0.000306604 -0.000167966 -1.51582e-20
-4.11635e-05 0.00013867 -1.81899e-20
-0.000626905 0.000626913 1.46125e-19
-4.55336e-05 0.00024556 4.60811e-20
4.40889e-05 -0.000249915 3.15291e-20
4.68579e-05 -0.000491053 7.27596e-21
-4.83628e-05 0.000491573 -1.45519e-20
6.9041e-05 -0.000131227 -4.24431e-20
6.85084e-05 0.000126563 -1.09139e-20
-0.000238204 0.000125498 7.39722e-20
-0.000236376 -0.000121333 1.33393e-19
-0.000415974 -7.69473e-05 2.78912e-20
-0.000410249 7.86396e-05 3.31056e-19
0.000556132 -0.000308672 -1.15203e-19
0.000555857 0.00030927 3.03165e-20
0.000150029 7.84113e-06 -1.18841e-19
0.000147492 -3.71962e-06 2.78912e-20
0.000216437 -0.000102096 -1.1399e-19
-1.45083e-05 0.000216933 1.09139e-20
0.000186606 0.000139745 -6.54836e-20
1.3008e-05 -0.000216144 5.09317e-20
-0.000342561 0.000235058 1.76442e-19
0.000215101 0.000102823 1.21266e-20
-2.59127e-05 -0.000229626 4.85064e-21
-0.000150719 -2.94306e-06 -1.5037e-19
-0.000151477 1.58851e-06 -3.63798e-21
-0.000158888 0.000137439 -7.03343e-20
0.000273236 0.000473271 0
-0.000273557 -0.000473917 -3.88051e-20
-5.18948e-05 -0.00016572 7.63976e-20
-0.000202168 -0.000119531 -9.33748e-20
-2.87109e-05 -0.000265132 -8.36735e-20
0.000187747 -0.000138016 -3.39545e-20
0.00030451 0.00056828 6.79089e-20
0.000546791 0.000269202 -2.60722e-20
4.33867e-05 -0.000163089 -8.85242e-20
4.06082e-05 0.000158534 -1.04289e-19
-3.74493e-05 0.000278041 -1.40669e-19
2.25861e-05 0.000222964 6.18456e-20
0.000263409 -0.000138762 -6.66963e-20
0.000219261 -7.18547e-05 -1.09139e-19
0.000218748 7.19869e-05 -9.70128e-21
-0.000541964 2.95243e-08 2.42532e-21
-0.000542766 -2.91196e-08 1.03076e-19
4.09898e-05 -0.000128271 -7.27596e-21
-0.000207322 -0.000123772 -1.54008e-19
0.000172864 0.000194473 -6.0633e-20
0.000174623 -0.000193865 -9.94381e-20
5.4451e-05 0.000158627 4.9719e-20
2.42957e-05 4.36784e-05 3.63798e-21
0.000610705 0.000610707 4.30494e-20
-0.000179571 -6.14996e-05 -1.74623e-19
-0.000179314 5.76468e-05 9.09495e-20
-4.29393e-05 0.000127502 3.03165e-20
0.000263211 0.000138971 9.70128e-21
-0.00020333 0.000102359 1.07927e-19
-0.000262427 3.4213e-05 3.15291e-20
-0.000262181 -3.42213e-05 1.38243e-19
-0.000158735 7.5398e-05 -1.01863e-19
7.97285e-05 -0.000343737 -6.0633e-20
7.81167e-05 0.000344981 -5.3357e-20
0.000106306 0.000642798 -8.60988e-20
-0.000107701 -0.000642372 -7.63976e-20
-8.36649e-05 0.00110077 6.57868e-20
-0.00110188 6.07921e-05 2.32224e-19
0.000164369 2.31813e-05 -1.33393e-20
0.000163425 -2.35784e-05 -8.36735e-20
-1.87073e-05 -4.66361e-05 2.78912e-20
0.00059764 0.000755425 7.88229e-20
0.000744131 0.000589893 -9.54969e-20
0.000263102 0.000635071 1.12777e-19
0.000262851 -0.000634477 -3.03165e-20
-0.00019106 0.000112826 1.81899e-20
0.000163905 -0.00017874 -2.18279e-20
0.000175541 9.44494e-05 -3.75924e-20
0.000175954 -9.43936e-05 -8.97368e-20
0.00012332 -0.000124764 1.21266e-21
0.000162395 0.000181502 -2.66785e-20
-7.14936e-06 -0.000495688 7.76102e-20
4.73223e-06 0.000503294 5.6995e-20
0.000528222 -3.19543e-06 -1.06108e-19
0.00012337 0.000125074 -3.51671e-20
2.11508e-05 0.000519372 5.94203e-20
-0.000522415 -6.64394e-05 2.72848e-20
0.000234362 -3.86173e-05 -1.1399e-19
0.000234492 3.67323e-05 -5.09317e-20
0.000223233 -7.66059e-05 -1.26117e-19
0.000222905 7.68967e-05 -3.51671e-20
-0.000616416 0.000765795 1.37031e-19
-0.000756345 0.000616602 9.73159e-20
0.000185021 0.000101254 -4.85064e-20
0.000185363 -0.000101063 -2.78912e-20
6.36022e-05 0.000377369 -1.21266e-21
-6.50038e-05 -0.000376939 -2.42532e-21
0.000171426 6.90465e-05 -1.01863e-19
0.000168204 -6.83703e-05 2.18279e-20
0.000257495 -0.000245619 -1.27329e-19
0.00025648 0.000246534 -8.36735e-20
-0.000152554 3.58409e-05 -1.57646e-20
-0.000155876 -3.7471e-05 -1.21266e-20
0.000239812 0.000465428 1.81899e-20
0.00035556 0.000358314 3.88051e-20
0.000240624 -0.000463589 -6.91216e-20
0.000355437 -0.00035734 -8.73115e-20
-0.000256818 -0.000478262 3.03165e-20
-0.000539255 -8.77266e-06 2.14641e-19
-0.000539055 7.48334e-06 -7.39722e-20
0.00025467 0.000478088 -7.27596e-21
0.000433991 0.000179777 -5.94203e-20
0.00112876 0.000148526 -2.15853e-19
0.000433559 -0.000179595 1.81899e-20
0.00112887 -0.000148536 -1.07927e-19
0.000559516 -1.04934e-05 -8.00355e-20
0.000380126 0.000108291 -8.60988e-20
0.00052504 -0.000170135 -6.30583e-20
0.000559149 1.07746e-05 1.57646e-20
0.000379592 -0.00010812 3.63798e-21
0.000524683 0.000170364 -5.45697e-20
0.000401918 -0.000158805 -1.54008e-19
0.000406688 -0.000157319 -1.83112e-19
0.000401409 0.000159295 -2.78912e-20
0.000406277 0.000157779 -1.45519e-20
-9.30414e-05 -0.000256635 1.21266e-19
-3.50139e-05 0.000212262 -1.12777e-19
3.68689e-05 -0.00021125 1.28542e-19
-0.000190934 3.48218e-05 3.10441e-19
-0.000243993 6.34174e-05 2.26767e-19
-4.0483e-05 0.000275856 -1.21266e-19
4.23216e-05 -0.000274639 1.51582e-19
-0.000244167 -6.2866e-05 1.47944e-19
-8.18865e-05 -0.000128488 3.27418e-19
-0.000137844 -0.000309801 4.06241e-20
0.000139998 0.000317518 -1.95238e-19
0.000322468 0.000146001 -1.15203e-19
-0.000178787 -0.000184521 -3.63798e-21
0.000179007 0.000185862 -4.23218e-19
-0.000196222 0.000117497 9.45875e-20
-8.69249e-05 -0.000176339 1.47944e-19
-2.96289e-05 -0.000170062 1.06714e-19
-1.9628e-05 -0.00028178 6.79089e-20
2.11837e-05 0.000281879 -2.43745e-19
0.00019911 2.9728e-05 -1.51582e-19
-0.00010614 -0.000372834 1.22479e-19
0.000100512 0.000377955 -1.23691e-19
0.00039155 0.000103563 1.81899e-21
9.25651e-05 0.000253088 1.33393e-20
-0.000170998 -0.000172101 1.43094e-19
-0.000179535 -3.68349e-05 2.52233e-19
-0.000268545 -0.000556302 -6.0633e-22
-0.000158641 7.97765e-05 4.31707e-19
-7.97235e-06 0.00026322 -1.98876e-19
1.07208e-05 -0.000262356 7.03343e-20
-0.000591322 -0.000286613 8.12482e-20
-0.000589928 0.000296914 -1.85537e-19
-0.000128333 0.000173511 3.75924e-20
-0.000155245 0.000183744 6.91216e-20
-0.000357887 0.000115424 5.82077e-20
-0.000252515 -0.000122356 2.58297e-19
-0.000241723 0.000118442 1.69772e-20
-4.14365e-05 8.49607e-05 4.51109e-19
-7.45544e-05 -2.606e-06 4.24431e-19
-0.000257487 0.000168179 8.30672e-20
-0.000297295 -4.67125e-05 1.09139e-19
-0.000271262 5.44803e-05 1.10352e-19
2.68174e-05 0.000171832 -1.17628e-19
-8.46137e-05 0.000255086 -5.45697e-20
0.000154603 0.000180071 -2.30405e-20
-0.000602373 -0.000602354 -5.1538e-21
-0.000593109 0.000593085 3.33481e-21
5.34711e-05 0.00013829 -2.84975e-19
8.95039e-05 0.000178843 -7.63976e-20
-0.000594838 0.000646933 -3.33481e-21
-0.000627553 -0.00060357 -2.15247e-20
0.000306859 -6.09624e-05 -3.39545e-20
0.000308767 5.66154e-05 -2.65572e-19
0.000145432 4.96098e-05 -1.04289e-19
0.000287815 -0.000194992 -6.66963e-20
0.000289219 0.000194095 -1.90388e-19
-0.000250447 -0.000462955 5.57823e-20
-0.000250582 0.000459509 1.44306e-19
0.000212917 -0.000124357 1.94026e-20
0.000212433 0.000122031 -2.71636e-19
-0.000280019 0.000434731 -9.45875e-20
0.00028572 -0.000435656 3.63798e-20
0.000148168 -0.000176897 8.73115e-20
0.000291373 0.000550549 -3.6683e-19
0.000553052 0.000291462 -7.67007e-20
2.2634e-05 0.000170953 -1.51582e-19
-2.28557e-05 -0.000168477 1.44306e-19
0.000598838 -0.000248049 -6.18456e-20
0.000606162 0.000251043 -8.97368e-20
-0.000245852 -0.000170847 2.00089e-19
3.23364e-05 -5.40874e-05 6.66963e-20
0.000201301 0.000109158 -2.35256e-19
0.000201861 -0.00010989 7.88229e-20
-0.000123787 -8.4289e-05 1.00651e-19
-5.07663e-05 -0.00013453 3.15291e-20
-0.000225852 0.000188437 1.94026e-19
-0.000345176 -7.81379e-05 4.91127e-20
-0.000259889 0.000450067 -2.42532e-20
-0.000260803 -0.000451747 3.63798e-20
-0.000194354 -0.00011983 1.07927e-19
0.000194739 0.000103588 -2.40107e-19
-0.000276193 -0.00030023 1.33999e-19
4.92831e-05 -0.000493168 -1.21266e-21
-4.7266e-05 0.000491333 -6.4271e-20
-0.000233645 -0.000206998 2.74061e-19
1.78382e-05 0.000225494 -2.2798e-19
-1.53261e-05 -0.000225279 8.00355e-20
0.000142249 4.74593e-05 -9.94381e-20
0.000145215 -5.25484e-05 2.42532e-21
0.000326173 -0.000245115 4.91127e-20
0.000245082 5.28068e-05 -9.58001e-20
0.000175913 -0.000164886 1.69772e-20
0.000174646 0.000164147 -2.41319e-19
0.000198355 -0.000107037 6.79089e-20
9.28396e-05 -0.000248135 8.73115e-20
0.000132487 -0.000119305 4.60811e-20
0.00012835 0.00011532 -1.94026e-19
-0.000210212 -9.39086e-05 2.58297e-19
-0.000221002 0.000173886 7.82165e-20
0.000107697 8.33176e-05 -2.35256e-19
-9.20585e-05 2.23478e-05 1.12777e-19
-3.39468e-05 5.75151e-05 -3.88051e-20
0.000262565 4.35852e-05 -1.06714e-19
-0.000370907 0.000361227 3.94114e-20
-0.000204838 -0.000122313 3.16504e-19
-0.000211772 0.000100373 2.77699e-19
-0.000504284 8.24086e-05 -2.48595e-20
-0.000196351 0.000119848 1.60071e-19
-2.91597e-06 -0.000231728 1.40669e-19
4.35562e-06 0.000232499 -1.45519e-19
-0.000174292 -0.000207116 1.44913e-19
0.000322112 -0.000138814 2.42532e-20
-0.000122359 9.11998e-05 4.12304e-20
0.000160011 -0.000251353 1.18841e-19
-0.000168062 0.000271047 3.75924e-20
-0.000201569 -0.000119267 1.80686e-19
-8.13145e-05 -0.000127925 3.03165e-19
-8.3111e-05 0.000136628 4.5596e-19
-5.00455e-05 -0.000238015 1.52795e-19
4.65792e-05 0.000243576 -5.21444e-20
2.90544e-05 -0.000328722 7.51849e-20
-4.338e-05 0.000338439 -1.47338e-19
0.000343077 -3.73495e-05 7.27596e-21
0.000228052 -0.000152534 1.11565e-19
0.000337462 -0.000584549 -8.12482e-20
-0.00033662 0.000583094 -5.21444e-20
-0.000241666 -0.000145761 2.4617e-19
0.000253955 -5.61015e-05 -8.48862e-21
-0.000383772 -0.000304297 9.21621e-20
3.77261e-05 0.000136215 -1.20053e-19
0.00014911 -5.54486e-05 -6.0633e-21
7.05659e-05 -0.000136959 4.9719e-20
-7.23284e-05 0.000140724 -4.12304e-20
0.000227266 0.000320308 -1.19447e-19
0.000338035 0.000227463 -1.19447e-19
0.0001134 -8.59466e-05 8.36735e-20
-0.000483789 -2.18122e-05 8.91305e-20
7.91359e-05 -1.95261e-05 -2.80124e-19
-3.85919e-05 -0.000138598 1.09139e-19
6.91414e-05 1.76396e-06 -4.85064e-20
-8.01193e-05 -2.06663e-05 -4.00178e-20
-0.000183325 -0.000174902 1.45519e-19
9.00329e-05 -0.000363444 1.23085e-19
-8.61293e-05 0.00036278 -2.06152e-20
0.000371637 -9.76143e-05 -8.48862e-21
0.000228885 -0.000175782 1.54008e-19
2.75194e-06 0.000264742 -1.23691e-19
-1.21257e-06 -0.000265923 1.58858e-19
0.000182911 -0.000329557 5.21444e-20
-0.00017371 0.000346907 6.79089e-20
2.5755e-05 6.7559e-05 -3.51671e-20
2.46065e-05 -7.17125e-05 -3.51671e-20
0.000128664 9.73448e-05 -1.56433e-19
8.7625e-05 0.000126407 -1.5037e-19
-0.000188493 0.000115623 1.26117e-19
0.000240816 0.000121327 -2.34043e-19
0.000240271 -0.00012355 2.78912e-20
0.000201616 -0.000112689 7.76102e-20
0.000201196 0.00011039 -2.71636e-19
-0.00011683 -0.00108791 -7.57912e-21
0.000159887 0.000249887 7.88229e-21
-0.0011206 0.000131279 1.14596e-19
-0.000141719 -0.00010548 1.46732e-19
4.89746e-05 -0.000241885 1.43094e-19
-4.20961e-05 0.000249318 -1.90388e-19
0.00038213 -0.000347389 -3.75924e-20
0.000385842 0.000349736 -2.08577e-19
0.00020937 0.00013503 -1.27329e-19
0.000245548 -6.10074e-05 1.57646e-20
0.000228187 0.000158453 -2.66785e-20
-1.48452e-05 0.000209093 -2.01301e-19
1.5451e-05 -0.000210314 8.12482e-20
7.71391e-05 2.05051e-05 5.45697e-20
0.000208976 -0.000136068 1.6856e-19
-3.74538e-05 -6.22724e-05 3.88051e-20
-0.000181888 0.000147897 -9.33748e-20
0.000186098 -0.000144519 8.12482e-20
0.000128858 -9.51037e-05 8.12482e-20
-0.000143769 -9.78078e-05 9.33748e-20
2.95158e-05 6.32614e-05 -1.46732e-19
4.77406e-05 0.000240363 -1.27329e-19
-4.94219e-05 -0.000239777 1.56433e-19
0.000183729 0.000112923 -2.12215e-19
0.000229206 0.00017347 -2.18279e-20
-8.08467e-05 0.000175418 -6.4271e-20
-8.3694e-05 -0.000122994 0
0.000293392 0.000531977 -1.84627e-19
0.000539841 0.000292701 -1.13687e-19
-0.000335502 0.000250926 1.22479e-19
0.000184523 -0.00011516 1.30967e-19
0.000201072 -3.68204e-05 1.69772e-20
0.000628418 0.000304616 -1.85537e-19
0.000621565 -0.000302757 -3.75924e-20
4.09128e-05 -0.000138051 5.57823e-20
-0.000343041 -0.000234601 4.12304e-20
-0.000336594 0.000239714 -1.44306e-19
-0.000142633 6.10631e-05 3.92902e-19
-3.5795e-05 5.36278e-05 -1.1399e-19
-0.000282484 0.000376858 7.12438e-20
-0.00035462 -0.000303136 1.51582e-21
0.000303763 -0.000434945 1.05501e-19
-0.000276193 0.00045097 1.38243e-19
0.000455021 -0.000265339 -1.45519e-20
-0.000309982 -0.000167839 1.37637e-19
3.1567e-05 -5.3919e-05 3.63798e-20
-3.71578e-05 -0.000486646 9.48906e-20
-0.000460606 4.09824e-06 8.48862e-21
0.00026709 0.000366161 -5.14168e-19
-0.000267105 -0.00036527 -1.81899e-20
-0.000165118 0.000130595 3.14079e-19
-7.23327e-05 -5.29168e-06 4.75363e-19
-0.000164475 0.000268371 6.48773e-20
0.000173965 -0.000263122 9.88318e-20
-0.000164531 -4.87533e-05 4.1473e-19
8.77929e-05 -0.000174634 6.30583e-20
0.000261276 -0.000204971 -6.30583e-20
0.000262326 0.000204166 -1.3218e-19
-0.000202189 0.000106396 1.40669e-19
-0.000125869 9.28519e-05 6.18456e-20
-0.000162337 7.54158e-05 3.9654e-19
-3.72878e-05 0.000151165 -1.21266e-21
0.000623296 0.000623319 -7.48817e-20
4.55736e-05 -0.000249443 1.17628e-19
-4.23019e-05 0.000248872 -1.60071e-19
-4.69527e-05 0.000491739 -2.89826e-19
4.99425e-05 -0.000492313 -4.85064e-21
7.0561e-05 -0.00013175 -1.94026e-20
6.98932e-05 0.000125104 -8.12482e-20
-0.000239645 -0.000126027 2.37681e-19
-0.000234543 0.00012137 1.05501e-19
-0.000415993 7.56412e-05 9.58001e-20
-0.000410522 -7.75521e-05 -1.81899e-20
0.000551811 -0.000306842 -8.48862e-21
0.00055967 0.00030864 -1.6856e-19
0.000151002 5.61868e-06 3.15291e-20
0.000143691 -5.45509e-06 -3.46821e-19
0.000216983 0.000100181 -1.56433e-19
-1.325e-05 0.000219729 -1.47944e-19
1.45268e-05 -0.000215711 8.73115e-20
0.000215604 -0.000104326 1.5037e-19
-2.39731e-05 -0.000227693 1.58858e-19
2.35424e-05 0.000225889 -1.06714e-19
0.000187676 0.000139131 -5.3357e-20
-0.000151542 2.17183e-07 1.09139e-19
-0.000153078 -1.76236e-06 -6.30583e-20
0.000187534 -0.000139815 1.98876e-19
-0.000160422 -0.000138449 3.2378e-19
0.00027356 0.000473922 -2.71636e-19
-0.000273598 -0.000473934 -8.48862e-20
-4.99986e-05 -0.000165656 5.3357e-20
-0.000201369 0.000117817 2.61934e-19
-2.86648e-05 0.000265252 2.44957e-19
0.000316817 -0.000558867 2.06758e-19
0.000550046 -0.000261719 2.36469e-20
4.55218e-05 -0.000162845 1.33393e-20
4.15967e-05 0.00015839 -1.46732e-19
-3.75064e-05 -0.000278351 1.89175e-19
0.000265346 0.000138191 -8.97368e-20
0.000219289 -7.31899e-05 4.12304e-20
0.000218988 6.98709e-05 -2.92251e-19
-0.000541853 -4.67418e-08 3.88051e-20
-0.000542803 1.81265e-08 6.30583e-20
4.25881e-05 -0.000128323 4.85064e-20
-0.000202828 0.00011895 2.4617e-19
0.000173944 0.000192591 -2.35256e-19
0.000175273 -0.00019347 7.63976e-20
5.52109e-05 0.000160168 -2.12215e-19
2.83201e-05 4.61072e-05 -8.00355e-20
0.000605065 -0.000605056 1.24298e-19
-0.000182763 6.03899e-05 1.27329e-19
-0.000179407 -5.65382e-05 -1.33393e-20
-4.12624e-05 0.000130846 -8.48862e-20
0.000259365 -0.000139807 9.58001e-20
-0.000203536 -0.000102134 2.54659e-19
-0.000265559 -2.84004e-05 1.18841e-19
-0.00026094 4.38671e-05 8.73115e-20
-0.000159205 -7.45913e-05 2.94676e-19
7.88655e-05 0.000343671 -2.58297e-19
8.14363e-05 -0.000341337 -6.0633e-21
0.000107227 0.00064284 -2.32831e-19
-0.000105918 -0.000644234 1.45519e-20
4.99564e-05 0.00107956 4.82032e-20
0.00108864 7.49928e-05 -8.73115e-20
0.000164046 -2.5487e-05 7.15469e-20
0.000163575 2.08873e-05 -3.03165e-19
-1.67838e-05 -4.71368e-05 1.94026e-20
0.000590236 -0.000735981 2.00998e-19
0.000717901 -0.000587662 9.94381e-20
0.000263549 0.000636082 -1.8675e-19
0.000261126 -0.000630246 1.69772e-20
-0.000191277 -0.000112712 1.5037e-19
0.000164438 -0.000179309 1.16415e-19
0.000176434 -9.54946e-05 1.33393e-19
0.000174851 9.28201e-05 -2.88613e-19
0.000124106 -0.000125794 1.27329e-19
0.000162736 0.000181492 -7.03343e-20
-1.30645e-05 0.000477561 -4.66874e-20
-6.29221e-06 -0.000519029 1.08533e-19
0.000495955 -1.63028e-05 -2.00089e-20
0.000123472 0.000123977 -1.20053e-19
-5.22249e-05 0.000528064 -1.21569e-19
0.000521998 -3.8679e-05 -5.5176e-20
0.000234139 -4.03446e-05 2.91038e-20
0.00023388 3.4478e-05 -3.39545e-19
0.00022316 -7.78214e-05 4.60811e-20
0.000222476 7.39908e-05 -3.16504e-19
0.000611368 0.000752178 -1.4946e-19
0.000755803 0.000611991 3.88051e-20
0.000185191 0.000100241 -2.17066e-19
0.000185893 -0.000102199 1.63709e-19
6.46185e-05 0.000377938 -3.10441e-19
-6.29521e-05 -0.000377151 -2.18279e-20
0.000172057 6.58503e-05 5.94203e-20
0.000165607 -7.38183e-05 -3.43183e-19
0.000256947 -0.000244459 -1.21266e-21
0.000257835 0.000244901 -2.07365e-19
-0.000153783 -3.63325e-05 1.34605e-19
-0.000163587 4.03772e-05 8.00355e-20
-0.000255414 -0.000478654 -7.27596e-20
-0.000538579 -8.43723e-06 -2.30405e-20
-0.000538997 9.49649e-06 7.39722e-20
0.000255483 0.000478613 -4.09879e-19
0.000240966 0.000464421 -2.66785e-19
0.000356677 0.000357353 -1.12777e-19
0.000240112 -0.000459525 2.30405e-20
0.000353078 -0.000354979 1.57646e-20
0.000429154 0.000177787 -6.91216e-20
0.000439672 -0.00018208 -2.18279e-20
0.00113424 -0.000149297 -5.3357e-20
0.00112049 0.000147484 -2.32831e-19
0.000554684 -1.24757e-05 -5.09317e-20
0.00037791 0.000104566 -3.27418e-20
0.000564045 6.49071e-06 -1.75836e-19
0.000381507 -0.000114401 -2.94676e-19
0.000528642 0.00017033 -9.94381e-20
0.000520878 -0.000169034 -5.45697e-20
0.00039941 -0.000158863 1.21266e-21
0.00040421 -0.000157368 -1.09139e-20
0.000403621 0.000156969 -2.89826e-19
0.000408435 0.00015547 -1.95238e-19
-3.38412e-05 0.000211 -4.00178e-20
2.61176e-05 -0.000232581 9.09495e-20
-0.000189327 -3.70032e-05 -1.12777e-19
-0.000237217 -6.5249e-05 -9.45875e-20
-3.91701e-05 0.000272923 -1.79474e-19
2.36576e-05 -0.00026121 4.00178e-20
-0.000253351 6.08518e-05 -1.46732e-19
-7.87608e-05 0.000126726 -2.91038e-20
-0.000134151 0.000329326 -4.85064e-21
-0.000128279 -0.000321693 7.27596e-21
0.000328894 0.000132198 -1.95845e-19
0.000185248 -0.000174118 5.82077e-20
0.000177413 0.000183988 9.21621e-20
-0.000184499 -0.00012482 -1.81899e-20
5.17466e-05 -0.000255275 1.01863e-19
2.12205e-05 0.000278907 6.79089e-20
0.000197694 -4.6503e-05 -7.39722e-20
-8.83713e-05 -0.000397126 2.48595e-20
-0.000107325 0.000380832 -4.85064e-21
0.000392347 9.13226e-05 -1.36424e-19
-0.000262625 5.67722e-05 -8.42798e-20
9.97331e-05 0.000247649 -6.54836e-20
0.000124359 -0.000282266 -7.51849e-20
-0.000178657 3.09153e-05 -1.21266e-19
-0.000269785 -0.000585271 -3.03165e-21
-0.00015285 -8.05699e-05 -9.45875e-20
0.000584357 0.000277399 -1.73107e-19
-7.41107e-06 0.000260581 -5.21444e-20
4.69004e-05 -0.000252174 6.54836e-20
-0.000588997 0.000286336 1.70985e-19
-0.000573086 -0.000296606 9.33748e-20
-0.000385201 0.000121137 -1.36424e-19
-0.000119017 -0.000176698 -5.3357e-20
-0.000231065 -0.000122389 4.24431e-20
-0.000249398 0.000121289 3.63798e-21
-3.91635e-05 -8.55866e-05 -5.6995e-20
0.000154079 0.000175225 -1.06714e-19
0.000169593 -0.000221959 -1.04289e-19
-0.000246893 0.000161397 -1.55827e-19
-7.13199e-05 -9.60258e-07 -6.18456e-20
-0.00015869 -0.000189428 -3.63798e-20
-0.000162442 0.000172553 -1.79474e-19
-6.99467e-05 -0.000261911 -2.54659e-20
-8.97232e-05 0.000250639 -1.06714e-19
7.83207e-05 -0.00020901 3.63798e-21
2.89614e-05 0.000170595 -6.91216e-20
-0.000251943 0.000160961 -1.33999e-19
-0.000628624 -0.000628681 -8.54925e-20
0.000624533 0.000624627 -1.21266e-19
6.67687e-05 -0.000129265 4.60811e-20
5.3288e-05 0.00013698 3.39545e-20
0.000627053 0.000667468 -1.34908e-19
-0.000657294 -0.000630067 -1.97057e-19
0.000302365 5.28508e-05 7.27596e-21
0.0002434 -0.000132621 -6.4271e-20
0.000141139 -6.68894e-05 -4.85064e-20
0.00028345 0.000185836 -2.42532e-21
0.000231772 -0.000214531 -1.21266e-19
9.40597e-05 0.000176421 -4.48684e-20
0.000119314 -0.000219084 -1.69772e-20
-0.000240471 -0.000459537 9.58001e-20
-0.000247459 0.0004644 -6.91216e-20
0.000210063 0.000114837 -1.15203e-19
0.000192511 -0.000161918 -9.70128e-20
-0.000339918 0.000142674 -7.15469e-20
-0.000276364 0.000429865 -1.57646e-19
-0.000123077 -0.000351379 -2.42532e-21
-0.000301998 0.000565214 6.51805e-20
-0.000574589 0.000298129 -1.00954e-19
2.40468e-05 0.00016955 -1.16415e-19
6.34386e-05 -0.000205848 2.42532e-20
0.000590944 0.000244856 -2.30405e-20
0.00046535 -0.000192664 1.916e-19
0.000200249 9.73189e-05 -1.60071e-19
0.000189231 -0.00013409 1.33393e-20
-0.000355975 -8.14017e-05 -1.23691e-19
0.000252154 -7.57082e-05 -3.88051e-20
-0.000303413 -4.80033e-05 -1.0732e-19
-0.000215814 -0.000189638 -7.27596e-21
-0.000260224 0.000450586 8.60988e-20
-0.000256135 -0.000443647 7.63976e-20
-0.000268005 -0.000311709 4.30494e-20
-0.000198935 0.000114213 -2.03727e-19
0.000197084 9.47698e-05 -2.42532e-19
3.94389e-06 -0.000382273 -4.85064e-21
-4.63957e-05 0.000485803 -9.82254e-20
-0.000230493 0.000206085 6.18456e-20
5.01914e-05 -0.00022873 5.3357e-20
1.79615e-05 0.00022313 4.72937e-20
0.000142694 3.748e-05 -1.26117e-19
0.000131156 -6.06104e-05 1.94026e-20
0.000341916 -0.000281236 -1.437e-19
0.000171604 0.000151579 -4.00178e-20
0.000150926 -0.000174219 1.81899e-20
0.000190574 -0.000135297 5.3357e-20
0.000129221 0.000107205 -9.70128e-20
0.000117009 -0.000138278 -1.00309e-36
-0.000206707 9.24499e-05 -1.04289e-19
0.000107816 7.99086e-05 1.10352e-19
0.000130371 -0.000152861 -1.18841e-19
-0.000248736 -0.000176166 6.0633e-21
3.8821e-05 -0.000134597 -1.21266e-20
-3.18446e-05 5.60141e-05 1.21266e-21
0.000265722 3.26714e-05 -2.41319e-19
-0.000202732 0.000119904 -8.85242e-20
-0.000210609 -0.000103585 -9.94381e-20
-0.000159845 -0.000214999 4.85064e-21
-0.000184839 -0.000133799 -4.9719e-20
3.44902e-05 -0.000236889 5.6995e-20
3.90797e-06 0.000230431 4.12304e-20
0.000336918 -0.000158624 -1.15203e-19
-0.000121136 8.26539e-05 -1.45519e-20
-0.000111679 -9.65583e-05 4.60811e-20
0.00017746 -0.000287182 -7.51849e-20
0.000162912 0.000248907 -1.39456e-19
-0.000196733 0.000114334 -1.40669e-19
-7.71052e-05 0.000125098 -5.3357e-20
-7.63948e-05 -0.000131755 -6.79089e-20
-0.000185841 0.00017571 -2.32831e-19
4.2035e-05 -0.000351866 1.03076e-20
4.61537e-05 0.000336225 4.85064e-20
0.000349043 -3.33747e-05 -7.57912e-20
0.000344983 0.000238262 -2.13428e-19
0.000237346 -0.000182661 -1.45519e-20
-0.000270989 -0.000469462 3.63798e-20
-0.000332948 0.000576658 1.81899e-20
0.000258336 -7.21913e-05 -2.42532e-20
4.04289e-05 0.000132556 3.63798e-20
8.39879e-05 -0.000190201 9.70128e-21
0.000147568 4.10431e-05 -1.5522e-19
-3.1283e-05 -0.000251081 -4.72937e-20
-4.70291e-05 0.000238227 -3.51671e-20
-7.01236e-05 0.000138988 -1.11565e-19
1.99199e-05 -0.000175581 -3.63798e-20
7.99128e-05 -2.03336e-05 1.87962e-19
0.000113329 -9.16796e-05 -8.48862e-20
6.6506e-05 -1.26436e-05 7.63976e-20
0.000228881 0.000153113 -3.14079e-19
-7.08901e-05 1.56673e-05 5.82077e-20
-8.57031e-05 -2.35002e-05 -2.78912e-20
0.000229885 0.000166436 -2.75274e-19
-0.0002638 0.000320818 -1.10352e-19
-0.000137617 0.000104579 -1.44306e-19
0.000114792 -0.000390938 -6.66963e-20
9.74375e-05 0.000363773 -7.94292e-20
0.000389928 -0.000116702 1.03076e-20
0.000239189 -0.000212017 -3.63798e-21
2.17528e-06 0.00026517 -3.88051e-20
3.20658e-05 -0.000285646 -2.66785e-20
0.000197428 -0.000358924 -1.34605e-19
0.000185935 0.000318407 -1.26723e-19
2.39368e-05 5.74343e-05 2.42532e-21
2.19974e-05 -8.21742e-05 1.28542e-19
0.000128775 9.39134e-05 7.15469e-20
0.000145787 -0.000163158 -6.91216e-20
9.03853e-05 -0.000121052 3.15291e-20
8.68149e-05 0.00012501 -3.88051e-20
-0.000176792 -0.000122255 3.63798e-21
-0.000378092 -0.000309011 -8.67052e-20
7.04248e-05 -0.000279739 -6.54836e-20
5.01959e-05 0.000245323 -7.03343e-20
0.000235696 0.000114072 -1.57646e-20
0.000196742 -0.000161823 -1.58858e-19
0.000208178 -0.000177233 6.30583e-20
0.000199657 0.00010409 -1.98876e-19
0.000187295 -0.000156491 -1.94026e-20
-0.000116548 -0.00114072 -6.30583e-20
0.001132 0.000164202 -8.8221e-20
0.00037652 0.000338873 1.05501e-19
0.000295385 -0.000327979 -4.12304e-20
0.000209168 0.000128545 -2.63147e-19
-0.000473851 -3.60375e-05 -1.60071e-19
4.79285e-06 -0.000205929 2.66785e-20
-1.49314e-05 0.000206607 3.39545e-20
-0.000171998 0.000250916 -2.04939e-19
-0.000179274 0.000146127 -1.37031e-19
-6.48369e-05 -0.000181129 7.27596e-21
-0.000245892 -0.000167366 -5.82077e-20
0.000240526 4.64606e-05 -1.79474e-19
3.08052e-05 6.17028e-05 1.06714e-19
8.5137e-05 -0.000138798 -4.72937e-20
-6.75552e-05 -0.000180216 -3.63798e-21
-8.40835e-05 0.000172848 -4.85064e-20
0.000183512 0.000106428 -2.60722e-19
0.000184609 -0.000156881 3.88051e-20
5.16004e-05 0.000241903 -2.06152e-20
7.66118e-05 -0.000264668 -3.63798e-21
-0.000303926 0.000543484 2.06152e-19
-0.000541609 0.000301384 5.12349e-20
0.000201056 2.32993e-05 -2.0979e-19
0.000612056 0.000295681 3.03165e-20
0.00050018 -0.000276467 9.09495e-20
-0.000340556 0.000234306 8.48862e-20
-0.000323195 -0.000240163 6.18456e-20
-0.000139936 -6.54707e-05 -8.24609e-20
-2.62897e-05 -5.90347e-05 6.91216e-20
-3.3311e-05 5.34161e-05 -6.54836e-20
0.000310563 0.000386874 -1.18537e-19
-0.000363622 -0.000308335 -1.18841e-19
0.00032028 -0.000466046 -2.24342e-19
0.000314468 0.00044243 -9.03431e-20
0.000487033 -0.000295031 -1.42488e-19
-3.34037e-05 -0.000511874 -9.82254e-20
0.000511591 2.53616e-05 -8.79178e-20
0.000264531 0.000362332 1.09139e-19
0.000255663 -0.000318206 3.39545e-20
-0.000159049 -0.000135568 -1.09139e-19
-6.90706e-05 1.75912e-06 -3.15291e-20
0.000190488 -0.000299709 -9.33748e-20
0.000179613 0.000264766 -1.84324e-19
-0.000161353 4.52115e-05 -1.17628e-19
0.000255576 0.000196318 4.85064e-21
0.00020697 -0.000223811 -3.27418e-20
-0.000194075 -0.000112244 -1.45519e-20
-0.000139893 9.39045e-05 -1.04289e-19
-0.000117313 -9.92474e-05 -3.63798e-21
-0.000153358 -7.99712e-05 -9.70128e-20
-0.000301372 -0.000179686 -3.21355e-20
-4.05376e-05 0.000138423 -6.30583e-20
-2.3686e-05 -0.000149478 -8.48862e-21
-0.000629874 0.000629787 9.42843e-20
-4.43415e-05 0.000245295 1.33393e-20
-2.78179e-05 -0.000260066 -3.39545e-20
-4.59424e-05 0.000486391 -1.18841e-19
2.09602e-05 -0.000404333 9.33748e-20
6.61844e-05 0.000112857 -2.42532e-21
6.12643e-05 -0.000132916 4.36557e-20
-0.000222127 -0.000126034 -1.69772e-20
-0.000236528 0.00012496 -2.78912e-20
-0.000395607 7.05731e-05 3.15291e-20
-0.000413621 -7.6359e-05 -1.33393e-20
0.000546451 0.000299516 7.88229e-20
0.000403835 -0.000282125 8.00355e-20
0.000142511 -6.68169e-06 1.09139e-19
0.00015027 -9.97287e-05 -1.49157e-19
0.000218251 9.16675e-05 -2.78912e-19
7.34833e-06 -0.000223504 -3.63798e-21
-1.34514e-05 0.000216796 -1.69772e-20
0.000200058 -0.0001787 -4.12304e-20
-0.00034616 0.000234664 -6.18456e-20
0.000218111 -0.00013073 9.09495e-20
0.000190285 0.000131128 -2.44957e-19
-0.000149583 -2.74418e-06 5.3357e-20
-0.000140999 -4.67858e-06 6.0633e-20
-0.000156018 0.000136368 -2.42532e-20
0.000270683 0.000468997 2.78912e-19
0.000237633 -0.000411543 -1.81899e-20
-0.00019367 -0.000124455 -1.69772e-20
-1.95219e-05 -0.000266078 -1.94026e-20
0.000333436 -0.000590865 -2.04636e-19
0.000575098 -0.000291223 -1.27936e-19
3.6494e-05 0.000149729 -5.21444e-20
3.14252e-05 -0.000167122 2.18279e-20
-3.25464e-05 0.000278092 -4.48684e-20
6.39213e-05 -0.000255211 1.21266e-20
2.45497e-05 0.000221741 -6.4271e-20
0.000267372 0.000130066 -3.40757e-19
0.000216221 6.58136e-05 -4.00178e-20
0.000195248 -0.000140101 -3.88051e-20
-0.000526016 -1.87586e-08 4.60811e-20
-0.00053956 -4.51282e-08 8.24609e-20
-0.000199927 -0.000129026 -4.85064e-20
0.000170868 0.000183798 3.88051e-20
0.000150071 -0.000211521 -9.94381e-20
5.47665e-05 0.00015816 6.66963e-20
6.92894e-05 -0.000161085 6.18456e-20
3.87894e-05 -5.13816e-05 4.36557e-20
2.4601e-05 4.36879e-05 -7.88229e-20
0.000634643 -0.000634556 -8.60988e-20
-0.000167784 4.98562e-05 3.15291e-20
-0.000178267 -6.09641e-05 9.70128e-21
-4.23337e-05 0.000127123 -4.36557e-20
-2.72027e-05 -0.000131903 5.57823e-20
0.000269863 -0.000169606 -1.21266e-21
-0.000201722 0.000101869 -8.36735e-20
-0.000250192 -4.64612e-05 4.85064e-20
-0.000260621 3.41549e-05 -2.54659e-20
-0.000155859 7.29798e-05 -3.75924e-20
7.32478e-05 0.000332451 -3.75924e-20
6.29498e-05 -0.000323677 1.07927e-19
0.000106392 0.000635822 2.78912e-20
0.000127776 -0.000523129 1.94026e-20
-6.34162e-05 0.00112473 -7.00311e-20
-0.00111948 5.17422e-05 -2.91038e-20
0.000162648 1.86636e-05 8.97368e-20
0.00016524 -0.000113896 -1.44306e-19
0.00062181 -0.000772226 -9.73159e-20
0.000774249 -0.000612833 -2.5769e-20
0.000220101 -0.000531049 9.70128e-21
0.000256336 0.000618838 -2.36469e-19
-0.000189681 0.000112141 -1.33393e-19
0.000173514 8.80312e-05 -2.30405e-20
0.000171303 -0.000152554 -9.94381e-20
0.000163702 0.000176917 -7.27596e-20
0.000174486 -0.000222817 -6.0633e-20
4.53594e-06 -0.000551354 3.81988e-20
1.24347e-05 0.000481374 3.39545e-20
0.000549279 -9.62954e-06 -9.70128e-20
0.000124078 0.000119478 -4.60811e-20
0.000143151 -0.000177516 -8.24609e-20
5.40269e-05 0.000530978 -2.12215e-21
-0.000527461 -7.82126e-05 -7.9126e-20
0.000230302 3.17396e-05 8.00355e-20
0.000202867 -0.000121164 -9.09495e-20
0.000219389 6.9556e-05 7.15469e-20
0.000196859 -0.000142003 -4.72937e-20
-0.000620053 0.00075994 1.46429e-19
-0.000766957 0.000618861 1.92207e-19
0.00018469 9.60508e-05 -1.52795e-19
0.000184055 -0.000161706 -1.09139e-19
9.62863e-05 -0.000327486 5.82077e-20
6.4289e-05 0.000373969 5.45697e-20
0.000163936 -7.35236e-05 1.69772e-20
0.000163427 -5.86399e-05 -1.29755e-19
0.000251425 0.00023411 1.04289e-19
0.000204595 -0.000245455 5.45697e-20
-0.000150016 -4.80531e-05 5.94203e-20
-0.000151479 3.57777e-05 -4.48684e-20
0.000246276 -0.000409299 1.09139e-20
-0.00052041 -1.39783e-05 2.54659e-20
-0.000536463 7.89234e-06 1.23691e-19
0.000253043 0.000473573 2.49808e-19
0.000233509 0.000451825 -1.10352e-19
0.000347319 0.000346501 1.06714e-19
0.000191092 -0.000419087 1.38243e-19
0.000287171 -0.000330127 3.39545e-20
0.000430453 -0.000178221 -7.76102e-20
0.00110585 -0.000145409 -1.07927e-19
0.000870725 0.000114833 2.26767e-19
0.000249945 0.000103606 -1.41881e-19
0.000551165 4.82642e-06 -1.10352e-19
0.000373451 -0.000112892 -6.66963e-20
0.000516416 0.000165598 -1.23691e-19
0.000384026 -9.95879e-05 -6.0633e-20
0.000373645 -0.000147697 1.23691e-19
0.00028703 -3.53761e-05 -1.10352e-19
0.000394925 0.000150794 -7.63976e-20
0.000398528 0.000149672 5.09317e-20
0.000299857 -0.000192332 -4.36557e-20
0.000311549 -0.000188687 -1.43094e-19
3.42391e-05 7.57005e-06 -3.75924e-20
2.85426e-05 1.67681e-05 3.75924e-20
7.85154e-05 -1.91436e-06 -5.6995e-20
2.74953e-05 -3.89231e-06 -7.39722e-20
2.78485e-05 -3.69793e-06 -5.6995e-20
2.48446e-05 5.97486e-05 -2.18279e-20
8.25028e-05 -4.83299e-05 -3.39545e-20
2.65865e-05 5.35509e-06 -1.01863e-19
7.20352e-05 6.07881e-05 -1.38243e-19
2.97299e-05 3.20771e-06 -3.39545e-20
2.9966e-05 -2.89311e-06 -7.76102e-20
2.5689e-05 4.24406e-08 -5.94203e-20
0.00016112 -4.12506e-06 -5.57823e-20
-1.63457e-05 -2.98234e-05 4.60811e-20
3.43157e-05 1.97127e-05 -9.94381e-20
5.63604e-05 1.86438e-05 -6.91216e-20
6.85681e-05 5.21281e-05 -8.00355e-20
3.59766e-05 -6.18065e-05 -3.63798e-21
2.15286e-05 2.03028e-06 -7.03343e-20
3.12173e-05 3.20193e-07 -8.00355e-20
3.13275e-05 -2.7877e-07 -8.24609e-20
2.42218e-05 9.89342e-07 -4.24431e-20
2.55571e-05 1.71668e-05 -1.81899e-20
2.01905e-05 2.54212e-06 -1.10352e-19
1.10147e-05 1.64072e-05 -1.21266e-20
2.72171e-05 4.46773e-06 7.27596e-21
3.01671e-05 3.92645e-06 -1.27329e-19
2.79389e-05 -1.10389e-07 -4.24431e-20
3.4669e-05 -3.61517e-05 -5.57823e-20
2.4264e-05 -7.60245e-07 -9.09495e-20
5.94593e-05 4.6297e-05 -2.91038e-20
6.66629e-05 -4.21707e-05 3.88051e-20
-0.000303088 -0.0001541 0
-0.000303781 0.000145888 -8.24609e-20
2.39487e-05 5.68583e-07 -7.76102e-20
1.48056e-05 2.08916e-05 -3.63798e-21
-5.81483e-05 -1.85357e-05 8.97368e-20
-6.74936e-05 2.17145e-05 -6.4271e-20
9.07003e-05 -3.8626e-05 -9.82254e-20
2.78154e-05 3.67025e-06 -3.75924e-20
1.92937e-05 -3.42163e-06 -1.28542e-19
7.55892e-05 -2.1043e-07 -1.21266e-19
2.56458e-05 -1.65733e-05 -9.70128e-20
3.4006e-05 -7.59574e-06 -1.18841e-19
1.83727e-05 1.3862e-05 -1.09139e-20
2.41155e-05 -3.00568e-06 -1.00651e-19
3.41902e-05 -5.48284e-06 1.21266e-20
2.91832e-05 -1.10871e-05 -5.57823e-20
9.37763e-05 -2.96308e-05 -9.45875e-20
2.97757e-05 -1.07945e-06 -5.82077e-20
2.30243e-05 -6.02156e-06 -3.63798e-20
4.68486e-05 -2.54934e-06 2.54659e-19
4.68727e-05 2.52744e-06 -4.85064e-21
1.52964e-05 4.33784e-06 -6.4271e-20
4.38985e-05 -2.33086e-05 1.80686e-19
4.39169e-05 2.3326e-05 4.24431e-20
2.75151e-05 8.20527e-06 1.21266e-20
-7.8561e-05 -0.000288918 7.27596e-21
-7.89201e-05 0.000289959 -9.21621e-20
3.21549e-05 -1.0679e-05 1.98876e-19
3.21324e-05 1.06763e-05 -7.03343e-20
2.40498e-05 6.16612e-07 -4.24431e-20
0.000221896 -0.000150401 -1.45519e-20
-5.37239e-05 0.000123967 -1.57646e-20
2.78117e-05 -3.66172e-06 -8.24609e-20
2.81307e-05 -3.13515e-07 -4.12304e-20
2.33566e-05 1.07581e-06 -4.9719e-20
2.93435e-05 1.61945e-05 5.21444e-20
5.14277e-05 1.74898e-05 -3.39545e-20
8.96685e-05 -3.71444e-05 7.27596e-20
8.97333e-05 3.71713e-05 2.18279e-20
8.58698e-05 7.32689e-05 -7.15469e-20
2.66949e-05 -9.62532e-06 1.69772e-19
2.66182e-05 9.94559e-06 -1.03076e-19
2.63898e-06 4.51599e-05 8.48862e-21
1.1855e-05 -1.88148e-05 3.15291e-20
2.40957e-05 -4.50047e-07 -1.11565e-19
2.15411e-05 -2.07299e-06 -8.73115e-20
-4.16505e-05 -9.13091e-05 1.94026e-20
-0.000133397 0.000231004 -3.88051e-20
-0.000134228 -0.000232445 -2.91038e-20
2.46072e-05 3.56261e-06 2.91038e-20
1.33694e-05 2.40723e-06 -8.36735e-20
2.13269e-05 5.45508e-06 -9.82254e-20
3.46097e-05 0.000145465 -8.24609e-20
6.64028e-05 -0.000188202 2.42532e-20
-4.94547e-05 0.000102642 -1.15203e-19
6.60353e-05 8.77599e-06 -4.24431e-20
3.93225e-05 -1.78898e-05 -5.6995e-20
1.70209e-05 -5.73107e-06 1.27329e-19
1.67161e-05 5.29688e-06 -7.76102e-20
2.59216e-05 -1.67096e-06 -4.72937e-20
2.16148e-05 2.07345e-06 -1.45519e-20
2.41692e-05 -1.96487e-05 2.63147e-19
2.40762e-05 1.98452e-05 4.12304e-20
2.1635e-05 -5.50823e-06 1.35818e-19
2.73077e-05 -4.31062e-06 -1.11565e-19
1.60015e-05 -1.10758e-05 2.59509e-19
1.55729e-05 1.08784e-05 -9.94381e-20
2.08645e-05 2.43334e-05 -1.51582e-19
2.45878e-05 1.29514e-07 -1.34605e-19
2.11326e-05 5.27566e-06 3.63798e-20
2.17975e-05 0.000106868 -3.15291e-20
1.10416e-05 4.76078e-08 -8.24609e-20
2.39214e-05 8.55006e-07 -5.82077e-20
-1.41684e-05 2.54535e-05 -1.38243e-19
2.07402e-05 -2.12941e-05 -3.63798e-21
2.49098e-05 3.8405e-06 0
1.23659e-05 -1.63161e-06 9.70128e-21
4.33777e-05 -1.99975e-05 -3.27418e-20
3.96488e-05 2.24858e-05 1.21266e-21
2.5862e-05 -1.13369e-07 -5.21444e-20
2.38372e-06 -4.59409e-05 -2.30405e-20
2.75481e-05 -2.00468e-06 -1.11565e-19
2.75938e-05 1.82295e-06 -4.9719e-20
1.08068e-05 2.26684e-06 -1.11565e-19
5.94787e-05 7.31326e-05 -6.79089e-20
6.08481e-05 -7.56378e-05 -1.09139e-20
3.42135e-05 7.55917e-06 -6.66963e-20
9.78441e-06 -1.44323e-05 -9.82254e-20
3.00413e-05 -6.11628e-08 -1.12777e-19
3.02038e-05 4.78951e-08 -4.36557e-20
2.3814e-05 -6.19467e-08 -9.21621e-20
2.59293e-05 1.5329e-06 -9.33748e-20
2.64721e-05 -2.19045e-06 -2.30405e-20
-0.000110584 0.00019149 -4.00178e-20
0.000118052 -0.000204591 -3.88051e-20
2.38531e-05 -1.12206e-06 4.85064e-20
2.15483e-05 3.32477e-06 -2.91038e-20
1.56117e-05 -4.68178e-06 7.51849e-20
3.44789e-05 -7.73325e-06 -1.09139e-19
2.16301e-06 1.92957e-05 -6.4271e-20
0.000106975 2.74995e-05 -9.70128e-20
2.47704e-05 -3.28955e-07 -1.21266e-21
2.18821e-05 -9.58626e-06 -1.52795e-19
5.13419e-05 3.67209e-05 -5.94203e-20
7.6202e-06 6.06742e-08 3.63798e-21
2.64021e-05 1.8744e-06 -5.3357e-20
2.3228e-05 -0.000108379 -2.54659e-20
2.6529e-05 3.22108e-06 -3.27418e-20
2.41937e-05 -3.2715e-06 -9.09495e-20
1.63467e-05 -2.41118e-05 -8.85242e-20
3.08421e-05 -5.17236e-07 -1.51582e-19
3.09342e-05 4.40249e-07 -8.48862e-20
2.43743e-05 -1.30592e-06 -2.66785e-20
2.65064e-05 -3.14757e-06 -4.85064e-21
4.05702e-05 3.9996e-06 -1.94026e-20
4.25661e-05 -3.68292e-06 -5.82077e-20
2.83737e-05 -2.25843e-07 -5.45697e-20
2.85396e-05 2.98125e-07 -8.12482e-20
2.73305e-06 -8.00041e-06 7.03343e-20
2.55574e-06 7.74009e-06 -2.91038e-20
2.62753e-05 1.25709e-06 -6.54836e-20
0.000113953 -3.68362e-05 -7.63976e-20
-2.30106e-05 1.80505e-05 5.45697e-20
2.35245e-05 -7.07624e-07 -7.39722e-20
3.26423e-05 4.72266e-06 -4.48684e-20
3.54298e-05 -1.05825e-05 2.24342e-19
3.54472e-05 1.05941e-05 -9.70128e-21
2.70632e-05 -5.4214e-06 1.77048e-19
2.70083e-05 5.36799e-06 -8.12482e-20
2.9515e-05 -8.07541e-07 2.06152e-20
1.85344e-05 -1.41668e-06 -3.51671e-20
3.23668e-05 -5.03205e-06 -1.09139e-19
5.75802e-05 -4.7636e-05 1.52795e-19
5.762e-05 4.76636e-05 5.45697e-20
2.62656e-05 3.5171e-06 -6.30583e-20
2.33309e-05 -1.55703e-07 -6.0633e-20
2.16332e-05 -2.41717e-06 7.39722e-20
5.46361e-05 3.04902e-06 -3.51671e-20
2.78951e-05 -2.34451e-05 -5.09317e-20
2.40062e-05 -3.12871e-06 -8.48862e-20
2.13372e-05 9.75025e-06 -3.39545e-20
2.62555e-05 -3.55342e-06 4.36557e-20
4.67257e-05 6.87075e-05 -1.37031e-19
-1.83637e-05 2.06364e-05 -2.42532e-21
0.000162295 2.38744e-05 -1.21266e-20
2.62653e-05 -1.21475e-06 1.09139e-20
1.06014e-05 5.02724e-05 -6.18456e-20
1.99897e-05 7.25835e-07 -4.85064e-20
1.5855e-05 4.84983e-07 -1.45519e-19
3.49735e-05 -2.09419e-05 -6.18456e-20
3.71509e-05 -7.45294e-07 -1.09139e-19
2.82107e-05 5.19363e-06 -9.82254e-20
3.11104e-05 8.45358e-06 8.48862e-21
-1.64494e-06 -1.4083e-05 5.21444e-20
2.8396e-05 2.67517e-06 -6.30583e-20
2.71976e-05 1.45458e-06 -4.48684e-20
2.8241e-05 -5.25127e-06 4.24431e-20
2.17522e-05 -2.48188e-06 1.22479e-19
9.18382e-05 -4.23668e-05 1.57646e-20
9.19022e-05 4.23916e-05 3.75924e-20
2.10536e-05 -3.75935e-06 -5.09317e-20
-0.000134407 -0.000116006 6.4271e-20
-0.000139973 0.000111572 -2.66785e-20
5.07067e-05 -1.74035e-05 -5.57823e-20
4.72259e-05 -7.31439e-05 -5.09317e-20
2.83107e-05 -2.37747e-06 -1.04289e-19
2.80693e-05 -4.95411e-07 8.48862e-21
2.8557e-05 -3.85749e-07 -5.94203e-20
2.8496e-05 2.56064e-07 -1.06714e-19
2.46082e-05 1.04566e-06 -7.03343e-20
1.61082e-05 1.21015e-06 -2.18279e-20
2.96772e-05 4.17823e-07 -3.75924e-20
2.44638e-05 -9.10853e-08 -8.73115e-20
0.000212602 0.000101278 -1.38243e-19
-4.96531e-05 -9.79819e-05 7.63976e-20
2.06206e-05 -3.20043e-05 2.30405e-20
7.69744e-05 1.46403e-06 -1.06714e-19
2.88134e-05 2.99596e-06 -3.39545e-20
2.87497e-05 -3.01821e-06 -1.5037e-19
4.46499e-05 1.56566e-05 -1.47944e-19
2.76218e-05 -8.88602e-06 -8.36735e-20
3.86209e-05 -2.52927e-05 1.81899e-19
3.86439e-05 2.53006e-05 4.72937e-20
-7.77328e-06 4.41856e-06 1.06714e-19
1.06371e-05 -5.08916e-05 -2.78912e-20
2.17096e-05 -2.08623e-05 -2.42532e-20
2.50405e-05 1.84732e-06 -2.42532e-20
5.03486e-05 -3.30979e-05 -1.69772e-20
3.26724e-05 8.90226e-06 -8.48862e-20
3.86242e-05 3.16801e-06 -7.88229e-20
3.11674e-05 -7.69745e-06 -1.07927e-19
4.11008e-05 0.000153883 -6.79089e-20
8.70018e-05 -0.000161499 7.03343e-20
8.3574e-06 -1.53477e-05 1.87962e-19
8.33189e-06 1.52691e-05 -2.66785e-20
-5.90496e-05 -1.81681e-05 1.27329e-19
-6.02011e-05 2.37947e-05 -7.03343e-20
-0.000189687 0.000121325 6.18456e-20
-0.000194375 -0.000119834 2.42532e-21
8.44024e-05 -4.28016e-05 1.09139e-19
8.44669e-05 4.28263e-05 4.85064e-21
2.85424e-05 8.29704e-06 7.63976e-20
2.85017e-05 -8.14272e-06 -1.23691e-19
2.5961e-05 4.74988e-06 -7.27596e-20
5.2759e-05 -9.87455e-06 -2.78912e-20
3.06824e-05 -7.17037e-06 -5.6995e-20
2.43057e-05 -3.1544e-06 -8.48862e-20
2.59902e-05 -4.82393e-06 4.24431e-20
5.12085e-05 5.9295e-06 -8.24609e-20
2.67821e-05 3.44577e-06 -5.09317e-20
-2.86118e-05 -9.15349e-05 -4.24431e-20
-2.88956e-05 9.0701e-05 -2.42532e-21
2.6853e-05 -3.44907e-06 -2.54659e-20
2.01024e-05 3.75298e-05 -9.58001e-20
0.000118351 0.000205119 -6.0633e-20
-7.58348e-05 -0.000131318 4.12304e-20
1.16966e-05 -1.23893e-05 -5.21444e-20
-9.69126e-06 -2.13662e-05 4.72937e-20
8.90279e-05 -0.000142201 -4.85064e-21
2.82264e-05 2.75542e-06 -2.30405e-20
2.69288e-05 1.14586e-06 -5.09317e-20
5.13402e-06 -1.93498e-05 2.43745e-19
5.13782e-06 1.90262e-05 3.39545e-20
8.19984e-05 0.000150455 -9.33748e-20
2.92551e-05 7.07066e-06 5.94203e-20
2.40049e-05 3.29061e-06 -2.66785e-20
3.33246e-05 -1.2863e-06 1.43094e-19
3.332e-05 1.22135e-06 -5.21444e-20
-0.000278617 -8.97287e-09 -3.15291e-20
-0.000278589 9.2164e-09 -7.27596e-21
2.01548e-05 -8.97969e-06 -3.75924e-20
1.40101e-05 -1.86657e-06 4.12304e-20
2.40993e-05 -2.27696e-05 2.42532e-19
2.40036e-05 2.27894e-05 4.85064e-21
9.41404e-05 -2.44151e-05 -2.30405e-20
8.17417e-05 -7.89437e-05 -3.39545e-20
3.2794e-05 9.37788e-06 -1.57646e-20
-3.72123e-05 0.000107455 8.85242e-20
-3.74967e-05 -0.000109573 -4.00178e-20
4.94587e-05 -3.86978e-05 -3.51671e-20
2.39874e-05 -3.20008e-06 6.30583e-20
-1.22937e-05 -7.98893e-06 -1.15203e-19
-8.16608e-05 5.81899e-05 7.27596e-20
-8.19566e-05 -5.82262e-05 -4.36557e-20
2.01349e-05 2.46127e-05 -1.16415e-19
1.05985e-05 -4.65109e-05 1.97664e-19
1.06754e-05 4.6551e-05 1.01863e-19
0.000103379 0.000220323 -6.91216e-20
1.05177e-05 -0.000219052 -2.18279e-20
2.99199e-05 -1.17499e-06 -7.51849e-20
1.81689e-05 1.14238e-06 -6.18456e-20
2.9071e-05 4.80494e-06 9.94381e-20
2.919e-05 -5.01186e-06 -1.05501e-19
1.23145e-05 1.74291e-06 -2.18279e-20
3.19537e-05 4.07012e-07 -3.27418e-20
2.28027e-05 7.82511e-06 -2.06152e-20
3.78849e-05 9.1464e-05 -2.91038e-20
3.78599e-05 -9.14038e-05 3.88051e-20
-2.42751e-05 -1.82094e-05 -8.73115e-20
2.68152e-05 -3.51383e-06 -4.24431e-20
3.04167e-05 -2.79954e-06 1.35818e-19
3.04051e-05 2.7369e-06 -6.91216e-20
2.60638e-05 -2.51669e-06 -2.91038e-20
2.67596e-05 3.48459e-06 -6.0633e-20
3.00566e-05 2.03673e-08 -1.04289e-19
3.02067e-05 3.54379e-08 -5.6995e-20
2.43638e-05 2.86854e-09 -6.91216e-20
2.60541e-05 2.46204e-06 -7.39722e-20
2.9781e-05 -4.723e-07 -1.16415e-19
2.34947e-05 -2.69035e-08 -5.57823e-20
3.83815e-05 2.83022e-06 1.6856e-19
3.85111e-05 -3.21011e-06 -4.85064e-20
3.61762e-05 -4.69819e-06 2.31618e-19
3.62383e-05 4.66864e-06 -2.66785e-20
3.20142e-05 1.97252e-07 -7.39722e-20
2.24878e-05 8.09013e-06 -9.70128e-20
2.86332e-05 1.46525e-06 -1.28542e-19
2.86336e-05 -1.53555e-06 7.27596e-20
8.54323e-05 0.000108667 -7.39722e-20
2.92661e-05 -0.000102586 2.91038e-20
3.10284e-05 1.54095e-05 1.81899e-19
3.08253e-05 -1.53969e-05 -5.21444e-20
3.79493e-05 -3.14162e-05 1.60071e-19
3.79616e-05 3.1492e-05 9.33748e-20
-4.82711e-06 -5.70818e-05 -1.94026e-20
-5.23014e-06 5.5852e-05 3.15291e-20
0.00020418 0.000182852 -8.85242e-20
-0.000297699 -4.89741e-05 8.48862e-21
3.51283e-05 6.47643e-05 6.30583e-20
5.20303e-05 4.91237e-05 4.00178e-20
3.50812e-05 -6.47463e-05 1.64922e-19
5.19948e-05 -4.90949e-05 6.4271e-20
-4.54032e-05 -0.000139222 7.76102e-20
-0.0002979 4.80193e-05 -6.0633e-21
6.89907e-05 -2.85755e-05 1.33393e-20
0.000167918 -2.2102e-05 -1.09139e-20
0.000167797 2.2086e-05 9.09495e-20
6.89278e-05 2.85494e-05 7.39722e-20
8.60722e-05 -2.68194e-06 -3.63798e-21
5.8902e-05 -2.06751e-05 3.63798e-20
8.02763e-05 2.41544e-05 -1.21266e-21
8.6003e-05 2.66535e-06 1.23691e-19
8.0214e-05 -2.41393e-05 1.00651e-19
5.88586e-05 2.06414e-05 2.34043e-19
6.20642e-05 -1.86464e-05 2.26767e-19
6.09075e-05 -1.90065e-05 1.17628e-19
6.21104e-05 1.8648e-05 1.57646e-20
6.09503e-05 1.90092e-05 1.57646e-20
-8.82894e-05 -0.000251792 -1.20053e-19
2.66817e-05 0.000232699 1.57646e-20
3.53296e-05 -0.000210751 -2.83762e-19
-0.000188667 -3.2629e-05 -4.48684e-20
-0.000236353 -5.88736e-05 -1.57646e-20
2.42163e-05 0.00026139 2.66785e-20
4.06871e-05 -0.000273109 -2.98314e-19
-0.000254153 6.88678e-05 3.39545e-20
-7.75666e-05 0.000129929 4.36557e-20
-0.000139473 -0.000307862 -9.82254e-20
-0.000124766 0.000346092 1.39456e-19
0.000334326 0.000163729 1.60677e-19
0.000185374 0.000174714 1.3218e-19
-0.000177243 -0.000183376 2.18279e-20
-8.78189e-05 -0.000177126 -4.72937e-20
-2.82219e-05 -0.000169437 -1.46732e-19
-2.02581e-05 -0.000279313 -5.21444e-20
5.22215e-05 0.00025566 1.72198e-19
0.00020152 -1.38794e-05 9.45875e-20
-0.000106268 -0.000372323 6.0633e-21
-9.45065e-05 0.000404175 -3.57735e-20
0.000393374 0.000125679 1.14596e-19
-0.000165151 -0.000166836 -1.22479e-19
-0.000258674 6.68795e-05 6.79089e-20
-0.000187457 -0.000168 -1.15203e-19
0.000125074 0.000281538 -6.18456e-20
-0.000176378 3.78304e-05 7.27596e-20
-0.000275258 -0.000559398 -9.45875e-20
-0.000154866 -7.67169e-05 -4.00178e-20
0.000587956 0.000307841 3.48033e-19
4.72091e-05 0.000252452 1.16415e-19
8.80731e-06 -0.000260716 -1.43094e-19
-0.000575217 0.000285653 4.9719e-20
-0.000587261 -0.000297658 -1.57646e-19
-0.00038439 0.000132908 3.51671e-20
-0.00013795 -0.000109437 -1.15203e-19
-0.000238385 -0.000119056 -9.94381e-20
-0.000242425 0.000125114 1.21266e-19
-4.01136e-05 -8.17899e-05 3.63798e-21
0.000170267 0.000221289 -1.62496e-19
-0.000242796 0.000172405 1.26723e-19
-7.02061e-05 3.47832e-06 4.24431e-20
-0.00015276 0.000182545 1.21266e-19
-7.60083e-05 0.000264944 9.09495e-20
7.90045e-05 0.000208886 -9.70128e-20
-0.000245448 0.000172176 1.437e-19
-0.000612355 -0.000612254 5.3357e-20
0.000638507 0.000638432 2.51627e-20
6.70701e-05 0.000129927 9.21621e-20
0.000642082 0.000699046 -7.57912e-21
-0.00065828 -0.000614469 -2.97102e-20
0.000242879 0.00013274 -4.9719e-20
0.000302336 -5.31473e-05 -1.49157e-19
0.000140933 -3.57072e-05 2.66785e-20
0.000231295 0.000214335 9.70128e-21
0.00028342 -0.000186142 -7.39722e-20
0.000120073 0.000218872 -4.60811e-20
-0.000241394 0.000461353 5.57823e-20
-0.000246891 -0.000462629 -1.80686e-19
0.000192048 0.000162089 -2.91038e-20
0.000210467 -0.000114937 -4.85064e-20
-0.000336533 0.000155663 1.15203e-19
-0.000122698 0.00035143 -1.21266e-21
0.000277075 -0.000429968 -1.8675e-19
0.000150475 -0.000172917 1.66134e-19
-0.000298679 0.000590574 -5.00222e-20
-0.000574232 0.000313161 8.6402e-20
6.42915e-05 0.00020576 -4.60811e-20
-2.37955e-05 -0.000168402 -1.64922e-19
0.00046433 0.000192239 4.9719e-20
0.000590993 -0.000244876 2.43745e-19
3.24794e-05 -5.70868e-05 -2.59509e-19
0.000188761 0.000131325 -7.76102e-20
0.000200737 -0.000100751 2.42532e-21
-0.000120695 -8.30692e-05 -1.56433e-19
-5.15051e-05 -0.000134285 1.23691e-19
-0.000355019 -7.07832e-05 -1.81899e-20
0.000252035 -4.098e-05 1.35818e-19
-0.000307437 -4.05552e-05 -8.42798e-20
-0.000222988 -0.00018696 -1.41881e-19
-0.000259683 -0.000449651 -1.23691e-19
-0.000256757 0.000444728 8.24609e-20
-0.000271915 -0.000298678 -1.97057e-19
-0.000191819 0.000122242 1.3218e-19
0.000192717 0.00013451 -3.15291e-20
4.71873e-05 -0.000485851 -2.66785e-19
4.14374e-06 0.00038228 6.91216e-20
-0.00022392 0.000208104 1.43094e-19
5.06829e-05 0.000229396 1.00651e-19
-1.60191e-05 -0.000223687 -8.73115e-20
0.000136197 6.42745e-05 -1.12777e-19
0.000137739 -3.36968e-05 -3.27418e-20
0.000336427 -0.000241487 -2.91038e-20
0.000151537 0.000172199 -1.34605e-19
0.000170764 -0.000153969 4.72937e-20
0.000194954 -9.55525e-05 1.00651e-19
9.36053e-05 -0.000246126 2.52233e-19
0.000121446 0.000140707 -1.28542e-19
0.000124709 -0.000105145 -3.27418e-20
-0.000203698 9.77756e-05 9.70128e-20
0.000130703 0.000152905 -1.27329e-19
-0.000249482 -0.000170802 -1.18234e-19
-8.83999e-05 2.09655e-05 -2.71636e-19
3.92959e-05 0.000134079 -8.60988e-20
0.000266681 6.70204e-05 2.06152e-20
-0.000196124 0.000125508 1.52795e-19
-0.000213789 -9.73469e-05 -8.00355e-20
-0.000166868 -0.000202197 -1.6856e-19
-0.000190716 -0.000124502 -1.10352e-19
-2.98046e-06 -0.000230463 -1.72198e-19
3.55472e-05 0.000237262 2.42532e-20
0.000331765 -0.000126618 5.27507e-20
-0.000111648 8.8782e-05 7.27596e-20
0.000162484 -0.000248467 5.6995e-20
0.000177842 0.000284394 -8.54925e-20
-0.000192563 0.000122201 1.33393e-19
-7.45841e-05 0.000126996 1.45519e-20
-7.89457e-05 -0.000129936 -2.78912e-20
-4.9556e-05 -0.000235328 4.85064e-21
-0.000178241 0.000185985 1.17628e-19
2.9565e-05 -0.000328283 7.63976e-20
5.9104e-05 0.000359509 2.48595e-20
0.000349067 -1.83228e-06 1.94026e-19
0.00035101 0.000273588 1.04895e-19
0.000232743 -0.000143958 9.94381e-20
0.000332702 -0.000576423 -1.21266e-19
-0.000271039 0.000469548 8.12482e-20
0.000257778 -3.77143e-05 1.39456e-19
8.47086e-05 0.000189954 -1.04289e-19
0.0001474 7.24609e-05 -1.33393e-20
-3.00064e-05 0.000251565 4.00178e-20
7.05585e-05 -0.000139658 -3.0074e-19
2.0139e-05 0.000175618 -3.03165e-20
0.00011082 -8.16255e-05 1.3218e-19
0.000114054 9.31373e-05 -1.81899e-19
-3.94897e-05 -0.000128854 -9.94381e-20
6.64644e-05 1.24303e-05 -6.18456e-20
0.000235947 0.000189228 3.15291e-20
-7.52326e-05 -2.03417e-05 6.4271e-20
0.000237577 0.000210811 -3.39545e-20
-0.000257687 0.000337383 1.43094e-19
-0.000127735 0.000111474 1.27329e-19
9.17114e-05 -0.000363676 2.30405e-19
0.000116564 0.000390366 -6.85153e-20
0.000388333 -8.18968e-05 6.85153e-20
0.000233842 -0.000170238 9.70128e-20
-1.2711e-06 -0.000264834 -6.0633e-21
3.31267e-05 0.000285937 -1.69772e-20
0.000186763 -0.000329726 1.63709e-20
0.000198856 0.000350288 1.37031e-19
2.3472e-05 8.32359e-05 -1.29755e-19
2.23391e-05 -5.64722e-05 -8.24609e-20
0.000146009 0.000163129 -9.82254e-20
9.03559e-05 0.00012161 4.48684e-20
-0.000189959 -0.000113342 -1.24904e-19
-0.00038114 -0.000294306 -1.26723e-19
7.21537e-05 0.000279059 -6.79089e-20
0.000196424 0.000161958 -5.57823e-20
0.000235747 -0.000114376 -1.21266e-20
0.000186571 0.000156436 -4.12304e-20
0.000200414 -0.000104481 -4.72937e-20
-0.000121412 -0.00110328 1.78564e-19
0.00113224 0.000190342 1.50976e-19
4.99138e-05 -0.000239897 2.26767e-19
0.000294751 0.000327461 -6.79089e-20
0.000376512 -0.000339139 -1.23691e-19
0.000207206 0.000176569 1.45519e-20
-0.000475832 -2.42757e-05 -1.46125e-19
5.05136e-06 0.000206479 9.33748e-20
1.53705e-05 -0.000208429 1.69772e-20
-0.00016282 0.000265131 1.75229e-19
7.5817e-05 2.11736e-05 1.51582e-19
0.000210211 -0.000129071 1.29755e-19
-3.24636e-05 -6.46515e-05 -2.54659e-19
-6.44492e-05 0.000181155 1.57646e-20
0.000180241 -0.000146848 -3.20142e-19
0.000128194 -9.19212e-05 1.95238e-19
-0.000139955 -9.54351e-05 -1.87962e-19
-0.000245043 -0.000153128 -1.42488e-19
0.000240411 8.14023e-05 2.78912e-20
8.69708e-05 0.000138403 -1.67347e-19
-6.98388e-05 0.00017968 9.33748e-20
-4.81048e-05 -0.000239431 5.45697e-20
0.000184235 0.000156774 4.85064e-21
7.80066e-05 0.000264802 3.03165e-20
-8.71003e-05 -0.000121813 1.80686e-19
-0.000301164 0.000562618 -4.91127e-20
-0.000543115 0.000316228 1.77655e-19
0.000197065 5.59759e-05 -2.91038e-20
0.000184203 -0.000106828 4.36557e-20
0.000499149 0.000276012 5.94203e-20
0.00061217 -0.000295859 1.3218e-19
4.05803e-05 -0.000134697 1.41881e-19
-0.000330556 0.000234391 1.00651e-19
-0.000333247 -0.000240308 -6.54836e-20
-0.000140927 -6.04228e-05 2.91038e-20
-2.1325e-05 5.87837e-05 9.70128e-20
0.000321128 0.000414574 5.76013e-21
-0.000365294 -0.000293567 -1.5037e-19
0.000309649 -0.000436907 9.82254e-20
0.000325184 0.000472149 6.97279e-20
0.000484285 -0.000265251 1.17022e-19
3.18848e-05 -5.05574e-05 1.7341e-19
-3.9904e-05 -0.000487902 -9.70128e-21
0.000514071 5.20874e-05 1.96148e-19
-0.000264173 -0.00036127 -2.42532e-21
0.000255656 0.000318527 1.29755e-19
-0.000164001 -0.000130781 -6.79089e-20
-6.95675e-05 4.25021e-06 2.06152e-20
0.000177514 -0.000261138 1.24904e-19
0.000192751 0.000298546 2.12215e-20
-0.000161178 5.0141e-05 3.39545e-20
8.85298e-05 -0.000172121 1.89175e-19
0.000206615 0.000223622 -3.63798e-20
0.00025555 -0.000196562 -8.48862e-20
-0.000198948 -0.0001053 -7.27596e-20
-0.000130202 9.99118e-05 7.88229e-20
-0.000158319 -7.26419e-05 -6.79089e-20
-0.000305303 -0.000166504 -1.49157e-19
-2.72711e-05 0.000146022 1.17628e-19
-0.000641692 0.000641768 -2.72848e-20
-2.66431e-05 0.000260406 -2.42532e-21
4.6216e-05 -0.000248112 1.75836e-19
4.719e-05 -0.000485848 -9.33748e-20
2.1287e-05 0.000404505 1.90388e-19
6.16671e-05 0.000133323 -1.37031e-19
6.55828e-05 -0.000112374 -1.57646e-20
-0.000234125 -0.000120793 -6.54836e-20
-0.000227969 0.000129237 1.3218e-19
-0.000407374 7.78086e-05 -2.54659e-19
-0.000401989 -6.93185e-05 -1.94026e-20
0.000402857 0.000281668 -7.76102e-20
0.000546404 -0.000299703 -2.42532e-20
0.000149314 0.00010082 -1.3218e-19
0.000142838 7.6553e-06 1.45519e-20
0.000218486 0.000130729 5.21444e-20
8.2152e-06 0.000228237 3.51671e-20
1.44799e-05 -0.000213627 1.03076e-19
-0.000342812 0.000248356 1.84931e-19
0.000218307 -9.16835e-05 1.54008e-19
-2.4934e-05 -0.000228431 -5.57823e-20
0.000200232 0.000177524 -3.15291e-20
-0.000149963 1.33252e-06 -2.98314e-19
-0.000142862 1.63551e-06 5.09317e-20
0.000189914 -0.000132635 1.94026e-19
-0.000152222 0.000140977 1.40669e-19
0.000237733 0.000411717 2.78912e-20
-0.000270311 -0.000468199 -1.23691e-19
-5.07907e-05 -0.000163279 1.23691e-19
-0.000199905 -0.000118178 -1.06714e-19
-2.15981e-05 -0.000265401 -1.1399e-19
0.000322963 -0.000563495 -1.84931e-20
0.000566382 -0.000261713 -2.51627e-20
3.16786e-05 0.000170581 -1.23691e-19
3.62756e-05 -0.000145956 5.21444e-20
-3.0461e-05 0.000278463 1.30967e-19
6.47724e-05 0.00025494 3.51671e-20
0.000268441 0.000169764 1.21266e-21
0.000194785 0.000140259 6.0633e-21
0.000216485 -6.66854e-05 -2.42532e-20
-0.000525918 1.72006e-08 -1.07927e-19
-0.000540004 4.56856e-08 -9.45875e-20
4.21076e-05 -0.000125831 1.95238e-19
-0.000205094 -0.000122447 -1.11565e-19
0.000150655 0.000211207 -1.23691e-19
0.000170062 -0.000184288 2.30405e-20
6.93011e-05 0.000161806 9.09495e-20
3.50284e-05 4.93118e-05 4.12304e-20
0.000616935 -0.000617018 1.8675e-19
-0.000177554 5.69021e-05 -2.59509e-19
-0.00017036 -5.4175e-05 2.66785e-20
-2.97977e-05 0.00013014 4.24431e-20
0.00026861 -0.00012941 1.96451e-19
-0.000195113 0.000107437 1.57646e-19
-0.000259766 -3.42251e-05 -1.87962e-19
-0.000251706 3.97844e-05 8.12482e-20
-0.000152068 7.80013e-05 1.10352e-19
6.2385e-05 0.000323073 -7.51849e-20
7.38669e-05 -0.000332841 5.82077e-20
0.000127935 0.000523243 8.97368e-20
-0.0001057 -0.000635396 -7.15469e-20
-5.84597e-05 0.00116312 -3.832e-19
-0.00111913 6.55356e-05 -1.20963e-19
0.000165155 0.000114406 -7.27596e-20
0.0001619 -2.06588e-05 8.48862e-20
-1.80585e-05 -4.35471e-05 2.04939e-19
0.000605323 -0.000741346 5.57823e-20
0.00077143 -0.000593024 2.59812e-19
0.000256421 -0.000619042 5.21444e-20
0.000219682 0.000530037 -5.57823e-20
-0.00018126 0.000119253 1.26117e-19
0.000165085 -0.000175085 1.47944e-19
0.000171141 0.000152565 -3.51671e-20
0.000173948 -8.88027e-05 5.57823e-20
0.000123799 -0.00012029 1.80686e-19
0.000174412 0.000222018 -6.66963e-20
-6.79454e-06 -0.000522595 3.94114e-20
2.39285e-05 0.000511032 -1.96451e-19
0.000546899 2.15995e-05 2.86188e-19
0.000143438 0.000177135 -8.24609e-20
6.15528e-05 0.000555892 -2.61328e-19
-0.000526984 -6.45089e-05 -3.57735e-20
0.000202281 0.000121574 -9.58001e-20
0.000229398 -3.4982e-05 -2.91038e-20
0.000196358 0.000142117 -2.18279e-20
0.000219165 -6.98917e-05 -9.58001e-20
-0.000630617 0.000788261 -1.70379e-19
-0.000767046 0.00063179 1.45216e-19
0.000183692 0.000161568 -2.42532e-21
0.00018526 -9.68273e-05 1.27329e-19
9.64771e-05 0.000327796 1.81899e-19
-6.34648e-05 -0.000372962 -1.66134e-19
0.00016274 5.889e-05 -9.58001e-20
0.000165918 7.36485e-05 -1.39456e-19
0.000204305 0.000244699 -9.09495e-20
0.000251333 -0.000234893 5.57823e-20
-0.000154268 -3.74555e-05 -1.70985e-19
-0.000142321 4.14045e-05 1.11565e-19
-0.000521096 1.23732e-05 -9.09495e-20
0.000246281 0.000409498 6.54836e-20
0.000190563 0.000418509 -2.30405e-20
0.000286592 0.000329595 -1.05501e-19
0.000233737 -0.000451924 -3.63798e-21
0.00034739 -0.000346746 2.06152e-20
-0.000252673 -0.000472777 -1.72198e-19
-0.000536188 -9.45779e-06 -1.89175e-19
0.000249118 -0.000103264 1.21266e-20
0.000868818 -0.000114588 2.34043e-19
0.00110594 0.000145421 2.94676e-19
0.000430246 0.000178136 -6.91216e-20
0.000383019 9.9658e-05 3.75924e-20
0.000286307 3.56334e-05 -7.88229e-20
0.000372711 0.000147432 5.45697e-20
0.000551057 -5.06241e-06 1.94026e-20
0.000516344 -0.000165672 1.81899e-20
0.000373381 0.000112631 -1.75836e-19
0.000299102 0.000192204 -5.09317e-20
0.000310873 0.000188535 -7.03343e-20
0.000394854 -0.000151046 -2.30405e-19
0.000398524 -0.000149903 -1.61284e-19
VECTORS seepage_velocity_TPM float
-2.53751e-05 -7.6118e-05 6.56362e-21
-7.84311e-06 6.24949e-05 2.40765e-20
1.24397e-05 -6.25348e-05 7.66051e-21
-5.67335e-05 -1.07938e-05 1.78691e-20
-7.1244e-05 -1.87831e-05 7.2925e-22
-9.39929e-06 8.05797e-05 3.21038e-20
1.39973e-05 -8.06426e-05 4.01298e-21
-7.65439e-05 1.92251e-05 1.45873e-21
-2.39742e-05 3.86231e-05 1.49559e-20
-4.021e-05 -9.34258e-05 1.54901e-20
-3.85428e-05 9.99429e-05 8.01783e-21
0.00010459 4.2595e-05 -1.82128e-22
5.54009e-05 5.36558e-05 1.86076e-20
-5.10559e-05 -5.34773e-05 8.027e-21
-2.52324e-05 -5.28201e-05 5.83486e-21
-7.79487e-06 -5.00815e-05 4.7418e-21
8.11999e-06 8.23836e-05 2.99141e-20
-3.66287e-06 -8.24279e-05 -5.10738e-21
7.25039e-05 7.28709e-06 -1.20371e-20
-3.02689e-05 -0.00011276 9.11268e-22
-3.05582e-05 0.000115317 1.09367e-20
0.000125674 2.90145e-05 3.46341e-21
-4.86353e-05 -5.04065e-05 2.11486e-20
-7.84533e-05 1.8376e-05 -7.29305e-22
-5.58758e-05 -5.07917e-05 2.18811e-20
3.36219e-05 7.43193e-05 2.99026e-20
-5.38313e-05 1.01611e-05 6.56441e-21
-8.14534e-05 -0.000169836 -1.09316e-21
-4.67526e-05 -2.36606e-05 1.42252e-20
0.000180973 8.56226e-05 -1.82219e-21
-2.55249e-07 7.70381e-05 3.39334e-20
4.74698e-06 -7.706e-05 -4.74328e-21
-0.00017686 -8.98624e-05 -1.71527e-20
-0.000177479 8.64698e-05 -3.57654e-20
-0.000115195 3.76745e-05 1.1118e-20
-4.09661e-05 -3.31522e-05 -4.37669e-21
-7.1773e-05 -3.61147e-05 1.09456e-20
-7.51544e-05 3.6761e-05 -2.44614e-25
-1.24267e-05 -2.51788e-05 4.01249e-21
5.06142e-05 5.16691e-05 3.09958e-20
-7.38051e-05 4.93359e-05 7.10986e-21
-2.17442e-05 3.56682e-07 1.27664e-20
-4.77383e-05 5.21611e-05 8.75123e-21
-2.57761e-05 7.57476e-05 1.1304e-20
1.17244e-05 5.00781e-05 2.66285e-20
-7.47405e-05 4.9247e-05 1.60407e-20
-0.000184739 -0.000184739 -6.18933e-21
0.000191367 0.000191367 1.3653e-21
1.69926e-05 3.91087e-05 7.296e-22
0.000192149 0.000203105 -2.64068e-21
-0.000196259 -0.000185377 -5.28154e-21
8.87974e-05 -9.18105e-06 1.45968e-20
8.87328e-05 9.13093e-06 -1.60565e-20
6.23916e-05 1.10373e-05 -2.84561e-20
8.46074e-05 -3.8648e-05 2.59088e-20
8.45351e-05 3.86525e-05 5.83861e-21
3.18445e-05 5.19794e-05 4.15761e-20
-7.44206e-05 -0.000139504 -5.47378e-21
-7.46447e-05 0.000140058 9.12316e-21
6.76955e-05 -2.58538e-05 1.20397e-20
6.75891e-05 2.57029e-05 9.12112e-21
-0.000101228 4.42943e-05 1.51241e-20
-8.06751e-05 0.000127316 8.39297e-21
8.58031e-05 -0.000128359 2.26253e-20
4.9417e-05 -5.10267e-05 5.46995e-21
-8.94938e-05 0.000171551 6.83268e-21
-0.000171524 9.08695e-05 8.38114e-21
1.00014e-05 4.97089e-05 3.42866e-20
-5.64387e-06 -4.95761e-05 1.38601e-20
0.000150735 -6.24362e-05 5.07377e-20
0.000150778 6.24544e-05 -6.24183e-20
1.07228e-05 -1.58028e-05 7.29567e-21
6.88714e-05 2.37807e-05 -1.89698e-20
6.90194e-05 -2.38141e-05 2.40771e-20
-3.62541e-05 -2.49278e-05 6.56585e-21
-1.25949e-05 -3.8456e-05 1.78761e-20
-0.000106477 -2.27167e-05 5.46738e-21
-9.19102e-05 -1.34527e-05 9.47925e-21
-6.7098e-05 -5.66862e-05 1.02144e-20
-7.84778e-05 0.000135924 -5.83907e-21
-7.82884e-05 -0.000135595 -2.91955e-21
-8.08048e-05 -9.06283e-05 1.34878e-20
-5.92356e-05 3.49979e-05 5.46974e-21
7.1408e-05 2.59364e-05 -5.10681e-21
-1.22405e-05 0.000143968 8.02854e-21
1.56548e-05 -0.000145426 2.73704e-20
-6.94251e-05 6.2415e-05 4.74253e-21
7.18243e-06 6.63592e-05 4.08561e-20
-2.43835e-06 -6.63504e-05 5.47198e-21
6.07236e-05 -1.01291e-05 -5.47313e-21
6.00832e-05 9.47419e-06 -2.29862e-20
0.00010688 -7.34324e-05 1.43997e-20
8.61396e-05 1.41225e-05 -2.55309e-21
6.41769e-05 -3.20052e-05 2.44478e-20
6.3843e-05 3.20639e-05 -1.71499e-20
7.22674e-05 -2.64595e-05 2.80876e-20
3.17074e-05 -7.38303e-05 -4.74066e-21
5.78233e-05 -2.53387e-05 1.27702e-20
5.69462e-05 2.47932e-05 -1.82433e-20
-6.21448e-05 2.83921e-05 8.38848e-21
3.53198e-05 2.17909e-05 2.69953e-20
-7.44468e-05 -5.19773e-05 2.69822e-20
-2.65622e-05 6.3018e-06 6.93093e-21
-6.81985e-06 1.51372e-05 2.33474e-20
8.89919e-05 1.26034e-05 9.84489e-21
-6.0821e-05 3.65801e-05 9.4831e-21
-6.41529e-05 -2.98986e-05 1.93293e-20
-4.91693e-05 -6.15713e-05 1.89579e-20
-5.6822e-05 -3.80897e-05 1.64089e-20
1.27626e-06 -6.82685e-05 4.01199e-21
3.44224e-06 6.82912e-05 3.10019e-20
0.000105653 -4.16692e-05 4.37408e-21
-3.61776e-05 2.47246e-05 8.38963e-21
5.32666e-05 -7.527e-05 5.46916e-21
5.35226e-05 7.59679e-05 2.57049e-20
-5.91282e-05 3.50097e-05 -8.02368e-21
-2.3414e-05 3.80733e-05 7.29598e-21
-2.39568e-05 -3.94763e-05 -6.56638e-21
-1.2903e-05 -7.08075e-05 6.1981e-21
-5.5365e-05 5.31978e-05 1.20346e-20
1.15403e-05 -9.91864e-05 1.82242e-21
1.65788e-05 0.000101598 8.01897e-21
0.000112325 -5.35839e-06 -3.64499e-21
0.0001095 7.29569e-05 1.42176e-20
7.57392e-05 -4.40443e-05 5.83381e-21
9.92647e-05 -0.000171954 4.30664e-20
-9.901e-05 0.000171493 -1.13141e-20
8.6687e-05 -1.54484e-05 9.48075e-21
1.52417e-05 3.84047e-05 2.918e-20
6.31956e-05 -1.1974e-05 -9.12033e-21
-1.21496e-05 7.17771e-05 1.96886e-20
-1.83893e-05 4.02146e-05 1.6417e-20
2.19127e-05 -4.00601e-05 -2.5536e-21
3.60551e-05 -2.24447e-05 -4.01276e-21
2.70017e-05 -8.08847e-06 1.86057e-20
-1.09846e-05 -3.85911e-05 7.29456e-21
4.69503e-05 4.40546e-07 -3.86817e-20
7.43183e-05 4.75429e-05 2.04173e-20
-2.52297e-05 -8.08104e-06 -3.28304e-21
7.44208e-05 4.85415e-05 2.99007e-20
-7.82974e-05 9.73507e-05 7.65461e-21
-4.0731e-05 3.16084e-05 6.20004e-21
3.08426e-05 -0.000110198 -1.09377e-21
3.2483e-05 0.00011016 1.49477e-20
0.000122597 -2.81186e-05 7.29191e-21
7.59732e-05 -5.03687e-05 3.64692e-22
2.87809e-06 7.96026e-05 2.4435e-20
1.83508e-06 -7.9489e-05 2.18837e-21
6.02414e-05 -0.0001009 -1.82251e-21
5.92969e-05 9.66895e-05 6.19645e-21
3.8388e-05 -1.36797e-05 -2.66379e-20
3.85375e-05 1.31946e-05 -3.28412e-20
4.24042e-05 2.65239e-05 3.24642e-20
2.55945e-05 3.60368e-05 1.20387e-20
-5.69573e-05 -3.43554e-05 -5.10639e-21
-0.000113703 -8.96757e-05 4.19114e-21
1.78867e-05 7.35718e-05 3.0628e-20
7.57829e-05 2.55025e-05 -7.29719e-22
7.59296e-05 -2.56142e-05 2.26229e-20
6.87482e-05 -2.69439e-05 2.37132e-20
6.8619e-05 2.6773e-05 6.93142e-21
-3.46714e-05 -0.00033502 -3.18754e-21
0.000344031 5.29429e-05 1.51183e-20
1.78906e-05 -7.18514e-05 -4.01088e-21
0.00010425 -6.91021e-05 1.71543e-20
0.000104196 6.92642e-05 -2.99285e-20
7.02007e-05 3.66958e-05 1.42247e-20
-0.000141984 -9.03633e-06 1.63994e-20
8.6262e-05 -1.57085e-05 4.74115e-21
-2.99615e-06 6.12381e-05 2.40726e-20
7.48047e-06 -6.15204e-05 1.8967e-20
-5.0677e-05 7.6324e-05 9.2965e-21
2.55753e-05 8.3292e-06 2.55378e-21
7.04933e-05 -3.6882e-05 6.20042e-21
-1.05026e-05 -1.8276e-05 7.29582e-22
-5.16068e-05 4.23924e-05 3.39323e-20
5.63569e-05 -4.23204e-05 9.12115e-21
4.21736e-05 -2.60694e-05 2.55329e-21
-4.16509e-05 -2.83927e-05 1.09411e-21
-7.32261e-05 -4.71538e-05 1.31244e-20
1.2073e-05 1.68517e-05 1.3133e-20
-2.40315e-05 5.16294e-05 1.31286e-20
-1.26128e-05 -7.16427e-05 -6.56377e-21
6.0115e-05 2.80012e-05 1.56848e-20
1.84252e-05 7.22742e-05 2.66202e-20
-2.24959e-05 -3.49876e-05 1.60522e-20
-9.00643e-05 0.000164736 4.73569e-21
-0.000161669 9.18079e-05 4.64454e-21
6.02951e-05 -2.81599e-05 1.8603e-20
7.29613e-05 -8.46917e-06 -5.793e-26
0.000152675 6.70115e-05 -4.34387e-20
0.000152606 -6.69311e-05 3.97883e-20
1.53152e-05 -3.91826e-05 7.29511e-22
-0.00010029 -7.25618e-05 -1.24063e-20
-0.00010259 7.07733e-05 -1.42307e-20
-4.27255e-05 -1.89547e-05 1.09417e-20
-8.97765e-06 1.57754e-05 8.7546e-21
9.72612e-05 0.000119043 -1.5484e-21
-0.000108664 -8.94172e-05 5.46599e-22
9.67952e-05 -0.000132769 2.18657e-21
9.83638e-05 0.000134375 -1.45754e-21
0.000149951 -8.26277e-05 3.46198e-21
1.18881e-05 -1.40199e-05 1.38627e-20
-9.9228e-06 -0.000148069 2.18615e-21
0.000158821 1.15325e-05 4.281e-21
8.17613e-05 0.000107599 7.29753e-22
-7.71796e-05 -0.00010693 9.12255e-21
-4.9372e-05 -3.98037e-05 1.93337e-20
-2.13372e-05 8.49726e-07 -2.55343e-21
5.72496e-05 -7.86237e-05 -3.09855e-21
5.7599e-05 7.98836e-05 1.71335e-20
-4.88062e-05 1.42375e-05 1.71419e-20
3.01254e-05 -5.07368e-05 8.75299e-21
7.99114e-05 -4.04222e-05 1.27735e-20
7.97465e-05 4.04543e-05 -2.59122e-20
-5.96295e-05 -3.19716e-05 1.34965e-20
-4.15189e-05 2.79282e-05 7.29484e-22
-4.7682e-05 -2.2562e-05 2.15196e-20
-9.07952e-05 -5.10482e-05 1.58555e-20
-1.12179e-05 4.15028e-05 2.91787e-21
-0.000189388 0.000189388 9.10037e-23
-1.15225e-05 7.34399e-05 2.44315e-20
1.68413e-05 -7.41954e-05 5.10553e-21
1.62667e-05 -0.000144615 -4.37871e-21
-1.17721e-05 0.000144557 2.84619e-20
4.53432e-05 -2.27626e-05 -1.09482e-20
4.5302e-05 2.20087e-05 -2.59108e-20
-7.11337e-05 3.78987e-05 1.09441e-20
-7.03381e-05 -3.6689e-05 5.472e-21
-0.000124579 -2.2733e-05 -9.12227e-21
-0.000122604 2.32101e-05 -3.64902e-21
0.00014451 6.74842e-05 -8.03236e-26
0.000144504 -6.74e-05 3.46755e-20
4.58594e-05 4.24151e-06 5.10794e-21
4.59316e-05 -3.96368e-06 1.56885e-20
7.29129e-05 2.57012e-05 7.29407e-21
-2.43859e-06 6.50688e-05 1.56826e-20
7.1164e-06 -6.36391e-05 3.64732e-21
-0.000103083 7.14223e-05 1.09351e-20
7.26804e-05 -2.63884e-05 1.31297e-20
-6.00122e-06 -6.8514e-05 5.47057e-21
6.2301e-05 3.77818e-05 2.22462e-20
-4.57184e-05 -1.42469e-06 8.02578e-21
-4.51923e-05 3.61336e-07 9.8498e-21
6.21413e-05 -3.83352e-05 9.11724e-21
-4.70304e-05 4.14497e-05 6.93124e-21
8.13107e-05 0.00014085 -1.86127e-20
-7.99778e-05 -0.000138525 -1.56932e-20
-1.23594e-05 -4.79894e-05 1.82409e-21
-5.99279e-05 -3.60889e-05 1.05769e-20
-6.71657e-06 -8.02138e-05 -3.64942e-22
0.000100925 -0.000172255 2.45925e-21
0.000174046 -8.15587e-05 5.73812e-21
3.82229e-05 -3.1602e-05 1.38676e-20
3.77101e-05 3.09377e-05 -1.38675e-20
-1.00347e-05 8.40279e-05 1.31349e-20
1.01594e-05 6.6124e-05 2.88132e-20
8.9883e-05 3.83644e-05 1.05756e-20
6.8971e-05 -1.56279e-05 5.1078e-21
6.88947e-05 1.53236e-05 1.05806e-20
-0.000162548 -1.30278e-09 -2.26265e-20
-0.000162594 9.05286e-10 -2.37216e-20
1.5752e-05 -3.6653e-05 9.11937e-21
-6.15469e-05 -3.74216e-05 1.02117e-20
6.36899e-05 3.83972e-05 -8.75785e-21
6.40365e-05 -3.84136e-05 3.02874e-20
1.75411e-05 4.69672e-05 6.20137e-21
7.91859e-06 1.29363e-05 1.05785e-20
0.000188672 -0.000188672 -7.28086e-22
-5.34147e-05 1.69139e-05 1.5688e-20
-5.39429e-05 -1.81101e-05 7.29689e-21
-1.18439e-05 3.75728e-05 3.64741e-22
8.82167e-05 -3.89885e-05 1.75044e-20
-6.05073e-05 3.08491e-05 1.05786e-20
-7.81105e-05 -1.04642e-05 5.4722e-21
-7.84778e-05 1.02319e-05 1.38631e-20
-4.69774e-05 2.25839e-05 1.02128e-20
4.49017e-05 6.66777e-05 -2.84675e-20
4.52461e-05 -6.65047e-05 7.29928e-21
3.35727e-05 0.000189344 -9.85435e-21
-2.99533e-05 -0.000189346 -2.37234e-20
-1.70236e-05 0.000341667 -4.55346e-21
-0.000333766 1.74768e-05 -2.73349e-22
5.17757e-05 -3.68459e-06 1.22518e-25
5.20541e-05 3.10229e-06 2.5903e-20
-2.25e-06 -1.2036e-05 1.02144e-20
0.000185322 -0.000225391 -1.18376e-21
0.000235716 -0.000181457 3.82445e-21
6.18644e-05 -0.000149364 3.17573e-20
6.19077e-05 0.000149469 -1.56962e-20
-5.68586e-05 3.39532e-05 1.82375e-21
5.42963e-05 -5.17563e-05 8.75305e-21
5.5156e-05 -2.28115e-05 8.75548e-21
5.50907e-05 2.24953e-05 2.55364e-20
4.09382e-05 -3.40282e-05 -7.29495e-22
5.39044e-05 5.22534e-05 3.68354e-20
3.67168e-07 -0.000158891 -7.28872e-22
6.19864e-06 0.000146261 9.11145e-22
0.000169652 1.40446e-06 3.27986e-21
4.10879e-05 3.36751e-05 3.17329e-20
1.8686e-05 0.000161115 -4.28077e-21
-0.000157466 -2.12438e-05 3.55235e-21
6.90252e-05 -7.34093e-06 1.42297e-20
6.93245e-05 6.43848e-06 3.50265e-20
6.72165e-05 -1.35242e-05 1.42301e-20
6.73065e-05 1.3443e-05 1.60545e-20
-0.000186351 0.000230648 -3.64088e-22
-0.000228731 0.000186332 -3.09552e-21
6.03174e-05 2.62471e-05 2.40757e-20
6.04662e-05 -2.65766e-05 3.64785e-21
2.0993e-05 0.000111141 2.26246e-20
-1.72545e-05 -0.000110424 -4.01404e-21
5.19994e-05 2.17923e-05 9.85189e-21
5.16062e-05 -2.16619e-05 2.18927e-20
7.9095e-05 -4.78149e-05 2.11663e-20
7.89212e-05 4.78938e-05 -2.81003e-20
-4.61852e-05 -1.14402e-05 9.84931e-21
-4.52434e-05 1.07246e-05 3.64781e-21
-7.37672e-05 -0.000140131 9.8532e-21
7.27078e-05 -8.69643e-05 1.53304e-20
8.71868e-05 -7.35653e-05 1.46012e-21
7.25516e-05 8.72775e-05 -3.35808e-20
8.72183e-05 7.37049e-05 -1.86153e-20
7.82621e-05 0.000141633 -2.51807e-20
-0.000161528 2.59525e-06 -2.48152e-20
-0.000161365 -3.0364e-06 -1.56919e-20
0.000117245 4.8567e-05 1.1315e-20
0.000282113 3.71376e-05 7.55735e-20
0.000282195 -3.71484e-05 -7.88593e-20
0.000117216 -4.85549e-05 -1.05848e-20
0.000147173 3.19407e-06 3.13887e-20
0.000104231 3.16158e-05 2.37209e-20
0.000138099 -3.88533e-05 4.08806e-20
0.000147165 -3.14943e-06 1.56943e-20
0.000138093 3.88888e-05 -2.66455e-20
0.000104239 -3.15608e-05 2.4086e-20
0.00010933 -3.08962e-05 2.77357e-20
0.000108668 -3.111e-05 2.11692e-20
0.000109335 3.09202e-05 -2.9196e-21
0.000108627 3.11482e-05 3.65096e-22
-1.00749e-05 6.37274e-05 8.02509e-21
-1.07189e-05 -6.40446e-05 -4.37712e-20
-5.74155e-05 1.04891e-05 -5.36053e-20
-7.33562e-05 1.90831e-05 -7.98528e-20
-1.17162e-05 8.28073e-05 1.27682e-20
-1.23492e-05 -8.29937e-05 -7.07736e-20
-7.34093e-05 -1.88617e-05 -5.68818e-20
-2.46362e-05 -3.86363e-05 -2.04263e-20
-4.11873e-05 -9.27994e-05 -5.06618e-20
4.22679e-05 9.5612e-05 3.28024e-20
9.7041e-05 4.41373e-05 3.82707e-21
5.37363e-05 -5.5819e-05 -8.866e-20
5.50362e-05 5.50285e-05 -1.86071e-20
-5.89886e-05 3.52624e-05 1.02112e-20
6.16239e-06 -8.47223e-05 -6.4936e-20
6.72015e-06 8.44167e-05 1.45917e-20
5.99316e-05 9.37627e-06 1.05759e-20
-3.09346e-05 -0.000112575 -3.06207e-20
3.04774e-05 0.00011369 3.51774e-20
0.000117716 3.14548e-05 1.0938e-21
2.82747e-05 7.62476e-05 2.26076e-20
2.92224e-05 -7.51161e-05 -8.35e-20
-5.40034e-05 -1.10454e-05 -4.33958e-20
-8.05553e-05 -0.00016742 -3.23423e-20
-4.77206e-05 2.4015e-05 -3.392e-20
-1.81264e-06 7.89706e-05 8.75668e-21
-2.51349e-06 -7.91841e-05 -7.77179e-20
-0.000178336 -8.62452e-05 7.88413e-20
-0.000177549 8.94243e-05 4.74469e-20
-3.85551e-05 5.21164e-05 1.42221e-20
-4.65876e-05 5.51654e-05 1.67725e-20
-0.000107545 3.47173e-05 -5.08497e-20
-7.60432e-05 -3.66394e-05 3.68517e-20
-7.27628e-05 3.5669e-05 5.83773e-21
-1.24652e-05 2.55734e-05 -4.30395e-20
4.5203e-05 -5.381e-05 -8.49543e-20
-2.24273e-05 -7.65517e-07 -3.64721e-20
-7.7391e-05 5.05496e-05 -4.04708e-20
-5.088e-05 -5.1489e-05 -4.73994e-20
-8.93712e-05 -1.40026e-05 -5.12237e-20
-8.15209e-05 1.64011e-05 -6.28885e-20
-2.80362e-05 -7.61955e-05 -4.63081e-20
8.20846e-06 -5.19584e-05 -4.55917e-20
8.86936e-06 5.16113e-05 8.75385e-21
-2.53162e-05 7.6654e-05 6.19875e-21
4.67982e-05 5.44408e-05 2.18777e-20
-0.000180919 -0.000180901 1.79404e-20
-0.000178146 0.000178152 8.74279e-21
1.60028e-05 -4.15243e-05 -8.1712e-20
1.60533e-05 4.02532e-05 -2.66301e-20
2.73541e-05 5.38664e-05 2.29744e-20
-0.000178667 0.000194423 -4.05252e-20
-0.000188465 -0.000181269 -7.06708e-20
9.2974e-05 -1.70039e-05 -3.86743e-20
9.21882e-05 1.84282e-05 2.77297e-20
4.37236e-05 1.53845e-05 -5.10606e-21
8.71013e-05 -5.83081e-05 -3.2472e-20
8.64512e-05 5.87788e-05 3.28364e-20
2.75201e-05 -5.3745e-05 -6.52752e-20
-7.54782e-05 -0.000139415 2.15324e-20
-7.54218e-05 0.000138337 1.53272e-20
6.39289e-05 -3.6769e-05 -3.61128e-20
6.39581e-05 3.73748e-05 2.15221e-20
-8.43399e-05 -0.000130833 -4.96323e-20
-8.406e-05 0.000130843 3.28423e-20
8.77116e-05 0.000165559 3.34334e-20
0.000166236 8.7786e-05 -3.73537e-21
7.28871e-06 5.12769e-05 -3.28243e-21
6.62244e-06 -5.16191e-05 -5.28838e-20
0.000182347 -7.55193e-05 -4.63617e-20
0.000180286 7.46774e-05 -4.01487e-21
-7.39756e-05 -5.15356e-05 -2.24233e-20
6.05872e-05 3.32893e-05 2.6625e-20
6.06061e-05 -3.2629e-05 -4.5955e-20
-6.79796e-05 5.6714e-05 -6.93108e-21
-0.000103727 -2.34323e-05 -4.50173e-20
-7.82412e-05 0.000135525 2.48212e-20
-7.85941e-05 -0.000136106 7.15516e-20
-5.8377e-05 -3.60549e-05 -1.31274e-20
5.86208e-05 3.16215e-05 3.79296e-20
-8.2909e-05 -9.01763e-05 -6.65252e-20
-1.43053e-05 -0.000147882 -5.7303e-20
-1.37357e-05 0.000147954 1.0583e-20
-7.03197e-05 -6.227e-05 1.60525e-20
5.72379e-06 6.76366e-05 4.7421e-21
5.15855e-06 -6.75607e-05 -6.78456e-20
4.35912e-05 -1.53092e-05 -2.95447e-20
4.28384e-05 1.47854e-05 1.56844e-20
9.78799e-05 -7.46855e-05 -1.01883e-19
7.36923e-05 1.62857e-05 -1.45862e-21
5.24785e-05 4.97054e-05 2.51711e-20
5.29267e-05 -4.92957e-05 -3.61149e-20
5.95829e-05 -3.17974e-05 -5.79873e-20
3.97499e-05 -3.54636e-05 -4.01251e-20
3.86727e-05 3.51468e-05 1.96979e-20
-6.32478e-05 -2.82352e-05 -1.56823e-20
-6.63625e-05 5.22653e-05 -6.74366e-21
3.3481e-05 2.57127e-05 4.01234e-21
3.24554e-05 -2.49335e-05 -7.76892e-20
-1.01864e-05 -1.73016e-05 -6.78418e-20
-9.57285e-06 1.69178e-05 4.74217e-21
7.90257e-05 1.34632e-05 8.02073e-21
-0.000111412 0.000108587 -3.60787e-20
-6.16016e-05 -3.67825e-05 2.37083e-20
-6.36825e-05 3.01904e-05 -5.98092e-20
-0.000151499 2.47947e-05 -4.59187e-20
-5.90227e-05 3.60266e-05 -9.48049e-21
6.572e-07 -6.98909e-05 -5.94491e-20
1.64948e-06 6.97423e-05 4.37664e-21
-5.19931e-05 -6.23085e-05 -4.62997e-20
9.66008e-05 -4.14671e-05 -5.6858e-20
-3.6758e-05 -2.52317e-05 -4.37685e-21
-3.6846e-05 2.72948e-05 9.8485e-21
4.78978e-05 -7.61997e-05 -9.98934e-20
-5.04465e-05 8.14862e-05 5.10416e-21
-6.06308e-05 -3.58859e-05 -1.0941e-20
-2.44672e-05 -3.84711e-05 7.29789e-22
-2.50072e-05 4.11249e-05 -4.15838e-20
1.42825e-05 7.33465e-05 1.71362e-20
-5.51418e-05 -5.23517e-05 -2.07865e-20
8.5279e-06 -9.87916e-05 -4.77484e-20
-1.28827e-05 0.000101771 2.40565e-20
0.000103113 -1.09558e-05 -7.65418e-21
6.76001e-05 -4.60385e-05 -9.95252e-20
-0.000101483 0.000175795 1.75183e-20
-0.00010133 -0.000175524 -5.84132e-21
-7.26669e-05 -4.37395e-05 -3.75504e-20
7.63197e-05 -1.64932e-05 -4.70319e-20
-0.000115276 -9.14104e-05 -4.88341e-20
1.15923e-05 -4.07229e-05 -6.67393e-20
1.20375e-05 4.12614e-05 1.31301e-20
4.48282e-05 -1.62317e-05 -2.91781e-20
-1.4682e-05 -7.16491e-05 -2.07809e-20
-2.17642e-05 -4.2401e-05 -3.79368e-20
-2.11463e-05 4.20066e-05 1.09441e-20
6.85523e-05 9.64627e-05 1.13002e-20
0.000101739 6.86429e-05 8.93079e-21
-0.000145336 -6.50978e-06 -4.97455e-20
2.5009e-05 -4.79311e-06 4.74223e-21
2.38657e-05 5.9166e-06 -8.75362e-20
2.07683e-05 1.27693e-06 -2.55337e-21
-2.59586e-05 7.13743e-06 2.22496e-20
-2.39306e-05 -6.91357e-06 2.55345e-20
-4.20835e-05 -3.15282e-05 -2.00583e-20
2.80994e-05 -0.000109317 -5.52282e-20
-2.57236e-05 0.000109098 1.45835e-21
0.000111659 -2.89629e-05 -4.02814e-20
6.79324e-05 -5.18054e-05 -1.09014e-19
1.16003e-06 7.95781e-05 -8.75233e-21
1.52449e-07 -8.00111e-05 -3.8655e-20
-5.21031e-05 0.000104294 8.7477e-21
5.4246e-05 -9.81172e-05 -9.20301e-20
7.88326e-06 2.08206e-05 1.20378e-20
7.2101e-06 -2.10893e-05 -2.99118e-20
3.84838e-05 -2.89609e-05 -8.42471e-20
3.93032e-05 2.96069e-05 1.13066e-20
2.62197e-05 -3.78744e-05 -6.6389e-20
2.50641e-05 3.71176e-05 -2.44413e-20
-5.67434e-05 3.472e-05 -3.28271e-21
1.41696e-05 -7.44015e-05 -5.7605e-20
7.20759e-05 3.71769e-05 2.043e-20
7.25959e-05 -3.65171e-05 -4.01287e-21
6.26267e-05 -4.05052e-05 -1.05756e-19
6.05528e-05 -3.32824e-05 -4.8876e-20
6.05458e-05 3.38417e-05 2.58979e-20
-3.51779e-05 -0.000326607 3.15964e-20
4.83785e-05 7.53837e-05 2.29685e-20
-0.000336527 3.94727e-05 -9.41561e-20
-1.24514e-05 7.49003e-05 3.64601e-22
0.000116154 -0.000104943 -4.26966e-20
0.000114884 0.000104853 5.87526e-20
6.31251e-05 4.1088e-05 3.1363e-20
7.38302e-05 -1.79544e-05 -3.02652e-20
6.88078e-05 4.79579e-05 1.93219e-20
-4.68985e-06 -6.26079e-05 -4.30381e-20
-4.27995e-06 6.26086e-05 -9.11802e-21
-5.44028e-05 4.41891e-05 1.27699e-20
-5.4819e-05 -4.45736e-05 -6.71333e-20
1.08869e-05 1.87694e-05 3.28295e-21
8.93048e-06 -1.90354e-05 -8.9357e-20
-2.55602e-05 -5.2084e-05 -1.34926e-20
1.4688e-05 7.22378e-05 1.6044e-20
5.51631e-05 -3.40577e-05 -7.69519e-20
5.55541e-05 3.45601e-05 2.40708e-20
6.91261e-05 5.25209e-05 2.77105e-20
-2.41817e-05 5.25952e-05 -3.64643e-22
1.46841e-05 -7.31636e-05 -5.28728e-20
8.83031e-05 0.000159998 1.02929e-20
0.000162306 8.8142e-05 -8.01562e-21
-0.000100782 7.5424e-05 -1.93183e-20
6.03991e-05 -1.06467e-05 -3.64679e-20
0.000188976 -9.15186e-05 -2.51856e-20
0.000187191 9.12895e-05 3.97847e-20
-0.00010339 -7.05374e-05 2.4085e-20
-0.000101346 7.22026e-05 2.91907e-20
-4.28976e-05 1.83795e-05 -2.44348e-20
-1.00417e-05 1.63644e-05 1.20373e-20
-1.01453e-05 -1.60744e-05 -6.92981e-21
-8.48022e-05 0.000113269 -3.66193e-20
-0.000106501 -9.10454e-05 -5.3927e-20
9.12838e-05 -0.00013041 -4.22716e-20
-8.29217e-05 0.000135581 3.64421e-22
0.000136658 -7.96122e-05 -3.20686e-20
-9.30707e-05 -5.03286e-05 -6.81609e-20
-1.12654e-05 -0.000146088 -3.64376e-21
-0.00013835 1.26546e-06 -6.33996e-20
8.02717e-05 -0.000110125 -5.83866e-20
8.19352e-05 0.000110071 -2.04335e-20
-4.96792e-05 3.9285e-05 -2.40745e-20
-2.17584e-05 -1.5742e-06 -4.44959e-20
-4.93265e-05 8.06437e-05 2.55169e-21
5.21689e-05 -8.0304e-05 -1.00424e-19
-4.94839e-05 -1.46413e-05 -4.12119e-20
7.91308e-05 -6.13133e-05 -3.284e-20
7.83626e-05 6.18187e-05 2.77317e-20
-6.08416e-05 3.19654e-05 -3.28321e-21
-4.2751e-05 -2.88265e-05 -2.37065e-20
-3.78161e-05 2.77505e-05 1.56831e-20
-4.88378e-05 2.26953e-05 -2.66248e-20
-1.24357e-05 -4.22532e-05 -2.88112e-20
-1.11168e-05 4.53251e-05 2.55302e-21
0.00018735 0.000187343 -7.60373e-20
-1.3773e-05 -7.40555e-05 -1.16689e-20
-1.25269e-05 7.4749e-05 -3.28169e-21
-1.42399e-05 -0.00014794 -9.85309e-20
-1.3603e-05 0.000148107 1.02168e-20
2.09862e-05 -3.909e-05 -2.95489e-20
2.12171e-05 3.8203e-05 2.62658e-20
-7.18928e-05 -3.78142e-05 3.75755e-20
-7.06656e-05 3.65125e-05 1.2403e-20
-0.000125434 2.32079e-05 1.20423e-20
-0.000123554 -2.31001e-05 4.45179e-20
0.000166029 9.25174e-05 3.21162e-20
0.000168399 -9.27194e-05 -2.95647e-20
4.47602e-05 -4.90448e-07 2.5536e-21
4.32672e-05 1.68768e-06 -6.89404e-20
6.54151e-05 3.05742e-05 3.75593e-20
-4.29443e-06 -6.53176e-05 1.82321e-21
5.62046e-05 -4.16527e-05 -9.07946e-20
-3.77359e-06 6.59772e-05 -2.55286e-21
6.45798e-05 -3.10065e-05 -7.14714e-20
7.56457e-06 6.79875e-05 1.60465e-20
5.67496e-05 4.22878e-05 1.78676e-20
-4.54081e-05 8.17061e-07 2.07927e-20
-4.67797e-05 -9.94694e-07 2.88194e-20
-4.82786e-05 -4.16373e-05 2.07927e-20
8.23103e-05 -0.000142596 1.71593e-20
8.27835e-05 0.000143394 2.62762e-20
-6.05853e-05 3.54341e-05 -9.84741e-21
-8.62605e-06 7.98429e-05 -1.16751e-20
9.52057e-05 -0.000167729 -2.1858e-21
0.00016525 -7.85118e-05 -4.77313e-20
1.32689e-05 -4.86759e-05 -5.28991e-20
1.28941e-05 4.79991e-05 1.97008e-20
-1.12887e-05 -8.3757e-05 8.75707e-21
6.77376e-06 -6.72762e-05 -7.36663e-20
7.98724e-05 4.19373e-05 2.22419e-20
6.59085e-05 -2.10059e-05 -6.34715e-20
6.58892e-05 2.2028e-05 1.78753e-20
-0.000163489 -5.39693e-09 7.04623e-20
-0.000163353 1.43613e-08 3.57672e-20
-6.10012e-05 3.5758e-05 -2.7716e-20
5.22727e-05 5.82888e-05 2.95516e-20
5.27395e-05 -5.78819e-05 -2.18901e-20
1.66679e-05 4.79846e-05 -9.84866e-21
1.64482e-05 -4.79175e-05 -4.3406e-20
7.29824e-06 -1.31436e-05 -3.86622e-20
8.15796e-06 1.42292e-05 -3.28298e-21
0.000181637 -0.000181648 -1.36605e-21
-5.41456e-05 1.85446e-05 1.60526e-20
-5.43838e-05 -1.6807e-05 2.77276e-20
-1.30352e-05 -3.8492e-05 -3.39201e-20
-1.23223e-05 3.91712e-05 -1.49545e-20
7.79663e-05 -4.18825e-05 -6.23502e-20
-6.11773e-05 -3.07419e-05 4.88791e-20
-7.90914e-05 -1.02668e-05 3.13745e-20
-7.86513e-05 1.30803e-05 2.07945e-20
-4.78876e-05 -2.24247e-05 -1.56839e-20
2.42148e-05 -0.000103091 -4.81638e-20
2.39683e-05 0.000103035 3.28385e-20
3.30648e-05 0.000193905 1.71535e-20
3.21873e-05 -0.000193451 -3.50414e-20
1.51271e-05 0.000324419 -4.68969e-20
0.000327007 2.26887e-05 -3.67878e-20
4.97408e-05 7.54935e-06 9.11973e-21
4.91916e-05 -6.24153e-06 -8.02468e-20
0.000177202 -0.000220754 -2.75016e-20
0.000215631 -0.000176398 6.37563e-22
7.92206e-05 -0.000191201 -4.34318e-20
7.86743e-05 0.000189884 4.05143e-20
-5.75905e-05 -3.3847e-05 1.09425e-20
5.30534e-05 2.86967e-05 1.49551e-20
5.2589e-05 -2.79304e-05 -7.40437e-20
4.93361e-05 5.48896e-05 1.60453e-20
4.87918e-05 -5.44461e-05 -9.88231e-20
-2.09925e-06 -0.000155664 -3.68069e-20
-3.76533e-06 0.000143578 2.49637e-20
0.000148988 -4.63841e-06 -1.98609e-20
3.76954e-05 3.78381e-05 1.16707e-20
3.69467e-05 -3.73169e-05 -9.22666e-20
-1.55794e-05 0.000158795 2.08611e-20
0.000156889 -1.14443e-05 -2.82394e-21
7.03866e-05 -1.03365e-05 -6.89455e-20
7.05489e-05 1.15698e-05 5.83699e-21
6.6957e-05 -2.2239e-05 -5.18037e-20
6.71164e-05 2.34742e-05 2.18894e-20
0.000183763 0.00022607 -1.26573e-20
0.000227078 0.000183941 -2.07617e-20
5.59915e-05 3.08054e-05 1.78724e-20
5.56207e-05 -3.01063e-05 -7.95092e-20
1.93557e-05 -0.000113677 -5.03617e-20
2.01567e-05 0.000113673 -4.01387e-21
4.98555e-05 2.22283e-05 -5.50866e-20
5.0891e-05 -1.96108e-05 6.56707e-21
7.7782e-05 -7.35186e-05 -2.40798e-20
7.70414e-05 7.37328e-05 3.79447e-20
-4.61427e-05 -1.07419e-05 1.24022e-20
-4.92365e-05 1.20247e-05 5.83636e-21
7.20108e-05 0.00013883 3.86818e-20
0.000106308 0.000107103 3.79544e-20
7.27066e-05 -0.000139222 2.55476e-21
0.000107249 -0.000107273 -3.28439e-21
7.67906e-05 -0.000143972 -5.80295e-20
-0.000162563 -2.24309e-06 -1.31388e-20
-0.000162126 3.02365e-06 5.6564e-20
7.83938e-05 0.000144525 -1.38671e-20
0.000129055 -5.3463e-05 1.20428e-20
0.000337388 -4.44072e-05 -3.65046e-21
0.000341293 4.49236e-05 6.93776e-21
0.000132331 5.4802e-05 -1.89795e-20
0.000166858 3.83578e-06 2.26259e-20
0.000113608 -3.14081e-05 1.60552e-20
0.000156697 5.09399e-05 1.82478e-20
0.000169712 -1.90095e-06 -1.82474e-21
0.000159094 -5.11929e-05 -1.31408e-20
0.000114808 3.44398e-05 -2.44469e-20
0.000121462 -4.71329e-05 -3.3571e-20
0.000122929 -4.6682e-05 -8.7582e-21
0.000120082 4.79294e-05 3.06505e-20
0.000121553 4.7482e-05 5.03607e-20
-2.69062e-05 -7.59558e-05 -1.45858e-21
-1.08337e-05 6.37492e-05 1.82384e-20
1.04882e-05 -6.38687e-05 2.04265e-20
-5.74684e-05 -1.06194e-05 -9.3354e-20
-7.17934e-05 -1.85067e-05 -9.29772e-20
-1.24612e-05 8.26628e-05 1.60512e-20
1.2129e-05 -8.2946e-05 8.02548e-21
-7.70618e-05 1.92723e-05 -6.38099e-20
-2.47148e-05 3.87338e-05 -4.85127e-20
-4.18121e-05 -9.30294e-05 1.38502e-20
-4.04508e-05 9.85128e-05 1.18451e-20
9.68124e-05 -4.19334e-05 9.47592e-21
5.3578e-05 5.56795e-05 -4.01331e-21
-5.42898e-05 -5.56307e-05 3.28367e-20
-2.67691e-05 -5.35706e-05 -1.38574e-20
-8.69418e-06 -5.13057e-05 -1.96956e-20
6.05245e-06 8.45555e-05 3.64787e-21
-6.46816e-06 -8.48427e-05 3.93982e-20
6.02147e-05 8.83026e-06 -1.31287e-20
-3.22189e-05 -0.000111682 1.8956e-20
-3.24389e-05 0.00011393 2.15079e-20
0.000114664 -3.04512e-05 4.0101e-21
-4.99875e-05 -5.04409e-05 1.4949e-20
-7.88913e-05 1.84599e-05 -5.01293e-20
-5.68498e-05 -5.08067e-05 2.47976e-20
2.91881e-05 7.4896e-05 5.1052e-21
-5.44482e-05 1.02481e-05 -4.12074e-20
-8.35431e-05 -0.000170346 2.17744e-20
-4.74704e-05 -2.38266e-05 -6.45591e-20
0.000170694 -8.39225e-05 4.73745e-21
-2.78383e-06 7.89139e-05 -6.20271e-21
2.40456e-06 -7.91787e-05 3.28374e-20
-0.00017799 8.61146e-05 2.59153e-20
-0.000177547 -8.93447e-05 2.04401e-20
-0.000115313 3.75911e-05 -1.2941e-20
-4.1904e-05 -3.31231e-05 -1.75057e-20
-7.58498e-05 3.65684e-05 3.42977e-20
-7.27783e-05 -3.58305e-05 6.20271e-21
-1.2434e-05 -2.5376e-05 -6.3831e-20
4.49427e-05 5.38923e-05 -4.3756e-21
-7.42953e-05 4.90521e-05 -2.91686e-21
-2.24918e-05 6.07189e-07 -4.66848e-20
-4.88554e-05 5.20034e-05 1.60428e-20
-2.71845e-05 7.5278e-05 8.02202e-21
8.51163e-06 5.16294e-05 1.53195e-20
-7.52444e-05 4.89633e-05 2.66125e-20
-0.000179842 -0.000179842 2.72292e-20
0.000182085 -0.000182099 6.28373e-21
1.59395e-05 4.14218e-05 5.10696e-21
0.000182747 -0.000193413 -2.14018e-20
-0.000196188 -0.000180631 3.81578e-20
9.26892e-05 -1.79085e-05 -4.52426e-20
9.24972e-05 1.80147e-05 -7.29722e-21
4.29256e-05 1.50644e-05 -2.07896e-20
8.6875e-05 -5.87942e-05 -6.16586e-20
8.66765e-05 5.89472e-05 -1.82423e-20
2.74884e-05 5.3555e-05 8.3875e-21
-7.5319e-05 0.000139199 5.40135e-20
-7.54135e-05 -0.000138245 2.84665e-20
6.40091e-05 -3.72393e-05 -2.37106e-20
6.38424e-05 3.72531e-05 -1.64149e-20
-0.000101167 4.43015e-05 2.2414e-20
8.40953e-05 -0.000130705 -2.26254e-20
-8.50843e-05 0.000130805 2.80984e-20
4.46534e-05 -5.30561e-05 -7.65723e-21
-8.78514e-05 0.000165131 4.08115e-20
-0.000170795 9.04361e-05 3.41614e-20
6.63977e-06 5.12289e-05 1.4589e-20
-7.45231e-06 -5.1013e-05 -1.27653e-20
0.000181559 -7.52151e-05 -2.18984e-20
0.000181579 7.52231e-05 2.08039e-20
9.70881e-06 -1.72381e-05 -1.93311e-20
6.04373e-05 3.38382e-05 -1.6048e-20
6.06028e-05 -3.27408e-05 -1.86008e-20
-3.67034e-05 -2.51022e-05 -4.37684e-21
-1.58389e-05 -4.06122e-05 2.26172e-20
-0.000106695 -2.21184e-05 -2.44224e-20
7.47099e-05 1.6608e-05 -3.64616e-21
-9.25855e-05 -1.31447e-05 -8.98675e-20
-6.80546e-05 -5.66181e-05 -2.66317e-20
-7.82174e-05 -0.000135461 1.56974e-20
-7.84536e-05 0.00013587 6.49806e-20
-8.2119e-05 -9.02497e-05 1.62213e-20
-5.99297e-05 3.49137e-05 -3.28162e-21
5.91552e-05 -3.15758e-05 -2.55293e-20
1.41505e-05 -0.000147728 1.71536e-20
-1.45187e-05 0.000147978 -2.26259e-20
-7.01171e-05 6.22397e-05 6.93168e-21
5.04621e-06 6.73536e-05 9.48356e-21
-5.17943e-06 -6.79214e-05 3.83008e-20
4.33686e-05 -1.53343e-05 -1.93316e-20
4.18784e-05 1.44047e-05 -2.29792e-20
9.77385e-05 7.50143e-05 1.22115e-20
5.27285e-05 -4.96036e-05 -2.91834e-20
5.21955e-05 5.00725e-05 -2.26172e-20
5.8361e-05 3.1973e-05 -1.13061e-20
2.76904e-05 -7.48989e-05 -2.18792e-21
3.94405e-05 -3.5693e-05 -2.33456e-20
3.81034e-05 3.51352e-05 -3.06413e-20
-6.27349e-05 2.84181e-05 -1.71409e-20
3.31032e-05 2.52237e-05 3.64761e-22
-7.54319e-05 -5.17463e-05 -1.47667e-20
-2.69192e-05 6.42463e-06 7.65968e-21
-1.00433e-05 1.66706e-05 1.86035e-20
7.87177e-05 -1.3801e-05 -1.16665e-20
-6.14776e-05 3.65144e-05 2.2249e-20
-6.49197e-05 -2.98063e-05 -9.2268e-20
-5.05036e-05 -6.12099e-05 5.46882e-22
-5.78157e-05 -3.78648e-05 -3.50056e-20
-1.30015e-06 -6.99266e-05 2.84478e-20
6.30617e-07 6.9639e-05 1.45885e-20
9.63698e-05 4.16664e-05 -7.83614e-21
-3.67237e-05 2.49331e-05 4.37691e-21
4.83707e-05 -7.65447e-05 -1.45833e-21
4.76636e-05 7.65044e-05 6.19798e-21
-5.9766e-05 3.49276e-05 -1.23995e-20
-2.44252e-05 3.84501e-05 -3.8667e-20
-2.50397e-05 -4.10058e-05 -3.02767e-20
-1.5403e-05 -7.10569e-05 9.84364e-21
-5.60845e-05 5.2987e-05 1.89631e-20
7.22439e-06 -9.88784e-05 1.82246e-20
1.31777e-05 0.000100657 2.77016e-20
0.000102074 5.75885e-06 -1.31219e-20
0.000101633 -7.3608e-05 6.56104e-21
6.74587e-05 4.64633e-05 -6.92695e-21
-0.000101318 0.000175528 -2.33602e-20
0.000101256 -0.000175382 2.59174e-20
7.60661e-05 1.58278e-05 -2.91674e-21
1.1796e-05 4.07266e-05 6.20025e-21
4.4802e-05 -1.63831e-05 -1.56834e-20
-1.45396e-05 7.15926e-05 2.552e-21
2.12841e-05 -4.23331e-05 -2.44396e-20
-2.1572e-05 4.16614e-05 3.02784e-20
3.37271e-05 -2.5511e-05 -1.24017e-20
2.45674e-05 -5.43432e-06 1.09433e-20
-1.21249e-05 -3.8944e-05 -1.82347e-20
2.05637e-05 8.49682e-07 -1.60498e-20
6.73544e-05 -4.87717e-05 -2.04158e-20
-2.60123e-05 -7.16489e-06 -1.71432e-20
6.76198e-05 -5.14993e-05 -2.18767e-20
-7.87223e-05 9.60155e-05 4.15535e-20
-4.16082e-05 3.16286e-05 1.16704e-20
2.67387e-05 -0.000110006 6.92642e-21
2.78301e-05 0.000108541 2.18732e-20
0.000113188 2.83891e-05 -1.82251e-21
6.7812e-05 5.19851e-05 -4.37546e-21
1.26455e-07 7.97489e-05 2.84441e-20
-7.92938e-07 -8.01034e-05 1.20343e-20
5.37383e-05 -9.63151e-05 9.47648e-21
5.35922e-05 9.87306e-05 1.40324e-20
7.02386e-06 -2.14451e-05 -2.62641e-20
7.54427e-06 2.11848e-05 -2.00628e-20
3.86965e-05 2.89601e-05 -8.75338e-21
2.61557e-05 3.77712e-05 1.13075e-20
-5.77199e-05 -3.43145e-05 1.45912e-21
-0.00011439 -8.79759e-05 3.82595e-21
1.41222e-05 7.41814e-05 2.26051e-20
7.21384e-05 3.70727e-05 -1.09443e-20
7.23612e-05 -3.69941e-05 -2.44427e-20
6.25631e-05 4.08622e-05 -2.40689e-20
6.05295e-05 -3.36507e-05 -2.04264e-20
6.04526e-05 3.37271e-05 -1.16725e-20
-2.92703e-05 -0.00033039 2.14905e-20
0.000328014 -4.97914e-05 -4.14306e-20
1.42309e-05 -7.29725e-05 2.91697e-21
0.00011565 -0.000105262 -6.27658e-20
0.000115503 0.000105603 -1.35019e-20
-0.000142298 -8.403e-06 2.22307e-20
-4.77496e-06 6.24137e-05 5.10607e-21
4.1954e-06 -6.33566e-05 2.62604e-20
-5.17075e-05 7.54482e-05 3.26284e-20
2.26952e-05 6.88097e-06 -1.20377e-20
-9.95897e-06 -1.95297e-05 -2.18836e-21
-5.53321e-05 4.38756e-05 2.59043e-20
5.46019e-05 -4.45231e-05 -1.05802e-20
3.85119e-05 -2.83453e-05 -1.89661e-20
-4.25201e-05 -2.88373e-05 -1.09415e-20
6.26679e-05 -4.06577e-05 -1.9328e-20
-7.4102e-05 -4.64826e-05 -4.10134e-20
7.14389e-05 -1.77943e-05 -1.60442e-20
1.02358e-05 1.85106e-05 8.38969e-21
-2.55065e-05 5.20801e-05 5.10524e-21
-1.49223e-05 -7.24318e-05 1.34915e-20
5.51815e-05 3.44863e-05 -1.53175e-20
1.46526e-05 7.29029e-05 2.44309e-20
-2.59512e-05 -3.70698e-05 2.84545e-20
-8.78063e-05 0.000165616 2.6324e-20
-0.00016065 9.14245e-05 5.46695e-22
6.02787e-05 -1.12438e-05 -1.34932e-20
5.53307e-05 -3.43958e-05 -1.38589e-20
0.000188402 -9.16749e-05 -3.6864e-20
0.000188489 9.1846e-05 3.64979e-22
1.18484e-05 -4.13643e-05 2.91785e-21
-0.000103167 7.04311e-05 -2.91945e-20
-0.000101143 -7.20809e-05 5.36439e-20
-4.32526e-05 -1.88993e-05 -6.41872e-20
-1.01785e-05 1.60755e-05 5.4709e-21
9.30439e-05 -0.000114994 5.10125e-21
-0.000111478 -8.78263e-05 3.1063e-20
9.48296e-05 -0.000135953 1.05682e-20
8.74958e-05 0.000128289 4.40943e-20
0.00014065 8.19175e-05 -2.2593e-20
8.66326e-06 -1.60332e-05 -3.64731e-22
-4.28979e-06 -0.000146243 1.61234e-20
0.000149212 -9.78481e-06 -3.00603e-20
8.01241e-05 0.000110006 -1.09467e-20
-8.07893e-05 -0.000109856 -5.83841e-21
-5.02506e-05 -3.96623e-05 -4.66905e-20
-2.16688e-05 1.60217e-06 -4.52261e-20
5.14168e-05 8.0109e-05 7.2903e-21
5.21052e-05 -7.96783e-05 3.28072e-21
-4.93511e-05 1.43826e-05 -3.75652e-20
2.61581e-05 -5.25288e-05 3.64735e-22
7.88037e-05 -6.18402e-05 -4.74352e-20
7.8512e-05 6.20109e-05 -2.26229e-20
-6.0504e-05 -3.18285e-05 3.6467e-22
-4.23223e-05 2.82915e-05 1.53179e-20
-4.85717e-05 -2.25248e-05 -6.01802e-20
-9.21578e-05 -5.04864e-05 -4.55614e-21
-1.23797e-05 4.17043e-05 -5.47057e-21
-0.000188306 0.000188308 4.38923e-20
-1.36915e-05 7.38376e-05 1.38562e-20
1.32572e-05 -7.5148e-05 9.48076e-21
1.41e-05 -0.000147763 2.18935e-21
-1.45529e-05 0.00014792 -4.37895e-21
2.07695e-05 -3.94768e-05 -1.27681e-20
2.06093e-05 3.80737e-05 -3.28314e-21
-7.16605e-05 3.77543e-05 2.22537e-20
-7.11086e-05 -3.65005e-05 4.01284e-20
-0.000125176 -2.31551e-05 8.39288e-21
-0.000123452 2.36643e-05 9.96218e-20
0.000167367 -9.28941e-05 -3.467e-20
0.000167285 9.30748e-05 9.12371e-21
4.51327e-05 2.35881e-06 -3.57503e-20
4.43696e-05 -1.11896e-06 8.39039e-21
6.50836e-05 -3.07007e-05 -3.42772e-20
-4.36309e-06 6.52384e-05 3.28223e-21
5.6112e-05 4.20209e-05 -1.96909e-20
3.91204e-06 -6.50031e-05 1.53171e-20
-0.000102966 7.06535e-05 5.30351e-20
6.46816e-05 3.09192e-05 3.64649e-21
-7.79272e-06 -6.90555e-05 1.4588e-21
-4.53381e-05 -8.8531e-07 -4.52332e-20
-4.55661e-05 4.77843e-07 -1.09425e-21
-4.77955e-05 4.13435e-05 -2.11576e-20
8.22526e-05 0.000142469 2.787e-26
-8.23301e-05 -0.000142631 -1.16788e-20
-1.56101e-05 -4.98489e-05 2.29805e-20
-6.08049e-05 -3.59508e-05 -2.80839e-20
-8.63854e-06 -7.97728e-05 -2.51754e-20
5.64552e-05 -4.15013e-05 -1.02099e-20
9.1495e-05 0.000170749 2.04044e-20
0.000164289 8.08844e-05 -7.83354e-21
1.30528e-05 -4.90648e-05 -2.66322e-20
1.22168e-05 4.76945e-05 -3.13748e-20
-1.12679e-05 8.36586e-05 -4.2325e-20
6.79254e-06 6.70542e-05 1.85994e-20
7.92017e-05 -4.17228e-05 -2.00543e-20
6.59589e-05 -2.16155e-05 -3.28317e-20
6.58045e-05 2.16553e-05 -2.91829e-21
-0.000163167 8.88874e-09 7.30186e-22
-0.000163408 -8.76689e-09 3.10326e-20
1.23289e-05 -3.85813e-05 -2.18847e-21
-6.23488e-05 -3.72225e-05 -4.6315e-20
5.20063e-05 5.85075e-05 -1.82414e-20
5.25356e-05 -5.83247e-05 -2.99161e-20
1.63779e-05 4.77121e-05 1.49547e-20
7.30749e-06 1.31373e-05 1.0943e-21
0.000183447 0.000183448 1.29314e-20
-5.40247e-05 -1.85024e-05 -5.25358e-20
-5.39471e-05 1.73432e-05 2.73623e-20
-1.29146e-05 3.83481e-05 9.1181e-21
7.91431e-05 4.17862e-05 2.91698e-21
-6.1162e-05 3.07898e-05 3.24647e-20
-7.89492e-05 1.02927e-05 9.48518e-21
-7.88749e-05 -1.02952e-05 4.15893e-20
-4.77439e-05 2.2678e-05 -3.06384e-20
2.3989e-05 -0.000103425 -1.82435e-20
2.3504e-05 0.000103799 -1.60543e-20
3.19954e-05 0.000193467 -2.59137e-20
-3.2416e-05 -0.000193342 -2.29942e-20
-2.51296e-05 0.000330628 1.97597e-20
-0.000330967 1.82599e-05 6.97518e-20
4.94442e-05 6.97323e-06 -4.01261e-21
4.91601e-05 -7.09265e-06 -2.51701e-20
-5.62717e-06 -1.40281e-05 8.3897e-21
0.000179515 0.00022691 2.36766e-20
0.000223521 0.000177191 -2.86857e-20
7.91899e-05 0.000191147 3.39444e-20
7.91138e-05 -0.000190967 -9.12473e-21
-5.74668e-05 3.39358e-05 5.47131e-21
4.92891e-05 -5.37503e-05 -6.56416e-21
5.28008e-05 2.84094e-05 -1.13075e-20
5.29251e-05 -2.83926e-05 -2.69919e-20
3.70881e-05 -3.75223e-05 3.64686e-22
4.88351e-05 5.4581e-05 -8.02283e-21
-2.14851e-06 -0.000148963 2.33232e-20
1.42212e-06 0.000151249 1.7128e-20
0.000158737 -9.60264e-07 -3.18862e-20
3.71031e-05 3.76156e-05 -1.05763e-20
6.3552e-06 0.000156056 1.78541e-20
-0.000156969 -1.99629e-05 8.19854e-21
7.05036e-05 -1.16173e-05 -3.42917e-20
7.05429e-05 1.10503e-05 -1.53219e-20
6.71574e-05 -2.30461e-05 -3.79409e-20
6.70587e-05 2.31336e-05 -1.05797e-20
-0.000185152 0.00023002 4.11602e-20
-0.00022718 0.000185206 2.92304e-20
5.56495e-05 3.04548e-05 -1.45894e-20
5.57525e-05 -3.03972e-05 -8.38905e-21
1.91396e-05 0.00011356 -3.64918e-22
-1.95607e-05 -0.000113427 -7.29899e-22
5.15733e-05 2.07726e-05 -3.06456e-20
5.06041e-05 -2.05692e-05 6.56692e-21
7.74718e-05 -7.38988e-05 -3.83091e-20
7.71663e-05 7.41739e-05 -2.51746e-20
-4.58882e-05 1.07809e-05 -4.74207e-21
-4.68873e-05 -1.12712e-05 -3.64755e-21
7.21653e-05 0.000140058 5.47376e-21
0.000107003 0.000107832 1.16783e-20
7.24098e-05 -0.000139505 -2.08003e-20
0.000106966 -0.000107539 -2.62756e-20
-7.72855e-05 -0.000143926 9.1233e-21
-0.000162299 -2.64029e-06 6.45999e-20
-0.000162239 2.25225e-06 -2.22631e-20
7.66427e-05 0.00014388 -2.18968e-21
0.0001306 5.41002e-05 -1.78812e-20
0.000339772 4.47082e-05 -6.49745e-20
0.000130471 -5.40455e-05 5.47354e-21
0.000339809 -4.47118e-05 -3.24878e-20
0.000168376 -3.15779e-06 -2.40851e-20
0.000114378 3.25842e-05 -2.59067e-20
0.000158007 -5.12011e-05 -1.8977e-20
0.000168265 3.24242e-06 4.74397e-21
0.000114217 -3.25328e-05 1.0948e-21
0.000157902 5.12706e-05 -1.64226e-20
0.000120934 -4.7783e-05 -4.63396e-20
0.000122385 -4.73421e-05 -5.51039e-20
0.000120781 4.79307e-05 -8.39217e-21
0.000122262 4.74807e-05 -4.37911e-21
-2.79764e-05 -7.71669e-05 3.64632e-20
-1.0532e-05 6.38473e-05 -3.39226e-20
1.10903e-05 -6.3545e-05 3.86659e-20
-5.74166e-05 1.04714e-05 9.33543e-20
-7.33638e-05 1.90684e-05 6.8185e-20
-1.21787e-05 8.29871e-05 -3.64812e-20
1.27314e-05 -8.26187e-05 4.55999e-20
-7.34174e-05 -1.89029e-05 4.44851e-20
-2.46299e-05 -3.86467e-05 9.84812e-20
-4.14306e-05 -9.31141e-05 1.22105e-20
4.20764e-05 9.54301e-05 -5.86785e-20
9.69157e-05 4.38798e-05 -3.46233e-20
-5.37908e-05 -5.55161e-05 -1.09465e-21
5.3858e-05 5.59207e-05 -1.27334e-19
-5.90102e-05 3.5335e-05 2.84457e-20
-2.61398e-05 -5.30282e-05 4.44893e-20
-8.9118e-06 -5.11514e-05 3.20974e-20
-5.90457e-06 -8.4766e-05 2.04284e-20
6.37277e-06 8.47986e-05 -7.33267e-20
5.98781e-05 8.94003e-06 -4.55851e-20
-3.19072e-05 -0.000112079 3.68194e-20
3.02144e-05 0.000113615 -3.7182e-20
0.0001177 3.11311e-05 5.466e-22
2.78328e-05 7.60993e-05 4.0109e-21
-5.14154e-05 -5.1747e-05 4.30254e-20
-5.39893e-05 -1.10769e-05 7.58512e-20
-8.07023e-05 -0.000167178 -1.81855e-22
-4.77152e-05 2.39948e-05 1.29847e-19
-2.39877e-06 7.91991e-05 -5.98392e-20
3.22566e-06 -7.89371e-05 2.11618e-20
-0.000177972 -8.62627e-05 2.44533e-20
-0.000177565 8.93693e-05 -5.58456e-20
-3.85925e-05 5.21784e-05 1.13049e-20
-4.66775e-05 5.52465e-05 2.07833e-20
-0.000107576 3.4695e-05 1.74967e-20
-7.59762e-05 -3.68142e-05 7.77155e-20
-7.27294e-05 3.56366e-05 5.10789e-21
-1.24634e-05 2.55547e-05 1.35686e-19
-2.24232e-05 -7.83789e-07 1.27653e-19
-7.74164e-05 5.0565e-05 2.49755e-20
-8.93807e-05 -1.40439e-05 3.2812e-20
-8.15513e-05 1.63788e-05 3.31761e-20
8.06593e-06 5.16821e-05 -3.5379e-20
-2.54421e-05 7.67008e-05 -1.64083e-20
4.64844e-05 5.41419e-05 -6.92766e-21
-0.000180952 -0.000180946 -1.5482e-21
-0.000178162 0.000178155 1.00145e-21
1.60849e-05 4.15995e-05 -8.57246e-20
2.69151e-05 5.37805e-05 -2.29741e-20
-0.000178681 0.00019433 -1.00165e-21
-0.000188517 -0.000181313 -6.46617e-21
9.23273e-05 -1.83423e-05 -1.02161e-20
9.28985e-05 1.70338e-05 -7.99024e-20
4.37409e-05 1.49209e-05 -3.13664e-20
8.65939e-05 -5.86664e-05 -2.00667e-20
8.70173e-05 5.83975e-05 -5.72819e-20
-7.5369e-05 -0.000139321 1.67869e-20
-7.54134e-05 0.000138291 4.34294e-20
6.40478e-05 -3.74081e-05 5.8365e-21
6.39013e-05 3.67078e-05 -8.17099e-20
-8.42711e-05 0.000130831 -2.84659e-20
8.59785e-05 -0.000131097 1.09473e-20
4.45521e-05 -5.31903e-05 2.62531e-20
8.75549e-05 0.000165435 -1.10229e-19
0.000166187 8.75819e-05 -2.30479e-20
6.80736e-06 5.14155e-05 -4.55893e-20
-6.8742e-06 -5.06722e-05 4.34023e-20
0.000180236 -7.4657e-05 -1.86141e-20
0.000182476 7.55727e-05 -2.70139e-20
-7.39211e-05 -5.13691e-05 6.01611e-20
9.7269e-06 -1.62697e-05 2.00625e-20
6.05445e-05 3.2831e-05 -7.0757e-20
6.0713e-05 -3.30511e-05 2.37071e-20
-3.72343e-05 -2.53536e-05 3.0275e-20
-1.52718e-05 -4.04699e-05 9.4847e-21
-6.79454e-05 5.66895e-05 5.83703e-20
-0.000103756 -2.34874e-05 1.47626e-20
-7.82366e-05 0.000135488 -7.30103e-21
-7.85033e-05 -0.000135979 1.09502e-20
-5.84431e-05 -3.60335e-05 3.24543e-20
5.85668e-05 3.11537e-05 -7.22108e-20
-8.30235e-05 -9.0249e-05 4.02805e-20
1.48309e-05 -0.00014841 -3.65025e-22
-1.42262e-05 0.000147883 -1.93446e-20
-7.02896e-05 -6.22729e-05 8.24481e-20
5.36564e-06 6.78272e-05 -6.85754e-20
-4.61016e-06 -6.77649e-05 2.40751e-20
4.27865e-05 1.42751e-05 -2.99094e-20
4.36787e-05 -1.58058e-05 7.29423e-22
9.80466e-05 -7.36807e-05 1.4763e-20
7.36945e-05 1.58787e-05 -2.88067e-20
5.29187e-05 -4.96017e-05 5.10722e-21
5.25376e-05 4.93793e-05 -7.25945e-20
5.96554e-05 -3.21914e-05 2.04237e-20
2.79165e-05 -7.46134e-05 2.62539e-20
3.9853e-05 -3.58878e-05 1.38616e-20
3.86082e-05 3.46887e-05 -5.83637e-20
-6.32203e-05 -2.82425e-05 7.76817e-20
-6.64368e-05 5.2273e-05 2.35132e-20
3.23926e-05 2.50599e-05 -7.07593e-20
-2.76922e-05 6.72246e-06 3.39247e-20
-1.02104e-05 1.72993e-05 -1.16716e-20
7.89391e-05 1.31037e-05 -3.20835e-20
-0.000111466 0.000108557 1.18448e-20
-6.16091e-05 -3.67882e-05 9.51953e-20
-6.36881e-05 3.01861e-05 8.35153e-20
-0.00015155 2.47659e-05 -7.4703e-21
-5.90423e-05 3.6038e-05 4.81334e-20
-8.76989e-07 -6.96929e-05 4.23065e-20
1.30999e-06 6.99259e-05 -4.3766e-20
-5.23983e-05 -6.22664e-05 4.35659e-20
9.68138e-05 -4.17219e-05 7.28923e-21
-3.68035e-05 2.74313e-05 1.24015e-20
4.8107e-05 -7.55688e-05 3.57293e-20
-5.05261e-05 8.14873e-05 1.13017e-20
-6.06211e-05 -3.5869e-05 5.43409e-20
-2.44596e-05 -3.84803e-05 9.11928e-20
-2.50005e-05 4.10988e-05 1.37157e-19
-1.50463e-05 -7.15597e-05 4.59382e-20
1.4004e-05 7.32312e-05 -1.5677e-20
8.73308e-06 -9.88061e-05 2.25991e-20
-1.30389e-05 0.000101726 -4.42859e-20
0.000103118 -1.12261e-05 2.18692e-21
6.85602e-05 -4.58568e-05 3.35404e-20
0.000101563 -0.000175926 -2.44525e-20
-0.000101348 0.000175555 -1.56996e-20
-7.26529e-05 -4.38208e-05 7.40066e-20
7.63523e-05 -1.68671e-05 -2.55196e-21
-0.000115334 -9.145e-05 2.76979e-20
1.13457e-05 4.09653e-05 -3.61049e-20
4.48469e-05 -1.6677e-05 -1.82357e-21
2.12278e-05 -4.12004e-05 1.49564e-20
-2.1757e-05 4.2331e-05 -1.24026e-20
6.83137e-05 9.62812e-05 -3.59035e-20
0.000101609 6.83724e-05 -3.59036e-20
3.41102e-05 -2.58523e-05 2.51685e-20
-0.000145394 -6.55527e-06 2.6787e-20
2.38019e-05 -5.87291e-06 -8.42537e-20
-1.16068e-05 -4.16844e-05 3.28242e-20
2.0798e-05 5.30606e-07 -1.45909e-20
-2.40984e-05 -6.21602e-06 -1.20366e-20
-5.513e-05 -5.25967e-05 4.3761e-20
2.70661e-05 -0.00010926 3.70027e-20
-2.58918e-05 0.000109058 -6.19746e-21
0.000111719 -2.93441e-05 -2.5519e-21
6.88183e-05 -5.28519e-05 4.63053e-20
8.2755e-07 7.96119e-05 -3.71959e-20
-3.64652e-07 -7.99702e-05 4.77727e-20
5.49763e-05 -9.90524e-05 1.56727e-20
-5.22103e-05 0.000104267 2.04106e-20
7.74734e-06 2.03223e-05 -1.05786e-20
7.40187e-06 -2.15718e-05 -1.05787e-20
3.86957e-05 2.92764e-05 -4.70473e-20
2.6358e-05 3.80239e-05 -4.52322e-20
-5.66933e-05 3.47759e-05 3.79321e-20
7.24453e-05 3.64992e-05 -7.04078e-20
7.22835e-05 -3.7169e-05 8.39079e-21
6.06449e-05 -3.38963e-05 2.33446e-20
6.05165e-05 3.32034e-05 -8.17035e-20
-3.50904e-05 -0.000326757 -2.27587e-21
4.80682e-05 7.51255e-05 2.36976e-21
-0.000336589 3.94316e-05 3.44207e-20
-4.26219e-05 -3.17232e-05 4.41296e-20
1.47248e-05 -7.27257e-05 4.30228e-20
-1.26562e-05 7.49575e-05 -5.72405e-20
0.000114993 -0.000104539 -1.13125e-20
0.000116112 0.000105247 -6.27677e-20
6.29624e-05 4.06068e-05 -3.82911e-20
7.38354e-05 -1.83447e-05 4.74038e-21
6.85993e-05 4.76353e-05 -8.02011e-21
-4.46492e-06 6.2888e-05 -6.05452e-20
4.64717e-06 -6.32557e-05 2.44368e-20
2.32044e-05 6.16818e-06 1.64152e-20
6.28458e-05 -4.092e-05 5.06912e-20
-1.12661e-05 -1.87315e-05 1.16726e-20
-5.47249e-05 4.44978e-05 -2.80939e-20
5.59902e-05 -4.34804e-05 2.44445e-20
3.87569e-05 -2.86046e-05 2.44374e-20
-4.32411e-05 -2.94175e-05 2.80841e-20
8.87725e-06 1.90266e-05 -4.41313e-20
1.43552e-05 7.2275e-05 -3.8287e-20
-1.48607e-05 -7.20988e-05 4.70381e-20
5.52558e-05 3.39611e-05 -6.38229e-20
6.89132e-05 5.21557e-05 -6.56268e-21
-2.4312e-05 5.27513e-05 -1.93275e-20
-2.51773e-05 -3.69998e-05 8.29323e-26
8.81512e-05 0.000159835 -5.54726e-20
0.000162198 8.79434e-05 -3.41584e-20
-0.000100844 7.5422e-05 3.68139e-20
5.54957e-05 -3.46346e-05 3.93887e-20
6.04681e-05 -1.10729e-05 5.10546e-21
0.000189153 9.16889e-05 -5.58464e-20
0.000187083 -9.11259e-05 -1.13148e-20
1.23051e-05 -4.15209e-05 1.67773e-20
-0.000103221 -7.05909e-05 1.24063e-20
-0.00010129 7.21365e-05 -4.34261e-20
-4.28958e-05 1.83643e-05 1.18162e-19
-1.07659e-05 1.61294e-05 -3.42844e-20
-8.48782e-05 0.000113235 2.14071e-20
-0.000106555 -9.10853e-05 4.55245e-22
9.1283e-05 -0.000130704 3.17039e-20
-8.30006e-05 0.000135524 4.15444e-20
0.000136738 -7.9737e-05 -4.37294e-21
-9.31749e-05 -5.04491e-05 4.13715e-20
9.4955e-06 -1.62191e-05 1.09432e-20
-1.11649e-05 -0.000146224 2.8512e-20
-0.000138398 1.2314e-06 2.55081e-21
8.03732e-05 0.000110186 -1.54724e-19
-8.03713e-05 -0.000109909 -5.47333e-21
-4.96673e-05 3.92828e-05 9.44749e-20
-2.17548e-05 -1.59153e-06 1.4297e-19
-4.9439e-05 8.0669e-05 1.95014e-20
5.22941e-05 -7.90946e-05 2.97092e-20
-4.94821e-05 -1.46624e-05 1.24729e-19
2.64018e-05 -5.25175e-05 1.89635e-20
7.86183e-05 -6.1676e-05 -1.89744e-20
7.89336e-05 6.14332e-05 -3.97728e-20
-6.08167e-05 3.20031e-05 4.23117e-20
-3.78549e-05 2.79251e-05 1.85996e-20
-4.88254e-05 2.26826e-05 1.19266e-19
-1.12142e-05 4.54624e-05 -3.64823e-22
0.000187224 0.000187231 -2.24927e-20
1.37038e-05 -7.50063e-05 3.537e-20
-1.27199e-05 7.48344e-05 -4.8132e-20
-1.41296e-05 0.000147981 -8.72182e-20
1.50276e-05 -0.000148136 -1.45939e-21
2.12269e-05 -3.96344e-05 -5.83685e-21
2.10259e-05 3.76348e-05 -2.44419e-20
-7.20911e-05 -3.79121e-05 7.15002e-20
-7.05569e-05 3.65115e-05 3.17376e-20
-0.000125176 2.27611e-05 2.88271e-20
-0.000123535 -2.3337e-05 -5.47389e-21
0.00016607 -9.23453e-05 -2.55472e-21
0.000168454 9.28968e-05 -5.07343e-20
4.54261e-05 1.69027e-06 9.48497e-21
4.32219e-05 -1.64087e-06 -1.04323e-19
6.52473e-05 3.01245e-05 -4.704e-20
-3.98469e-06 6.60791e-05 -4.44911e-20
4.36888e-06 -6.4874e-05 2.62585e-20
6.48336e-05 -3.13714e-05 4.52173e-20
-7.20964e-06 -6.84762e-05 4.7775e-20
7.07992e-06 6.79318e-05 -3.20925e-20
5.64325e-05 4.18354e-05 -1.60442e-20
-4.55883e-05 6.53352e-08 3.28324e-20
-4.60478e-05 -5.30143e-07 -1.89687e-20
5.63916e-05 -4.20423e-05 5.9802e-20
-4.82567e-05 -4.16468e-05 9.73964e-20
8.23596e-05 0.000142682 -8.17801e-20
-8.2339e-05 -0.00014263 -2.55464e-20
-1.50398e-05 -4.98298e-05 1.60499e-20
-6.05643e-05 3.5435e-05 7.87803e-20
-8.62467e-06 7.98091e-05 7.37025e-20
9.51922e-05 -0.00016792 6.21233e-20
0.000165269 -7.86373e-05 7.10488e-21
1.36953e-05 -4.8992e-05 4.01316e-21
1.25141e-05 4.76507e-05 -4.41435e-20
-1.12845e-05 -8.37472e-05 5.69167e-20
7.97821e-05 4.15501e-05 -2.69816e-20
6.59679e-05 -2.20175e-05 1.24031e-20
6.58738e-05 2.10178e-05 -8.79118e-20
-0.00016308 -1.40678e-08 1.1679e-20
-0.000163419 5.45727e-09 1.89847e-20
1.28097e-05 -3.85972e-05 1.45898e-20
-6.09972e-05 3.57723e-05 7.4032e-20
5.23316e-05 5.79417e-05 -7.07776e-20
5.27318e-05 -5.82064e-05 2.29846e-20
1.66068e-05 4.81768e-05 -6.38319e-20
8.51798e-06 1.38679e-05 -2.40727e-20
0.000181752 -0.000181749 3.73371e-20
-5.49855e-05 1.81687e-05 3.8308e-20
-5.39752e-05 -1.70097e-05 -4.01317e-21
-1.24104e-05 3.93544e-05 -2.55309e-20
7.79872e-05 -4.20378e-05 2.88059e-20
-6.12242e-05 -3.07222e-05 7.6602e-20
-7.9892e-05 -8.5441e-06 3.57525e-20
-7.85009e-05 1.31969e-05 2.62666e-20
-4.78848e-05 -2.24351e-05 8.8631e-20
2.37298e-05 0.000103407 -7.77185e-20
2.45031e-05 -0.000102704 -1.82437e-21
3.22757e-05 0.000193497 -7.00825e-20
-3.18775e-05 -0.000193892 4.37964e-21
1.50053e-05 0.000324265 1.44786e-20
0.000326986 2.2525e-05 -2.62254e-20
4.93478e-05 -7.66693e-06 2.15224e-20
4.92021e-05 6.28275e-06 -9.11898e-20
-5.04866e-06 -1.4179e-05 5.83639e-21
0.000177295 -0.000221074 6.03759e-20
0.000215641 -0.000176521 2.98684e-20
7.93204e-05 0.000191442 -5.62061e-20
7.85947e-05 -0.000189694 5.10982e-21
-5.75319e-05 -3.39014e-05 4.5228e-20
4.94498e-05 -5.3922e-05 3.50085e-20
5.307e-05 -2.87241e-05 4.01234e-20
5.25922e-05 2.79187e-05 -8.68098e-20
3.7325e-05 -3.78325e-05 3.82942e-20
4.89365e-05 5.45765e-05 -2.11504e-20
-3.92606e-06 0.000143513 -1.40303e-20
-1.89092e-06 -0.000155978 3.26158e-20
0.000149042 -4.89924e-06 -6.013e-21
3.71325e-05 3.72843e-05 -3.61044e-20
-1.56922e-05 0.000158669 -3.65284e-20
0.000156847 -1.1622e-05 -1.65789e-20
7.04374e-05 -1.21371e-05 8.75552e-21
7.03554e-05 1.03717e-05 -1.02141e-19
6.71366e-05 -2.34122e-05 1.38633e-20
6.69293e-05 2.22593e-05 -9.52167e-20
0.000183636 0.000225931 -4.48938e-20
0.000227021 0.000183824 1.16558e-20
5.56985e-05 3.01486e-05 -6.52854e-20
5.59123e-05 -3.07391e-05 4.92399e-20
1.94465e-05 0.000113738 -9.3425e-20
-1.8943e-05 -0.000113489 -6.56818e-21
5.17641e-05 1.98114e-05 1.78769e-20
4.98207e-05 -2.22073e-05 -1.03242e-19
7.73076e-05 -7.35503e-05 -3.64966e-22
7.75737e-05 7.36823e-05 -6.23888e-20
-4.62593e-05 -1.09292e-05 4.04905e-20
-4.92062e-05 1.21453e-05 2.40743e-20
-7.68624e-05 -0.000144042 -2.18959e-20
-0.000162076 -2.53904e-06 -6.93349e-21
-0.000162221 2.85814e-06 2.22634e-20
7.68909e-05 0.000144044 -1.23358e-19
7.25119e-05 0.000139755 -8.02811e-20
0.000107339 0.000107543 -3.39396e-20
7.22562e-05 -0.000138284 6.9336e-21
0.000106258 -0.00010683 4.74439e-21
0.000129148 5.35027e-05 -2.08014e-20
0.000132334 -5.4803e-05 -6.56944e-21
0.000341533 -4.4955e-05 -1.60664e-20
0.000337296 4.43962e-05 -7.00876e-20
0.000166925 -3.75438e-06 -1.53273e-20
0.000113714 3.14642e-05 -9.85208e-21
0.00016975 1.95339e-06 -5.29176e-20
0.000114793 -3.44224e-05 -8.86659e-20
0.000159126 5.12711e-05 -2.99317e-20
0.000156759 -5.08709e-05 -1.64228e-20
0.000120181 -4.78012e-05 3.64901e-22
0.000121641 -4.73575e-05 -3.28438e-21
0.000121454 4.72338e-05 -8.72117e-20
0.000122911 4.6786e-05 -5.87535e-20
-1.01794e-05 6.34687e-05 -1.20374e-20
7.85806e-06 -6.99771e-05 2.73641e-20
-5.69355e-05 -1.11278e-05 -3.39151e-20
-7.13294e-05 -1.96199e-05 -2.84417e-20
-1.17839e-05 8.21057e-05 -5.39929e-20
7.11864e-06 -7.85988e-05 1.20415e-20
-7.61818e-05 1.82979e-05 -4.41219e-20
-2.36919e-05 3.81202e-05 -8.75458e-21
-4.03194e-05 9.89796e-05 -1.45856e-21
-3.8559e-05 -9.6697e-05 2.18705e-21
9.88533e-05 3.97337e-05 -5.88638e-20
5.57426e-05 -5.23935e-05 1.7515e-20
5.3379e-05 5.5357e-05 2.77289e-20
-5.54913e-05 -3.75417e-05 -5.47089e-21
1.55694e-05 -7.68065e-05 3.06483e-20
6.38384e-06 8.39046e-05 2.04294e-20
5.9457e-05 -1.39859e-05 -2.22474e-20
-2.65685e-05 -0.000119394 7.47317e-21
-3.22632e-05 0.000114482 -1.45862e-21
0.000117947 2.74533e-05 -4.10117e-20
-7.8958e-05 1.70685e-05 -2.5339e-20
2.99892e-05 7.44668e-05 -1.96908e-20
3.74015e-05 -8.48923e-05 -2.2612e-20
-5.37279e-05 9.2972e-06 -3.64683e-20
-8.10806e-05 -0.000175896 -9.10967e-22
-4.59756e-05 -2.42345e-05 -2.84508e-20
0.000175611 8.3364e-05 -5.20219e-20
-2.2299e-06 7.84057e-05 -1.56897e-20
1.41139e-05 -7.58877e-05 1.9706e-20
-0.000177263 8.61751e-05 5.14592e-20
-0.000172475 -8.92658e-05 2.81018e-20
-0.000115794 3.64144e-05 -4.10097e-20
-3.5794e-05 -5.31414e-05 -1.60469e-20
-6.95232e-05 -3.68246e-05 1.27705e-20
-7.5036e-05 3.64919e-05 1.09453e-21
-1.17808e-05 -2.57453e-05 -1.71446e-20
4.63281e-05 5.26861e-05 -3.20862e-20
5.10022e-05 -6.67507e-05 -3.13629e-20
-7.42339e-05 4.85277e-05 -4.6853e-20
-2.14523e-05 -2.88835e-07 -1.86024e-20
-4.77198e-05 -5.69631e-05 -1.094e-20
-4.88418e-05 5.18818e-05 -5.39626e-20
-2.10345e-05 -7.87624e-05 -7.65825e-21
-2.69787e-05 7.53642e-05 -3.20877e-20
2.35649e-05 -6.28863e-05 1.09463e-21
8.71101e-06 5.13114e-05 -2.07903e-20
-7.57417e-05 4.83899e-05 -4.02845e-20
-0.000188842 -0.000188859 -2.56827e-20
0.000187609 0.000187638 -3.64284e-20
2.00883e-05 -3.88912e-05 1.38641e-20
1.60298e-05 4.12053e-05 1.02139e-20
0.000188364 0.000200505 -4.0526e-20
-0.000197455 -0.000189276 -5.91971e-20
9.09798e-05 1.59025e-05 2.1892e-21
7.32512e-05 -3.99121e-05 -1.93424e-20
4.24503e-05 -2.01184e-05 -1.45891e-20
8.52869e-05 5.59159e-05 -7.29815e-22
6.97462e-05 -6.4558e-05 -3.64921e-20
2.8286e-05 5.3054e-05 -1.34932e-20
3.58886e-05 -6.58984e-05 -5.10636e-21
-7.23652e-05 -0.000138289 2.88294e-20
-7.44664e-05 0.00013975 -2.08002e-20
6.31912e-05 3.45452e-05 -3.46551e-20
5.79208e-05 -4.87162e-05 -2.91881e-20
-0.000102162 4.28802e-05 -2.15032e-20
-8.31716e-05 0.000129367 -4.74431e-20
-3.70459e-05 -0.000105764 -7.30006e-22
-9.07487e-05 0.000169843 1.95868e-20
-0.000172661 8.95864e-05 -3.03362e-20
7.23237e-06 5.09943e-05 -3.50136e-20
1.90849e-05 -6.19276e-05 7.29621e-21
0.000177936 7.37274e-05 -6.93763e-21
0.000140097 -5.80031e-05 5.76828e-20
6.02307e-05 2.92715e-05 -4.81459e-20
5.69225e-05 -4.03356e-05 4.01241e-21
-0.000107004 -2.44689e-05 -3.7181e-20
7.58262e-05 -2.27665e-05 -1.16693e-20
-9.12208e-05 -1.44322e-05 -3.22658e-20
-6.49254e-05 -5.70505e-05 -2.1885e-21
-7.83143e-05 0.000135604 2.59112e-20
-7.70848e-05 -0.000133517 2.2992e-20
-8.05687e-05 -9.3707e-05 1.29416e-20
-5.98204e-05 3.43443e-05 -6.12613e-20
5.92732e-05 2.85021e-05 -7.29417e-20
1.18707e-06 -0.00011506 -1.45999e-21
-1.39643e-05 0.000146218 -2.95639e-20
-6.93421e-05 6.19991e-05 1.86059e-20
1.51001e-05 -6.88136e-05 1.60526e-20
5.40278e-06 6.7117e-05 1.42263e-20
4.29206e-05 1.12735e-05 -3.79343e-20
3.94516e-05 -1.82315e-05 5.83641e-21
0.00010279 -8.45479e-05 -4.31995e-20
5.16244e-05 4.56e-05 -1.20387e-20
4.54065e-05 -5.24142e-05 5.47253e-21
5.73198e-05 -4.06939e-05 1.60485e-20
3.88704e-05 3.22477e-05 -2.9182e-20
3.51991e-05 -4.15973e-05 -7.9251e-26
-6.2168e-05 2.78047e-05 -3.13651e-20
3.24294e-05 2.40353e-05 3.31923e-20
3.92283e-05 -4.59954e-05 -3.57588e-20
-7.47929e-05 -5.29717e-05 1.82312e-21
1.16817e-05 -4.05019e-05 -3.64925e-21
-9.5783e-06 1.6848e-05 3.64705e-22
7.98925e-05 9.82304e-06 -7.25554e-20
-6.09762e-05 3.60636e-05 -2.66254e-20
-6.33417e-05 -3.11537e-05 -2.99064e-20
-4.80587e-05 -6.46412e-05 1.45827e-21
-5.55842e-05 -4.02355e-05 -1.49514e-20
1.0375e-05 -7.12589e-05 1.71447e-20
1.17537e-06 6.93049e-05 1.24006e-20
0.000101273 -4.76802e-05 -3.46279e-20
-3.64354e-05 2.48607e-05 -4.37676e-21
-3.35946e-05 -2.90461e-05 1.38618e-20
5.33613e-05 -8.63541e-05 -2.26079e-20
4.89797e-05 7.48343e-05 -4.19276e-20
-5.91671e-05 3.43857e-05 -4.23055e-20
-2.31952e-05 3.76327e-05 -1.60512e-20
-2.29818e-05 -3.96357e-05 -2.04289e-20
-5.58867e-05 5.28401e-05 -7.00175e-20
1.26362e-05 -0.000105775 3.09847e-21
1.38728e-05 0.000101062 1.458e-20
0.000104918 -1.0032e-05 -2.27816e-20
0.000103702 7.16218e-05 -6.41569e-20
7.13638e-05 -5.49214e-05 -4.37517e-21
-8.15689e-05 -0.00014131 1.09504e-20
-0.000100242 0.000173618 5.47667e-21
7.76758e-05 -2.17063e-05 -7.29235e-21
1.21588e-05 3.98655e-05 1.09412e-20
2.5267e-05 -5.72201e-05 2.9185e-21
4.43838e-05 1.23445e-05 -4.66853e-20
-9.4066e-06 -7.54985e-05 -1.4221e-20
-1.41394e-05 7.16236e-05 -1.05729e-20
-2.10941e-05 4.18092e-05 -3.356e-20
5.99481e-06 -5.28403e-05 -1.09485e-20
2.40363e-05 -6.11597e-06 5.65357e-20
3.41034e-05 -2.75886e-05 -2.55445e-20
2.00036e-05 -3.80291e-06 2.29788e-20
6.8811e-05 4.60321e-05 -9.44252e-20
-2.13263e-05 4.71327e-06 1.7511e-20
-2.57774e-05 -7.0683e-06 -8.389e-21
6.91188e-05 5.00419e-05 -8.27658e-20
-7.92955e-05 9.64346e-05 -3.31712e-20
-4.13875e-05 3.14515e-05 -4.33993e-20
3.4514e-05 -0.000117541 -2.00534e-20
2.9292e-05 0.000109359 -2.38784e-20
0.000117226 -3.50847e-05 3.09885e-21
7.19265e-05 -6.37555e-05 -1.09386e-21
6.54149e-07 7.97419e-05 -1.16698e-20
9.64457e-06 -8.5915e-05 -8.02408e-21
5.93465e-05 -0.000107892 -4.04618e-20
5.58866e-05 9.57039e-05 -3.80892e-20
7.20004e-06 1.72759e-05 7.29521e-22
6.61675e-06 -2.47177e-05 3.86649e-20
3.87302e-05 2.82454e-05 2.15184e-20
4.38607e-05 -4.90869e-05 -2.07956e-20
2.71933e-05 -3.64197e-05 9.48585e-21
2.61142e-05 3.76034e-05 -1.16728e-20
-5.31765e-05 -3.67726e-05 1.09428e-21
-0.000113633 -9.28712e-05 -2.60587e-20
2.11772e-05 -8.41195e-05 -1.96913e-20
1.50918e-05 7.37581e-05 -2.11467e-20
7.091e-05 3.43191e-05 -4.74287e-21
5.91983e-05 -4.86915e-05 -4.77995e-20
6.26153e-05 -5.33077e-05 1.89663e-20
6.00557e-05 3.13098e-05 -5.98206e-20
5.63454e-05 -4.70783e-05 -5.8374e-21
-3.50077e-05 -0.000342639 -1.89415e-20
0.000340012 4.93203e-05 -2.64986e-20
0.00011332 0.00010199 3.17525e-20
8.89051e-05 -9.8715e-05 -1.24097e-20
6.2904e-05 3.86578e-05 -7.91371e-20
-0.00014241 -1.08306e-05 -4.81073e-20
1.44173e-06 -6.19454e-05 8.02514e-21
-4.49087e-06 6.21406e-05 1.02126e-20
-5.17087e-05 7.54345e-05 -6.16124e-20
-5.39387e-05 4.39658e-05 -4.12287e-20
-1.95126e-05 -5.45109e-05 2.18959e-21
-7.39259e-05 -5.03175e-05 -1.74999e-20
7.23275e-05 1.3971e-05 -5.3969e-20
9.26528e-06 1.85584e-05 3.20964e-20
2.56213e-05 -4.17699e-05 -1.42329e-20
-2.03179e-05 -5.42018e-05 -1.09403e-21
-2.52855e-05 5.19786e-05 -1.45868e-20
5.51926e-05 3.2009e-05 -7.84142e-20
5.55327e-05 -4.7192e-05 1.1673e-20
1.55163e-05 7.27403e-05 -6.19898e-21
2.30411e-05 -7.95992e-05 -1.09379e-21
-9.13173e-05 0.000163294 6.19406e-20
-0.000162731 9.05533e-05 1.53938e-20
6.04657e-05 7.00704e-06 -6.30922e-20
0.000184269 8.90194e-05 9.1272e-21
0.000150576 -8.32286e-05 2.738e-20
-0.000102479 7.05068e-05 2.55438e-20
-9.72517e-05 -7.22669e-05 1.86098e-20
-4.2088e-05 -1.96914e-05 -2.48014e-20
-7.90872e-06 -1.77594e-05 2.07938e-20
-1.00187e-05 1.60655e-05 -1.9695e-20
9.33179e-05 0.000116248 -3.5618e-20
-0.000109267 -9.26534e-05 -3.57108e-20
9.62554e-05 -0.000140063 -6.74225e-20
9.45045e-05 0.00013296 -2.71502e-20
0.000146366 -8.86643e-05 -4.28213e-20
-1.00377e-05 -0.000153817 -2.9516e-20
0.000153725 7.62078e-06 -2.64177e-20
7.96034e-05 0.000109034 3.28424e-20
7.69403e-05 -9.5762e-05 1.02184e-20
-4.7845e-05 -4.07815e-05 -3.28313e-20
-2.07766e-05 5.29148e-07 -9.48403e-21
5.72681e-05 -9.0104e-05 -2.80721e-20
5.39919e-05 7.95888e-05 -5.54082e-20
-4.85293e-05 1.3598e-05 -3.53783e-20
7.69087e-05 5.90766e-05 1.4597e-21
6.22877e-05 -6.73561e-05 -9.85343e-21
-5.83804e-05 -3.37647e-05 -4.37752e-21
-4.20736e-05 2.82423e-05 -3.13652e-20
-3.52872e-05 -2.9853e-05 -1.09407e-21
-4.61273e-05 -2.4054e-05 -2.91799e-20
-9.05912e-05 -5.4013e-05 -9.65967e-21
-1.21916e-05 4.16304e-05 -1.89645e-20
-7.12455e-06 -4.49616e-05 -2.55305e-21
-0.000189205 0.000189179 2.83217e-20
-1.33332e-05 7.37588e-05 4.01094e-21
-8.36578e-06 -7.82106e-05 -1.02112e-20
-1.38257e-05 0.000146372 -3.57635e-20
6.30813e-06 -0.000121687 2.81017e-20
1.99093e-05 3.39491e-05 -7.29593e-22
1.84296e-05 -3.99837e-05 1.31324e-20
-6.68233e-05 -3.79151e-05 -5.10727e-21
-7.11546e-05 3.75917e-05 -8.39045e-21
-0.000119042 2.12361e-05 9.48746e-21
-0.000124456 -2.2976e-05 -4.01371e-21
0.000164493 9.01605e-05 2.37273e-20
0.000121565 -8.49272e-05 2.4093e-20
4.28689e-05 -2.00992e-06 3.28301e-20
4.52265e-05 -3.00151e-05 -4.48914e-20
6.56317e-05 2.7566e-05 -8.38734e-20
2.21024e-06 -6.72259e-05 -1.09418e-21
-4.04527e-06 6.51979e-05 -5.10577e-21
6.01678e-05 -5.37441e-05 -1.24e-20
-0.000104051 7.05367e-05 -1.85903e-20
6.55965e-05 -3.93169e-05 2.7353e-20
5.72192e-05 3.94303e-05 -7.36591e-20
-4.49948e-05 -8.25453e-07 1.605e-20
-4.24192e-05 -1.40754e-06 1.82412e-20
-4.69329e-05 4.10219e-05 -7.29573e-21
8.14935e-05 0.000141199 8.39711e-20
7.15298e-05 -0.000123878 -5.47539e-21
-5.82511e-05 -3.7433e-05 -5.10632e-21
-5.87368e-06 -8.00565e-05 -5.83751e-21
0.000100195 -0.000177551 -6.14923e-20
0.000172809 -8.75086e-05 -3.84436e-20
1.09792e-05 4.5046e-05 -1.56876e-20
9.45461e-06 -5.02804e-05 6.56688e-21
-9.79249e-06 8.36717e-05 -1.34999e-20
1.9228e-05 -7.67696e-05 3.64792e-21
7.38302e-06 6.66856e-05 -1.93285e-20
8.03944e-05 3.91086e-05 -1.0246e-19
6.50451e-05 1.97985e-05 -1.20382e-20
5.8749e-05 -4.21554e-05 -1.1676e-20
-0.00015831 -5.6456e-09 1.38686e-20
-0.000162416 -1.35843e-08 2.48221e-20
-6.01298e-05 -3.88057e-05 -1.45888e-20
5.14082e-05 5.52985e-05 1.16752e-20
4.51546e-05 -6.36443e-05 -2.99198e-20
1.64733e-05 4.75731e-05 2.00617e-20
2.08451e-05 -4.84607e-05 1.86057e-20
1.16693e-05 -1.54575e-05 1.31333e-20
7.39933e-06 1.31402e-05 -2.37078e-20
0.000190656 -0.00019063 -2.58656e-20
-5.04816e-05 1.50004e-05 9.48625e-21
-5.36304e-05 -1.83406e-05 2.91856e-21
-1.27325e-05 3.82342e-05 -1.31301e-20
-8.18296e-06 -3.96782e-05 1.67802e-20
8.11514e-05 -5.10029e-05 -3.64602e-22
-6.06777e-05 3.06421e-05 -2.51685e-20
-7.52701e-05 -1.39778e-05 1.45931e-20
-7.8402e-05 1.02748e-05 -7.66087e-21
-4.68797e-05 2.1951e-05 -1.13071e-20
2.2041e-05 0.000100038 -1.1312e-20
1.89425e-05 -9.73989e-05 3.2477e-20
3.20244e-05 0.000191384 8.39527e-21
3.84618e-05 -0.000157467 5.84035e-21
-1.90485e-05 0.000337838 -2.10354e-20
-0.000336269 1.55423e-05 -8.74256e-21
4.8925e-05 5.6141e-06 2.69933e-20
4.9721e-05 -3.42717e-05 -4.3422e-20
0.000186792 -0.000231977 -2.92341e-20
0.000232582 -0.000184093 -7.74095e-21
6.62656e-05 -0.000159883 2.92087e-21
7.71796e-05 0.000186324 -7.11978e-20
-5.7051e-05 3.37291e-05 -4.01208e-20
5.21921e-05 2.64793e-05 -6.93026e-21
5.15406e-05 -4.58993e-05 -2.99182e-20
4.9229e-05 5.3203e-05 -2.18804e-20
5.24823e-05 -6.70197e-05 -1.82373e-20
1.36327e-06 -0.000165709 1.14813e-20
3.73686e-06 0.000144662 1.0204e-20
0.000165077 -2.894e-06 -2.91555e-20
3.73156e-05 3.59324e-05 -1.38585e-20
4.30626e-05 -5.34004e-05 -2.48063e-20
1.62339e-05 0.000159547 -6.37591e-22
-0.000158492 -2.35015e-05 -2.37759e-20
6.92835e-05 9.54846e-06 2.40776e-20
6.10494e-05 -3.64621e-05 -2.73697e-20
6.60033e-05 2.0926e-05 2.1525e-20
5.92392e-05 -4.27317e-05 -1.42317e-20
-0.00018625 0.000228269 4.39841e-20
-0.000230378 0.000185893 5.77345e-20
5.55502e-05 2.88896e-05 -4.5957e-20
5.53719e-05 -4.86482e-05 -3.28343e-20
2.89787e-05 -9.85615e-05 1.75185e-20
1.93474e-05 0.000112544 1.64223e-20
4.93199e-05 -2.21195e-05 5.10739e-21
4.91854e-05 -1.76485e-05 -3.90514e-20
7.56517e-05 7.04416e-05 3.13795e-20
6.15655e-05 -7.3861e-05 1.6421e-20
-4.51288e-05 -1.44557e-05 1.78753e-20
-4.55644e-05 1.07618e-05 -1.34962e-20
7.41238e-05 -0.00012319 3.28465e-21
-0.000156612 -4.20663e-06 7.6637e-21
-0.000161449 2.3752e-06 3.72249e-20
7.61565e-05 0.000142528 7.51828e-20
7.0277e-05 0.000135982 -3.32116e-20
0.000104549 0.000104303 3.21226e-20
5.75122e-05 -0.000126131 4.16069e-20
8.64422e-05 -9.93726e-05 1.02205e-20
0.000129567 -5.3645e-05 -2.33606e-20
0.000332991 -4.3785e-05 -3.24986e-20
0.000262148 3.45726e-05 6.82722e-20
7.52462e-05 3.11906e-05 -4.27135e-20
0.000165884 1.45261e-06 -3.32132e-20
0.000112379 -3.39713e-05 -2.007e-20
0.000155465 4.98525e-05 -3.72369e-20
0.000115604 -2.99792e-05 -1.82525e-20
0.000112483 -4.44628e-05 3.72362e-20
8.63953e-05 -1.06481e-05 -3.32156e-20
0.000118843 4.53778e-05 -2.29899e-20
0.000119947 4.50477e-05 1.53293e-20
9.02496e-05 -5.78872e-05 -1.31392e-20
9.37768e-05 -5.67952e-05 -4.30715e-20
1.03072e-05 2.27886e-06 -1.13167e-20
8.59384e-06 5.04869e-06 1.13187e-20
2.36376e-05 -5.76331e-07 -1.71587e-20
8.27622e-06 -1.1716e-06 -2.2266e-20
8.38286e-06 -1.11314e-06 -1.71564e-20
7.48054e-06 1.79899e-05 -6.57224e-21
2.48375e-05 -1.45497e-05 -1.0222e-20
8.00292e-06 1.61196e-06 -3.06624e-20
2.16811e-05 1.8296e-05 -4.16084e-20
8.95015e-06 9.65677e-07 -1.0222e-20
9.02125e-06 -8.70972e-07 -2.33645e-20
7.73479e-06 1.27786e-08 -1.78911e-20
4.85046e-05 -1.24184e-06 -1.6793e-20
-4.92186e-06 -8.98011e-06 1.38755e-20
1.033e-05 5.93409e-06 -2.99337e-20
1.69652e-05 5.61203e-06 -2.08065e-20
2.06429e-05 1.56935e-05 -2.40952e-20
1.08322e-05 -1.86093e-05 -1.09538e-21
6.48265e-06 6.11354e-07 -2.11789e-20
9.39815e-06 9.63961e-08 -2.40952e-20
9.43135e-06 -8.39254e-08 -2.48254e-20
7.29313e-06 2.97889e-07 -1.27795e-20
7.69346e-06 5.16771e-06 -5.47567e-21
6.07777e-06 7.65231e-07 -3.32182e-20
3.31566e-06 4.93891e-06 -3.65035e-21
8.19479e-06 1.34519e-06 2.19072e-21
9.08049e-06 1.18189e-06 -3.83269e-20
8.41114e-06 -3.3233e-08 -1.27777e-20
1.04348e-05 -1.08811e-05 -1.67896e-20
7.30557e-06 -2.28899e-07 -2.73836e-20
1.79027e-05 1.39396e-05 -8.76292e-21
2.00712e-05 -1.26969e-05 1.16836e-20
-9.12428e-05 -4.6391e-05 -1.39442e-27
-9.14518e-05 4.39189e-05 -2.48244e-20
7.20932e-06 1.71161e-07 -2.33631e-20
4.45669e-06 6.28865e-06 -1.09507e-21
-1.75037e-05 -5.57959e-06 2.70125e-20
-2.03168e-05 6.53645e-06 -1.93467e-20
2.72987e-05 -1.16255e-05 -2.95636e-20
8.3751e-06 1.1051e-06 -1.13189e-20
5.80792e-06 -1.03e-06 -3.86945e-20
2.27505e-05 -6.33342e-08 -3.64981e-20
7.72018e-06 -4.98909e-06 -2.92039e-20
1.0237e-05 -2.28659e-06 -3.57753e-20
5.53206e-06 4.17387e-06 -3.28627e-21
7.25952e-06 -9.04801e-07 -3.02989e-20
1.02932e-05 -1.65064e-06 3.65077e-21
8.78627e-06 -3.33803e-06 -1.67945e-20
2.82276e-05 -8.91918e-06 -2.84717e-20
8.96464e-06 -3.24992e-07 -1.75247e-20
6.9315e-06 -1.8128e-06 -1.09522e-20
1.41079e-05 -7.67699e-07 7.66871e-20
1.41151e-05 7.61106e-07 -1.46069e-21
4.6061e-06 1.30622e-06 -1.93534e-20
1.32195e-05 -7.01912e-06 5.44115e-20
1.32251e-05 7.02435e-06 1.27812e-20
8.28464e-06 2.47056e-06 3.65125e-21
-2.36481e-05 -8.69687e-05 2.19018e-21
-2.37562e-05 8.72821e-05 -2.77422e-20
9.68271e-06 -3.21573e-06 5.9887e-20
9.67594e-06 3.21491e-06 -2.11795e-20
7.23985e-06 1.85623e-07 -1.27769e-20
6.68032e-05 -4.52792e-05 -4.38095e-21
-1.61777e-05 3.73296e-05 -4.74713e-21
8.37399e-06 -1.10253e-06 -2.48286e-20
8.4689e-06 -9.43855e-08 -1.24127e-20
7.03138e-06 3.23866e-07 -1.49676e-20
8.83515e-06 4.87607e-06 1.57004e-20
1.54815e-05 5.265e-06 -1.02214e-20
2.7005e-05 -1.11866e-05 2.19126e-20
2.70245e-05 1.11947e-05 6.57379e-21
2.58468e-05 2.20539e-05 -2.15353e-20
8.03843e-06 -2.8984e-06 5.11223e-20
8.01535e-06 2.99484e-06 -3.10385e-20
7.94315e-07 1.35928e-05 2.55504e-21
3.56964e-06 -5.6653e-06 9.49368e-21
7.25353e-06 -1.35478e-07 -3.35843e-20
6.48434e-06 -6.24014e-07 -2.62827e-20
-1.25368e-05 -2.7484e-05 5.84018e-21
-4.01573e-05 6.95408e-05 -1.16818e-20
-4.04074e-05 -6.99741e-05 -8.76126e-21
7.40778e-06 1.07249e-06 8.76144e-21
4.02439e-06 7.24614e-07 -2.5187e-20
6.42191e-06 1.64262e-06 -2.95774e-20
1.04219e-05 4.38032e-05 -2.48311e-20
1.99933e-05 -5.66661e-05 7.30241e-21
-1.48859e-05 3.08954e-05 -3.4676e-20
1.98808e-05 2.64213e-06 -1.27781e-20
1.18394e-05 -5.38632e-06 -1.71603e-20
5.12544e-06 -1.72578e-06 3.83422e-20
5.03367e-06 1.59503e-06 -2.33705e-20
7.80478e-06 -5.03112e-07 -1.42398e-20
6.50846e-06 6.2434e-07 -4.38175e-21
7.27813e-06 -5.91684e-06 7.92421e-20
7.25011e-06 5.97604e-06 1.24158e-20
6.51467e-06 -1.65862e-06 4.08971e-20
8.22207e-06 -1.29788e-06 -3.3591e-20
4.81848e-06 -3.33522e-06 7.81452e-20
4.68943e-06 3.2758e-06 -2.99435e-20
6.28029e-06 7.32445e-06 -4.5627e-20
7.40381e-06 3.89988e-08 -4.0532e-20
6.3615e-06 1.58812e-06 1.09513e-20
6.56073e-06 3.21657e-05 -9.48967e-21
3.32475e-06 1.43352e-08 -2.48298e-20
7.20287e-06 2.57447e-07 -1.75266e-20
-4.26473e-06 7.66158e-06 -4.16117e-20
6.24294e-06 -6.40969e-06 -1.09501e-21
7.49861e-06 1.15611e-06 1.37432e-26
3.72234e-06 -4.91141e-07 2.92023e-21
1.30594e-05 -6.0205e-06 -9.85734e-21
1.1937e-05 6.76979e-06 3.65087e-22
7.78688e-06 -3.41345e-08 -1.57003e-20
7.1748e-07 -1.38279e-05 -6.93505e-21
8.29452e-06 -6.03594e-07 -3.35913e-20
8.30825e-06 5.48874e-07 -1.497e-20
3.25302e-06 6.82354e-07 -3.35827e-20
1.79008e-05 2.20101e-05 -2.04379e-20
1.8313e-05 -2.27641e-05 -3.28464e-21
1.03e-05 2.2757e-06 -2.0079e-20
2.94531e-06 -4.34442e-06 -2.95679e-20
9.04442e-06 -1.84141e-08 -3.39534e-20
9.09337e-06 1.44196e-08 -1.31433e-20
7.17033e-06 -1.8652e-08 -2.77497e-20
7.80709e-06 4.61543e-07 -2.81143e-20
7.97076e-06 -6.59545e-07 -6.93748e-21
-3.33022e-05 5.7667e-05 -1.20513e-20
3.55496e-05 -6.16095e-05 -1.16856e-20
7.18231e-06 -3.3786e-07 1.46056e-20
6.48828e-06 1.0011e-06 -8.76329e-21
4.70102e-06 -1.40979e-06 2.26398e-20
1.03799e-05 -2.3281e-06 -3.28566e-20
6.51312e-07 5.81022e-06 -1.93529e-20
3.21984e-05 8.27703e-06 -2.91997e-20
7.45882e-06 -9.90543e-08 -3.65153e-22
6.58911e-06 -2.8866e-06 -4.60094e-20
1.54549e-05 1.10537e-05 -1.78866e-20
2.29467e-06 1.82708e-08 1.09552e-21
7.94964e-06 5.6438e-07 -1.60658e-20
6.99128e-06 -3.26205e-05 -7.6648e-21
7.98789e-06 9.6987e-07 -9.85858e-21
7.28328e-06 -9.84855e-07 -2.73795e-20
4.9206e-06 -7.25798e-06 -2.6647e-20
9.28577e-06 -1.55727e-07 -4.56377e-20
9.31351e-06 1.32548e-07 -2.5557e-20
7.33908e-06 -3.93213e-07 -8.03287e-21
7.9811e-06 -9.47734e-07 -1.46049e-21
1.22145e-05 1.20416e-06 -5.84152e-21
1.28153e-05 -1.10881e-06 -1.75245e-20
8.54286e-06 -6.79977e-08 -1.64301e-20
8.59284e-06 8.97607e-08 -2.44626e-20
8.23004e-07 -2.40917e-06 2.11798e-20
7.6961e-07 2.33078e-06 -8.76406e-21
7.91176e-06 3.78522e-07 -1.97178e-20
3.42981e-05 -1.10871e-05 -2.29944e-20
-6.92628e-06 5.43327e-06 1.64257e-20
7.08183e-06 -2.13024e-07 -2.22687e-20
9.82793e-06 1.42189e-06 -1.35089e-20
1.06691e-05 -3.18675e-06 6.75567e-20
1.06743e-05 3.19022e-06 -2.92136e-21
8.1493e-06 -1.6325e-06 5.33131e-20
8.13277e-06 1.61642e-06 -2.44656e-20
8.88591e-06 -2.43122e-07 6.20648e-21
5.5804e-06 -4.26537e-07 -1.05882e-20
9.74497e-06 -1.51505e-06 -3.28596e-20
1.73402e-05 -1.43456e-05 4.60142e-20
1.73523e-05 1.43539e-05 1.64336e-20
7.90886e-06 1.05904e-06 -1.89876e-20
7.02345e-06 -4.68723e-08 -1.82527e-20
6.51401e-06 -7.27838e-07 2.22739e-20
1.64476e-05 9.17878e-07 -1.05867e-20
8.39891e-06 -7.05907e-06 -1.5335e-20
7.22668e-06 -9.41849e-07 -2.55536e-20
6.42504e-06 2.93598e-06 -1.02243e-20
7.90581e-06 -1.06998e-06 1.31452e-20
1.40627e-05 2.06784e-05 -4.12412e-20
-5.52957e-06 6.21393e-06 -7.30297e-22
4.88572e-05 7.18712e-06 -3.6506e-21
7.90874e-06 -3.65774e-07 3.28632e-21
3.19108e-06 1.51323e-05 -1.86159e-20
6.01743e-06 2.18496e-07 -1.46017e-20
4.77423e-06 1.46037e-07 -4.38183e-20
1.0528e-05 -6.30411e-06 -1.86173e-20
1.11844e-05 -2.24373e-07 -3.28568e-20
8.4947e-06 1.56389e-06 -2.95773e-20
9.36661e-06 2.54518e-06 2.55575e-21
-4.95319e-07 -4.2406e-06 1.57015e-20
8.54867e-06 8.05365e-07 -1.89838e-20
8.18776e-06 4.37897e-07 -1.35075e-20
8.50382e-06 -1.58124e-06 1.27803e-20
6.54996e-06 -7.47337e-07 3.68805e-20
2.76581e-05 -1.27592e-05 4.74768e-21
2.76774e-05 1.27667e-05 1.13214e-20
6.33934e-06 -1.13195e-06 -1.53357e-20
-4.04586e-05 -3.49198e-05 1.93466e-20
-4.21342e-05 3.35851e-05 -8.03068e-21
1.52627e-05 -5.23843e-06 -1.67904e-20
1.42132e-05 -2.20136e-05 -1.53284e-20
8.52379e-06 -7.15809e-07 -3.13993e-20
8.45019e-06 -1.49142e-07 2.55549e-21
8.59783e-06 -1.1614e-07 -1.789e-20
8.57948e-06 7.70947e-08 -3.2129e-20
7.40922e-06 3.14835e-07 -2.11768e-20
4.85046e-06 3.64399e-07 -6.57274e-21
8.93465e-06 1.2579e-07 -1.13176e-20
7.36573e-06 -2.74246e-08 -2.62883e-20
6.40049e-05 3.04903e-05 -4.16188e-20
-1.49515e-05 -2.95042e-05 2.30048e-20
6.20704e-06 -9.63365e-06 6.9355e-21
2.31654e-05 4.40597e-07 -3.21154e-20
8.67523e-06 9.02033e-07 -1.02231e-20
8.65606e-06 -9.08734e-07 -4.52739e-20
1.34392e-05 4.71251e-06 -4.45301e-20
8.31679e-06 -2.67554e-06 -2.51937e-20
1.16304e-05 -7.61671e-06 5.47774e-20
1.16373e-05 7.61906e-06 1.42421e-20
-2.33987e-06 1.33005e-06 3.21225e-20
3.20182e-06 -1.53186e-05 -8.39542e-21
6.53457e-06 -6.27953e-06 -7.30016e-21
7.53806e-06 5.56107e-07 -7.30103e-21
1.51558e-05 -9.96303e-06 -5.11048e-21
9.83614e-06 2.68006e-06 -2.55553e-20
1.1628e-05 9.53743e-07 -2.373e-20
9.38372e-06 -2.31751e-06 -3.2494e-20
1.23755e-05 4.63342e-05 -2.04474e-20
2.61957e-05 -4.86264e-05 2.11773e-20
2.51669e-06 -4.62171e-06 5.66018e-20
2.50901e-06 4.59804e-06 -8.0338e-21
-1.77743e-05 -5.4687e-06 3.83268e-20
-1.81208e-05 7.16233e-06 -2.1171e-20
-5.70977e-05 3.65201e-05 1.86162e-20
-5.85088e-05 -3.60712e-05 7.30064e-22
2.54183e-05 -1.289e-05 3.2868e-20
2.54377e-05 1.28974e-05 1.4608e-21
8.59487e-06 2.49846e-06 2.30054e-20
8.58261e-06 -2.45199e-06 -3.72467e-20
7.81717e-06 1.43025e-06 -2.19088e-20
1.58829e-05 -2.9727e-06 -8.39656e-21
9.23807e-06 -2.15891e-06 -1.71605e-20
7.31692e-06 -9.49593e-07 -2.55539e-20
7.82595e-06 -1.45254e-06 1.27801e-20
1.54161e-05 1.78505e-06 -2.48245e-20
8.06425e-06 1.03754e-06 -1.53358e-20
-8.61121e-06 -2.75489e-05 -1.27739e-20
-8.6966e-06 2.72979e-05 -7.29907e-22
8.08559e-06 -1.03853e-06 -7.6679e-21
6.05102e-06 1.12969e-05 -2.88368e-20
3.56365e-05 6.17628e-05 -1.82571e-20
-2.28384e-05 -3.95476e-05 1.2417e-20
3.52185e-06 -3.73044e-06 -1.57007e-20
-2.91711e-06 -6.43132e-06 1.42356e-20
2.67975e-05 -4.28028e-05 -1.46012e-21
8.4983e-06 8.29593e-07 -6.93695e-21
8.10777e-06 3.44999e-07 -1.53346e-20
1.54604e-06 -5.82693e-06 7.34004e-20
1.54719e-06 5.72947e-06 1.02249e-20
2.46817e-05 4.52871e-05 -2.81061e-20
8.80835e-06 2.12889e-06 1.78907e-20
7.22801e-06 9.90823e-07 -8.03308e-21
1.00349e-05 -3.87338e-07 4.30892e-20
1.00335e-05 3.67779e-07 -1.5702e-20
-8.38722e-05 -2.70111e-09 -9.49122e-21
-8.38637e-05 2.77441e-09 -2.19028e-21
6.06872e-06 -2.70384e-06 -1.13193e-20
4.2173e-06 -5.61871e-07 1.24111e-20
7.25711e-06 -6.8567e-06 7.30346e-20
7.22829e-06 6.86266e-06 1.46071e-21
2.83393e-05 -7.34972e-06 -6.93598e-21
2.46037e-05 -2.37615e-05 -1.02199e-20
9.87332e-06 2.8234e-06 -4.74626e-21
-1.12009e-05 3.23438e-05 2.66457e-20
-1.12864e-05 -3.29813e-05 -1.20452e-20
1.48872e-05 -1.16481e-05 -1.05854e-20
7.22275e-06 -9.63564e-07 1.89873e-20
-3.70057e-06 -2.40479e-06 -3.46778e-20
-2.458e-05 1.75152e-05 2.19008e-20
-2.46691e-05 -1.75262e-05 -1.31405e-20
6.06049e-06 7.40831e-06 -3.50404e-20
3.19163e-06 -1.40063e-05 5.95246e-20
3.21481e-06 1.40184e-05 3.06752e-20
3.11294e-05 6.63435e-05 -2.08138e-20
3.16708e-06 -6.59609e-05 -6.57284e-21
9.00787e-06 -3.5375e-07 -2.26356e-20
5.46975e-06 3.43915e-07 -1.86187e-20
8.75391e-06 1.44687e-06 2.9943e-20
8.78974e-06 -1.50918e-06 -3.17687e-20
3.70804e-06 5.24807e-07 -6.57262e-21
9.6203e-06 1.22539e-07 -9.85758e-21
6.86541e-06 2.35597e-06 -6.20681e-21
1.14095e-05 2.75455e-05 -8.76497e-21
1.1402e-05 -2.75274e-05 1.16866e-20
-7.30685e-06 -5.48106e-06 -2.6281e-20
8.07417e-06 -1.05803e-06 -1.27798e-20
9.1591e-06 -8.43e-07 4.08976e-20
9.15561e-06 8.24139e-07 -2.0814e-20
7.84804e-06 -7.57799e-07 -8.76342e-21
8.05743e-06 1.04922e-06 -1.82569e-20
9.04908e-06 6.13196e-09 -3.13981e-20
9.09433e-06 1.06693e-08 -1.71595e-20
7.3357e-06 8.63692e-10 -2.08119e-20
7.84513e-06 7.41342e-07 -2.22737e-20
8.96595e-06 -1.42192e-07 -3.50483e-20
7.07289e-06 -8.09908e-09 -1.67928e-20
1.15578e-05 8.52258e-07 5.07581e-20
1.15968e-05 -9.66654e-07 -1.46066e-20
1.08938e-05 -1.41477e-06 6.97475e-20
1.09125e-05 1.40587e-06 -8.03373e-21
9.63817e-06 5.93843e-08 -2.227e-20
6.77002e-06 2.43555e-06 -2.92059e-20
8.62189e-06 4.41208e-07 -3.87059e-20
8.62203e-06 -4.62376e-07 2.1909e-20
2.57222e-05 3.27177e-05 -2.22718e-20
8.81238e-06 -3.08899e-05 8.76351e-21
9.34365e-06 4.64031e-06 5.47757e-20
9.28248e-06 -4.6365e-06 -1.57023e-20
1.14281e-05 -9.4607e-06 4.82039e-20
1.14318e-05 9.48353e-06 2.8119e-20
-1.45299e-06 -1.7182e-05 -5.84025e-21
-1.57431e-06 1.68118e-05 9.49048e-21
6.14706e-05 5.50496e-05 -2.66512e-20
-8.96118e-05 -1.47419e-05 2.55519e-21
1.05789e-05 1.95037e-05 1.899e-20
1.56692e-05 1.47939e-05 1.20516e-20
1.05647e-05 -1.94983e-05 4.9666e-20
1.56585e-05 -1.47852e-05 1.93556e-20
-1.36723e-05 -4.19239e-05 2.33709e-20
-8.96724e-05 1.44545e-05 -1.82523e-21
2.07768e-05 -8.60559e-06 4.01714e-21
5.05711e-05 -6.65634e-06 -3.28689e-21
5.05346e-05 6.65153e-06 2.73908e-20
2.07578e-05 8.59774e-06 2.2277e-20
2.59205e-05 -8.07662e-07 -1.09557e-21
1.77377e-05 -6.22607e-06 1.09554e-20
2.41759e-05 7.2743e-06 -3.65205e-22
2.58997e-05 8.02665e-07 3.72495e-20
2.41571e-05 -7.26975e-06 3.03118e-20
1.77246e-05 6.21592e-06 7.04796e-20
1.86902e-05 -5.61523e-06 6.82896e-20
1.83422e-05 -5.72379e-06 3.54235e-20
1.87042e-05 5.61572e-06 4.74741e-21
1.83551e-05 5.72461e-06 4.74748e-21
-2.65476e-05 -7.57111e-05 -3.60989e-20
8.02778e-06 7.00128e-05 4.74284e-21
1.06271e-05 -6.33934e-05 -8.53556e-20
-5.67366e-05 -9.8123e-06 -1.34929e-20
-7.10687e-05 -1.77026e-05 -4.7403e-21
7.28678e-06 7.86532e-05 8.02766e-21
1.22402e-05 -8.21614e-05 -8.97437e-20
-7.64241e-05 2.07086e-05 1.02102e-20
-2.33328e-05 3.9084e-05 1.3132e-20
-4.19204e-05 -9.25319e-05 -2.95229e-20
-3.75017e-05 0.000104027 4.19169e-20
0.000100491 4.92135e-05 4.82957e-20
5.57807e-05 5.25729e-05 3.97741e-20
-5.3328e-05 -5.51731e-05 6.56763e-21
-2.64087e-05 -5.32649e-05 -1.42219e-20
-8.48843e-06 -5.09624e-05 -4.41335e-20
-6.09437e-06 -8.40272e-05 -1.56865e-20
1.57123e-05 7.69222e-05 5.18105e-20
6.06055e-05 -4.17412e-06 2.84462e-20
-3.19457e-05 -0.000111926 1.82317e-21
-2.84124e-05 0.000121511 -1.07548e-20
0.000118259 3.77826e-05 3.44503e-20
-4.9657e-05 -5.01636e-05 -3.68265e-20
-7.77717e-05 2.01076e-05 2.04172e-20
-5.63725e-05 -5.05213e-05 -3.46442e-20
3.76165e-05 8.46735e-05 -1.85999e-20
-5.3043e-05 1.13769e-05 2.18812e-20
-8.27213e-05 -0.000168112 -2.84257e-20
-4.65815e-05 -2.30754e-05 -1.20368e-20
0.0001767 9.25162e-05 1.04596e-19
1.42068e-05 7.59713e-05 3.50334e-20
2.65001e-06 -7.84461e-05 -4.30553e-20
-0.000173117 8.59697e-05 1.49634e-20
-0.00017674 -8.95819e-05 -4.74443e-20
-0.000115552 3.99536e-05 1.05713e-20
-4.14877e-05 -3.29126e-05 -3.46464e-20
-7.17216e-05 -3.58196e-05 -2.99175e-20
-7.29421e-05 3.76447e-05 3.6487e-20
-1.20665e-05 -2.4603e-05 1.0943e-21
5.12052e-05 6.65494e-05 -4.88684e-20
-7.30055e-05 5.18398e-05 3.81038e-20
-2.11174e-05 1.04625e-06 1.27666e-20
-4.59353e-05 5.48919e-05 3.64652e-20
-2.28571e-05 7.96737e-05 2.73501e-20
2.37707e-05 6.28491e-05 -2.91889e-20
-7.37935e-05 5.17644e-05 4.32032e-20
-0.000183954 -0.000183923 1.60281e-20
0.000191815 0.000191792 7.55918e-21
2.0179e-05 3.90904e-05 2.77282e-20
0.000192888 0.00021 -2.27708e-21
-0.000197749 -0.000184588 -8.92509e-21
7.30943e-05 3.9948e-05 -1.49631e-20
9.09711e-05 -1.59917e-05 -4.48806e-20
4.23883e-05 -1.07396e-05 8.02389e-21
6.96029e-05 6.44993e-05 2.91927e-21
8.52776e-05 -5.60078e-05 -2.22575e-20
3.6117e-05 6.58349e-05 -1.38608e-20
-7.26428e-05 0.000138836 1.67864e-20
-7.42955e-05 -0.000139217 -5.43728e-20
5.77814e-05 4.87677e-05 -8.75652e-21
6.33127e-05 -3.45754e-05 -1.45917e-20
-0.000101147 4.67854e-05 3.46248e-20
-3.69318e-05 0.000105779 -3.6507e-22
8.33852e-05 -0.000129398 -5.62017e-20
4.52447e-05 -5.19928e-05 4.99535e-20
-8.97557e-05 0.000177473 -1.50317e-20
-0.000172557 9.4105e-05 2.59639e-20
1.93415e-05 6.19011e-05 -1.38631e-20
-7.15676e-06 -5.06487e-05 -4.96024e-20
0.000139791 5.78754e-05 1.49683e-20
0.000177951 -7.37335e-05 7.33927e-20
9.76912e-06 -1.71705e-05 -7.80549e-20
5.67807e-05 3.95037e-05 -2.33458e-20
6.03779e-05 -3.03039e-05 7.29461e-22
-3.63024e-05 -2.49855e-05 -4.70518e-20
-1.54936e-05 -4.03952e-05 3.72084e-20
-0.000106716 -2.12769e-05 -5.46788e-21
7.57891e-05 -1.2323e-05 4.08421e-20
-9.24296e-05 -1.21927e-05 -2.53384e-20
-6.70825e-05 -5.62438e-05 -4.26827e-20
-7.81511e-05 -0.000135321 -3.72244e-20
-7.72718e-05 0.000133842 2.48167e-20
-8.17394e-05 -8.97847e-05 -5.92368e-20
-5.76841e-05 3.67608e-05 3.97493e-20
5.79643e-05 4.04573e-05 -9.4832e-21
1.42026e-05 -0.000146233 -8.02976e-20
1.24722e-06 0.000115062 2.08046e-20
-6.73656e-05 6.26075e-05 4.30495e-20
1.5248e-05 6.9014e-05 3.02812e-20
-4.81854e-06 -6.72849e-05 -2.62631e-20
4.09678e-05 1.93336e-05 -3.39233e-20
4.14304e-05 -1.01356e-05 -9.84852e-21
0.000101131 -7.25916e-05 -8.74879e-21
4.55902e-05 5.18066e-05 -4.04963e-20
5.13719e-05 -4.63192e-05 1.42278e-20
5.86327e-05 -2.87376e-05 3.02705e-20
2.81469e-05 -7.40095e-05 7.58461e-20
3.65336e-05 4.23279e-05 -3.86683e-20
3.75131e-05 -3.16284e-05 -9.84898e-21
-6.12646e-05 2.94072e-05 2.91779e-20
3.93282e-05 4.60088e-05 -3.83132e-20
-7.50128e-05 -5.13556e-05 -3.55497e-20
-2.65886e-05 6.30593e-06 -8.17015e-20
1.18246e-05 4.03461e-05 -2.59083e-20
8.0184e-05 2.01513e-05 6.19866e-21
-5.89908e-05 3.77506e-05 4.59581e-20
-6.42958e-05 -2.92766e-05 -2.40701e-20
-5.01666e-05 -6.07877e-05 -5.0675e-20
-5.73479e-05 -3.74375e-05 -3.31827e-20
-8.96407e-07 -6.93145e-05 -5.17905e-20
1.0693e-05 7.1371e-05 7.29577e-21
9.97184e-05 -3.80575e-05 1.58553e-20
-3.35855e-05 2.6707e-05 2.18873e-20
4.88515e-05 -7.47025e-05 1.71361e-20
5.34762e-05 8.55156e-05 -2.57074e-20
-5.79157e-05 3.67535e-05 4.01195e-20
-2.24372e-05 3.82044e-05 4.37771e-21
-2.37489e-05 -3.9088e-05 -8.39043e-21
-1.48991e-05 -7.07518e-05 1.4583e-21
-5.3605e-05 5.59341e-05 3.5376e-20
8.88667e-06 -9.86753e-05 2.29641e-20
1.77673e-05 0.000108072 7.47298e-21
0.000104925 -5.50757e-07 5.83212e-20
0.000105523 8.22478e-05 3.15334e-20
6.99723e-05 -4.328e-05 2.98955e-20
0.000100169 -0.000173547 -3.65102e-20
-8.15839e-05 0.000141336 2.44558e-20
7.75046e-05 -1.13393e-05 4.19298e-20
2.54838e-05 5.7146e-05 -3.13745e-20
4.43338e-05 2.17943e-05 -4.01216e-21
-9.0227e-06 7.56436e-05 1.2033e-20
2.12247e-05 -4.20104e-05 -9.04652e-20
6.06074e-06 5.28514e-05 -9.12354e-21
3.33331e-05 -2.45518e-05 3.97578e-20
3.43218e-05 2.80274e-05 -5.47381e-20
-1.18763e-05 -3.8752e-05 -2.99053e-20
1.99911e-05 3.73878e-06 -1.86019e-20
7.09425e-05 5.68955e-05 9.48023e-21
-2.26326e-05 -6.11948e-06 1.93349e-20
7.14418e-05 6.3393e-05 -1.02104e-20
-7.74626e-05 0.00010142 4.30151e-20
-3.84194e-05 3.35287e-05 3.82974e-20
2.75709e-05 -0.000109331 6.9266e-20
3.50466e-05 0.000117369 -2.06005e-20
0.000116742 -2.46202e-05 2.05971e-20
7.03086e-05 -5.11849e-05 2.9169e-20
-3.82245e-07 -7.9641e-05 -1.82377e-21
9.96366e-06 8.60026e-05 -5.10619e-21
5.61351e-05 -9.91055e-05 4.92027e-21
5.97766e-05 0.000105297 4.11912e-20
7.06031e-06 2.50372e-05 -3.90299e-20
6.71945e-06 -1.69865e-05 -2.48037e-20
4.39276e-05 4.90783e-05 -2.95518e-20
2.71845e-05 3.65876e-05 1.34991e-20
-5.7134e-05 -3.40899e-05 -3.75674e-20
-0.000114546 -8.84495e-05 -3.80847e-20
2.16971e-05 8.3915e-05 -2.04203e-20
5.91027e-05 4.87321e-05 -1.67844e-20
7.09253e-05 -3.44104e-05 -3.64844e-21
5.61277e-05 4.70618e-05 -1.24038e-20
6.02833e-05 -3.14273e-05 -1.42255e-20
-3.64673e-05 -0.000331381 5.3633e-20
0.000340086 5.71722e-05 4.53483e-20
1.5007e-05 -7.21269e-05 6.81796e-20
8.87144e-05 9.85595e-05 -2.04393e-20
0.000113318 -0.00010207 -3.72269e-20
6.2323e-05 5.31081e-05 4.37684e-21
-0.000143004 -7.29571e-06 -4.39159e-20
1.51949e-06 6.21106e-05 2.80881e-20
4.62301e-06 -6.26893e-05 5.10647e-21
-4.89528e-05 7.97132e-05 5.26836e-20
2.28044e-05 6.36865e-06 4.55933e-20
6.32176e-05 -3.88159e-05 3.90216e-20
-9.76389e-06 -1.94449e-05 -7.65923e-20
-1.9396e-05 5.45187e-05 4.7444e-21
5.42296e-05 -4.41825e-05 -9.63218e-20
3.85559e-05 -2.76463e-05 5.87201e-20
-4.20923e-05 -2.87027e-05 -5.6531e-20
-7.36687e-05 -4.60358e-05 -4.28368e-20
7.22947e-05 2.44787e-05 8.38719e-21
2.61731e-05 4.16513e-05 -5.03615e-20
-2.10046e-05 5.40403e-05 2.80833e-20
-1.44648e-05 -7.19954e-05 1.64085e-20
5.54205e-05 4.71599e-05 1.45916e-21
2.34606e-05 7.96396e-05 9.1178e-21
-2.62002e-05 -3.6642e-05 5.43512e-20
-9.04901e-05 0.000169049 -1.47565e-20
-0.000163188 9.50157e-05 5.33792e-20
5.92678e-05 1.68349e-05 -8.75319e-21
5.54003e-05 -3.21293e-05 1.31296e-20
0.000150266 8.30918e-05 1.78882e-20
0.000184303 -8.90728e-05 3.97948e-20
1.22045e-05 -4.05101e-05 4.26708e-20
-9.9467e-05 7.05302e-05 3.02866e-20
-0.000100279 -7.23125e-05 -1.97051e-20
-4.23857e-05 -1.81729e-05 8.75335e-21
-6.41515e-06 1.76838e-05 2.91841e-20
9.64985e-05 0.000124579 1.73107e-21
-0.000109765 -8.82121e-05 -4.51835e-20
9.30536e-05 -0.000131296 2.95179e-20
9.77326e-05 0.000141902 2.09571e-20
0.000145535 -7.9712e-05 3.51665e-20
9.5899e-06 -1.5206e-05 5.21561e-20
-1.19903e-05 -0.000146604 -2.91508e-21
0.000154473 1.56517e-05 5.89405e-20
-7.94957e-05 -0.000108715 -7.30092e-22
7.69381e-05 9.58588e-05 3.90489e-20
-4.93326e-05 -3.93399e-05 -2.04275e-20
-2.0926e-05 1.27847e-06 6.20107e-21
5.33609e-05 -7.84986e-05 3.75463e-20
5.79482e-05 8.97544e-05 6.37982e-21
-4.8477e-05 1.50807e-05 1.02125e-20
2.66233e-05 -5.17614e-05 5.68897e-20
6.21808e-05 6.72993e-05 -1.09484e-20
7.69011e-05 -5.91502e-05 -2.55443e-20
-5.98418e-05 -3.16732e-05 -2.18855e-20
-3.91641e-05 3.00531e-05 2.37096e-20
-4.76186e-05 -2.18489e-05 -2.04253e-20
-9.17685e-05 -5.00481e-05 -4.4834e-20
-8.2029e-06 4.3922e-05 3.53812e-20
-0.000192754 0.000192777 -8.19591e-21
-8.01244e-06 7.83124e-05 -7.29147e-22
1.38972e-05 -7.46073e-05 5.28733e-20
1.42011e-05 -0.000146208 -2.80998e-20
6.40647e-06 0.000121738 5.72985e-20
1.85507e-05 4.01062e-05 -4.12216e-20
1.97283e-05 -3.38038e-05 -4.74213e-21
-7.04297e-05 -3.63372e-05 -1.96988e-20
-6.85818e-05 3.88795e-05 3.97649e-20
-0.000122576 2.34121e-05 -7.66252e-20
-0.000120962 -2.08586e-05 -5.83853e-21
0.000121271 8.479e-05 -2.33628e-20
0.000164479 -9.02168e-05 -7.30059e-21
4.49388e-05 3.03436e-05 -3.97819e-20
4.29671e-05 2.30279e-06 4.37715e-21
6.57099e-05 3.93167e-05 1.56824e-20
2.47098e-06 6.86495e-05 1.05776e-20
4.35463e-06 -6.42452e-05 3.09983e-20
-0.000103049 7.46558e-05 5.559e-20
6.56485e-05 -2.75707e-05 4.63122e-20
-7.4985e-06 -6.86968e-05 -1.67756e-20
6.02205e-05 5.33909e-05 -9.48231e-21
-4.51092e-05 4.00825e-07 -8.97337e-20
-4.29794e-05 4.92036e-07 1.53225e-20
5.71073e-05 -3.98833e-05 5.83436e-20
-4.5793e-05 4.24102e-05 4.23173e-20
7.156e-05 0.000123931 8.3955e-21
-8.13816e-05 -0.000140959 -3.72392e-20
-1.52774e-05 -4.91131e-05 3.72052e-20
-6.01237e-05 -3.55433e-05 -3.20953e-20
-6.49829e-06 -7.98521e-05 -3.42966e-20
9.70421e-05 -0.000169316 -5.55696e-21
0.000170182 -7.86375e-05 -7.56056e-21
9.53092e-06 5.13215e-05 -3.72141e-20
1.09135e-05 -4.39106e-05 1.56877e-20
-9.16509e-06 8.3784e-05 3.94055e-20
1.9484e-05 7.6688e-05 1.05785e-20
8.07227e-05 5.10497e-05 3.64457e-22
5.86097e-05 4.22031e-05 1.8244e-21
6.51245e-05 -2.00607e-05 -7.2959e-21
-0.000158278 5.17662e-09 -3.24812e-20
-0.00016255 1.37521e-08 -2.84722e-20
1.26647e-05 -3.78463e-05 5.87219e-20
-6.16802e-05 -3.68248e-05 -3.3552e-20
4.53304e-05 6.35502e-05 -3.72174e-20
5.11657e-05 -5.54459e-05 6.9321e-21
2.08486e-05 4.86777e-05 2.73613e-20
1.05378e-05 1.48348e-05 1.24036e-20
0.000185329 -0.000185354 5.60998e-20
-5.3416e-05 1.71186e-05 -7.80715e-20
-5.12568e-05 -1.62998e-05 8.02685e-21
-8.96356e-06 3.91478e-05 1.27674e-20
8.07679e-05 -3.89119e-05 5.90706e-20
-5.86942e-05 3.23193e-05 4.74233e-20
-7.81445e-05 -1.02958e-05 -5.65442e-20
-7.57267e-05 1.19693e-05 2.44438e-20
-4.57405e-05 2.34619e-05 3.31927e-20
1.87725e-05 9.72172e-05 -2.26242e-20
2.22273e-05 -0.000100155 1.75152e-20
3.85098e-05 0.000157501 2.70116e-20
-3.1816e-05 -0.000191256 -2.15357e-20
-1.75604e-05 0.000349382 -1.15108e-19
-0.000336161 1.96855e-05 -3.63355e-20
4.96957e-05 3.44252e-05 -2.18936e-20
4.87001e-05 -6.21424e-06 2.55338e-20
-5.43161e-06 -1.3098e-05 6.16413e-20
0.000181831 -0.000222691 1.67564e-20
0.00023173 -0.000178138 7.80448e-20
7.72051e-05 -0.000186386 1.57e-20
6.61396e-05 0.000159578 -1.67943e-20
-5.45217e-05 3.58705e-05 3.79351e-20
4.9645e-05 -5.26525e-05 4.44906e-20
5.14918e-05 4.59029e-05 -1.05809e-20
5.23226e-05 -2.67114e-05 1.67789e-20
3.72321e-05 -3.61766e-05 5.43405e-20
5.24601e-05 6.67791e-05 -2.00609e-20
-2.04191e-06 -0.000157051 1.18443e-20
7.19164e-06 0.000153589 -5.90418e-20
0.000164359 6.49127e-06 8.60081e-20
4.31492e-05 5.32858e-05 -2.48059e-20
1.84964e-05 0.000167043 -7.85275e-20
-0.000158349 -1.93838e-05 -1.07493e-20
6.08732e-05 3.65855e-05 -2.88295e-20
6.90113e-05 -1.05239e-05 -8.75568e-21
5.90888e-05 4.27663e-05 -6.56858e-21
6.5936e-05 -2.1027e-05 -2.88217e-20
-0.000189426 0.00023678 -5.11789e-20
-0.000230405 0.000189777 4.36203e-20
5.52628e-05 4.86068e-05 -7.29749e-22
5.57216e-05 -2.91232e-05 3.82972e-20
2.90361e-05 9.86548e-05 5.4745e-20
-1.90994e-05 -0.000112241 -4.99974e-20
4.89787e-05 1.77237e-05 -2.88324e-20
4.99165e-05 2.21571e-05 -4.19555e-20
6.14786e-05 7.36337e-05 -2.7368e-20
7.5624e-05 -7.06771e-05 1.67844e-20
-4.64031e-05 -1.12664e-05 -5.14315e-20
-4.28147e-05 1.24558e-05 3.35621e-20
-0.000156819 3.72359e-06 -2.73705e-20
7.41253e-05 0.00012325 1.97091e-20
5.73529e-05 0.000125957 -6.93436e-21
8.62682e-05 9.92126e-05 -3.17575e-20
7.03457e-05 -0.000136012 -1.09488e-21
0.00010457 -0.000104376 6.20546e-21
-7.60453e-05 -0.000142288 -5.18257e-20
-0.000161366 -2.84632e-06 -5.6932e-20
7.4998e-05 -3.1088e-05 3.65086e-21
0.000261574 -3.44989e-05 7.04631e-20
0.000333018 4.37886e-05 8.87321e-20
0.000129505 5.36192e-05 -2.08056e-20
0.000115302 3.00005e-05 1.13167e-20
8.61778e-05 1.07256e-05 -2.37256e-20
0.000112202 4.43834e-05 1.64278e-20
0.000165852 -1.52364e-06 5.83985e-21
0.000155443 -4.98749e-05 5.47621e-21
0.000112357 3.38928e-05 -5.29122e-20
9.00228e-05 5.7849e-05 -1.53293e-20
9.35735e-05 5.67495e-05 -2.11709e-20
0.000118822 -4.54537e-05 -6.9335e-20
0.000119946 -4.51173e-05 -4.85425e-20
TENSORS solid_stress_TPM float
53.3367 4.48629 8.52122e-12
4.48629 59.4811 -2.49446e-11
8.52122e-12 -2.49446e-11 53.4714

63.1278 2.98426 2.09806e-11
2.98426 68.1837 -2.67709e-11
2.09806e-11 -2.67709e-11 64.2893

62.6936 2.39329 1.72476e-11
2.39329 67.5497 -2.83125e-11
1.72476e-11 -2.83125e-11 63.9157

62.9811 1.311 -3.94936e-12
1.311 52.2022 2.66317e-12
-3.94936e-12 2.66317e-12 56.538

60.5078 0.519815 6.74098e-12
0.519815 50.3173 4.28376e-12
6.74098e-12 4.28376e-12 52.7669

63.8847 2.82173 -2.92413e-12
2.82173 69.013 -1.82972e-11
-2.92413e-12 -1.82972e-11 67.0881

63.4273 2.61625 9.83406e-12
2.61625 68.6166 1.71412e-11
9.83406e-12 1.71412e-11 66.767

61.1479 -0.65695 -1.14611e-11
-0.65695 51.0572 -6.05075e-12
-1.14611e-11 -6.05075e-12 53.3107

70.4633 0.107725 2.06086e-11
0.107725 57.468 7.75154e-12
2.06086e-11 7.75154e-12 64.126

42.283 4.35921 3.29166e-11
4.35921 49.0116 -9.87136e-12
3.29166e-11 -9.87136e-12 40.6739

41.4288 -4.66162 5.39258e-12
-4.66162 48.0413 2.86088e-11
5.39258e-12 2.86088e-11 39.4184

48.8035 4.51054 -1.97368e-12
4.51054 44.0079 8.71621e-12
-1.97368e-12 8.71621e-12 41.1329

67.7395 -3.69122 4.863e-12
-3.69122 70.9372 -5.58612e-12
4.863e-12 -5.58612e-12 68.8148

68.1944 -4.17708 4.93242e-12
-4.17708 71.8212 2.62882e-11
4.93242e-12 2.62882e-11 69.3087

54.502 4.24297 1.13872e-11
4.24297 61.7458 1.0884e-11
1.13872e-11 1.0884e-11 57.0604

58.9642 5.08043 -2.06089e-11
5.08043 66.1264 -7.70584e-12
-2.06089e-11 -7.70584e-12 62.5713

63.1872 -1.93101 -2.28679e-12
-1.93101 68.3251 -8.66196e-13
-2.28679e-12 -8.66196e-13 66.5265

63.4893 -2.08487 -3.73261e-12
-2.08487 68.6406 3.57274e-11
-3.73261e-12 3.57274e-11 66.7783

66.4986 1.93529 -4.08337e-11
1.93529 60.1178 6.56145e-12
-4.08337e-11 6.56145e-12 62.0723

46.686 1.6867 3.23362e-11
1.6867 55.6577 3.56352e-12
3.23362e-11 3.56352e-12 45.8293

46.5342 -1.61315 -7.4154e-12
-1.61315 55.6286 -4.57367e-12
-7.4154e-12 -4.57367e-12 45.5711

55.6263 1.38356 -1.20381e-11
1.38356 49.3904 1.30742e-11
-1.20381e-11 1.30742e-11 46.6904

52.9421 5.01121 -1.43028e-11
5.01121 57.7739 -5.39465e-12
-1.43028e-11 -5.39465e-12 52.7905

56.1073 -2.56281 -4.05021e-11
-2.56281 47.8749 4.47931e-12
-4.05021e-11 4.47931e-12 49.0448

57.9683 4.59886 2.45602e-11
4.59886 59.5189 1.44961e-11
2.45602e-11 1.44961e-11 56.8162

54.6142 5.00956 -1.48753e-11
5.00956 60.8774 4.46875e-11
-1.48753e-11 4.46875e-11 54.672

63.9873 -1.08486 3.8527e-12
-1.08486 52.5462 3.89144e-12
3.8527e-12 3.89144e-12 57.2717

40.2847 3.87956 2.36355e-11
3.87956 47.6725 -3.05593e-12
2.36355e-11 -3.05593e-12 35.3137

68.3834 0.482026 -1.7142e-11
0.482026 55.8856 2.14193e-11
-1.7142e-11 2.14193e-11 62.4473

46.5909 3.88855 4.52068e-11
3.88855 41.7929 7.4629e-11
4.52068e-11 7.4629e-11 35.4586

69.7741 0.613093 -2.85861e-11
0.613093 72.0655 -2.11986e-12
-2.85861e-11 -2.11986e-12 69.766

69.7516 0.209428 -1.44924e-11
0.209428 71.9487 3.65952e-12
-1.44924e-11 3.65952e-12 69.7279

78.074 2.18446 4.0827e-11
2.18446 74.0364 -1.34689e-12
4.0827e-11 -1.34689e-12 74.2555

78.1283 -2.09542 3.46556e-12
-2.09542 74.1342 1.58859e-11
3.46556e-12 1.58859e-11 74.2422

53.9904 -1.62383 2.36016e-11
-1.62383 45.4082 -1.44013e-11
2.36016e-11 -1.44013e-11 43.91

58.3585 4.94375 1.50231e-11
4.94375 62.0876 -6.4521e-12
1.50231e-11 -6.4521e-12 59.6125

70.4515 0.90774 -1.07858e-11
0.90774 68.3377 4.42938e-12
-1.07858e-11 4.42938e-12 68.8548

70.6868 -0.825052 1.63685e-11
-0.825052 68.6973 2.5994e-12
1.63685e-11 2.5994e-12 69.2148

71.1238 0.0110401 2.2344e-11
0.0110401 56.8469 1.3204e-11
2.2344e-11 1.3204e-11 64.2927

53.7872 5.42257 -8.57285e-12
5.42257 60.4171 -1.41599e-11
-8.57285e-12 -1.41599e-11 54.1659

57.0672 -3.31819 -1.42083e-11
-3.31819 52.3867 1.75293e-11
-1.42083e-11 1.75293e-11 51.1476

69.8199 -0.319532 1.59877e-11
-0.319532 55.2228 -1.31213e-12
1.59877e-11 -1.31213e-12 62.8169

52.4821 -5.02162 -3.29828e-11
-5.02162 57.5822 -2.45585e-11
-3.29828e-11 -2.45585e-11 52.3459

53.3261 -4.30283 5.99376e-12
-4.30283 59.5533 1.76258e-11
5.99376e-12 1.76258e-11 53.4398

60.4209 5.71262 -2.24856e-11
5.71262 67.6211 -1.45448e-11
-2.24856e-11 -1.45448e-11 63.6511

52.298 -5.35968 1.78065e-12
-5.35968 50.2976 4.53648e-11
1.78065e-12 4.53648e-11 47.4356

15.6747 10.9476 1.40078e-11
10.9476 23.2133 1.32016e-11
1.40078e-11 1.32016e-11 12.0998

22.1318 10.818 -5.37437e-12
10.818 16.2515 1.36356e-11
-5.37437e-12 1.36356e-11 11.8685

62.3375 -5.10607 -7.79891e-12
-5.10607 68.6856 -6.64461e-12
-7.79891e-12 -6.64461e-12 66.1934

27.1638 4.59285 -2.87823e-11
4.59285 36.3999 -4.31477e-12
-2.87823e-11 -4.31477e-12 21.6306

34.8455 4.11607 -1.71001e-11
4.11607 28.1323 -5.73615e-12
-1.71001e-11 -5.73615e-12 21.6975

71.8308 -3.58717 -4.53533e-11
-3.58717 74.9289 2.45556e-11
-4.53533e-11 2.45556e-11 73.0392

71.8137 3.57375 2.58065e-11
3.57375 74.8885 6.1244e-11
2.58065e-11 6.1244e-11 73.0401

70.9896 0.103668 4.52645e-12
0.103668 63.0559 -1.32828e-11
4.52645e-12 -1.32828e-11 66.2558

71.8404 -3.12646 -5.33487e-11
-3.12646 73.9687 3.99632e-11
-5.33487e-11 3.99632e-11 73.1608

71.8289 3.11685 6.34532e-11
3.11685 73.9575 1.49302e-11
6.34532e-11 1.49302e-11 73.1697

55.8271 5.01024 -1.45422e-11
5.01024 63.4248 -7.61021e-12
-1.45422e-11 -7.61021e-12 58.2482

77.0276 2.04777 1.15552e-11
2.04777 70.7565 1.18408e-11
1.15552e-11 1.18408e-11 72.7729

77.0871 -2.03255 -3.85173e-11
-2.03255 70.7251 3.8658e-13
-3.85173e-11 3.8658e-13 72.7516

67.3783 -4.13951 1.77195e-11
-4.13951 69.5348 -5.49862e-11
1.77195e-11 -5.49862e-11 68.3057

67.3576 4.11431 -2.50489e-12
4.11431 69.5327 -2.37856e-11
-2.50489e-12 -2.37856e-11 68.3284

46.6623 -4.45096 -8.95728e-12
-4.45096 40.8106 -1.27631e-12
-8.95728e-12 -1.27631e-12 38.3649

71.5769 1.99954 2.08698e-11
1.99954 76.7812 3.83252e-11
2.08698e-11 3.83252e-11 72.9472

71.2198 1.58107 -1.49831e-11
1.58107 76.5024 1.71408e-11
-1.49831e-11 1.71408e-11 72.6533

53.934 -5.52532 2.97059e-11
-5.52532 60.6932 5.15266e-11
2.97059e-11 5.15266e-11 54.4025

37.9269 -3.65802 5.58429e-11
-3.65802 46.7793 -1.65725e-11
5.58429e-11 -1.65725e-11 33.3679

45.5819 -3.62561 -1.86144e-11
-3.62561 37.927 -3.88193e-12
-1.86144e-11 -3.88193e-12 32.8814

58.7143 4.3634 5.64554e-12
4.3634 66.3112 8.76358e-12
5.64554e-12 8.76358e-12 61.9916

57.9871 4.05684 -3.14341e-13
4.05684 65.1371 -1.57948e-11
-3.14341e-13 -1.57948e-11 61.3265

82.1958 -6.05089 -2.32621e-10
-6.05089 78.153 5.69263e-11
-2.32621e-10 5.69263e-11 79.3485

82.1935 6.04916 8.68408e-11
6.04916 78.1635 -7.23882e-11
8.68408e-11 -7.23882e-11 79.3574

60.8543 6.18307 -2.02102e-12
6.18307 67.5541 1.2905e-11
-2.02102e-12 1.2905e-11 64.441

67.105 3.04312 1.60828e-11
3.04312 64.6589 3.22701e-12
1.60828e-11 3.22701e-12 65.5766

67.0795 -3.09639 -6.47137e-11
-3.09639 64.4869 1.44962e-11
-6.47137e-11 1.44962e-11 65.4205

60.3707 5.91052 -2.88899e-12
5.91052 65.8389 -1.45417e-11
-2.88899e-12 -1.45417e-11 63.5639

63.2343 -5.40146 4.81359e-12
-5.40146 69.8244 8.5697e-12
4.81359e-12 8.5697e-12 66.8938

52.7196 -0.0613709 2.21541e-12
-0.0613709 42.7207 2.20321e-11
2.21541e-12 2.20321e-11 42.7129

56.727 2.41483 1.58433e-11
2.41483 47.6892 9.31829e-12
1.58433e-11 9.31829e-12 48.4574

69.067 0.98195 -3.40896e-11
0.98195 62.5094 1.60804e-11
-3.40896e-11 1.60804e-11 66.6326

75.7936 -1.51393 -1.04957e-10
-1.51393 75.0129 4.10177e-11
-1.04957e-10 4.10177e-11 74.3282

75.8092 1.30318 3.06177e-11
1.30318 75.1325 3.08157e-12
3.06177e-11 3.08157e-12 74.3898

48.6917 4.47244 -2.64868e-11
4.47244 50.9555 6.44936e-12
-2.64868e-11 6.44936e-12 44.2212

57.551 -3.9037 3.5733e-11
-3.9037 55.6217 -1.11252e-11
3.5733e-11 -1.11252e-11 55.2156

66.9021 2.34233 -5.05591e-11
2.34233 61.9235 -1.08824e-11
-5.05591e-11 -1.08824e-11 62.6044

73.1518 1.27833 -7.07413e-11
1.27833 76.7667 1.34485e-12
-7.07413e-11 1.34485e-12 73.8253

73.089 1.08896 -1.16773e-10
1.08896 76.7067 -1.30971e-11
-1.16773e-10 -1.30971e-11 73.7256

69.5096 -0.720102 1.01121e-11
-0.720102 63.3139 -3.50031e-11
1.01121e-11 -3.50031e-11 67.2352

62.5657 -1.52557 -1.5252e-11
-1.52557 67.6269 2.13789e-11
-1.5252e-11 2.13789e-11 63.8262

62.8448 -2.0762 1.65267e-11
-2.0762 68.0836 6.73994e-12
1.65267e-11 6.73994e-12 64.1026

72.7525 -1.43815 2.15707e-11
-1.43815 65.9693 -9.67797e-12
2.15707e-11 -9.67797e-12 69.4915

72.8789 1.45435 5.77242e-13
1.45435 66.0146 9.34088e-12
5.77242e-13 9.34088e-12 69.6445

50.9168 -4.43867 -1.628e-11
-4.43867 50.7813 4.7968e-11
-1.628e-11 4.7968e-11 44.8876

63.8127 0.27687 -1.05826e-12
0.27687 56.9575 5.19507e-12
-1.05826e-12 5.19507e-12 57.4825

73.2824 -2.18053 3.08154e-12
-2.18053 69.3528 5.96985e-11
3.08154e-12 5.96985e-11 71.7995

73.2547 2.15999 -3.37138e-13
2.15999 69.4096 1.84878e-11
-3.37138e-13 1.84878e-11 71.8506

66.8443 -2.43074 2.51354e-11
-2.43074 62.0023 -3.82541e-11
2.51354e-11 -3.82541e-11 62.5112

54.862 -5.03164 -2.26783e-11
-5.03164 61.4687 -3.30337e-11
-2.26783e-11 -3.30337e-11 55.0566

72.7733 -1.61918 2.91782e-11
-1.61918 66.8034 3.16303e-11
2.91782e-11 3.16303e-11 69.3335

72.8923 1.63396 2.09937e-11
1.63396 66.8501 3.42324e-11
2.09937e-11 3.42324e-11 69.4993

64.4063 -1.06154 -7.31933e-12
-1.06154 56.1439 -9.34105e-12
-7.31933e-12 -9.34105e-12 59.1655

62.4563 7.06024 -1.49241e-11
7.06024 68.9723 1.67553e-11
-1.49241e-11 1.67553e-11 65.523

55.9348 3.89169 3.89599e-11
3.89169 54.1931 1.68581e-11
3.89599e-11 1.68581e-11 51.3601

60.9344 5.97401 -1.16515e-11
5.97401 68.0997 3.56292e-12
-1.16515e-11 3.56292e-12 64.8063

62.0874 6.67083 -1.08324e-11
6.67083 69.4652 1.00141e-11
-1.08324e-11 1.00141e-11 65.6197

58.8027 2.88887 1.35788e-11
2.88887 52.488 1.12684e-11
1.35788e-11 1.12684e-11 52.3621

62.9734 -2.39009 -8.28019e-12
-2.39009 59.4556 -9.00272e-12
-8.28019e-12 -9.00272e-12 61.5796

63.5686 1.30764 7.31918e-12
1.30764 55.9137 5.49405e-11
7.31918e-12 5.49405e-11 58.2419

51.0091 4.92356 -1.7578e-11
4.92356 52.293 2.31145e-11
-1.7578e-11 2.31145e-11 48.5931

56.8297 3.99709 3.57328e-11
3.99709 55.2419 1.88292e-11
3.57328e-11 1.88292e-11 54.7467

56.9949 0.345753 1.54915e-11
0.345753 64.4295 -2.4269e-11
1.54915e-11 -2.4269e-11 60.7525

57.0933 0.547223 3.02862e-11
0.547223 64.4927 -2.5994e-12
3.02862e-11 -2.5994e-12 60.8037

49.3061 -5.02008 -3.62698e-11
-5.02008 45.324 2.85852e-11
-3.62698e-11 2.85852e-11 41.9785

60.4311 -5.95693 8.47289e-12
-5.95693 65.9523 2.88821e-12
8.47289e-12 2.88821e-12 63.6678

52.5446 -5.88388 5.18225e-11
-5.88388 56.5532 -8.16787e-11
5.18225e-11 -8.16787e-11 50.5095

52.435 6.0266 1.57447e-11
6.0266 56.3456 -2.74018e-11
1.57447e-11 -2.74018e-11 50.3758

63.0155 -2.19093 -1.37711e-11
-2.19093 57.6424 1.44921e-13
-1.37711e-11 1.44921e-13 58.81

71.781 -0.327158 1.30968e-11
-0.327158 58.5624 2.89348e-11
1.30968e-11 2.89348e-11 66.337

71.7332 0.366058 1.52162e-11
0.366058 58.5705 2.128e-11
1.52162e-11 2.128e-11 66.1765

49.3904 3.19677 -7.82672e-12
3.19677 57.2839 -2.92798e-11
-7.82672e-12 -2.92798e-11 50.385

57.9636 -4.83732 3.70817e-11
-4.83732 59.4016 -4.08357e-11
3.70817e-11 -4.08357e-11 56.6649

41.5596 -0.107965 -9.17444e-12
-0.107965 53.0312 9.82562e-12
-9.17444e-12 9.82562e-12 42.7011

41.4198 0.237602 -1.26646e-11
0.237602 53.0445 -1.93623e-13
-1.26646e-11 -1.93623e-13 42.5214

53.1931 -0.0389113 -9.00509e-12
-0.0389113 43.6642 -3.70937e-11
-9.00509e-12 -3.70937e-11 43.4063

50.854 4.71319 -2.25899e-11
4.71319 50.9592 -4.65728e-11
-2.25899e-11 -4.65728e-11 44.8124

54.2075 -5.52656 2.59088e-11
-5.52656 53.5658 2.0224e-11
2.59088e-11 2.0224e-11 50.4454

74.2529 -2.71131 4.04789e-11
-2.71131 80.1303 -3.98695e-11
4.04789e-11 -3.98695e-11 75.31

74.3244 -2.50104 -1.08725e-10
-2.50104 80.1658 3.65952e-11
-1.08725e-10 3.65952e-11 75.3711

59.4335 -2.83065 -5.68316e-12
-2.83065 52.8076 2.42941e-11
-5.68316e-12 2.42941e-11 52.9219

59.1935 6.55973 8.61781e-12
6.55973 66.3807 -1.13637e-11
8.61781e-12 -1.13637e-11 61.5491

70.9739 -0.173523 -1.70458e-11
-0.173523 62.971 1.30238e-12
-1.70458e-11 1.30238e-12 66.1453

49.3977 -3.14584 1.61784e-11
-3.14584 57.6284 1.37739e-11
1.61784e-11 1.37739e-11 50.5175

63.4119 5.87233 7.75198e-12
5.87233 70.3442 4.23768e-12
7.75198e-12 4.23768e-12 67.2567

62.0688 5.527 7.07582e-12
5.527 69.0055 -2.1186e-11
7.07582e-12 -2.1186e-11 66.3248

62.5706 -7.04668 3.86143e-11
-7.04668 69.0481 1.07813e-11
3.86143e-11 1.07813e-11 65.6116

62.693 6.79498 -2.33035e-11
6.79498 70.6235 -2.29226e-11
-2.33035e-11 -2.29226e-11 66.4932

57.842 5.73465 -3.22503e-12
5.73465 64.5298 1.10757e-11
-3.22503e-12 1.10757e-11 60.3689

77.158 0.01277 6.16314e-12
0.01277 69.5059 -8.22996e-12
6.16314e-12 -8.22996e-12 74.0276

54.1304 5.42352 1.56969e-11
5.42352 52.9243 -1.90218e-13
1.56969e-11 -1.90218e-13 50.024

60.9336 -6.02519 3.27383e-12
-6.02519 68.0597 1.63677e-12
3.27383e-12 1.63677e-12 64.7972

55.4225 4.7399 -1.92591e-11
4.7399 57.5795 1.32429e-11
-1.92591e-11 1.32429e-11 52.785

47.0265 -4.09265 -6.42942e-11
-4.09265 49.862 2.27801e-11
-6.42942e-11 2.27801e-11 42.589

58.3988 -5.00904 -8.66722e-12
-5.00904 62.3842 -2.04163e-11
-8.66722e-12 -2.04163e-11 59.7218

48.2899 -2.85557 -2.33552e-11
-2.85557 57.4988 2.67318e-11
-2.33552e-11 2.67318e-11 47.4754

48.0297 2.78365 -1.52999e-11
2.78365 57.1919 1.07878e-11
-1.52999e-11 1.07878e-11 47.2399

56.4402 -1.96118 -4.74392e-11
-1.96118 50.6471 2.30678e-11
-4.74392e-11 2.30678e-11 47.8213

55.3875 -4.86965 3.60294e-11
-4.86965 57.5589 -1.41101e-10
3.60294e-11 -1.41101e-10 52.6663

56.1183 0.7549 3.95558e-11
0.7549 63.648 -2.88214e-13
3.95558e-11 -2.88214e-13 56.8919

56.0779 -0.00880065 2.08611e-11
-0.00880065 63.5287 -3.85188e-12
2.08611e-11 -3.85188e-12 56.85

45.3442 -5.62135 -2.84669e-11
-5.62135 48.885 5.67376e-11
-2.84669e-11 5.67376e-11 41.4855

45.1524 5.6908 1.32872e-11
5.6908 49.1638 -2.65377e-11
1.32872e-11 -2.65377e-11 41.7719

76.3187 -0.501903 7.70354e-12
-0.501903 67.626 -2.78016e-11
7.70354e-12 -2.78016e-11 72.7635

76.3678 0.526099 1.38667e-11
0.526099 67.6543 1.75761e-12
1.38667e-11 1.75761e-12 72.8218

60.4147 6.18338 -4.52512e-12
6.18338 67.0842 8.37859e-12
-4.52512e-12 8.37859e-12 62.6912

62.0239 -5.62419 7.60812e-12
-5.62419 69.1233 -3.85221e-12
7.60812e-12 -3.85221e-12 66.2157

60.6553 4.09518 -1.73351e-11
4.09518 62.8155 -1.435e-11
-1.73351e-11 -1.435e-11 61.7775

46.8032 4.53537 -1.2088e-11
4.53537 40.8919 2.66821e-11
-1.2088e-11 2.66821e-11 36.9905

50.2048 3.87981 -1.18091e-13
3.87981 59.2332 4.75819e-11
-1.18091e-13 4.75819e-11 51.4459

71.274 2.70991 5.26716e-11
2.70991 70.9565 -2.97015e-11
5.26716e-11 -2.97015e-11 71.1366

71.2994 -2.72954 -4.43031e-12
-2.72954 70.9763 -4.03468e-11
-4.43031e-12 -4.03468e-11 71.1215

67.4825 -3.69666 -4.63178e-11
-3.69666 66.7564 9.34371e-12
-4.63178e-11 9.34371e-12 65.8826

67.446 3.66763 -1.14579e-11
3.66763 66.7464 7.70162e-13
-1.14579e-11 7.70162e-13 65.9077

29.6288 1.21176 4.97261e-12
1.21176 44.1846 1.09808e-11
4.97261e-12 1.09808e-11 23.5799

42.569 1.25429 3.84285e-13
1.25429 31.0088 -9.31995e-12
3.84285e-13 -9.31995e-12 23.548

50.0925 -3.68127 -8.66518e-12
-3.68127 59.4461 -3.72745e-11
-8.66518e-12 -3.72745e-11 51.6346

77.3672 -2.93892 4.92959e-11
-2.93892 78.1432 3.87025e-11
4.92959e-11 3.87025e-11 77.4192

77.3475 2.94848 -1.8873e-11
2.94848 78.1377 -2.49419e-11
-1.8873e-11 -2.49419e-11 77.4209

61.8133 4.50883 -3.55353e-11
4.50883 62.0114 1.94031e-11
-3.55353e-11 1.94031e-11 59.7202

48.347 2.47087 1.61361e-11
2.47087 38.6621 3.6736e-12
1.61361e-11 3.6736e-12 36.7206

63.8328 -0.470499 4.42994e-12
-0.470499 57.0028 3.33905e-12
4.42994e-12 3.33905e-12 57.5008

58.0122 -3.23666 -2.15114e-11
-3.23666 65.053 6.83764e-12
-2.15114e-11 6.83764e-12 61.3374

58.79 -3.54101 -3.93258e-11
-3.54101 65.8918 2.60244e-12
-3.93258e-11 2.60244e-12 61.9595

50.8337 -5.35631 -3.55896e-11
-5.35631 52.8069 7.70643e-12
-3.55896e-11 7.70643e-12 48.1091

62.7476 -6.8237 2.57089e-11
-6.8237 70.7411 5.10129e-12
2.57089e-11 5.10129e-12 66.5701

61.8022 -4.55749 5.11392e-11
-4.55749 62.0703 -1.2139e-11
5.11392e-11 -1.2139e-11 59.6538

59.9757 6.53535 -2.598e-12
6.53535 67.4621 1.60827e-11
-2.598e-12 1.60827e-11 64.3076

68.071 4.72455 5.32249e-11
4.72455 71.8729 -1.83886e-11
5.32249e-11 -1.83886e-11 69.4392

67.6004 4.2912 -2.53649e-13
4.2912 70.7951 -3.94821e-12
-2.53649e-13 -3.94821e-12 68.8882

60.4738 -6.21056 2.28692e-11
-6.21056 67.3133 2.12814e-11
2.28692e-11 2.12814e-11 62.8612

58.9661 5.60547 2.79287e-11
5.60547 64.9261 1.61814e-11
2.79287e-11 1.61814e-11 61.201

54.3596 3.88114 3.15459e-11
3.88114 48.4773 -1.15515e-12
3.15459e-11 -1.15515e-12 47.7408

62.0694 7.19236 -2.8935e-11
7.19236 69.6281 1.82937e-11
-2.8935e-11 1.82937e-11 65.8795

54.6107 -4.39609 1.0111e-11
-4.39609 62.1013 1.30034e-11
1.0111e-11 1.30034e-11 57.2833

51.8638 1.71225 -1.99598e-11
1.71225 60.8776 1.098e-11
-1.99598e-11 1.098e-11 54.3185

62.2984 5.22265 -1.91626e-11
5.22265 64.5939 1.43479e-11
-1.91626e-11 1.43479e-11 62.5551

52.8471 2.20009 2.84821e-11
2.20009 61.5302 7.73307e-13
2.84821e-11 7.73307e-13 54.991

63.4416 -6.1038 -1.20489e-12
-6.1038 70.5067 1.4638e-11
-1.20489e-12 1.4638e-11 67.1569

33.7466 -5.24511 5.09228e-11
-5.24511 34.3269 9.50863e-11
5.09228e-11 9.50863e-11 26.186

33.9027 -5.30243 -4.67093e-12
-5.30243 33.931 1.62211e-12
-4.67093e-12 1.62211e-12 26.0804

62.2982 -5.25371 1.50226e-11
-5.25371 64.5974 4.6031e-11
1.50226e-11 4.6031e-11 62.527

66.3914 -1.98603 1.63721e-11
-1.98603 60.0683 8.04578e-12
1.63721e-11 8.04578e-12 61.956

82.5136 6.22929 1.70801e-10
6.22929 79.7034 -7.20942e-11
1.70801e-10 -7.20942e-11 79.7336

82.5157 -6.22986 -9.49329e-11
-6.22986 79.7055 -1.69386e-11
-9.49329e-11 -1.69386e-11 79.7279

59.4049 -6.5196 -1.59859e-11
-6.5196 66.7307 8.47611e-12
-1.59859e-11 8.47611e-12 61.9128

70.6887 1.36939 6.54536e-12
1.36939 71.8605 -5.63307e-11
6.54536e-12 -5.63307e-11 71.3242

70.7775 -1.25883 3.52421e-11
-1.25883 71.9489 -3.11986e-11
3.52421e-11 -3.11986e-11 71.3569

67.3674 0.0859246 -1.06056e-12
0.0859246 54.3574 -1.09973e-11
-1.06056e-12 -1.09973e-11 59.9373

59.9412 -6.56696 -5.39235e-12
-6.56696 67.5464 -5.58583e-12
-5.39235e-12 -5.58583e-12 64.2808

37.1826 6.3914 5.89608e-11
6.3914 37.7441 4.79067e-11
5.89608e-11 4.79067e-11 30.5226

36.5261 6.05376 1.07416e-11
6.05376 37.7404 1.8425e-11
1.07416e-11 1.8425e-11 30.5476

39.4174 -4.54858 7.71768e-12
-4.54858 47.7805 -3.84581e-13
7.71768e-12 -3.84581e-13 35.7543

40.2112 4.76943 4.68508e-11
4.76943 48.4953 -1.2182e-11
4.68508e-11 -1.2182e-11 36.526

47.2201 -3.78389 6.23777e-11
-3.78389 40.9903 -1.27394e-11
6.23777e-11 -1.27394e-11 35.9932

62.0957 -7.22333 2.73482e-11
-7.22333 69.8417 -2.81234e-11
2.73482e-11 -2.81234e-11 65.9368

31.1903 1.67594 9.93346e-12
1.67594 44.0062 -2.03778e-11
9.93346e-12 -2.03778e-11 30.6595

43.3894 2.14014 2.1628e-11
2.14014 33.2191 -9.65679e-12
2.1628e-11 -9.65679e-12 31.1195

70.0745 -2.23078 -1.5105e-11
-2.23078 73.7449 -5.19999e-12
-1.5105e-11 -5.19999e-12 71.33

70.5252 -2.70038 7.49834e-12
-2.70038 74.0913 9.0495e-12
7.49834e-12 9.0495e-12 71.6451

68.4045 0.850328 -1.94539e-11
0.850328 61.437 -1.42992e-11
-1.94539e-11 -1.42992e-11 63.8848

70.9246 0.0527034 2.42696e-11
0.0527034 55.6192 -1.05922e-11
2.42696e-11 -1.05922e-11 64.0272

46.6607 -4.12701 -4.15597e-11
-4.12701 54.0142 -2.71108e-11
-4.15597e-11 -2.71108e-11 45.73

46.3938 4.03632 3.27523e-12
4.03632 53.8091 1.48349e-11
3.27523e-12 1.48349e-11 45.5469

67.4265 -0.00021759 -1.48324e-11
-0.00021759 54.2511 5.55396e-12
-1.48324e-11 5.55396e-12 60.1239

56.0238 -4.98234 -9.4373e-12
-4.98234 63.8175 -1.43488e-11
-9.4373e-12 -1.43488e-11 58.5998

76.2377 -2.13659 2.68599e-11
-2.13659 75.7553 4.05342e-11
2.68599e-11 4.05342e-11 75.7397

76.1923 2.13232 1.31907e-11
2.13232 75.7346 3.5288e-11
1.31907e-11 3.5288e-11 75.7361

63.6586 2.93895 3.00447e-11
2.93895 64.1772 -2.01262e-11
3.00447e-11 -2.01262e-11 63.0757

58.7931 -5.5807 -4.03504e-11
-5.5807 64.9089 1.22334e-11
-4.03504e-11 1.22334e-11 61.1292

66.9754 0.849167 3.85255e-12
0.849167 56.266 2.74446e-11
3.85255e-12 2.74446e-11 61.6844

47.5569 4.65844 -3.46779e-11
4.65844 46.6906 -2.0136e-11
-3.46779e-11 -2.0136e-11 42.2061

57.9003 -5.73217 2.83581e-11
-5.73217 64.5672 1.42513e-11
2.83581e-11 1.42513e-11 60.4355

17.3816 -10.0712 -2.04281e-13
-10.0712 17.7399 -2.6749e-11
-2.04281e-13 -2.6749e-11 9.82549

52.1395 -1.37373 -2.13546e-11
-1.37373 60.691 -3.10145e-11
-2.13546e-11 -3.10145e-11 54.3545

52.9203 -1.88179 4.1895e-12
-1.88179 61.2043 -1.64704e-11
4.1895e-12 -1.64704e-11 54.8654

70.6595 -0.444496 -4.5219e-11
-0.444496 73.3072 3.62066e-11
-4.5219e-11 3.62066e-11 71.6921

70.7383 -0.255598 -3.29284e-11
-0.255598 73.2624 2.56132e-11
-3.29284e-11 2.56132e-11 71.7087

77.8635 -1.56344 -1.8102e-11
-1.56344 71.3381 1.2662e-11
-1.8102e-11 1.2662e-11 75.4458

77.8597 1.56605 3.35088e-11
1.56605 71.3633 6.47654e-12
3.35088e-11 6.47654e-12 75.4884

65.0927 -3.07611 4.01534e-11
-3.07611 65.7891 3.84248e-13
4.01534e-11 3.84248e-13 66.1617

64.9158 3.174 1.55022e-11
3.174 65.0975 -1.55037e-11
1.55022e-11 -1.55037e-11 65.7151

70.0171 -2.72886 1.77163e-11
-2.72886 72.9947 1.59854e-11
1.77163e-11 1.59854e-11 71.0071

69.9439 2.84049 -1.25178e-11
2.84049 72.9569 -1.86793e-11
-1.25178e-11 -1.86793e-11 70.9732

79.4453 4.24526 -1.54432e-12
4.24526 79.11 3.26984e-12
-1.54432e-12 3.26984e-12 78.3886

79.4489 -4.23896 -6.22007e-11
-4.23896 79.1133 5.71966e-11
-6.22007e-11 5.71966e-11 78.3823

65.5713 -7.00114 -7.60688e-12
-7.00114 71.7593 6.64622e-12
-7.60688e-12 6.64622e-12 68.8581

65.5968 7.02529 2.00281e-11
7.02529 71.6934 -5.96758e-12
2.00281e-11 -5.96758e-12 68.8735

61.418 4.18589 -5.77464e-13
4.18589 59.4617 -2.16694e-11
-5.77464e-13 -2.16694e-11 58.6415

57.156 -3.2988 -3.65677e-11
-3.2988 63.7068 -4.15084e-11
-3.65677e-11 -4.15084e-11 58.4412

57.842 -4.11867 2.26175e-12
-4.11867 65.0173 9.34201e-12
2.26175e-12 9.34201e-12 59.2531

48.636 -4.16467 -3.02487e-11
-4.16467 47.4548 2.82236e-11
-3.02487e-11 2.82236e-11 41.9649

61.3774 -4.17928 2.48471e-11
-4.17928 59.5733 -2.08997e-11
2.48471e-11 -2.08997e-11 58.5934

56.9786 3.11297 -6.74259e-12
3.11297 63.4093 -3.1779e-12
-6.74259e-12 -3.1779e-12 58.2173

58.0658 5.86031 2.21535e-11
5.86031 60.3039 1.86858e-11
2.21535e-11 1.86858e-11 56.8858

62.6245 -6.06427 -4.23802e-12
-6.06427 68.6502 1.73359e-12
-4.23802e-12 1.73359e-12 66.5582

62.722 5.95284 1.8288e-12
5.95284 68.6694 -1.3964e-11
1.8288e-12 -1.3964e-11 66.6224

57.9397 -5.94805 -5.11369e-11
-5.94805 60.2282 -3.01868e-11
-5.11369e-11 -3.01868e-11 56.7609

69.058 -0.592242 -1.53115e-11
-0.592242 62.2215 1.46361e-11
-1.53115e-11 1.46361e-11 64.7797

74.5973 1.68133 5.0623e-11
1.68133 77.4833 9.43923e-12
5.0623e-11 9.43923e-12 74.7919

74.7745 1.4774 -5.25e-11
1.4774 77.4335 4.04314e-12
-5.25e-11 4.04314e-12 74.8705

62.558 -5.2224 2.07522e-11
-5.2224 68.7002 -3.13e-11
2.07522e-11 -3.13e-11 64.6822

62.0426 2.55867 2.77371e-11
2.55867 58.7198 -4.81652e-13
2.77371e-11 -4.81652e-13 60.65

73.6176 -0.627382 2.86965e-11
-0.627382 64.862 -1.36736e-11
2.86965e-11 -1.36736e-11 69.0657

36.2205 -5.62386 1.00007e-11
-5.62386 37.0844 -4.62913e-11
1.00007e-11 -4.62913e-11 28.611

36.51 -5.49283 6.23791e-11
-5.49283 37.2626 -3.22273e-11
6.23791e-11 -3.22273e-11 28.8496

77.4874 -1.76472 3.65885e-12
-1.76472 70.7921 7.36803e-11
3.65885e-12 7.36803e-11 74.8875

77.4216 1.79415 3.48577e-11
1.79415 70.8067 1.30144e-12
3.48577e-11 1.30144e-12 74.9041

73.8031 0.516195 2.46529e-11
0.516195 65.1941 -2.77785e-11
2.46529e-11 -2.77785e-11 69.2821

57.8339 4.08879 -1.88992e-11
4.08879 64.7833 -2.7064e-11
-1.88992e-11 -2.7064e-11 59.1422

60.0738 3.22453 2.68704e-11
3.22453 56.6123 -2.27263e-11
2.68704e-11 -2.27263e-11 54.4862

67.4591 -4.6589 4.62326e-12
-4.6589 70.7025 -5.1615e-11
4.62326e-12 -5.1615e-11 68.4078

67.4375 4.62275 -1.45409e-11
4.62275 70.6951 -1.07871e-11
-1.45409e-11 -1.07871e-11 68.4227

77.4385 -0.843765 1.15571e-12
-0.843765 72.9208 -9.92426e-11
1.15571e-12 -9.92426e-11 74.4306

77.5735 0.853107 2.2148e-11
0.853107 73.5991 -9.4922e-11
2.2148e-11 -9.4922e-11 74.6732

60.1462 -5.98494 -3.1583e-11
-5.98494 67.6093 -3.71705e-11
-3.1583e-11 -3.71705e-11 63.6969

62.5739 2.56914 2.30179e-11
2.56914 57.4421 -2.56157e-11
2.30179e-11 -2.56157e-11 58.0451

73.8643 1.78403 -5.6802e-12
1.78403 71.6606 -4.37894e-12
-5.6802e-12 -4.37894e-12 72.5492

73.9098 -1.79319 -1.52115e-11
-1.79319 71.6605 -5.86393e-11
-1.52115e-11 -5.86393e-11 72.5363

61.6835 -4.64486 6.74757e-13
-4.64486 67.3297 -1.31945e-11
6.74757e-13 -1.31945e-11 63.8682

60.4273 -6.38621 8.86156e-12
-6.38621 67.5539 -2.13799e-11
8.86156e-12 -2.13799e-11 64.2665

17.9765 -10.4425 -2.34908e-11
-10.4425 18.532 2.24529e-11
-2.34908e-11 2.24529e-11 10.3721

65.0532 4.355 1.24207e-11
4.355 71.1604 -1.36753e-11
1.24207e-11 -1.36753e-11 68.3518

65.0243 -4.4207 -6.35669e-12
-4.4207 71.2266 2.71572e-11
-6.35669e-12 2.71572e-11 68.3817

58.6708 -5.53339 1.55033e-11
-5.53339 66.0398 3.46538e-12
1.55033e-11 3.46538e-12 62.5559

60.7656 -3.47909 2.21408e-12
-3.47909 56.9619 1.05939e-11
2.21408e-12 1.05939e-11 55.0089

64.4725 -2.7729 -1.75277e-11
-2.7729 64.6496 1.57938e-11
-1.75277e-11 1.57938e-11 63.7072

65.0701 3.7709 2.23391e-11
3.7709 68.1574 -3.16816e-11
2.23391e-11 -3.16816e-11 66.7891

65.035 -3.91361 3.78442e-11
-3.91361 68.3252 -1.82966e-11
3.78442e-11 -1.82966e-11 66.8557

67.4686 -0.565788 -9.63104e-12
-0.565788 56.6115 7.51077e-12
-9.63104e-12 7.51077e-12 62.4274

78.1797 1.38745 1.65633e-11
1.38745 74.4546 4.97784e-11
1.65633e-11 4.97784e-11 76.6765

78.2642 -1.37392 5.00718e-12
-1.37392 74.4622 -5.77867e-12
5.00718e-12 -5.77867e-12 76.6951

74.4124 0.611616 1.22195e-11
0.611616 81.1481 3.56277e-11
1.22195e-11 3.56277e-11 75.1617

74.5099 0.407213 -3.26272e-11
0.407213 81.1663 -7.56819e-11
-3.26272e-11 -7.56819e-11 75.2058

28.3565 0.438814 -6.42285e-11
0.438814 43.7549 2.88788e-11
-6.42285e-11 2.88788e-11 23.0022

41.7165 0.390245 2.41152e-11
0.390245 28.4577 -9.60415e-12
2.41152e-11 -9.60415e-12 22.6105

64.5475 -5.98042 3.08156e-11
-5.98042 70.9352 6.54428e-12
3.08156e-11 6.54428e-12 67.0981

64.5556 5.96343 -1.48283e-11
5.96343 70.9053 -4.62466e-12
-1.48283e-11 -4.62466e-12 67.1123

61.6461 -6.8055 -3.19198e-11
-6.8055 69.5221 -2.6383e-11
-3.19198e-11 -2.6383e-11 65.4618

24.3698 -4.90791 -3.75001e-11
-4.90791 35.7083 -5.24736e-12
-3.75001e-11 -5.24736e-12 19.5805

34.8129 -4.69157 8.50253e-12
-4.69157 25.5963 1.75797e-11
8.50253e-12 1.75797e-11 19.7923

78.1711 -6.25066 8.89437e-11
-6.25066 83.0254 1.69069e-10
8.89437e-11 1.69069e-10 80.0021

78.1649 6.2496 -1.00895e-10
6.2496 83.0273 9.34831e-11
-1.00895e-10 9.34831e-11 80.007

60.8077 -4.13135 -1.56011e-11
-4.13135 62.9781 1.49256e-11
-1.56011e-11 1.49256e-11 62.0146

58.3245 -5.74214 -1.76266e-11
-5.74214 62.3183 4.9504e-11
-1.76266e-11 4.9504e-11 58.1312

63.9051 -6.04458 9.53349e-12
-6.04458 68.4649 -2.21575e-12
9.53349e-12 -2.21575e-12 65.8849

63.8927 6.02101 -2.61956e-11
6.02101 68.4384 -6.0864e-11
-2.61956e-11 -6.0864e-11 65.8923

59.6993 -6.48557 1.79136e-11
-6.48557 65.3409 -1.55064e-11
1.79136e-11 -1.55064e-11 61.2854

58.3097 5.7439 2.04159e-11
5.7439 62.1299 1.08834e-11
2.04159e-11 1.08834e-11 58.0696

38.8997 -1.86229 -2.23587e-11
-1.86229 49.6353 -2.16656e-12
-2.23587e-11 -2.16656e-12 36.4414

38.3355 2.25513 1.42079e-11
2.25513 48.8767 5.49042e-12
1.42079e-11 5.49042e-12 36.2568

48.7823 -1.4188 5.31785e-11
-1.4188 41.1324 -2.3239e-11
5.31785e-11 -2.3239e-11 36.9167

59.6815 6.45202 1.92365e-13
6.45202 65.2392 -1.99355e-11
1.92365e-13 -1.99355e-11 61.2192

30.6982 -1.15835 -5.01144e-11
-1.15835 44.1828 -2.26426e-12
-5.01144e-11 -2.26426e-12 30.2039

42.9185 -1.12188 -3.32327e-12
-1.12188 30.9706 -2.35597e-11
-3.32327e-12 -2.35597e-11 29.8118

67.1223 -5.90567 -2.04157e-11
-5.90567 71.7857 2.51331e-11
-2.04157e-11 2.51331e-11 69.4129

67.1486 5.87169 7.01986e-11
5.87169 71.7714 1.07928e-11
7.01986e-11 1.07928e-11 69.438

68.0331 -5.14063 -1.11711e-11
-5.14063 73.0149 -9.73388e-14
-1.11711e-11 -9.73388e-14 70.4179

68.0387 5.12035 6.01812e-11
5.12035 72.9836 6.02871e-11
6.01812e-11 6.02871e-11 70.4292

23.206 -4.9349 2.03908e-11
-4.9349 34.2916 9.41363e-11
2.03908e-11 9.41363e-11 18.1485

33.3101 -4.56475 9.32706e-12
-4.56475 23.5179 -2.49543e-11
9.32706e-12 -2.49543e-11 17.9569

62.8979 5.4506 -2.34972e-11
5.4506 66.9382 -2.45583e-11
-2.34972e-11 -2.45583e-11 63.6529

62.9218 -5.49459 -4.52608e-12
-5.49459 67.0129 7.99309e-12
-4.52608e-12 7.99309e-12 63.6565

72.0613 -0.879303 -1.50643e-11
-0.879303 74.1735 2.19536e-11
-1.50643e-11 2.19536e-11 72.4651

72.1776 -1.16746 -4.99858e-12
-1.16746 74.3905 1.5406e-11
-4.99858e-12 1.5406e-11 72.5901

67.139 -5.92939 1.34751e-12
-5.92939 74.4324 2.84067e-11
1.34751e-12 2.84067e-11 70.7504

67.1254 5.95661 2.22419e-11
5.95661 74.3879 -1.8581e-11
2.22419e-11 -1.8581e-11 70.7584

75.472 -2.33293 -1.53995e-12
-2.33293 72.9119 -6.73034e-11
-1.53995e-12 -6.73034e-11 74.8532

75.4329 2.33355 3.12944e-11
2.33355 72.9236 3.72135e-11
3.12944e-11 3.72135e-11 74.857

62.2286 4.90807 -2.81188e-11
4.90807 67.0637 -6.3576e-12
-2.81188e-11 -6.3576e-12 64.5579

62.2261 -4.88775 -4.23711e-11
-4.88775 67.2902 -9.14711e-12
-4.23711e-11 -9.14711e-12 64.6497

71.6195 -1.83525 2.51746e-11
-1.83525 78.8429 -5.60434e-11
2.51746e-11 -5.60434e-11 73.668

80.2094 -3.35083 3.46618e-11
-3.35083 78.5093 -1.75273e-11
3.46618e-11 -1.75273e-11 79.1356

79.852 -3.44541 2.84994e-11
-3.44541 78.5083 5.89192e-11
2.84994e-11 5.89192e-11 79.0664

80.1557 3.36943 -3.29285e-11
3.36943 78.5013 -1.6083e-11
-3.29285e-11 -1.6083e-11 79.1218

79.8367 3.45369 -6.47041e-11
3.45369 78.5041 3.87968e-11
-6.47041e-11 3.87968e-11 79.0676

71.2334 -1.42423 9.25223e-12
-1.42423 78.6958 2.92712e-11
9.25223e-12 2.92712e-11 73.4147

74.3834 -3.75567 3.52407e-11
-3.75567 74.2418 4.52362e-12
3.52407e-11 4.52362e-12 73.1292

74.2229 3.88444 1.36765e-11
3.88444 74.3051 2.98493e-11
1.36765e-11 2.98493e-11 73.1633

77.3093 -4.87654 6.95089e-11
-4.87654 80.0171 -7.47283e-11
6.95089e-11 -7.47283e-11 77.2984

92.3883 -3.64011 1.36141e-10
-3.64011 79.5484 -1.71763e-10
1.36141e-10 -1.71763e-10 81.496

92.3889 3.63745 -5.754e-10
3.63745 79.5601 -8.8162e-11
-5.754e-10 -8.8162e-11 81.5063

77.2974 4.87895 -6.93142e-11
4.87895 80.0104 -6.99126e-11
-6.93142e-11 -6.99126e-11 77.3046

78.1397 -5.17326 -2.88865e-12
-5.17326 77.9576 1.00138e-11
-2.88865e-12 1.00138e-11 76.6117

72.6863 -4.17297 1.90636e-11
-4.17297 76.8262 -1.34866e-12
1.90636e-11 -1.34866e-12 74.0122

79.3505 -3.9875 -3.65866e-11
-3.9875 79.3379 -5.33372e-11
-3.65866e-11 -5.33372e-11 78.404

78.1314 5.1758 3.38945e-11
5.1758 77.9349 6.83655e-11
3.38945e-11 6.83655e-11 76.6157

79.3468 3.99091 2.30875e-12
3.99091 79.3413 6.39294e-11
2.30875e-12 6.39294e-11 78.4123

72.6841 4.17183 -4.3809e-11
4.17183 76.7958 -1.45415e-11
-4.3809e-11 -1.45415e-11 74.017

72.8862 -4.30412 3.75833e-12
-4.30412 76.9561 -7.45272e-11
3.75833e-12 -7.45272e-11 74.7533

77.252 -3.50639 2.33005e-11
-3.50639 78.5747 -4.89137e-11
2.33005e-11 -4.89137e-11 77.2365

72.8852 4.30113 -1.18447e-11
4.30113 76.9333 -3.611e-11
-1.18447e-11 -3.611e-11 74.7588

77.2324 3.5014 1.71359e-11
3.5014 78.5502 -3.11013e-11
1.71359e-11 -3.11013e-11 77.2362

62.2509 2.81763 -2.90833e-11
2.81763 65.7816 1.53958e-12
-2.90833e-11 1.53958e-12 63.6387

58.6504 -0.813789 2.94652e-11
-0.813789 67.2705 -3.85344e-12
2.94652e-11 -3.85344e-12 63.4059

60.4764 -0.907592 -2.88898e-11
-0.907592 52.2237 2.69687e-11
-2.88898e-11 2.69687e-11 57.163

58.1294 0.0288613 -2.56208e-11
0.0288613 50.274 1.021e-11
-2.56208e-11 1.021e-11 53.9089

63.1118 2.82558 9.61046e-13
2.82558 67.2826 -3.85202e-11
9.61046e-13 -3.85202e-11 66.486

60.1202 -1.22985 -8.66812e-12
-1.22985 71.7532 -4.23957e-12
-8.66812e-12 -4.23957e-12 66.8436

58.2014 1.58738 -9.0575e-12
1.58738 50.3814 -2.89226e-12
-9.0575e-12 -2.89226e-12 54.1355

66.0422 2.02064 -1.37737e-11
2.02064 57.9561 -8.85865e-12
-1.37737e-11 -8.85865e-12 63.9466

41.5412 4.02636 6.93601e-12
4.02636 47.2143 2.19575e-11
6.93601e-12 2.19575e-11 43.45

41.8148 3.90142 -6.9326e-12
3.90142 47.3014 1.79175e-11
-6.9326e-12 1.79175e-11 43.0318

46.3156 3.5106 2.17673e-11
3.5106 41.1905 -1.92635e-11
2.17673e-11 -1.92635e-11 42.3756

66.9698 1.77164 3.85543e-12
1.77164 71.6159 1.73332e-11
3.85543e-12 1.73332e-11 68.8673

67.4917 -3.41704 -2.2534e-11
-3.41704 69.4203 2.11956e-12
-2.2534e-11 2.11956e-12 68.5081

58.1662 -4.35125 -2.67713e-11
-4.35125 59.3796 1.93138e-12
-2.67713e-11 1.93138e-12 58.397

59.9321 1.47622 -4.31387e-11
1.47622 71.7847 -1.04001e-11
-4.31387e-11 -1.04001e-11 66.6405

62.7769 -1.63478 2.0797e-11
-1.63478 66.7935 1.91328e-13
2.0797e-11 1.91328e-13 66.1858

62.6726 1.12462 5.10547e-12
1.12462 52.96 -9.62902e-12
5.10547e-12 -9.62902e-12 57.9332

45.0148 1.85626 -6.93064e-12
1.85626 52.8697 -4.62297e-12
-6.93064e-12 -4.62297e-12 47.3077

46.1442 1.41375 -8.96198e-12
1.41375 52.2138 -7.12822e-12
-8.96198e-12 -7.12822e-12 47.1607

51.8775 1.08503 6.36173e-12
1.08503 45.1792 1.09744e-11
6.36173e-12 1.09744e-11 46.3776

52.7998 4.33953 -1.15559e-11
4.33953 57.7468 2.17653e-11
-1.15559e-11 2.17653e-11 53.989

51.2531 -2.60356 -2.61912e-11
-2.60356 57.7004 -1.73372e-11
-2.61912e-11 -1.73372e-11 54.1202

61.0388 2.50282 -1.75329e-11
2.50282 52.2495 -1.13618e-11
-1.75329e-11 -1.13618e-11 57.6535

39.3197 2.94342 -2.37049e-11
2.94342 43.586 1.77266e-11
-2.37049e-11 1.77266e-11 39.4875

65.448 -1.12121 -3.0046e-11
-1.12121 55.2774 -1.11727e-11
-3.0046e-11 -1.11727e-11 62.4764

69.3261 0.757279 -3.6579e-12
0.757279 70.2449 -3.40883e-11
-3.6579e-12 -3.40883e-11 69.2834

67.4824 -0.200544 -2.34945e-11
-0.200544 73.7495 -2.54231e-11
-2.34945e-11 -2.54231e-11 69.5392

84.301 4.38637 -6.93538e-12
4.38637 76.6829 9.24655e-12
-6.93538e-12 9.24655e-12 75.6601

83.3414 -1.96585 5.35382e-11
-1.96585 72.6327 1.63689e-11
5.35382e-11 1.63689e-11 75.0839

56.2867 -4.97176 -3.21638e-11
-4.97176 58.6077 7.32007e-12
-3.21638e-11 7.32007e-12 57.375

51.5733 -4.18916 -1.44473e-11
-4.18916 56.6365 -1.15608e-11
-1.44473e-11 -1.15608e-11 53.2595

50.9452 -0.0490585 3.13998e-11
-0.0490585 43.4117 -4.91188e-11
3.13998e-11 -4.91188e-11 45.8196

72.8864 2.71733 3.46841e-12
2.71733 68.0063 -2.65778e-11
3.46841e-12 -2.65778e-11 69.5377

71.77 -0.745967 -1.92883e-12
-0.745967 66.8712 -1.38664e-11
-1.92883e-12 -1.38664e-11 69.0888

65.8431 -0.440791 9.63183e-12
-0.440791 55.6762 2.81189e-11
9.63183e-12 2.81189e-11 63.7177

50.566 -3.18214 1.38696e-11
-3.18214 55.7379 5.08573e-11
1.38696e-11 5.08573e-11 53.2199

64.7567 0.619324 4.23709e-12
0.619324 54.0591 -2.11919e-12
4.23709e-12 -2.11919e-12 62.3299

54.7789 -3.1262 -2.3885e-11
-3.1262 51.3825 2.11527e-12
-2.3885e-11 2.11527e-12 51.694

51.6884 4.59905 5.77612e-12
4.59905 54.7837 -4.89292e-11
5.77612e-12 -4.89292e-11 53.1203

55.1684 3.41477 3.37105e-11
3.41477 47.9203 -2.04142e-11
3.37105e-11 -2.04142e-11 50.6644

54.034 -1.97498 -3.79502e-11
-1.97498 47.3978 2.88955e-11
-3.79502e-11 2.88955e-11 50.0156

51.8652 3.87788 -1.75327e-11
3.87788 57.4988 1.53388e-12
-1.75327e-11 1.53388e-12 54.0009

56.0866 -2.88307 -6.45128e-12
-2.88307 65.2357 -7.70347e-12
-6.45128e-12 -7.70347e-12 62.4166

58.7091 5.14833 3.42837e-11
5.14833 65.0942 2.98574e-11
3.42837e-11 2.98574e-11 62.5134

52.8454 -3.62839 1.67551e-11
-3.62839 57.4205 -9.05646e-12
1.67551e-11 -9.05646e-12 54.0259

51.9376 4.76438 -8.08612e-12
4.76438 57.1271 2.83148e-11
-8.08612e-12 2.83148e-11 53.4203

30.6693 -4.02283 1.25238e-11
-4.02283 31.3398 2.96719e-11
1.25238e-11 2.96719e-11 31.2454

30.3209 4.62233 -3.31391e-11
4.62233 31.9963 1.53988e-12
-3.31391e-11 1.53988e-12 31.0193

59.5624 3.95165 5.50795e-11
3.95165 68.4432 1.03984e-11
5.50795e-11 1.03984e-11 65.8655

62.1157 -4.61539 -1.42507e-11
-4.61539 67.3959 9.24564e-12
-1.42507e-11 9.24564e-12 65.9853

54.0264 4.35274 -3.42888e-11
4.35274 60.6342 -6.56866e-11
-3.42888e-11 -6.56866e-11 57.2542

30.4521 1.4877 -2.29248e-11
1.4877 30.6251 -1.05992e-11
-2.29248e-11 -1.05992e-11 31.8337

30.4781 -0.0245262 2.50274e-12
-0.0245262 31.9853 1.42547e-11
2.50274e-12 1.42547e-11 32.3455

68.0265 -3.31876 -3.16724e-11
-3.31876 69.4354 -1.88658e-11
-3.16724e-11 -1.88658e-11 69.4134

68.669 1.61895 2.02246e-11
1.61895 70.8394 -6.7409e-12
2.02246e-11 -6.7409e-12 69.6781

66.3673 -0.0944647 -8.42489e-12
-0.0944647 54.9784 -2.69632e-12
-8.42489e-12 -2.69632e-12 60.7906

68.131 -3.09222 1.96173e-11
-3.09222 69.584 -3.15889e-11
1.96173e-11 -3.15889e-11 69.4141

68.3547 1.11159 -2.14064e-11
1.11159 68.6976 -4.14068e-11
-2.14064e-11 -4.14068e-11 69.179

52.494 -2.73998 -3.45718e-11
-2.73998 60.5955 1.92816e-12
-3.45718e-11 1.92816e-12 57.3717

78.9754 4.1473 1.19375e-11
4.1473 74.2559 -1.92566e-11
1.19375e-11 -1.92566e-11 73.6312

79.2365 -3.41839 -3.35098e-11
-3.41839 70.4064 1.00083e-11
-3.35098e-11 1.00083e-11 73.3288

63.7216 -3.31955 -9.58293e-12
-3.31955 63.5369 2.49785e-12
-9.58293e-12 2.49785e-12 64.7923

64.023 2.52787 2.33034e-11
2.52787 64.2658 1.94027e-11
2.33034e-11 1.94027e-11 64.8257

71.5029 0.263535 1.57935e-11
0.263535 80.6236 1.46356e-11
1.57935e-11 1.46356e-11 73.3511

71.0539 2.00242 1.34862e-12
2.00242 75.3549 5.04573e-11
1.34862e-12 5.04573e-11 72.3722

37.3607 1.37697 -2.69348e-12
1.37697 41.7561 -3.25624e-11
-2.69348e-12 -3.25624e-11 38.189

41.5046 1.40817 5.2928e-12
1.40817 37.4974 1.6183e-11
5.2928e-12 1.6183e-11 38.1848

57.5016 4.13265 -1.42517e-11
4.13265 64.1269 -3.8521e-12
-1.42517e-11 -3.8521e-12 61.2713

54.7989 -2.52091 -5.58638e-12
-2.52091 64.5721 -2.34999e-11
-5.58638e-12 -2.34999e-11 61.1032

80.8949 -5.44118 1.1327e-10
-5.44118 87.0898 -7.3187e-11
1.1327e-10 -7.3187e-11 78.2089

81.5572 3.24273 -3.33732e-10
3.24273 76.0625 -9.06425e-12
-3.33732e-10 -9.06425e-12 76.1949

54.7127 4.38615 3.02556e-11
4.38615 52.1131 5.4711e-11
3.02556e-11 5.4711e-11 52.513

63.4551 1.6861 1.26171e-11
1.6861 57.6975 2.30845e-12
1.26171e-11 2.30845e-12 61.395

63.0983 -2.2068 2.14762e-11
-2.2068 57.4861 -2.00315e-11
2.14762e-11 -2.00315e-11 61.3303

69.5313 -2.37129 -3.85193e-11
-2.37129 61.0567 -3.5438e-11
-3.85193e-11 -3.5438e-11 66.8492

50.7923 1.00285 3.50631e-11
1.00285 43.3844 -2.69653e-11
3.50631e-11 -2.69653e-11 45.9107

86.8114 0.305905 -8.08631e-12
0.305905 75.632 -4.44854e-11
-8.08631e-12 -4.44854e-11 76.7184

86.2967 -0.619063 5.81539e-11
-0.619063 83.4305 -1.4251e-11
5.81539e-11 -1.4251e-11 77.7169

56.9516 5.2639 -6.93305e-12
5.2639 54.2608 1.5408e-11
-6.93305e-12 1.5408e-11 56.0265

63.4661 1.39422 2.92211e-13
1.39422 56.0563 1.53944e-12
2.92211e-13 1.53944e-12 59.0506

47.233 4.2861 -1.61811e-11
4.2861 48.85 2.85095e-11
-1.61811e-11 2.85095e-11 46.2412

75.4814 -2.43561 -5.66091e-11
-2.43561 83.1701 2.31094e-11
-5.66091e-11 2.31094e-11 75.1632

72.9633 1.52392 -5.66167e-11
1.52392 75.5727 3.33181e-11
-5.66167e-11 3.33181e-11 73.4435

70.9592 4.41979 -2.8115e-11
4.41979 63.8148 1.19408e-11
-2.8115e-11 1.19408e-11 67.7745

62.0205 -1.38574 1.30964e-11
-1.38574 65.5382 1.46374e-11
1.30964e-11 1.46374e-11 63.4649

58.4618 0.980695 -6.59609e-11
0.980695 67.3851 -1.38683e-11
-6.59609e-11 -1.38683e-11 63.2697

67.2936 -0.676891 8.52281e-12
-0.676891 56.4844 -1.46399e-11
8.52281e-12 -1.46399e-11 62.9569

67.9389 0.499188 -9.53556e-12
0.499188 56.3275 -3.35106e-11
-9.53556e-12 -3.35106e-11 63.0858

48.6537 -2.82297 -1.01211e-11
-2.82297 46.8877 1.15804e-12
-1.01211e-11 1.15804e-12 45.7714

60.1811 0.146273 -1.1992e-11
0.146273 50.9544 -3.8175e-13
-1.1992e-11 -3.8175e-13 54.5068

68.9959 0.56624 -1.30918e-11
0.56624 61.0388 5.7196e-11
-1.30918e-11 5.7196e-11 66.0387

68.0514 -1.21113 8.3061e-12
-1.21113 61.7432 -4.50662e-11
8.3061e-12 -4.50662e-11 66.043

62.9692 -1.6537 1.91598e-11
-1.6537 55.3734 -1.04009e-11
1.91598e-11 -1.04009e-11 58.8797

67.9386 -0.778904 -1.6794e-13
-0.778904 59.377 -2.02234e-11
-1.6794e-13 -2.02234e-11 63.9955

68.7674 0.335705 -8.20928e-12
0.335705 59.5605 9.82429e-12
-8.20928e-12 9.82429e-12 64.1989

62.5829 3.48608 7.75232e-13
3.48608 55.641 5.31564e-11
7.75232e-13 5.31564e-11 59.5567

49.7792 -4.6254 1.00166e-11
-4.6254 49.2837 1.32897e-11
1.00166e-11 1.32897e-11 48.5166

59.8727 6.02568 1.83042e-12
6.02568 65.7588 1.09781e-11
1.83042e-12 1.09781e-11 63.5473

58.3273 -5.12731 -9.77211e-12
-5.12731 63.0527 2.46544e-11
-9.77211e-12 2.46544e-11 63.176

57.838 -3.82752 -2.03213e-11
-3.82752 63.5598 3.73664e-11
-2.03213e-11 3.73664e-11 63.6385

60.6821 6.36074 2.68679e-11
6.36074 67.2943 1.7143e-11
2.68679e-11 1.7143e-11 64.4569

55.791 2.21134 7.79983e-12
2.21134 47.5134 -6.73994e-12
7.79983e-12 -6.73994e-12 50.6636

43.672 -2.64061 8.29203e-12
-2.64061 40.5814 -6.04938e-11
8.29203e-12 -6.04938e-11 40.4332

63.8393 5.02758 4.21813e-11
5.02758 58.5834 -7.70606e-13
4.21813e-11 -7.70606e-13 62.1115

61.7167 -1.68362 2.88399e-12
-1.68362 55.1961 -1.29014e-11
2.88399e-12 -1.29014e-11 58.6658

44.4667 -2.05361 3.04405e-11
-2.05361 40.2644 -2.7548e-11
3.04405e-11 -2.7548e-11 40.7404

56.4972 -4.08398 -3.33234e-11
-4.08398 54.0329 -1.23274e-11
-3.33234e-11 -1.23274e-11 55.4945

53.8554 0.0273436 -2.73499e-11
0.0273436 65.8056 1.07873e-11
-2.73499e-11 1.07873e-11 60.7843

56.4281 0.633533 1.52171e-11
0.633533 62.4893 1.44428e-11
1.52171e-11 1.44428e-11 60.4651

50.3957 5.23562 2.02352e-11
5.23562 50.5672 4.39131e-11
2.02352e-11 4.39131e-11 49.895

47.2628 -3.03531 -9.72274e-12
-3.03531 42.1027 2.92798e-11
-9.72274e-12 2.92798e-11 43.4645

60.7754 5.57724 -6.54943e-12
5.57724 62.4769 -4.96919e-11
-6.54943e-12 -4.96919e-11 63.5442

60.5634 -5.34381 -3.4476e-11
-5.34381 64.2358 6.5495e-12
-3.4476e-11 6.5495e-12 63.3371

49.6502 -3.94914 2.20626e-11
-3.94914 52.909 -1.07894e-11
2.20626e-11 -1.07894e-11 50.2032

50.1971 -4.35389 2.15691e-11
-4.35389 52.4999 9.43764e-12
2.15691e-11 9.43764e-12 49.8708

62.0439 4.06366 2.61985e-11
4.06366 56.0997 6.16177e-12
2.61985e-11 6.16177e-12 59.1507

69.6122 2.49968 3.77552e-11
2.49968 56.947 3.42767e-11
3.77552e-11 3.42767e-11 65.964

69.4646 -1.70415 1.23266e-11
-1.70415 55.5614 7.69125e-13
1.23266e-11 7.69125e-13 65.7018

49.1212 3.23086 -2.98417e-12
3.23086 56.0652 2.87002e-11
-2.98417e-12 2.87002e-11 51.3967

57.7317 4.96725 2.71539e-11
4.96725 56.7741 -6.00925e-11
2.71539e-11 -6.00925e-11 57.1347

40.7892 0.467184 -2.88854e-12
0.467184 50.7822 -2.42778e-11
-2.88854e-12 -2.42778e-11 44.8781

41.9118 0.259738 -4.58504e-11
0.259738 50.3919 -1.42538e-11
-4.58504e-11 -1.42538e-11 44.7949

50.2925 0.212382 -4.91414e-12
0.212382 40.9145 4.23202e-12
-4.91414e-12 4.23202e-12 44.2269

51.4455 -3.73317 -1.5506e-11
-3.73317 48.8359 -3.65983e-11
-1.5506e-11 -3.65983e-11 49.667

74.5443 -2.56172 1.20163e-10
-2.56172 79.2876 1.1157e-11
1.20163e-10 1.1157e-11 75.1513

88.2557 1.31905 -8.45312e-11
1.31905 88.2995 -2.42609e-11
-8.45312e-11 -2.42609e-11 79.2911

53.429 4.48028 3.65463e-12
4.48028 47.6809 1.00242e-11
3.65463e-12 1.00242e-11 49.82

56.2102 -1.86539 -3.25572e-11
-1.86539 47.7614 -1.04037e-11
-3.25572e-11 -1.04037e-11 51.1768

44.5274 3.14611 -9.05809e-12
3.14611 39.871 -1.69547e-11
-9.05809e-12 -1.69547e-11 41.0267

54.8135 -3.26563 -2.88728e-12
-3.26563 61.4745 -3.92932e-11
-2.88728e-12 -3.92932e-11 59.8274

57.4747 5.91383 5.01703e-11
5.91383 63.4829 -1.90645e-11
5.01703e-11 -1.90645e-11 60.3227

66.3408 -0.0867951 -2.27777e-11
-0.0867951 54.9037 1.11711e-11
-2.27777e-11 1.11711e-11 60.7354

47.1662 2.97646 6.35401e-12
2.97646 55.7 1.61851e-11
6.35401e-12 1.61851e-11 51.1876

58.1696 -3.95472 -4.72807e-11
-3.95472 68.4198 2.15727e-11
-4.72807e-11 2.15727e-11 65.7921

62.0514 5.54942 8.37819e-12
5.54942 68.3775 5.58564e-12
8.37819e-12 5.58564e-12 66.2236

46.6619 3.48634 -2.8026e-11
3.48634 48.7579 1.90702e-11
-2.8026e-11 1.90702e-11 45.6577

48.0272 3.6761 1.82935e-11
3.6761 47.3865 1.09803e-11
1.82935e-11 1.09803e-11 45.3324

44.8976 2.82391 -3.12036e-11
2.82391 40.2268 1.8881e-11
-3.12036e-11 1.8881e-11 41.297

60.4827 6.10518 -4.9553e-14
6.10518 68.1333 -7.12617e-12
-4.9553e-14 -7.12617e-12 64.7412

57.8411 -4.4133 2.7918e-12
-4.4133 62.2957 2.73493e-11
2.7918e-12 2.73493e-11 63.5983

70.1003 0.177498 -1.39165e-11
0.177498 56.6657 -2.69587e-12
-1.39165e-11 -2.69587e-12 64.4281

59.7317 4.17021 2.5027e-12
4.17021 62.5785 5.39527e-12
2.5027e-12 5.39527e-12 63.9814

60.8965 -5.1994 -7.31722e-12
-5.1994 66.909 -1.02078e-11
-7.31722e-12 -1.02078e-11 64.6602

58.1389 5.04803 2.19552e-11
5.04803 59.1039 1.61838e-11
2.19552e-11 1.61838e-11 59.6679

45.4088 -1.09364 -2.88904e-11
-1.09364 53.315 -3.42945e-11
-2.88904e-11 -3.42945e-11 47.931

46.8223 -1.44857 2.50266e-12
-1.44857 53.1301 -2.92846e-11
2.50266e-12 -2.92846e-11 47.9651

52.2386 -0.889978 -2.58148e-11
-0.889978 45.6893 -2.311e-12
-2.58148e-11 -2.311e-12 47.1882

52.4581 -3.08402 8.0939e-12
-3.08402 52.4045 -3.08598e-12
8.0939e-12 -3.08598e-12 51.6588

55.3308 0.537367 1.90719e-11
0.537367 60.659 -7.73603e-13
1.90719e-11 -7.73603e-13 56.7323

52.1984 0.177407 -1.05926e-11
0.177407 61.6497 3.31381e-11
-1.05926e-11 3.31381e-11 56.516

43.6241 -3.45118 1.61834e-11
-3.45118 47.101 9.05217e-12
1.61834e-11 9.05217e-12 43.5857

43.2976 -3.28469 3.65972e-11
-3.28469 46.1245 7.69784e-12
3.65972e-11 7.69784e-12 43.4376

70.6515 -0.194736 -8.28258e-12
-0.194736 57.4251 -1.63696e-11
-8.28258e-12 -1.63696e-11 64.7533

70.0492 0.21696 -2.04892e-11
0.21696 57.6595 -7.70345e-12
-2.04892e-11 -7.70345e-12 64.6562

56.8382 -4.07881 5.61491e-11
-4.07881 60.8026 -2.19631e-11
5.61491e-11 -2.19631e-11 60.6282

58.1518 5.3584 1.94547e-11
5.3584 64.284 2.3694e-11
1.94547e-11 2.3694e-11 61.1308

58.1456 3.45604 -5.9757e-12
3.45604 67.8301 -1.65653e-11
-5.9757e-12 -1.65653e-11 65.5513

61.8878 -5.07644 1.36746e-11
-5.07644 67.7756 4.04402e-12
1.36746e-11 4.04402e-12 66.0001

60.9399 -4.06602 1.71416e-11
-4.06602 60.2901 -7.51084e-12
1.71416e-11 -7.51084e-12 61.5902

47.4208 -2.13584 -3.37022e-11
-2.13584 56.3663 -3.73711e-11
-3.37022e-11 -3.73711e-11 51.5012

67.7189 0.643384 2.64824e-11
0.643384 65.5729 -1.06108e-12
2.64824e-11 -1.06108e-12 67.1245

66.7904 -2.03483 -3.19736e-11
-2.03483 64.6526 -2.01757e-12
-3.19736e-11 -2.01757e-12 66.869

58.5889 -3.14078 2.79517e-12
-3.14078 56.1974 -2.58097e-11
2.79517e-12 -2.58097e-11 57.3288

63.7472 -2.66676 1.86893e-11
-2.66676 60.2122 -2.81194e-11
1.86893e-11 -2.81194e-11 62.4305

64.4055 2.24746 -1.42086e-11
2.24746 61.8438 -1.04009e-11
-1.42086e-11 -1.04009e-11 62.7185

28.8296 -1.22885 3.06348e-11
-1.22885 24.421 -1.27159e-11
3.06348e-11 -1.27159e-11 30.4872

50.4783 5.29631 -1.17511e-11
5.29631 52.5712 2.42724e-11
-1.17511e-11 2.42724e-11 50.0811

26.1421 2.53658 -3.91098e-11
2.53658 29.5476 1.34847e-11
-3.91098e-11 1.34847e-11 30.8512

49.1558 -2.84739 -1.50271e-11
-2.84739 55.9856 1.73383e-11
-1.50271e-11 1.73383e-11 51.5353

72.7323 -2.78751 -2.11839e-11
-2.78751 75.912 4.81469e-11
-2.11839e-11 4.81469e-11 73.2501

74.4676 1.11825 5.40482e-12
1.11825 73.259 -2.12201e-12
5.40482e-12 -2.12201e-12 73.031

59.0594 3.44615 -6.26388e-12
3.44615 57.6407 -1.73409e-12
-6.26388e-12 -1.73409e-12 57.475

60.1157 -0.187269 7.56062e-12
-0.187269 50.6401 2.3112e-11
7.56062e-12 2.3112e-11 54.4772

52.0606 4.29646 1.15323e-12
4.29646 48.7654 -3.08464e-12
1.15323e-12 -3.08464e-12 49.3567

55.2302 2.08006 -2.12097e-12
2.08006 65.6741 -3.54417e-11
-2.12097e-12 -3.54417e-11 61.3889

57.5535 -2.87044 1.30976e-11
-2.87044 63.293 -4.62349e-12
1.30976e-11 -4.62349e-12 61.1521

67.4596 4.7603 1.96439e-11
4.7603 70.0632 -3.56289e-12
1.96439e-11 -3.56289e-12 68.7386

67.2539 -2.63575 -1.93327e-13
-2.63575 71.0384 1.48277e-11
-1.93327e-13 1.48277e-11 68.9603

59.9412 6.48202 -5.19969e-12
6.48202 67.1483 1.92583e-12
-5.19969e-12 1.92583e-12 64.3064

54.8478 -6.14356 -3.47015e-12
-6.14356 63.394 4.81534e-11
-3.47015e-12 4.81534e-11 63.1512

52.9663 3.36127 1.34444e-12
3.36127 60.3664 3.23577e-11
1.34444e-12 3.23577e-11 57.389

51.4456 1.70423 2.16715e-11
1.70423 58.8778 -2.23442e-11
2.16715e-11 -2.23442e-11 54.7001

59.0717 -3.77186 1.57026e-11
-3.77186 58.4618 -4.08322e-11
1.57026e-11 -4.08322e-11 59.8613

59.3835 3.99034 -1.06912e-11
3.99034 59.7671 -1.3289e-11
-1.06912e-11 -1.3289e-11 59.9491

53.5485 4.06838 1.13623e-11
4.06838 53.8611 -2.88917e-11
1.13623e-11 -2.88917e-11 51.997

54.1489 -3.98815 -5.00766e-12
-3.98815 60.3959 -1.73432e-12
-5.00766e-12 -1.73432e-12 57.3963

49.8415 -0.708146 1.84903e-11
-0.708146 60.2648 4.81594e-11
1.84903e-11 4.81594e-11 54.9781

35.6172 2.87397 1.34886e-11
2.87397 37.6133 4.83567e-11
1.34886e-11 4.83567e-11 35.3671

37.3126 2.97425 4.20074e-11
2.97425 35.7736 -5.77412e-12
4.20074e-11 -5.77412e-12 35.3675

45.8801 -3.4488 1.05946e-11
-3.4488 47.0282 -6.35891e-12
1.05946e-11 -6.35891e-12 44.5938

62.3032 -1.29248 3.55411e-11
-1.29248 52.8782 1.5794e-11
3.55411e-11 1.5794e-11 57.8543

79.2188 -4.32737 4.79869e-11
-4.32737 81.6885 -7.89497e-11
4.79869e-11 -7.89497e-11 76.659

82.8892 4.49247 -1.40801e-10
4.49247 76.3187 1.25155e-10
-1.40801e-10 1.25155e-10 76.3372

74.3672 4.39605 3.07935e-12
4.39605 74.4421 -1.07885e-11
3.07935e-12 -1.07885e-11 72.3981

72.119 -1.15165 -4.15989e-11
-1.15165 69.7009 2.56117e-11
-4.15989e-11 2.56117e-11 71.3019

62.6383 -0.0488551 -3.42843e-11
-0.0488551 53.9244 7.67627e-13
-3.42843e-11 7.67627e-13 59.8218

59.9956 -5.76004 -1.17471e-11
-5.76004 66.2471 -3.46512e-12
-1.17471e-11 -3.46512e-12 64.1504

55.96 6.01724 2.23397e-11
6.01724 63.2641 -2.23409e-11
2.23397e-11 -2.23409e-11 63.2182

37.3535 -2.80192 -9.82014e-12
-2.80192 38.6933 -4.18067e-11
-9.82014e-12 -4.18067e-11 36.8263

37.6803 3.61441 3.85033e-12
3.61441 37.7452 -2.90064e-13
3.85033e-12 -2.90064e-13 36.9637

37.5139 -1.30541 -1.86873e-11
-1.30541 43.3672 5.24052e-11
-1.86873e-11 5.24052e-11 39.3427

39.2926 -1.60619 -1.27152e-11
-1.60619 44.1507 6.10655e-11
-1.27152e-11 6.10655e-11 40.016

43.7494 -1.1233 3.56425e-11
-1.1233 37.8826 -2.05229e-11
3.56425e-11 -2.05229e-11 39.3403

46.5528 4.25245 -6.36084e-12
4.25245 45.736 -1.54027e-11
-6.36084e-12 -1.54027e-11 44.9591

34.0012 1.2672 1.59881e-11
1.2672 41.18 1.84966e-11
1.59881e-11 1.84966e-11 36.9075

40.77 0.279129 -1.7912e-11
0.279129 34.2529 3.66022e-12
-1.7912e-11 3.66022e-12 36.8678

70.3389 -0.503263 -6.54847e-12
-0.503263 77.1301 8.08849e-12
-6.54847e-12 8.08849e-12 71.9323

69.9565 -1.84901 -2.56129e-11
-1.84901 72.37 -1.39616e-11
-2.56129e-11 -1.39616e-11 71.035

66.0759 -1.43882 -2.44604e-11
-1.43882 59.9622 -1.54036e-11
-2.44604e-11 -1.54036e-11 63.6722

66.2781 0.636585 1.541e-11
0.636585 51.8027 7.71134e-13
1.541e-11 7.71134e-13 63.0838

44.5614 -2.80433 3.5637e-11
-2.80433 50.3343 -3.75661e-11
3.5637e-11 -3.75661e-11 46.1342

44.3506 -2.01914 2.7921e-11
-2.01914 50.3938 -5.01421e-12
2.7921e-11 -5.01421e-12 46.4542

63.5104 1.34401 -3.02443e-11
1.34401 54.5433 -2.69616e-12
-3.02443e-11 -2.69616e-12 60.3017

70.9678 -1.33564 -2.23183e-11
-1.33564 71.8138 -1.00182e-11
-2.23183e-11 -1.00182e-11 71.2463

72.7418 -0.0173429 -4.82435e-11
-0.0173429 70.5006 7.89842e-12
-4.82435e-11 7.89842e-12 71.2785

63.3682 -2.83715 5.31593e-11
-2.83715 62.277 1.63709e-11
5.31593e-11 1.63709e-11 63.0992

58.839 4.69911 1.67581e-11
4.69911 60.6828 7.74233e-13
1.67581e-11 7.74233e-13 60.9245

57.851 -4.9419 -6.93401e-12
-4.9419 63.1491 -5.00629e-12
-6.93401e-12 -5.00629e-12 60.6955

64.7461 -1.27965 -2.87007e-11
-1.27965 55.3082 1.50216e-11
-2.87007e-11 1.50216e-11 61.7101

55.8988 3.94573 -1.92594e-11
3.94573 61.2856 1.11685e-11
-1.92594e-11 1.11685e-11 60.0395

57.6218 -5.236 -1.2329e-11
-5.236 62.5655 2.48493e-11
-1.2329e-11 2.48493e-11 60.2687

29.2648 -5.85941 -1.63781e-11
-5.85941 29.6937 1.75366e-11
-1.63781e-11 1.75366e-11 29.991

49.8758 1.25344 3.27333e-12
1.25344 60.0374 1.88825e-11
3.27333e-12 1.88825e-11 54.7763

51.9037 -1.13766 2.5037e-12
-1.13766 58.4769 5.7702e-13
2.5037e-12 5.7702e-13 54.7125

69.524 0.616484 -3.54316e-11
0.616484 80.0632 -4.23723e-11
-3.54316e-11 -4.23723e-11 72.5519

70.4135 -0.0694747 1.32881e-11
-0.0694747 72.1123 1.58888e-11
1.32881e-11 1.58888e-11 71.3497

70.6253 -0.240956 3.17727e-12
-0.240956 60.0522 -3.42807e-11
3.17727e-12 -3.42807e-11 66.527

71.6175 0.387081 1.37254e-11
0.387081 59.5072 9.04891e-12
1.37254e-11 9.04891e-12 66.6187

67.521 5.64223 9.43734e-12
5.64223 64.686 3.46848e-12
9.43734e-12 3.46848e-12 66.6167

65.6363 -3.21708 3.58247e-11
-3.21708 63.3666 1.71403e-11
3.58247e-11 1.71403e-11 65.7978

75.2608 2.06524 2.27245e-11
2.06524 72.3309 3.13885e-11
2.27245e-11 3.13885e-11 71.7974

72.5335 -1.1273 -4.39111e-11
-1.1273 72.228 2.81173e-11
-4.39111e-11 2.81173e-11 71.4403

77.548 2.35119 -2.10848e-11
2.35119 75.2514 6.70157e-11
-2.10848e-11 6.70157e-11 74.7415

78.056 -6.66231 4.79812e-11
-6.66231 80.9971 -7.24129e-11
4.79812e-11 -7.24129e-11 75.9814

62.6956 5.87332 2.38362e-11
5.87332 68.7404 2.65803e-11
2.38362e-11 2.65803e-11 66.5875

59.6416 -7.26198 -3.17306e-11
-7.26198 64.4976 -1.11681e-11
-3.17306e-11 -1.11681e-11 65.5879

58.3048 3.14431 1.25229e-11
3.14431 53.8494 -4.8167e-12
1.25229e-11 -4.8167e-12 55.9003

53.7232 2.49897 8.47978e-12
2.49897 61.8258 3.85229e-11
8.47978e-12 3.85229e-11 58.1156

54.7985 -4.06959 -2.6773e-11
-4.06959 54.6739 -3.92943e-11
-2.6773e-11 -3.92943e-11 55.0046

56.6041 -3.12511 -1.0783e-11
-3.12511 61.5913 -2.83158e-11
-1.0783e-11 -2.83158e-11 58.4486

57.9585 -2.92703 -1.79177e-11
-2.92703 53.4029 -8.86173e-12
-1.79177e-11 -8.86173e-12 55.9282

56.4345 3.479 -3.51058e-11
3.479 61.8361 -5.81695e-11
-3.51058e-11 -5.81695e-11 58.3466

55.6671 4.94304 4.52646e-11
4.94304 55.9144 2.71611e-11
4.52646e-11 2.71611e-11 55.1582

62.3505 6.52498 1.63699e-11
6.52498 65.1853 3.47007e-12
1.63699e-11 3.47007e-12 66.1043

63.3195 -4.85683 8.66858e-12
-4.85683 67.4201 -2.6003e-11
8.66858e-12 -2.6003e-11 66.5204

67.5715 2.9794 -1.42499e-11
2.9794 61.2809 3.81373e-11
-1.42499e-11 3.81373e-11 64.7107

88.0216 2.19926 7.56926e-11
2.19926 86.7755 1.00901e-10
7.56926e-11 1.00901e-10 78.863

74.7065 2.10236 8.85965e-12
2.10236 76.2418 1.34836e-11
8.85965e-12 1.34836e-11 74.5227

62.0218 -3.01159 4.25691e-11
-3.01159 57.6721 -1.25158e-11
4.25691e-11 -1.25158e-11 61.0094

72.4798 0.195104 1.57959e-11
0.195104 64.2113 -3.25466e-11
1.57959e-11 -3.25466e-11 69.1098

36.166 -2.55786 1.29028e-11
-2.55786 38.1462 -1.7728e-11
1.29028e-11 -1.7728e-11 35.9929

38.1584 -2.10516 7.89827e-12
-2.10516 36.019 -8.38233e-12
7.89827e-12 -8.38233e-12 36.018

70.8271 0.235053 -5.70623e-12
0.235053 62.5748 -4.46799e-11
-5.70623e-12 -4.46799e-11 67.7087

72.3593 -0.348567 6.14105e-12
-0.348567 61.9721 1.42492e-11
6.14105e-12 1.42492e-11 67.8508

73.0626 0.606964 4.00588e-11
0.606964 67.8365 -2.08039e-11
4.00588e-11 -2.08039e-11 69.7498

53.7189 -1.83288 2.55166e-11
-1.83288 62.1127 4.81542e-11
2.55166e-11 4.81542e-11 58.2344

57.0322 2.43984 2.34562e-11
2.43984 51.7255 4.23743e-12
2.34562e-11 4.23743e-12 52.6023

63.6914 -3.8023 -7.90582e-12
-3.8023 63.8324 -1.19488e-11
-7.90582e-12 -1.19488e-11 65.093

64.4527 3.14675 4.95926e-11
3.14675 66.7706 1.17474e-11
4.95926e-11 1.17474e-11 65.5866

85.4251 0.379194 3.31155e-11
0.379194 89.1808 9.67313e-11
3.31155e-11 9.67313e-11 78.8555

81.394 3.58152 7.39493e-11
3.58152 73.3322 -6.49805e-12
7.39493e-11 -6.49805e-12 75.344

60.7423 -2.38495 -2.50155e-12
-2.38495 55.9376 -4.43038e-12
-2.50155e-12 -4.43038e-12 58.2786

70.2493 -0.10297 2.19202e-12
-0.10297 65.3571 -1.46391e-11
2.19202e-12 -1.46391e-11 67.8136

69.2936 -0.843946 -2.1579e-12
-0.843946 66.0777 3.19719e-11
-2.1579e-12 3.19719e-11 67.8423

61.3499 -4.313 -2.15707e-11
-4.313 65.5781 -1.75271e-11
-2.15707e-11 -1.75271e-11 63.6401

58.7743 2.23466 6.06663e-11
2.23466 65.4958 2.54231e-11
6.06663e-11 2.54231e-11 63.3704

58.1314 4.1299 -2.25351e-11
4.1299 62.917 -1.84898e-11
-2.25351e-11 -1.84898e-11 63.434

60.2756 -5.84479 7.89698e-12
-5.84479 66.3173 -2.88873e-12
7.89698e-12 -2.88873e-12 64.1212

31.0958 7.47931 5.39376e-12
7.47931 30.4041 -8.86354e-12
5.39376e-12 -8.86354e-12 30.7509

65.4864 4.28578 3.85186e-11
4.28578 69.3481 1.214e-11
3.85186e-11 1.214e-11 68.1894

65.5942 -3.28367 5.29594e-11
-3.28367 69.7885 -8.28491e-12
5.29594e-11 -8.28491e-12 68.2718

56.8086 3.91441 -1.40558e-11
3.91441 63.7464 2.11854e-11
-1.40558e-11 2.11854e-11 62.3058

58.538 -4.93831 -1.35072e-12
-4.93831 64.5404 1.75271e-11
-1.35072e-12 1.75271e-11 62.4431

57.3443 -2.32671 -2.41736e-11
-2.32671 51.2788 -3.73682e-11
-2.41736e-11 -3.73682e-11 53.0417

64.6905 4.23271 2.06137e-11
4.23271 62.0467 3.42811e-11
2.06137e-11 3.42811e-11 63.6676

68.3844 4.53505 -2.31128e-11
4.53505 65.1146 -3.42828e-11
-2.31128e-11 -3.42828e-11 67.0934

66.284 -3.00126 4.06336e-11
-3.00126 66.2129 3.58235e-11
4.06336e-11 3.58235e-11 66.7776

66.0844 2.8495 -2.59973e-11
2.8495 55.9651 2.77388e-11
-2.59973e-11 2.77388e-11 62.599

72.291 0.553133 -2.91746e-11
0.553133 69.0323 1.38665e-11
-2.91746e-11 1.38665e-11 70.4926

73.4942 -0.808369 -1.85979e-11
-0.808369 67.2232 -3.40853e-11
-1.85979e-11 -3.40853e-11 70.3182

74.3311 0.961032 -1.32885e-11
0.961032 80.3452 1.32895e-11
-1.32885e-11 1.32895e-11 74.9297

76.1911 -1.51682 -5.96618e-12
-1.51682 86.3813 -1.15506e-11
-5.96618e-12 -1.15506e-11 76.1442

30.8295 -0.702286 2.56313e-11
-0.702286 26.4104 3.60301e-11
2.56313e-11 3.60301e-11 31.0899

24.7736 -0.146991 3.25597e-11
-0.146991 30.6907 1.81093e-11
3.25597e-11 1.81093e-11 30.8247

61.9275 4.89438 -3.71681e-11
4.89438 67.7294 1.65626e-11
-3.71681e-11 1.65626e-11 64.8891

60.7862 -4.21429 -1.54166e-12
-4.21429 63.4945 -3.86598e-13
-1.54166e-12 -3.86598e-13 64.2068

29.6927 2.63003 -1.29054e-11
2.63003 29.4349 -1.85019e-11
-1.29054e-11 -1.85019e-11 31.2499

30.1878 3.40009 2.0996e-11
3.40009 28.8195 6.93653e-12
2.0996e-11 6.93653e-12 31.2098

69.0318 -5.38675 -8.38751e-12
-5.38675 86.1266 -1.52142e-10
-8.38751e-12 -1.52142e-10 75.6667

75.1163 4.02025 -5.37568e-11
4.02025 83.3686 1.25949e-10
-5.37568e-11 1.25949e-10 76.3191

62.8024 5.14485 4.96933e-11
5.14485 60.54 -7.32096e-12
4.96933e-11 -7.32096e-12 62.4503

60.9544 4.68872 5.15351e-12
4.68872 64.4066 1.92524e-12
5.15351e-12 1.92524e-12 63.377

60.5704 -4.69452 -3.9201e-11
-4.69452 62.3876 -4.16011e-11
-3.9201e-11 -4.16011e-11 63.2211

55.9965 4.73435 9.24594e-12
4.73435 58.4622 1.40607e-11
9.24594e-12 1.40607e-11 56.5937

55.268 -3.77815 1.86814e-11
-3.77815 57.4819 6.20215e-11
1.86814e-11 6.20215e-11 56.5635

38.1604 -0.599238 -1.86906e-11
-0.599238 44.0444 3.93006e-11
-1.86906e-11 3.93006e-11 39.9366

39.1928 -1.21574 -3.314e-11
-1.21574 44.241 3.2174e-11
-3.314e-11 3.2174e-11 40.0872

44.2217 -0.514921 4.66206e-11
-0.514921 38.6669 1.15569e-11
4.66206e-11 1.15569e-11 39.7999

57.3068 5.45728 7.41681e-12
5.45728 61.5638 1.7355e-12
7.41681e-12 1.7355e-12 59.4299

56.2879 -4.23146 5.72073e-11
-4.23146 59.6765 -3.8601e-12
5.72073e-11 -3.8601e-12 59.2111

35.1717 0.846419 -3.85288e-12
0.846419 40.995 1.86888e-11
-3.85288e-12 1.86888e-11 36.9463

40.7977 1.30699 2.43753e-11
1.30699 35.252 3.33301e-11
2.43753e-11 3.33301e-11 36.9234

63.5854 -5.40822 -4.23579e-11
-5.40822 64.9621 2.32277e-12
-4.23579e-11 2.32277e-12 66.3731

64.0942 4.45484 -1.81003e-11
4.45484 68.2797 3.75579e-11
-1.81003e-11 3.75579e-11 66.8137

64.5643 -4.78429 -3.03352e-11
-4.78429 67.7318 6.16666e-12
-3.03352e-11 6.16666e-12 67.3367

64.917 3.5578 5.48946e-12
3.5578 68.8157 -5.77582e-12
5.48946e-12 -5.77582e-12 67.3964

28.3777 -2.22219 -1.2718e-11
-2.22219 28.8625 5.00999e-12
-1.2718e-11 5.00999e-12 30.3971

28.4041 -2.23505 2.47637e-11
-2.23505 28.8876 1.04113e-11
2.47637e-11 1.04113e-11 30.5152

60.2656 4.31454 -6.64261e-12
4.31454 63.2945 1.1171e-11
-6.64261e-12 1.1171e-11 61.4903

59.6782 -3.95219 -2.88784e-12
-3.95219 60.5774 -1.65594e-11
-2.88784e-12 -1.65594e-11 61.1476

73.1187 1.12909 7.70661e-12
1.12909 78.154 3.33183e-11
7.70661e-12 3.33183e-11 73.1811

71.8083 -0.638738 7.68533e-13
-0.638738 72.7789 4.63184e-11
7.68533e-13 4.63184e-11 72.1059

62.3697 -4.96242 3.17886e-12
-4.96242 69.061 3.85343e-12
3.17886e-12 3.85343e-12 67.6875

64.232 4.66257 1.45441e-11
4.66257 71.1126 3.79425e-11
1.45441e-11 3.79425e-11 68.1517

69.7419 -1.03815 -5.70085e-12
-1.03815 66.7901 5.39261e-11
-5.70085e-12 5.39261e-11 69.4689

71.518 0.100433 -9.36759e-11
0.100433 65.9635 -5.58451e-11
-9.36759e-11 -5.58451e-11 69.5993

62.4634 4.59427 1.14871e-12
4.59427 63.3761 -5.73934e-11
1.14871e-12 -5.73934e-11 64.311

62.3325 -4.51159 -3.85543e-12
-4.51159 65.0454 2.36883e-11
-3.85543e-12 2.36883e-11 64.208

76.3602 1.3903 2.57808e-11
1.3903 71.4041 -4.45511e-11
2.57808e-11 -4.45511e-11 72.9191

76.8158 0.413201 -7.72328e-11
0.413201 74.31 9.20513e-11
-7.72328e-11 9.20513e-11 74.3745

73.9793 -1.24999 -5.41463e-12
-1.24999 72.7742 1.22579e-11
-5.41463e-12 1.22579e-11 72.7642

72.2133 -0.163464 9.02078e-11
-0.163464 77.707 1.0284e-10
9.02078e-11 1.0284e-10 74.1625

72.1786 0.805348 4.82273e-12
0.805348 82.7577 1.84882e-11
4.82273e-12 1.84882e-11 74.1561

79.6976 4.55665 1.69454e-11
4.55665 76.3542 4.85341e-11
1.69454e-11 4.85341e-11 74.3444

75.5315 -1.78256 4.35257e-11
-1.78256 73.1079 -8.16519e-11
4.35257e-11 -8.16519e-11 73.198

71.1571 -1.07279 -1.46331e-11
-1.07279 77.4734 3.13924e-11
-1.46331e-11 3.13924e-11 73.1452

73.1722 2.66714 2.92621e-11
2.66714 76.2975 1.18836e-10
2.92621e-11 1.18836e-10 73.7453

94.401 2.71028 -3.71157e-10
2.71028 72.3876 4.75081e-11
-3.71157e-10 4.75081e-11 78.0881

92.1727 -1.78362 2.9754e-10
-1.78362 90.8987 4.85202e-10
2.9754e-10 4.85202e-10 81.2423

76.6042 -6.13262 1.09845e-10
-6.13262 81.8574 8.04995e-12
1.09845e-10 8.04995e-12 75.544

74.8599 3.45918 -3.90263e-11
3.45918 74.6212 -5.06488e-11
-3.90263e-11 -5.06488e-11 73.369

69.7025 2.51303 2.60944e-11
2.51303 73.6023 1.59858e-11
2.60944e-11 1.59858e-11 71.0753

76.7564 0.738237 1.69028e-11
0.738237 75.6374 -7.395e-11
1.69028e-11 -7.395e-11 74.873

77.127 -5.72287 -8.67454e-13
-5.72287 75.1911 6.62434e-11
-8.67454e-13 6.62434e-11 73.9935

78.7378 -6.57449 -1.66569e-11
-6.57449 84.4478 8.85877e-12
-1.66569e-11 8.85877e-12 76.9709

69.8291 -3.21249 -1.93057e-11
-3.21249 71.7589 2.34986e-11
-1.93057e-11 2.34986e-11 70.9033

70.8918 -5.36089 2.80209e-11
-5.36089 74.0617 5.004e-12
2.80209e-11 5.004e-12 71.8814

72.5429 -3.56547 -8.30442e-11
-3.56547 75.934 -4.31346e-11
-8.30442e-11 -4.31346e-11 73.3685

69.5196 2.24726 5.26263e-11
2.24726 72.7423 7.68439e-11
5.26263e-11 7.68439e-11 71.2508

74.7224 1.34497 1.46498e-11
1.34497 74.4723 7.20203e-11
1.46498e-11 7.20203e-11 73.4832

52.7951 3.8239 1.69555e-11
3.8239 56.3961 -1.63839e-12
1.69555e-11 -1.63839e-12 54.0068

61.1249 1.91847 -2.2148e-11
1.91847 66.1515 2.77354e-11
-2.2148e-11 2.77354e-11 63.611

59.7587 1.64253 3.54336e-11
1.64253 65.4464 -5.39361e-12
3.54336e-11 -5.39361e-12 63.3754

61.0921 2.17109 -5.00819e-11
2.17109 51.8711 1.84659e-11
-5.00819e-11 1.84659e-11 57.0683

58.2685 0.736045 -2.15756e-11
0.736045 49.1723 2.11099e-11
-2.15756e-11 2.11099e-11 53.4868

62.3186 1.17624 -2.06118e-11
1.17624 68.3884 -6.54906e-12
-2.06118e-11 -6.54906e-12 66.6378

60.9155 2.70938 -1.42539e-11
2.70938 69.1346 -1.07835e-11
-1.42539e-11 -1.07835e-11 66.686

59.0868 -0.864401 -1.04044e-11
-0.864401 50.067 -1.05584e-11
-1.04044e-11 -1.05584e-11 54.0692

66.1519 -1.73603 -1.89767e-11
-1.73603 58.1413 2.69624e-11
-1.89767e-11 2.69624e-11 63.946

42.6883 3.48195 -2.38846e-11
3.48195 46.3004 -1.38242e-11
-2.38846e-11 -1.38242e-11 43.4737

42.0614 -3.47896 -2.58143e-11
-3.47896 45.4976 -4.30619e-13
-2.58143e-11 -4.30619e-13 42.734

47.0241 -3.18976 -1.36793e-11
-3.18976 41.1664 1.72201e-11
-1.36793e-11 1.72201e-11 42.7394

65.8105 -3.27785 3.38917e-11
-3.27785 69.9507 2.25358e-11
3.38917e-11 2.25358e-11 68.5748

67.7508 -2.26726 -7.31707e-12
-2.26726 70.2258 -1.56953e-11
-7.31707e-12 -1.56953e-11 68.8039

53.898 3.25778 9.23543e-12
3.25778 58.7464 6.83638e-12
9.23543e-12 6.83638e-12 57.2226

57.2399 3.92095 5.78732e-12
3.92095 63.5213 4.709e-11
5.78732e-12 4.709e-11 62.3782

60.937 -2.54069 3.6594e-11
-2.54069 69.0699 1.10736e-11
3.6594e-11 1.10736e-11 66.4946

61.7101 -0.742798 -4.23735e-12
-0.742798 68.233 -2.31171e-12
-4.23735e-12 -2.31171e-12 66.3986

63.081 0.999383 -4.4978e-11
0.999383 52.5445 1.76097e-11
-4.4978e-11 1.76097e-11 57.9081

46.2349 1.25294 -2.15764e-11
1.25294 51.9955 -7.32229e-12
-2.15764e-11 -7.32229e-12 47.3411

46.0278 -1.02367 -7.72863e-13
-1.02367 51.6376 2.33095e-11
-7.72863e-13 2.33095e-11 47.1544

52.6284 -0.884191 5.58886e-12
-0.884191 44.8974 4.95047e-11
5.58886e-12 4.95047e-11 46.5059

52.7147 4.39446 5.43143e-11
4.39446 54.1163 -1.24267e-11
5.43143e-11 -1.24267e-11 53.3471

55.4012 -2.92165 3.04361e-11
-2.92165 46.9084 1.45638e-11
3.04361e-11 1.45638e-11 50.5336

58.183 4.65543 2.88924e-11
4.65543 55.9787 -7.17744e-12
2.88924e-11 -7.17744e-12 57.1009

52.5827 3.71057 1.30974e-11
3.71057 57.5582 3.65983e-11
1.30974e-11 3.65983e-11 54.1682

61.4662 -1.84243 2.31178e-12
-1.84243 51.9768 -1.40947e-11
2.31178e-12 -1.40947e-11 57.5956

40.5204 2.44864 2.31044e-11
2.44864 42.9918 4.02197e-11
2.31044e-11 4.02197e-11 39.5731

65.9425 2.28467 5.04634e-11
2.28467 56.5032 -5.53113e-12
5.04634e-11 -5.53113e-12 62.6775

43.3333 -2.11642 -1.15774e-12
-2.11642 39.0401 2.70706e-11
-1.15774e-12 2.70706e-11 39.0313

68.0286 -0.806026 -1.6178e-11
-0.806026 71.2197 -2.30882e-12
-1.6178e-11 -2.30882e-12 69.3378

67.9444 1.43029 -6.16131e-12
1.43029 71.3521 -6.35662e-12
-6.16131e-12 -6.35662e-12 69.3716

84.3275 -4.35541 2.30675e-12
-4.35541 76.7355 -1.09751e-11
2.30675e-12 -1.09751e-11 75.6874

84.2051 4.50652 -1.849e-11
4.50652 76.6158 -4.13073e-11
-1.849e-11 -4.13073e-11 75.6631

51.5834 -1.16294 -1.59914e-11
-1.16294 43.6531 1.81769e-11
-1.59914e-11 1.81769e-11 46.0201

58.7938 5.08775 5.77523e-12
5.08775 58.3741 -9.4376e-12
5.77523e-12 -9.4376e-12 59.6711

73.004 -2.63974 -2.31128e-11
-2.63974 67.9303 3.33158e-11
-2.31128e-11 3.33158e-11 69.5638

72.4852 2.63011 1.11728e-11
2.63011 67.4786 -1.14612e-11
1.11728e-11 -1.14612e-11 69.1436

65.9692 0.9159 -2.00317e-11
0.9159 56.8795 9.60541e-12
-2.00317e-11 9.60541e-12 63.806

51.6156 4.19264 1.5607e-11
4.19264 56.9254 4.9506e-11
1.5607e-11 4.9506e-11 53.4612

55.9859 -3.62757 1.3481e-11
-3.62757 49.8708 3.2744e-11
1.3481e-11 3.2744e-11 52.0629

64.97 -0.225509 -1.07874e-11
-0.225509 54.7551 1.44612e-11
-1.07874e-11 1.44612e-11 62.421

52.2325 -4.41035 1.69556e-11
-4.41035 53.9006 -9.24387e-12
1.69556e-11 -9.24387e-12 52.9943

52.8039 -3.61636 -2.11924e-11
-3.61636 56.4295 3.8578e-12
-2.11924e-11 3.8578e-12 54.0313

58.4787 4.12978 1.6952e-11
4.12978 65.1917 -3.08279e-12
1.6952e-11 -3.08279e-12 62.5601

51.8534 -5.04454 2.58133e-11
-5.04454 48.1723 2.47447e-11
2.58133e-11 2.47447e-11 49.0399

32.1847 -3.84633 -2.08083e-11
-3.84633 29.9994 -1.34632e-11
-2.08083e-11 -1.34632e-11 31.1939

31.8943 5.34309 -1.38731e-11
5.34309 31.1661 -1.39948e-11
-1.38731e-11 -1.39948e-11 31.3625

59.5149 -4.93031 -5.16116e-11
-4.93031 67.4102 -1.86834e-11
-5.16116e-11 -1.86834e-11 65.89

32.5311 0.700978 -1.46451e-11
0.700978 30.1724 5.579e-11
-1.46451e-11 5.579e-11 32.2706

30.9199 -1.29139 -2.11965e-11
-1.29139 30.2215 1.9917e-11
-2.11965e-11 1.9917e-11 32.0731

68.6401 -1.156 4.19833e-11
-1.156 70.0499 -9.63193e-13
4.19833e-11 -9.63193e-13 69.4938

68.6956 1.20023 -1.77178e-11
1.20023 69.9761 1.97399e-11
-1.77178e-11 1.97399e-11 69.5026

67.1563 -0.0822083 4.44952e-11
-0.0822083 54.4692 5.59016e-13
4.44952e-11 5.59016e-13 60.8113

68.3198 -0.627549 6.93149e-12
-0.627549 67.8651 2.67204e-11
6.93149e-12 2.67204e-11 68.9677

68.3904 0.689796 -3.67875e-11
0.689796 67.8853 -6.44699e-11
-3.67875e-11 -6.44699e-11 68.9976

53.8966 3.84581 1.04033e-11
3.84581 60.7938 1.01095e-11
1.04033e-11 1.01095e-11 57.4561

79.0432 -4.07696 1.92588e-11
-4.07696 74.3991 -3.00423e-11
1.92588e-11 -3.00423e-11 73.6674

78.925 4.09612 -5.8159e-11
4.09612 74.3196 4.17852e-11
-5.8159e-11 4.17852e-11 73.6684

64.0096 -2.0447 3.42832e-11
-2.0447 63.5511 5.18079e-11
3.42832e-11 5.18079e-11 64.6497

64.0457 2.06232 1.50226e-11
2.06232 63.5543 5.58524e-12
1.50226e-11 5.58524e-12 64.6798

46.3104 -3.47674 1.46415e-11
-3.47674 40.0305 2.01554e-11
1.46415e-11 2.01554e-11 42.1073

69.3594 2.02128 3.5823e-11
2.02128 79.0757 4.62082e-12
3.5823e-11 4.62082e-12 72.9779

71.8137 -0.387876 -9.24457e-12
-0.387876 75.385 1.67535e-11
-9.24457e-12 1.67535e-11 72.5521

51.8392 -4.2378 4.0064e-11
-4.2378 57.1194 1.82938e-11
4.0064e-11 1.82938e-11 53.6525

37.498 -1.06618 5.27833e-11
-1.06618 40.8587 -2.05693e-11
5.27833e-11 -2.05693e-11 38.067

41.5978 -1.10102 1.84951e-11
-1.10102 35.7563 -2.78932e-12
1.84951e-11 -2.78932e-12 37.7606

56.7766 3.30259 1.54113e-11
3.30259 64.224 3.56219e-12
1.54113e-11 3.56219e-12 61.2461

56.2489 3.29408 -3.46684e-12
3.29408 62.7546 4.72341e-12
-3.46684e-12 4.72341e-12 61.131

81.5312 -3.28219 1.16898e-10
-3.28219 73.5652 2.11517e-10
1.16898e-10 2.11517e-10 75.5958

81.6769 3.03475 6.93279e-11
3.03475 74.4917 -5.22748e-11
6.93279e-11 -5.22748e-11 75.8558

58.2079 4.32248 -1.27111e-11
4.32248 62.8714 -5.78004e-12
-1.27111e-11 -5.78004e-12 63.6623

63.6085 1.31809 -1.57933e-11
1.31809 57.0987 3.02386e-11
-1.57933e-11 3.02386e-11 61.3068

63.51 -1.37059 2.75446e-11
-1.37059 56.8921 -3.88551e-11
2.75446e-11 -3.88551e-11 61.1295

60.7384 5.80026 1.38706e-11
5.80026 61.8942 1.4445e-11
1.38706e-11 1.4445e-11 63.4059

61.7858 -3.90712 -8.08777e-12
-3.90712 67.6855 -1.37703e-11
-8.08777e-12 -1.37703e-11 65.9968

50.7309 -0.0671047 7.70939e-13
-0.0671047 41.9484 -3.81639e-11
7.70939e-13 -3.81639e-11 45.2125

60.7079 0.0836894 -1.50247e-11
0.0836894 50.5785 2.43589e-11
-1.50247e-11 2.43589e-11 54.4725

55.239 2.60729 1.46385e-11
2.60729 46.8269 -9.19696e-12
1.46385e-11 -9.19696e-12 49.948

70.4244 4.33717 5.39147e-12
4.33717 62.81 -1.13155e-11
5.39147e-12 -1.13155e-11 67.1456

86.4029 -0.643997 -2.84984e-11
-0.643997 83.0871 -2.5072e-11
-2.84984e-11 -2.5072e-11 77.7067

86.3075 0.640392 -1.19401e-11
0.640392 83.4686 -3.11015e-11
-1.19401e-11 -3.11015e-11 77.7332

48.3449 3.78992 2.65809e-11
3.78992 47.9152 -1.18461e-11
2.65809e-11 -1.18461e-11 46.2733

57.7442 -4.82827 1.07877e-11
-4.82827 53.5937 3.10548e-11
1.07877e-11 3.10548e-11 55.929

63.6619 -1.19919 -2.88917e-12
-1.19919 55.5949 -2.6556e-11
-2.88917e-12 -2.6556e-11 58.9119

73.2418 4.66284 2.58078e-11
4.66284 81.5747 -1.5428e-12
2.58078e-11 -1.5428e-12 74.79

73.7982 -1.22532 1.57927e-11
-1.22532 75.3932 6.54365e-12
1.57927e-11 6.54365e-12 73.5849

71.1735 -4.24186 -1.15562e-11
-4.24186 63.9595 4.86363e-12
-1.15562e-11 4.86363e-12 67.8437

59.8162 -1.22808 5.62369e-11
-1.22808 65.6716 -6.45151e-12
5.62369e-11 -6.45151e-12 63.3139

60.6065 -1.28494 7.73483e-13
-1.28494 66.1027 7.31948e-12
7.73483e-13 7.31948e-12 63.4592

68.228 -0.338818 3.48635e-11
-0.338818 55.496 2.99225e-11
3.48635e-11 2.99225e-11 62.7866

68.4799 0.319031 2.23425e-11
0.319031 55.4921 -3.60616e-11
2.23425e-11 -3.60616e-11 62.9498

49.1894 3.2656 5.03796e-11
3.2656 47.1247 5.21596e-11
5.03796e-11 5.21596e-11 45.8242

69.26 -0.258434 -1.05937e-11
-0.258434 60.1771 2.57112e-11
-1.05937e-11 2.57112e-11 65.8199

69.2833 0.234356 -2.3063e-11
0.234356 60.2603 -1.88739e-11
-2.3063e-11 -1.88739e-11 65.8656

63.8551 1.19004 -3.23592e-11
1.19004 55.599 -9.40396e-13
-3.23592e-11 -9.40396e-13 59.0021

52.7653 -3.771 1.92598e-12
-3.771 57.8586 -6.54987e-12
1.92598e-12 -6.54987e-12 54.4118

69.1364 -0.125905 2.61953e-11
-0.125905 58.9116 -3.16814e-11
2.61953e-11 -3.16814e-11 63.9872

69.3865 0.15991 2.67747e-11
0.15991 58.9694 1.39607e-12
2.67747e-11 1.39607e-12 64.1741

63.1379 -2.89144 -8.47322e-12
-2.89144 55.5776 4.30497e-11
-8.47322e-12 4.30497e-11 59.6044

59.7329 5.32272 -7.31841e-12
5.32272 65.2049 -3.17946e-12
-7.31841e-12 -3.17946e-12 63.4565

55.192 4.05117 3.50554e-11
4.05117 51.1775 -4.72252e-12
3.50554e-11 -4.72252e-12 52.1671

59.7947 4.31928 -1.42527e-11
4.31928 62.37 1.36732e-11
-1.42527e-11 1.36732e-11 63.9921

60.4128 5.29628 1.17484e-11
5.29628 66.598 -1.26148e-11
1.17484e-11 -1.26148e-11 64.3385

56.1627 -2.05901 9.82399e-12
-2.05901 47.2699 2.85792e-11
9.82399e-12 2.85792e-11 50.7001

64.2932 -4.72991 8.95173e-12
-4.72991 58.4737 2.29164e-11
8.95173e-12 2.29164e-11 62.1819

62.3291 2.8875 -3.42831e-11
2.8875 55.1227 1.40103e-11
-3.42831e-11 1.40103e-11 58.6933

51.2103 4.7254 5.74088e-11
4.7254 49.7868 1.63204e-11
5.74088e-11 1.63204e-11 49.9106

57.2684 4.85357 2.69858e-12
4.85357 53.1344 -2.13817e-11
2.69858e-12 -2.13817e-11 55.4772

55.3363 0.444689 -3.08399e-12
0.444689 63.4605 -1.97176e-13
-3.08399e-12 -1.97176e-13 60.642

55.4998 0.157222 -9.6307e-12
0.157222 63.4577 1.29974e-11
-9.6307e-12 1.29974e-11 60.6666

47.6753 3.41489 2.77434e-11
3.41489 41.8503 3.54812e-11
2.77434e-11 3.54812e-11 43.4072

60.8602 -5.79473 3.46652e-12
-5.79473 62.0013 -2.64834e-11
3.46652e-12 -2.64834e-11 63.5585

50.5377 -4.61922 2.88944e-11
-4.61922 52.8277 1.69983e-11
2.88944e-11 1.69983e-11 50.2789

50.3564 4.67643 -1.07907e-11
4.67643 52.9549 -7.5558e-11
-1.07907e-11 -7.5558e-11 50.2022

62.3128 -3.48598 -1.23275e-11
-3.48598 55.2869 2.45578e-11
-1.23275e-11 2.45578e-11 59.0112

69.744 -2.30899 1.34781e-11
-2.30899 57.4211 2.67216e-11
1.34781e-11 2.67216e-11 66.0364

69.4544 2.32738 -2.50402e-11
2.32738 57.7335 -1.28568e-11
-2.50402e-11 -1.28568e-11 65.8862

48.5378 2.55839 -8.85893e-12
2.55839 54.2456 5.5859e-12
-8.85893e-12 5.5859e-12 51.0327

58.3419 -4.86425 5.39946e-12
-4.86425 55.9945 -7.89724e-12
5.39946e-12 -7.89724e-12 57.0794

41.9043 -0.198155 -6.1606e-12
-0.198155 49.8629 -1.30512e-11
-6.1606e-12 -1.30512e-11 44.8528

41.8496 0.0790053 -1.34841e-11
0.0790053 49.8501 1.33406e-11
-1.34841e-11 1.33406e-11 44.8143

50.8222 0.246034 3.10177e-11
0.246034 40.7985 -1.228e-12
3.10177e-11 -1.228e-12 44.2863

48.7527 -3.38782 -2.09998e-11
-3.38782 47.2008 -5.10244e-12
-2.09998e-11 -5.10244e-12 45.5899

51.8708 4.11845 -2.5232e-11
4.11845 48.9713 -2.17707e-11
-2.5232e-11 -2.17707e-11 49.6333

78.3051 -8.37903 -3.81303e-11
-8.37903 82.0416 5.58554e-11
-3.81303e-11 5.58554e-11 76.432

81.4302 3.62169 -5.85341e-11
3.62169 83.8115 4.46799e-11
-5.85341e-11 4.46799e-11 77.4756

56.4926 1.87603 -6.74113e-12
1.87603 47.5507 -1.95019e-11
-6.74113e-12 -1.95019e-11 51.0366

56.9949 5.12603 7.7048e-12
5.12603 63.0829 -1.66633e-11
7.7048e-12 -1.66633e-11 60.231

67.0918 0.0753003 3.42858e-11
0.0753003 54.3871 1.19404e-11
3.42858e-11 1.19404e-11 60.6824

48.6071 -2.4743 -1.53792e-12
-2.4743 54.5066 -3.16868e-11
-1.53792e-12 -3.16868e-11 51.2129

57.7588 5.10424 -1.92452e-12
5.10424 67.3716 -1.14616e-11
-1.92452e-12 -1.14616e-11 65.7002

62.1678 4.17952 2.23404e-11
4.17952 68.0636 2.24388e-11
2.23404e-11 2.24388e-11 66.2551

59.7863 -5.30995 -1.9245e-12
-5.30995 65.1982 -2.72539e-11
-1.9245e-12 -2.72539e-11 63.4854

60.2459 5.36544 -8.66622e-12
5.36544 67.164 -2.02272e-12
-8.66622e-12 -2.02272e-12 64.5593

56.2029 4.06813 4.43014e-11
4.06813 60.2373 8.18308e-12
4.43014e-11 8.18308e-12 59.958

70.9529 0.046008 -3.04335e-11
0.046008 55.6573 -1.18822e-11
-3.04335e-11 -1.18822e-11 64.19

51.8922 -4.06501 -1.11728e-11
-4.06501 48.6489 -1.98376e-11
-1.11728e-11 -1.98376e-11 49.332

59.8231 -4.33962 1.07859e-11
-4.33962 62.4266 2.66753e-11
1.07859e-11 2.66753e-11 64.0712

53.1971 -3.47729 3.85003e-12
-3.47729 53.5004 -5.69672e-11
3.85003e-12 -5.69672e-11 51.8658

46.8463 -3.37134 -2.54382e-11
-3.37134 46.9378 1.77208e-11
-2.54382e-11 1.77208e-11 45.1616

58.7441 -5.02118 2.96607e-11
-5.02118 58.6155 1.14586e-11
2.96607e-11 1.14586e-11 59.7937

46.8161 -2.05928 2.04197e-11
-2.05928 52.8467 2.08473e-11
2.04197e-11 2.08473e-11 48.102

46.7208 1.95353 -5.81646e-11
1.95353 52.8339 -1.79636e-11
-5.81646e-11 -1.79636e-11 48.0337

52.5099 1.17825 5.47102e-11
1.17825 45.7401 6.97079e-12
5.47102e-11 6.97079e-12 47.1591

53.1098 3.62609 -4.12255e-11
3.62609 53.4354 -3.03929e-11
-4.12255e-11 -3.03929e-11 51.8195

54.0855 0.641163 -1.46361e-11
0.641163 60.6335 -3.11082e-11
-1.46361e-11 -3.11082e-11 56.6766

54.0283 -0.137639 1.19468e-11
-0.137639 60.5518 9.72541e-12
1.19468e-11 9.72541e-12 56.6297

44.1024 -3.97048 3.66633e-12
-3.97048 46.122 -2.35053e-11
3.66633e-12 -2.35053e-11 43.6086

44.1713 3.97761 8.48321e-12
3.97761 45.9919 4.78229e-11
8.48321e-12 4.78229e-11 43.5053

71.2969 0.318947 -3.64043e-11
0.318947 56.6488 -2.26265e-12
-3.64043e-11 -2.26265e-12 64.5152

71.438 -0.302581 -1.63728e-11
-0.302581 56.6091 -3.0452e-11
-1.63728e-11 -3.0452e-11 64.5814

57.931 4.67332 -1.15352e-12
4.67332 63.7885 3.56444e-12
-1.15352e-12 3.56444e-12 61.0545

56.9765 -4.55721 -1.38642e-11
-4.55721 66.7688 2.98787e-12
-1.38642e-11 2.98787e-12 65.3461

62.8511 5.13966 6.54858e-11
5.13966 59.6656 7.61206e-12
6.54858e-11 7.61206e-12 62.1292

45.2282 2.38527 -6.55017e-12
2.38527 38.8961 1.45904e-11
-6.55017e-12 1.45904e-11 40.8519

48.8679 3.10066 -3.65971e-11
3.10066 56.2555 1.6275e-11
-3.65971e-11 1.6275e-11 51.6703

67.8833 0.304874 3.94835e-11
0.304874 64.8739 1.62262e-11
3.94835e-11 1.62262e-11 66.9913

67.8578 -0.272618 1.73358e-12
-0.272618 64.9073 5.20484e-11
1.73358e-12 5.20484e-11 66.9737

59.1604 2.99356 3.27375e-12
2.99356 57.191 1.29063e-11
3.27375e-12 1.29063e-11 57.4322

64.5484 -1.8505 2.8699e-11
-1.8505 61.2757 3.39947e-11
2.8699e-11 3.39947e-11 62.5993

64.5698 1.88609 -8.08975e-12
1.88609 61.3176 -1.8201e-11
-8.08975e-12 -1.8201e-11 62.635

30.2328 -1.87738 -2.31244e-11
-1.87738 25.9868 1.97761e-11
-2.31244e-11 1.97761e-11 31.075

24.2538 2.36643 2.31219e-11
2.36643 28.632 -5.68498e-12
2.31219e-11 -5.68498e-12 30.2826

48.7752 -3.04712 5.77518e-12
-3.04712 56.3489 -1.3005e-11
5.77518e-12 -1.3005e-11 51.7598

74.571 -0.686796 -5.00803e-12
-0.686796 72.354 2.74418e-11
-5.00803e-12 2.74418e-11 72.8085

74.6135 0.78278 2.40704e-11
0.78278 72.4352 -3.95717e-11
2.40704e-11 -3.95717e-11 72.8389

45.4906 2.05022 4.27686e-11
2.05022 38.6191 -4.35393e-11
4.27686e-11 -4.35393e-11 40.8307

56.168 -2.52574 2.50414e-11
-2.52574 63.7004 -1.07877e-11
2.50414e-11 -1.07877e-11 61.313

56.975 -2.46543 -3.07921e-12
-2.46543 64.2564 2.23467e-11
-3.07921e-12 2.23467e-11 61.3701

50.9783 -4.96472 -9.63067e-12
-4.96472 50.0239 -1.01075e-12
-9.63067e-12 -1.01075e-12 49.5596

60.265 -5.39942 -1.15571e-11
-5.39942 67.1222 2.50401e-11
-1.15571e-11 2.50401e-11 64.5336

55.7902 6.44176 -5.00666e-12
6.44176 62.9337 -4.23828e-12
-5.00666e-12 -4.23828e-12 63.2602

67.7108 2.91839 1.65615e-11
2.91839 69.8555 1.28063e-11
1.65615e-11 1.28063e-11 68.7993

65.9061 4.02782 3.85142e-11
4.02782 69.7346 -3.09135e-11
3.85142e-11 -3.09135e-11 68.6969

57.9709 -4.71972 -2.8889e-11
-4.71972 63.9196 -3.42826e-11
-2.8889e-11 -3.42826e-11 61.1697

59.4217 4.95474 -2.92737e-11
4.95474 60.0524 2.5617e-11
-2.92737e-11 2.5617e-11 61.04

59.1489 -3.03923 4.81348e-12
-3.03923 57.2592 3.36819e-12
4.81348e-12 3.36819e-12 57.4655

53.6381 3.62758 2.62027e-11
3.62758 46.4018 4.18006e-11
2.62027e-11 4.18006e-11 49.2151

60.6696 -0.111143 -3.79506e-11
-0.111143 50.5652 1.00731e-11
-3.79506e-11 1.00731e-11 54.5159

59.8511 5.62986 1.29053e-11
5.62986 66.5443 -3.75414e-12
1.29053e-11 -3.75414e-12 64.2452

53.949 -3.39062 -1.54136e-11
-3.39062 58.9865 1.16581e-11
-1.54136e-11 1.16581e-11 57.4483

50.8355 1.23753 -4.35248e-11
1.23753 58.4216 1.92705e-12
-4.35248e-11 1.92705e-12 54.6277

59.3038 3.47077 -5.39287e-12
3.47077 59.2466 -3.78452e-11
-5.39287e-12 -3.78452e-11 59.8386

51.3569 1.53765 -3.38988e-11
1.53765 59.2052 -3.31311e-11
-3.38988e-11 -3.31311e-11 54.9858

62.3535 -4.34775 6.74031e-12
-4.34775 68.1443 -2.02219e-11
6.74031e-12 -2.02219e-11 66.146

35.8081 -2.43917 3.89196e-11
-2.43917 36.3336 3.55524e-11
3.89196e-11 3.55524e-11 35.1577

37.7741 -2.45477 7.32274e-12
-2.45477 34.1632 9.66153e-12
7.32274e-12 9.66153e-12 35.0693

62.8585 -0.980444 5.76798e-13
-0.980444 52.488 -1.44442e-12
5.76798e-13 -1.44442e-12 57.8066

59.2633 -3.47944 -3.56327e-11
-3.47944 59.1883 3.71774e-11
-3.56327e-11 3.71774e-11 59.8059

83.0853 -4.6577 1.93347e-10
-4.6577 74.8437 -7.87407e-13
1.93347e-10 -7.87407e-13 76.0019

83.2365 4.46122 3.92834e-11
4.46122 75.2242 -5.99769e-11
3.92834e-11 -5.99769e-11 76.1302

57.2618 -5.05591 2.88905e-11
-5.05591 63.3747 -3.3516e-11
2.88905e-11 -3.3516e-11 60.5523

74.4612 -4.33378 5.89303e-11
-4.33378 74.494 -1.83939e-11
5.89303e-11 -1.83939e-11 72.4462

74.2247 4.40464 -1.38672e-11
4.40464 74.3625 -2.33982e-11
-1.38672e-11 -2.33982e-11 72.3615

63.0272 0.952846 3.35144e-11
0.952846 54.2029 3.52955e-12
3.35144e-11 3.52955e-12 59.844

55.6474 -6.44994 1.30952e-11
-6.44994 62.7488 2.31131e-11
1.30952e-11 2.31131e-11 63.1979

37.7166 -2.90418 -9.63052e-12
-2.90418 37.4496 9.66693e-12
-9.63052e-12 9.66693e-12 36.6103

39.0411 2.91505 1.65681e-11
2.91505 36.9771 3.44338e-11
1.65681e-11 3.44338e-11 37.0807

39.3767 -2.16483 -1.35048e-12
-2.16483 43.4504 -3.61785e-12
-1.35048e-12 -3.61785e-12 39.8507

38.4743 2.01336 -2.56199e-11
2.01336 43.2316 3.27494e-11
-2.56199e-11 3.27494e-11 39.4523

43.5916 1.24059 -3.27753e-12
1.24059 37.3498 -1.39652e-11
-3.27753e-12 -1.39652e-11 39.0936

59.8356 -5.6734 -1.34812e-11
-5.6734 66.5882 1.26176e-11
-1.34812e-11 1.26176e-11 64.2114

34.8985 0.64484 -1.42526e-11
0.64484 40.4604 3.92317e-11
-1.42526e-11 3.92317e-11 36.9815

41.269 -0.701858 -1.23291e-11
-0.701858 34.2434 -6.35703e-12
-1.23291e-11 -6.35703e-12 36.7637

68.1732 -1.78874 -8.48325e-12
-1.78874 75.3372 3.1007e-11
-8.48325e-12 3.1007e-11 71.4673

70.9682 -0.109886 -1.03984e-11
-0.109886 73.0193 2.6e-11
-1.03984e-11 2.6e-11 71.4106

66.8185 2.81771 -9.24749e-12
2.81771 60.1128 -2.96135e-11
-9.24749e-12 -2.96135e-11 63.7643

66.4204 -0.199612 -3.85399e-12
-0.199612 52.804 -1.9524e-11
-3.85399e-12 -1.9524e-11 63.1779

45.338 2.86167 -2.50925e-12
2.86167 50.5776 -5.22102e-11
-2.50925e-12 -5.22102e-11 46.5878

45.3491 -2.99466 3.56421e-11
-2.99466 50.6405 3.6843e-11
3.56421e-11 3.6843e-11 46.6649

63.8575 -0.536756 1.15582e-11
-0.536756 54.6673 -4.22005e-11
1.15582e-11 -4.22005e-11 60.2938

54.11 -3.83564 -1.34818e-11
-3.83564 61.2282 -6.64661e-12
-1.34818e-11 -6.64661e-12 57.7799

72.9685 0.402018 3.23563e-11
0.402018 69.5963 1.16982e-11
3.23563e-11 1.16982e-11 71.0874

72.941 -0.347602 -3.44749e-11
-0.347602 69.6125 -4.64089e-11
-3.44749e-11 -4.64089e-11 71.0911

64.2563 4.28153 2.273e-11
4.28153 61.2584 3.62101e-11
2.273e-11 3.62101e-11 63.077

59.3242 -4.8323 4.23754e-11
-4.8323 60.0355 -7.72419e-13
4.23754e-11 -7.72419e-13 61.0356

65.5021 2.56942 -6.93349e-12
2.56942 55.5553 2.9417e-11
-6.93349e-12 2.9417e-11 61.8319

47.5814 3.78485 1.38676e-11
3.78485 44.6337 9.14964e-12
1.38676e-11 9.14964e-12 44.8098

56.3759 -4.18877 1.44412e-11
-4.18877 60.5372 -3.17324e-12
1.44412e-11 -3.17324e-12 60.1461

30.145 6.51299 9.24782e-12
6.51299 28.7187 -3.77877e-11
9.24782e-12 -3.77877e-11 30.0598

51.1152 -0.924986 3.12012e-11
-0.924986 58.439 8.95891e-12
3.12012e-11 8.95891e-12 54.7362

51.417 -1.37745 1.2323e-11
-1.37745 58.863 -1.86809e-11
1.2323e-11 -1.86809e-11 54.8391

69.0244 1.90755 9.62219e-12
1.90755 75.7501 -7.31607e-12
9.62219e-12 -7.31607e-12 71.8984

70.0174 -2.85268 5.39459e-12
-2.85268 74.8357 -4.12097e-11
5.39459e-12 -4.12097e-11 71.8838

72.0492 -0.15122 -2.42682e-11
-0.15122 58.6656 2.0606e-11
-2.42682e-11 2.0606e-11 66.3365

72.1055 0.141215 -1.36756e-11
0.141215 58.6348 2.40226e-11
-1.36756e-11 2.40226e-11 66.3751

67.7298 -5.59384 -3.54391e-11
-5.59384 64.6078 1.26176e-11
-3.54391e-11 1.26176e-11 66.675

67.4069 5.64218 2.31348e-12
5.64218 63.5292 1.72365e-11
2.31348e-12 1.72365e-11 66.1262

75.3237 -2.0381 9.35951e-11
-2.0381 72.3101 -2.70062e-12
9.35951e-11 -2.70062e-12 71.8422

75.1348 2.03341 2.65759e-11
2.03341 72.2793 -1.17468e-11
2.65759e-11 -1.17468e-11 71.7792

77.4396 -1.77932 -1.86846e-11
-1.77932 73.8111 1.69457e-11
-1.86846e-11 1.69457e-11 74.3636

77.5318 1.91514 -1.52138e-11
1.91514 74.1301 -5.88304e-11
-1.52138e-11 -5.88304e-11 74.4746

62.39 -5.35411 1.34793e-11
-5.35411 67.8185 3.04306e-11
1.34793e-11 3.04306e-11 66.3378

62.524 5.32655 -1.42513e-11
5.32655 67.8886 1.29992e-11
-1.42513e-11 1.29992e-11 66.4325

58.4332 -2.77588 2.36916e-11
-2.77588 53.4857 -9.10194e-12
2.36916e-11 -9.10194e-12 55.9016

55.0614 -2.34536 2.23403e-11
-2.34536 60.6887 2.63856e-11
2.23403e-11 2.63856e-11 58.2382

55.4673 4.51378 -1.05938e-11
4.51378 55.417 1.65571e-11
-1.05938e-11 1.65571e-11 55.0688

55.6568 -3.28899 1.15566e-11
-3.28899 62.0227 1.64742e-11
1.15566e-11 1.64742e-11 58.4916

47.8295 -3.49655 -1.1174e-11
-3.49655 45.1509 6.48238e-11
-1.1174e-11 6.48238e-11 44.6763

58.3487 2.74022 4.42927e-12
2.74022 53.3616 -3.47652e-11
4.42927e-12 -3.47652e-11 55.7825

55.1415 2.33185 1.35294e-11
2.33185 60.4915 3.09189e-11
1.35294e-11 3.09189e-11 58.0651

62.3279 -6.65642 -2.54211e-11
-6.65642 64.9792 7.90389e-12
-2.54211e-11 7.90389e-12 66.1373

62.3432 6.66099 3.46708e-12
6.66099 64.9343 2.37841e-11
3.46708e-12 2.37841e-11 66.128

67.7264 -2.67691 1.23302e-11
-2.67691 61.0981 -1.05935e-11
1.23302e-11 -1.05935e-11 64.6981

81.6797 -4.98314 7.7805e-11
-4.98314 85.8504 -1.06678e-10
7.7805e-11 -1.06678e-10 77.798

78.461 5.099 -6.77847e-11
5.099 75.2878 3.94762e-11
-6.77847e-11 3.94762e-11 75.1134

61.0317 -3.7713 -1.98376e-11
-3.7713 66.1919 3.29421e-11
-1.98376e-11 3.29421e-11 63.751

63.2575 4.71023 2.69821e-12
4.71023 57.6205 -1.54395e-12
2.69821e-12 -1.54395e-12 61.2434

72.6641 0.30368 -4.15991e-11
0.30368 67.358 3.87111e-11
-4.15991e-11 3.87111e-11 69.4698

55.4758 -4.414 -2.77371e-11
-4.414 55.664 -2.45059e-11
-2.77371e-11 -2.45059e-11 55.1354

36.9746 2.8264 -5.6645e-11
2.8264 37.9969 9.85079e-12
-5.6645e-11 9.85079e-12 36.0675

38.2768 2.79519 5.81848e-11
2.79519 35.4846 -2.62462e-11
5.81848e-11 -2.62462e-11 35.8378

72.8038 0.557071 -2.40739e-11
0.557071 61.2262 1.74526e-11
-2.40739e-11 1.74526e-11 67.6677

72.6847 -0.56233 1.9454e-11
-0.56233 61.1682 -2.50348e-11
1.9454e-11 -2.50348e-11 67.6325

73.0744 -0.492919 -6.54621e-12
-0.492919 67.8927 -1.38201e-11
-6.54621e-12 -1.38201e-11 69.7463

55.737 3.13234 1.92376e-11
3.13234 61.8604 1.99374e-11
1.92376e-11 1.99374e-11 58.4225

57.4346 -2.20484 2.02164e-12
-2.20484 51.5765 -2.45578e-11
2.02164e-12 -2.45578e-11 52.7389

64.431 -2.6777 -7.51332e-12
-2.6777 66.0124 -1.9235e-12
-7.51332e-12 -1.9235e-12 65.4192

64.4766 2.68154 2.58086e-11
2.68154 66.0488 -3.75463e-12
2.58086e-11 -3.75463e-12 65.4557

85.4554 -0.368329 -3.35088e-11
-0.368329 89.2049 -8.79384e-11
-3.35088e-11 -8.79384e-11 78.8826

85.4684 0.363187 -7.31371e-12
0.363187 89.0977 -7.99002e-11
-7.31371e-12 -7.99002e-11 78.8871

58.1337 -4.57238 1.30957e-11
-4.57238 64.9739 4.84416e-11
1.30957e-11 4.84416e-11 62.4743

61.5693 3.62244 2.54244e-11
3.62244 54.8878 -3.12467e-11
2.54244e-11 -3.12467e-11 58.1925

70.5253 -0.44407 -3.71738e-11
-0.44407 64.5209 3.53864e-11
-3.71738e-11 3.53864e-11 67.6491

70.5223 0.48397 -2.71529e-11
0.48397 64.4972 3.59661e-11
-2.71529e-11 3.59661e-11 67.6304

58.7152 -2.90416 -4.50711e-11
-2.90416 64.2467 3.31265e-11
-4.50711e-11 3.31265e-11 63.2884

58.014 -4.63963 4.23499e-12
-4.63963 62.4841 2.46556e-11
4.23499e-12 2.46556e-11 63.4988

30.4402 -6.75589 -7.51398e-11
-6.75589 30.6445 -2.65809e-11
-7.51398e-11 -2.65809e-11 30.6618

65.5679 -4.3337 -3.19675e-11
-4.3337 69.3231 -3.25409e-11
-3.19675e-11 -3.25409e-11 68.2535

65.541 4.37186 3.73626e-11
4.37186 69.2076 -2.00276e-11
3.73626e-11 -2.00276e-11 68.1943

57.0829 -4.46014 -1.65656e-11
-4.46014 62.643 3.39022e-11
-1.65656e-11 3.39022e-11 62.2935

57.823 2.33831 -2.83163e-11
2.33831 51.7976 -2.89413e-11
-2.83163e-11 -2.89413e-11 53.0465

65.1667 -4.11052 3.65811e-12
-4.11052 61.7655 -9.5346e-12
3.65811e-12 -9.5346e-12 63.7272

68.5307 -4.5639 -5.62419e-11
-4.5639 64.8954 -1.06845e-11
-5.62419e-11 -1.06845e-11 67.1287

68.5922 4.45341 4.6209e-12
4.45341 64.6437 5.09905e-12
4.6209e-12 5.09905e-12 67.0254

66.3295 -2.55177 -8.86321e-12
-2.55177 56.1495 2.85027e-11
-8.86321e-12 2.85027e-11 62.6519

73.8555 1.11746 1.25164e-11
1.11746 66.2976 -4.74698e-11
1.25164e-11 -4.74698e-11 70.1086

73.7684 -1.09634 2.25346e-11
-1.09634 66.344 3.47602e-11
2.25346e-11 3.47602e-11 70.085

73.6865 -1.77054 -1.00138e-11
-1.77054 83.1233 1.31041e-11
-1.00138e-11 1.31041e-11 75.3596

75.504 3.86469 -9.39651e-11
3.86469 82.4337 3.13931e-11
-9.39651e-11 3.13931e-11 75.6233

30.7942 0.574098 -3.46917e-11
0.574098 24.1575 -1.16107e-12
-3.46917e-11 -1.16107e-12 30.693

26.4748 1.07395 3.31396e-11
1.07395 29.7291 -7.63403e-12
3.31396e-11 -7.63403e-12 30.9833

61.7475 4.26858 -3.043e-11
4.26858 66.9124 -9.63224e-12
-3.043e-11 -9.63224e-12 64.7244

61.7049 -4.27119 2.67716e-11
-4.27119 66.8752 -5.50887e-11
2.67716e-11 -5.50887e-11 64.6756

59.8438 -5.45392 6.20135e-11
-5.45392 66.4854 3.33172e-11
6.20135e-11 3.33172e-11 64.0641

29.2746 -2.84893 -7.43794e-11
-2.84893 28.7029 8.76558e-13
-7.43794e-11 8.76558e-13 30.9386

29.9189 -2.3519 -4.93224e-11
-2.3519 29.0002 -3.69725e-11
-4.93224e-11 -3.69725e-11 31.1734

75.4235 3.76415 3.8701e-11
3.76415 82.9339 -6.27796e-11
3.8701e-11 -6.27796e-11 76.2149

75.3234 -3.95668 -1.5806e-10
-3.95668 82.5378 -2.9628e-10
-1.5806e-10 -2.9628e-10 76.1152

63.0991 -5.16885 2.15719e-11
-5.16885 59.9903 -3.76118e-12
2.15719e-11 -3.76118e-12 62.4422

55.8448 -4.17615 -4.04482e-11
-4.17615 58.425 2.40808e-11
-4.04482e-11 2.40808e-11 56.6445

60.8503 4.11485 -6.02842e-11
4.11485 63.8438 -1.47378e-11
-6.02842e-11 -1.47378e-11 63.2686

60.8189 -4.11313 2.92755e-11
-4.11313 63.8042 -1.98427e-11
2.92755e-11 -1.98427e-11 63.2361

57.071 -4.85969 -2.42687e-11
-4.85969 61.178 9.80697e-14
-2.42687e-11 9.80697e-14 59.3995

55.8989 4.23437 -1.34794e-11
4.23437 58.3224 3.23583e-11
-1.34794e-11 3.23583e-11 56.6072

39.2767 -1.55723 -1.11726e-11
-1.55723 43.6813 1.19439e-11
-1.11726e-11 1.19439e-11 40.1095

39.2634 1.30971 -5.9952e-15
1.30971 43.9167 2.26423e-11
-5.9952e-15 2.26423e-11 40.03

43.9124 1.12039 -2.92852e-11
1.12039 38.3126 -2.50677e-11
-2.92852e-11 -2.50677e-11 39.6114

57.055 4.84765 1.63725e-11
4.84765 61.1283 -3.17642e-12
1.63725e-11 -3.17642e-12 59.3499

35.3197 -0.736059 -3.9689e-11
-0.736059 40.111 -2.06827e-12
-3.9689e-11 -2.06827e-12 36.8014

40.8532 -0.442444 5.66445e-11
-0.442444 33.9494 -4.89046e-11
5.66445e-11 -4.89046e-11 36.7163

63.8772 -3.97724 -5.00725e-12
-3.97724 67.468 -3.07183e-11
-5.00725e-12 -3.07183e-11 66.5988

63.9815 3.95751 3.79434e-11
3.95751 67.5376 3.53447e-11
3.79434e-11 3.53447e-11 66.6676

64.7593 -3.02153 8.86025e-12
-3.02153 68.0388 -5.03657e-11
8.86025e-12 -5.03657e-11 67.2004

64.8154 3.02081 3.06219e-11
3.02081 67.9891 -1.21309e-11
3.06219e-11 -1.21309e-11 67.2193

29.349 2.6171 2.7164e-11
2.6171 27.7654 4.3883e-11
2.7164e-11 4.3883e-11 30.5421

28.9822 2.49633 -1.46458e-11
2.49633 27.7855 -3.38245e-11
-1.46458e-11 -3.38245e-11 30.3663

60.2011 3.77883 -3.3705e-11
3.77883 62.7992 2.31089e-11
-3.3705e-11 2.31089e-11 61.4071

60.191 -3.80394 -1.67539e-11
-3.80394 62.8182 1.60841e-11
-1.67539e-11 1.60841e-11 61.3984

71.268 -3.6592 -7.71107e-12
-3.6592 76.4747 1.02095e-11
-7.71107e-12 1.02095e-11 72.8079

72.3685 1.64852 -5.54626e-11
1.64852 73.2398 3.67856e-11
-5.54626e-11 3.67856e-11 72.3658

64.0294 -4.10049 5.9693e-12
-4.10049 70.2344 -8.57201e-12
5.9693e-12 -8.57201e-12 67.9498

64.0481 4.10256 1.09769e-11
4.10256 70.1415 -1.52149e-11
1.09769e-11 -1.52149e-11 67.9494

71.7545 0.264113 2.27261e-11
0.264113 65.1363 3.66851e-11
2.27261e-11 3.66851e-11 69.4126

71.7317 -0.22582 -5.97108e-12
-0.22582 65.1579 6.2636e-11
-5.97108e-12 6.2636e-11 69.4124

62.7827 -4.64528 2.69621e-12
-4.64528 63.2026 -1.72381e-11
2.69621e-12 -1.72381e-11 64.4063

62.8112 4.70467 2.77325e-11
4.70467 62.9265 -1.194e-11
2.77325e-11 -1.194e-11 64.2741

76.5719 1.13195 -6.54739e-12
1.13195 70.6088 7.70199e-13
-6.54739e-12 7.70199e-13 72.6837

77.0236 0.196487 -5.68159e-11
0.196487 73.413 -4.20805e-11
-5.68159e-11 -4.20805e-11 74.1548

76.6073 -1.14784 -3.15838e-11
-1.14784 70.6626 1.27089e-11
-3.15838e-11 1.27089e-11 72.7223

77.0184 -0.310689 -4.96811e-11
-0.310689 73.2017 5.62296e-11
-4.96811e-11 5.62296e-11 74.1171

72.0518 0.190789 -1.73301e-11
0.190789 77.1329 1.46383e-11
-1.73301e-11 1.46383e-11 73.2864

79.7042 4.56547 8.85584e-12
4.56547 76.3413 1.15199e-12
8.85584e-12 1.15199e-12 74.3875

79.7289 -4.54774 7.27935e-11
-4.54774 76.3745 -2.79294e-11
7.27935e-11 -2.79294e-11 74.3846

70.0651 -2.44673 -2.68822e-12
-2.44673 81.8551 -5.91222e-11
-2.68822e-12 -5.91222e-11 73.9133

73.2433 -2.15802 -2.57282e-10
-2.15802 74.5109 1.45405e-10
-2.57282e-10 1.45405e-10 73.326

94.584 -3.12723 -6.61621e-10
-3.12723 68.9715 -5.2685e-10
-6.61621e-10 -5.2685e-10 77.3282

73.0279 2.27265 -5.10277e-11
2.27265 74.9244 -6.86655e-11
-5.10277e-11 -6.86655e-11 73.4302

94.6269 2.89151 -5.21181e-10
2.89151 69.9224 3.56575e-10
-5.21181e-10 3.56575e-10 77.6028

74.8057 -2.95781 3.75554e-11
-2.95781 73.5603 -6.62456e-11
3.75554e-11 -6.62456e-11 73.1051

69.5441 -2.06469 -5.27666e-11
-2.06469 72.6778 -9.24251e-12
-5.27666e-11 -9.24251e-12 70.8641

76.5327 -0.172643 -8.85862e-12
-0.172643 73.6309 -1.85638e-10
-8.85862e-12 -1.85638e-10 74.3366

74.7135 3.10484 2.21475e-11
3.10484 73.6245 2.84062e-11
2.21475e-11 2.84062e-11 73.1354

69.5983 2.13514 -5.50779e-11
2.13514 72.5581 -2.50369e-11
-5.50779e-11 -2.50369e-11 70.8559

76.62 0.194627 -2.11901e-12
0.194627 74.2111 5.58456e-11
-2.11901e-12 5.58456e-11 74.5308

69.3395 -1.70484 -1.38671e-11
-1.70484 71.8382 9.72618e-12
-1.38671e-11 9.72618e-12 71.0043

74.7938 -0.957134 -4.179e-11
-0.957134 73.4788 1.49256e-11
-4.179e-11 1.49256e-11 73.2452

69.4323 1.78515 1.44436e-11
1.78515 71.8562 9.05213e-12
1.44436e-11 9.05213e-12 71.0459

74.8449 1.00028 3.02339e-11
1.00028 73.5196 6.16244e-12
3.02339e-11 6.16244e-12 73.282

52.6565 4.02434 1.02109e-11
4.02434 57.3056 1.63737e-11
1.02109e-11 1.63737e-11 53.7354

58.6623 0.813135 -6.93382e-12
0.813135 67.2217 3.85477e-12
-6.93382e-12 3.85477e-12 63.4024

62.2112 2.16648 1.69496e-11
2.16648 65.5649 1.84904e-11
1.69496e-11 1.84904e-11 63.5918

60.8673 -2.63465 8.09279e-12
-2.63465 52.1127 6.16977e-12
8.09279e-12 6.16977e-12 57.2087

58.0497 -1.61052 -1.21377e-11
-1.61052 50.0619 1.42512e-11
-1.21377e-11 1.42512e-11 53.8595

60.142 1.23427 -8.66636e-12
1.23427 71.7526 -3.08166e-11
-8.66636e-12 -3.08166e-11 66.8483

63.0705 2.23737 2.04153e-11
2.23737 67.1143 -4.14098e-12
2.04153e-11 -4.14098e-12 66.4496

58.2338 -0.015053 -2.31489e-12
-0.015053 50.6211 -2.69348e-12
-2.31489e-12 -2.69348e-12 54.1959

65.7739 1.01864 2.273e-11
1.01864 56.4502 4.00571e-11
2.273e-11 4.00571e-11 63.7235

42.4477 3.48123 -1.61792e-11
3.48123 47.5542 1.92742e-12
-1.61792e-11 1.92742e-12 43.5431

40.8015 2.75538 1.19434e-11
2.75538 47.1153 -9.63052e-12
1.19434e-11 -9.63052e-12 42.9537

46.0154 2.76089 -9.53652e-12
2.76089 41.0883 2.85061e-11
-9.53652e-12 2.85061e-11 42.3711

67.5892 -4.20473 2.34945e-11
-4.20473 69.9401 1.17476e-11
2.34945e-11 1.17476e-11 68.6296

66.954 -1.76711 5.35376e-11
-1.76711 71.6177 -3.84988e-12
5.35376e-11 -3.84988e-12 68.8513

58.3738 -4.85917 -7.6857e-13
-4.85917 57.7504 3.58245e-11
-7.6857e-13 3.58245e-11 58.24

53.7865 3.90583 1.11714e-11
3.90583 59.9129 -1.3482e-11
1.11714e-11 -1.3482e-11 56.9455

58.7881 4.56128 -6.73922e-12
4.56128 64.4864 1.23265e-11
-6.73922e-12 1.23265e-11 62.4292

62.816 -2.2045 3.6014e-11
-2.2045 66.9614 -1.90683e-11
3.6014e-11 -1.90683e-11 66.246

59.9091 -1.46176 1.40571e-11
-1.46176 71.7769 4.54565e-11
1.40571e-11 4.54565e-11 66.6244

62.4586 1.22732 3.26523e-11
1.22732 52.9103 -1.92424e-12
3.26523e-11 -1.92424e-12 57.9238

46.12 1.14392 2.12097e-12
1.14392 52.6557 -6.93356e-12
2.12097e-12 -6.93356e-12 47.2908

44.6273 0.506072 -3.21678e-11
0.506072 52.4279 -4.62445e-12
-3.21678e-11 -4.62445e-12 47.0949

51.8083 0.475873 2.60054e-11
0.475873 44.7939 -1.15182e-12
2.60054e-11 -1.15182e-12 46.3233

51.0784 2.75156 -1.35787e-11
2.75156 57.7683 -1.30997e-11
-1.35787e-11 -1.30997e-11 53.9276

52.1862 4.49617 -6.54891e-12
4.49617 56.0177 3.64036e-11
-6.54891e-12 3.64036e-11 53.2357

60.7576 0.765421 1.1942e-11
0.765421 52.3247 2.85081e-11
1.1942e-11 2.85081e-11 57.6407

39.7922 2.0805 -1.83025e-11
2.0805 43.7179 1.73479e-11
-1.83025e-11 1.73479e-11 39.4941

65.6881 -2.81464 -3.89244e-13
-2.81464 56.1309 5.00981e-12
-3.89244e-13 5.00981e-12 62.611

67.4825 0.213559 -4.04404e-11
0.213559 73.7366 -6.93208e-12
-4.04404e-11 -6.93208e-12 69.5312

69.3129 0.0598311 1.2902e-11
0.0598311 70.1887 -6.54832e-12
1.2902e-11 -6.54832e-12 69.2702

83.4495 1.88827 1.11672e-11
1.88827 72.8103 -5.77507e-12
1.11672e-11 -5.77507e-12 75.1457

84.2034 -4.54585 -3.81277e-11
-4.54585 76.5774 4.61795e-12
-3.81277e-11 4.61795e-12 75.6671

56.4592 -5.15623 1.2712e-11
-5.15623 57.83 -1.07852e-11
1.2712e-11 -1.07852e-11 57.4526

50.938 -4.17101 3.29348e-11
-4.17101 55.5705 1.27121e-11
3.29348e-11 1.27121e-11 53.1159

50.9164 -1.43575 1.10744e-11
-1.43575 43.2009 7.7464e-13
1.10744e-11 7.7464e-13 45.7985

72.3228 0.741467 -4.62119e-12
0.741467 67.2018 -1.7908e-11
-4.62119e-12 -1.7908e-11 69.5042

72.3854 -2.69336 -3.4653e-12
-2.69336 67.6034 3.85951e-13
-3.4653e-12 3.85951e-13 69.1587

65.9637 -1.19649 3.54403e-11
-1.19649 56.601 1.96463e-11
3.54403e-11 1.96463e-11 63.8299

64.9012 -0.355347 2.6004e-11
-0.355347 54.2802 1.5791e-11
2.6004e-11 1.5791e-11 62.4544

54.9441 -4.253 -4.61187e-12
-4.253 50.7758 -1.84939e-11
-4.61187e-12 -1.84939e-11 51.6776

55.1358 1.96588 1.81058e-11
1.96588 48.0273 -9.05333e-12
1.81058e-11 -9.05333e-12 50.6726

54.2089 -3.47044 -5.9733e-12
-3.47044 47.3482 1.61836e-11
-5.9733e-12 1.61836e-11 50.0672

56.0763 2.85851 3.77489e-11
2.85851 65.2388 2.61993e-11
3.77489e-11 2.61993e-11 62.4175

51.5823 -3.45534 -5.20062e-12
-3.45534 57.5444 -3.15878e-11
-5.20062e-12 -3.15878e-11 54.0231

50.6949 3.32281 1.75274e-11
3.32281 55.6547 1.50276e-11
1.75274e-11 1.50276e-11 53.1507

31.5339 -5.27722 -1.15411e-12
-5.27722 31.7667 -4.66271e-11
-1.15411e-12 -4.66271e-11 31.4473

29.7176 3.2463 1.61857e-11
3.2463 31.4059 1.42604e-11
1.61857e-11 1.42604e-11 30.8233

59.5151 -3.95327 1.81061e-11
-3.95327 68.4366 -3.50533e-11
1.81061e-11 -3.50533e-11 65.8462

52.2614 2.62458 -1.13668e-11
2.62458 60.5017 -5.23959e-11
-1.13668e-11 -5.23959e-11 57.1967

29.9111 0.548921 1.29088e-11
0.548921 30.3936 3.04424e-11
1.29088e-11 3.04424e-11 31.759

30.634 -1.06831 -4.14229e-11
-1.06831 32.2651 -2.85202e-11
-4.14229e-11 -2.85202e-11 32.3892

68.5848 -1.57278 3.37512e-11
-1.57278 70.9476 1.3676e-11
3.37512e-11 1.3676e-11 69.6751

68.0535 3.32353 -3.8278e-11
3.32353 69.413 -9.634e-12
-3.8278e-11 -9.634e-12 69.4089

66.3596 0.0352895 7.56017e-12
0.0352895 54.9201 -1.35077e-15
7.56017e-12 -1.35077e-15 60.7936

68.2526 -1.05464 8.54376e-12
-1.05464 68.7114 -6.68267e-11
8.54376e-12 -6.68267e-11 69.1535

68.1552 3.10159 -5.70999e-11
3.10159 69.5568 -2.38873e-11
-5.70999e-11 -2.38873e-11 69.408

79.3331 3.40401 6.16068e-12
3.40401 70.4942 -9.04969e-12
6.16068e-12 -9.04969e-12 73.3407

78.8501 -4.16461 2.00251e-11
-4.16461 74.2229 2.85033e-11
2.00251e-11 2.85033e-11 73.6604

63.9497 -2.51725 -3.35435e-13
-2.51725 64.3109 -1.96937e-11
-3.35435e-13 -1.96937e-11 64.8073

63.7512 3.32419 5.60951e-11
3.32419 63.5197 6.10101e-11
5.60951e-11 6.10101e-11 64.7978

71.5229 -0.263507 1.21341e-11
-0.263507 80.6249 1.69468e-11
1.21341e-11 1.69468e-11 73.3544

71.0795 1.19336 -7.7038e-12
1.19336 75.2369 -3.56226e-12
-7.7038e-12 -3.56226e-12 72.3706

52.0161 -4.75054 -9.43556e-12
-4.75054 57.434 -3.73726e-11
-9.43556e-12 -3.73726e-11 53.712

36.7827 0.500769 4.31541e-11
0.500769 41.7844 1.38765e-11
4.31541e-11 1.38765e-11 38.2011

41.4284 0.645131 -5.41428e-11
0.645131 37.3277 4.60809e-12
-5.41428e-11 4.60809e-12 38.1891

54.7923 2.4965 8.08988e-12
2.4965 64.5777 3.85469e-13
8.08988e-12 3.85469e-13 61.1071

57.5172 3.66368 2.31142e-11
3.66368 63.5224 2.3693e-11
2.31142e-11 2.3693e-11 61.17

81.3985 -3.47068 8.10851e-11
-3.47068 75.2033 -2.2703e-10
8.10851e-11 -2.2703e-10 75.9474

80.9546 5.39065 7.96918e-11
5.39065 87.1418 1.61856e-11
7.96918e-11 1.61856e-11 78.2177

54.7124 3.35864 4.0381e-12
3.35864 52.9243 -6.93164e-12
4.0381e-12 -6.93164e-12 52.6139

60.6302 5.66688 1.7326e-12
5.66688 66.3154 -1.73339e-11
1.7326e-12 -1.73339e-11 64.2858

63.1866 2.15492 -1.38203e-11
2.15492 57.584 -2.61936e-11
-1.38203e-11 -2.61936e-11 61.4265

63.3398 -1.71658 4.42032e-11
-1.71658 57.6251 8.66655e-12
4.42032e-11 8.66655e-12 61.2901

60.7836 5.38328 -1.19396e-11
5.38328 64.3947 -4.81785e-12
-1.19396e-11 -4.81785e-12 63.668

62.1936 -5.31072 -3.02344e-11
-5.31072 67.9985 -2.90829e-11
-3.02344e-11 -2.90829e-11 66.0552

70.1968 -4.545 -2.19561e-11
-4.545 62.6902 1.19407e-11
-2.19561e-11 1.19407e-11 67.105

50.8523 -0.406093 2.25393e-11
-0.406093 43.547 -3.58279e-11
2.25393e-11 -3.58279e-11 45.9514

86.4178 0.632651 -5.66108e-11
0.632651 83.0849 -1.69504e-11
-5.66108e-11 -1.69504e-11 77.7245

86.7075 -0.392201 -3.08042e-12
-0.392201 75.9384 1.69443e-11
-3.08042e-12 1.69443e-11 76.759

56.758 4.13388 -1.57947e-11
4.13388 54.9278 1.67572e-11
-1.57947e-11 1.67572e-11 56.0684

63.0692 1.57237 1.95494e-11
1.57237 55.2613 -4.62334e-12
1.95494e-11 -4.62334e-12 58.9124

47.4325 3.52755 -3.19804e-11
3.52755 49.05 -2.12059e-11
-3.19804e-11 -2.12059e-11 46.1862

72.9091 0.837876 5.79634e-11
0.837876 75.5112 1.57937e-11
5.79634e-11 1.57937e-11 73.4196

75.4854 2.43876 -4.96798e-11
2.43876 83.1697 -1.3095e-11
-4.96798e-11 -1.3095e-11 75.1604

70.2767 2.25617 1.46347e-11
2.25617 61.8934 -4.17883e-11
1.46347e-11 -4.17883e-11 67.4992

58.4396 -0.955152 9.72724e-12
-0.955152 67.3727 -1.19422e-11
9.72724e-12 -1.19422e-11 63.2475

62.0671 -2.04248 1.98405e-11
-2.04248 65.7548 8.08923e-12
1.98405e-11 8.08923e-12 63.5384

67.4356 0.655941 1.11948e-11
0.655941 56.441 -4.23676e-12
1.11948e-11 -4.23676e-12 63.0376

67.7765 -0.513708 4.55058e-12
-0.513708 56.3463 -1.02071e-11
4.55058e-12 -1.02071e-11 62.993

48.981 -3.53922 8.5724e-12
-3.53922 47.3351 -4.05091e-12
8.5724e-12 -4.05091e-12 45.7878

60.0939 0.0098477 1.23247e-11
0.0098477 50.5784 -5.77433e-12
1.23247e-11 -5.77433e-12 54.4368

68.9705 -0.576875 -4.53573e-11
-0.576875 61.0056 2.94664e-11
-4.53573e-11 2.94664e-11 66.0121

68.0546 1.1658 -9.33971e-12
1.1658 61.7823 -1.38691e-11
-9.33971e-12 -1.38691e-11 66.0615

63.3404 -1.47454 3.49585e-11
-1.47454 56.2094 1.21348e-11
3.49585e-11 1.21348e-11 59.0124

53.1969 -4.19319 -2.25359e-11
-4.19319 58.039 -3.10126e-11
-2.25359e-11 -3.10126e-11 54.4752

68.6268 -0.339072 1.92616e-12
-0.339072 59.6125 5.19966e-12
1.92616e-12 5.19966e-12 64.1099

68.0687 0.751336 -7.1505e-12
0.751336 59.3446 4.04447e-12
-7.1505e-12 4.04447e-12 64.081

62.2628 1.70935 5.27743e-11
1.70935 55.4666 8.01282e-11
5.27743e-11 8.01282e-11 59.5117

49.4416 -5.33796 -3.12005e-11
-5.33796 48.7348 -7.31615e-12
-3.12005e-11 -7.31615e-12 48.453

58.3372 5.14532 -3.59187e-11
5.14532 63.0653 -3.12069e-11
-3.59187e-11 -3.12069e-11 63.1795

61.1117 5.0545 -2.67716e-11
5.0545 67.1085 -2.63893e-11
-2.67716e-11 -2.63893e-11 64.8436

57.8482 3.8144 2.88787e-12
3.8144 63.5908 5.00755e-12
2.88787e-12 5.00755e-12 63.6526

55.653 1.8621 -7.03304e-12
1.8621 47.45 1.34881e-11
-7.03304e-12 1.34881e-11 50.6791

43.598 -3.68158 -1.73438e-11
-3.68158 40.3674 -1.4256e-11
-1.73438e-11 -1.4256e-11 40.4484

62.8491 3.10908 1.27098e-11
3.10908 58.5337 -2.87007e-11
1.27098e-11 -2.87007e-11 61.962

62.0496 -3.31166 5.19362e-12
-3.31166 55.2621 3.31259e-11
5.19362e-12 3.31259e-11 58.7169

44.265 -3.19074 1.33227e-15
-3.19074 40.1646 -4.24805e-12
1.33227e-15 -4.24805e-12 40.7223

57.0616 -5.31786 8.67336e-12
-5.31786 53.4968 -3.46785e-11
8.67336e-12 -3.46785e-11 55.5656

56.3772 0.135173 -3.33214e-11
0.135173 62.482 8.47359e-12
-3.33214e-11 8.47359e-12 60.4551

53.8894 0.000503999 -3.62089e-11
0.000503999 65.7909 -7.31866e-12
-3.62089e-11 -7.31866e-12 60.7808

50.5433 4.5333 1.6944e-11
4.5333 50.9421 1.34566e-12
1.6944e-11 1.34566e-12 49.8623

47.5258 -3.77698 1.27149e-11
-3.77698 42.2375 5.01081e-12
1.27149e-11 5.01081e-12 43.4578

60.5904 -5.5158 -1.42532e-11
-5.5158 62.4872 1.11748e-11
-1.42532e-11 1.11748e-11 63.2662

50.6452 -4.93429 -3.28442e-11
-4.93429 53.1888 8.47529e-12
-3.28442e-11 8.47529e-12 50.3239

49.9733 -4.98838 -4.23698e-12
-4.98838 52.2159 6.8586e-11
-4.23698e-12 6.8586e-11 49.9253

61.6023 2.55238 5.62433e-11
2.55238 56.7956 7.70347e-13
5.62433e-11 7.70347e-13 59.2125

69.8254 1.61113 -1.07881e-11
1.61113 55.3947 -8.66566e-12
-1.07881e-11 -8.66566e-12 65.9046

69.3329 -2.53767 2.69665e-11
-2.53767 57.3304 8.85951e-12
2.69665e-11 8.85951e-12 65.8456

48.869 2.8332 4.8167e-12
2.8332 55.3267 -1.11737e-11
4.8167e-12 -1.11737e-11 51.1164

47.1997 1.93573 -3.0532e-11
1.93573 56.1873 -4.23831e-12
-3.0532e-11 -4.23831e-12 51.2669

41.9219 -0.412036 1.46438e-11
-0.412036 50.4635 1.4836e-11
1.46438e-11 1.4836e-11 44.8653

40.8862 -0.547862 -1.32927e-11
-0.547862 50.7587 3.08217e-11
-1.32927e-11 3.08217e-11 44.8383

50.3043 -0.36312 2.71621e-11
-0.36312 40.9914 2.27596e-15
2.71621e-11 2.27596e-15 44.2342

51.9174 -4.49847 1.02116e-11
-4.49847 49.3027 1.34868e-11
1.02116e-11 1.34868e-11 49.6903

74.2237 -3.31179 5.71946e-11
-3.31179 79.2364 6.3534e-12
5.71946e-11 6.3534e-12 75.0722

88.2595 -1.31639 1.56547e-10
-1.31639 88.2992 -5.00771e-11
1.56547e-10 -5.00771e-11 79.2871

53.1724 3.16969 5.85088e-13
3.16969 47.8521 9.63481e-12
5.85088e-13 9.63481e-12 49.7674

56.323 -2.16281 -3.23651e-11
-2.16281 47.9246 -3.86672e-13
-3.23651e-11 -3.86672e-13 51.1644

44.6437 1.98098 -1.15559e-11
1.98098 40.0691 4.37318e-11
-1.15559e-11 4.37318e-11 41.036

54.8075 3.2507 4.78613e-11
3.2507 61.5437 -6.93075e-12
4.78613e-11 -6.93075e-12 59.8279

66.3595 0.0518409 2.35461e-11
0.0518409 54.9869 -4.04526e-12
2.35461e-11 -4.04526e-12 60.7334

61.8986 4.95081 -2.98538e-11
4.95081 67.7105 -1.92611e-11
-2.98538e-11 -1.92611e-11 66.1054

58.187 3.93481 -1.8967e-11
3.93481 68.4273 2.00312e-11
-1.8967e-11 2.00312e-11 65.803

45.9035 2.5515 6.90595e-11
2.5515 48.6537 -2.23503e-11
6.90595e-11 -2.23503e-11 45.6546

47.5995 2.8398 1.53115e-11
2.8398 46.8327 2.15741e-11
1.53115e-11 2.15741e-11 45.2641

59.9068 -5.98461 1.72413e-11
-5.98461 65.7603 -3.0625e-11
1.72413e-11 -3.0625e-11 63.5859

45.0467 1.60069 -7.77008e-13
1.60069 40.1974 -1.88802e-11
-7.77008e-13 -1.88802e-11 41.3046

57.8434 4.42104 -1.43958e-11
4.42104 62.2976 -2.04206e-11
-1.43958e-11 -2.04206e-11 63.6005

57.4605 5.38749 -8.66664e-12
5.38749 62.5059 1.54136e-12
-8.66664e-12 1.54136e-12 60.081

70.1181 -0.0772484 -3.57307e-11
-0.0772484 56.6394 1.34684e-12
-3.57307e-11 1.34684e-12 64.427

59.4098 -4.08404 -1.38654e-11
-4.08404 62.6469 9.24828e-12
-1.38654e-11 9.24828e-12 63.8849

57.2406 4.40901 -1.63729e-11
4.40901 57.5271 7.89406e-12
-1.63729e-11 7.89406e-12 57.0128

47.2305 -2.16205 2.31374e-12
-2.16205 53.2491 4.1226e-11
2.31374e-12 4.1226e-11 48.1753

45.4609 -2.05806 -2.11924e-11
-2.05806 53.221 2.42758e-11
-2.11924e-11 2.42758e-11 47.8978

52.3364 -1.53467 1.35077e-12
-1.53467 46.1701 -1.73338e-11
1.35077e-12 -1.73338e-11 47.2506

53.2062 -4.03968 1.59774e-11
-4.03968 53.7991 4.06459e-11
1.59774e-11 4.06459e-11 51.8704

52.2103 -0.265697 -4.256e-11
-0.265697 61.4818 -3.54448e-11
-4.256e-11 -3.54448e-11 56.4844

55.3247 -0.0392818 -1.32925e-11
-0.0392818 60.7998 -1.81066e-11
-1.32925e-11 -1.81066e-11 56.7531

44.2392 -4.32614 -2.0037e-11
-4.32614 46.2266 1.35077e-12
-2.0037e-11 1.35077e-12 43.4874

43.0209 -4.203 3.08263e-11
-4.203 46.9107 -1.1947e-11
3.08263e-11 -1.1947e-11 43.5609

70.1928 -0.214138 -5.23432e-11
-0.214138 57.6218 1.19384e-11
-5.23432e-11 1.19384e-11 64.7164

70.5173 0.221567 -1.28086e-11
0.221567 57.4585 -2.4074e-11
-1.28086e-11 -2.4074e-11 64.6939

56.8626 4.12044 5.87338e-12
4.12044 60.8508 2.27294e-11
5.87338e-12 2.27294e-11 60.6305

58.1177 -3.47096 -5.77542e-12
-3.47096 67.84 -1.8106e-11
-5.77542e-12 -1.8106e-11 65.5349

62.3122 -5.33727 -3.50523e-11
-5.33727 59.3469 2.30997e-12
-3.50523e-11 2.30997e-12 61.7624

66.7998 2.03427 3.39682e-11
2.03427 64.6163 5.05572e-11
3.39682e-11 5.05572e-11 66.8657

67.6702 -0.622293 -6.76681e-12
-0.622293 65.6462 1.15611e-11
-6.76681e-12 1.15611e-11 67.1176

64.3322 -2.22882 1.05019e-11
-2.22882 61.8753 -3.46697e-11
1.05019e-11 -3.46697e-11 62.6951

63.7875 2.68024 -1.35802e-11
2.68024 60.2008 -2.61911e-11
-1.35802e-11 -2.61911e-11 62.4415

29.3019 -2.23936 3.85922e-12
-2.23936 24.408 -7.09038e-11
3.85922e-12 -7.09038e-11 30.4865

49.5785 4.24771 4.33527e-12
4.24771 52.249 -5.43203e-11
4.33527e-12 -5.43203e-11 50.0509

26.2895 1.54507 -6.39705e-11
1.54507 29.5022 -2.92896e-11
-6.39705e-11 -2.92896e-11 30.8788

58.0657 4.77605 -1.94514e-11
4.77605 60.7407 1.73307e-11
-1.94514e-11 1.73307e-11 59.7784

49.326 -3.34754 7.70547e-12
-3.34754 56.5055 -2.36946e-11
7.70547e-12 -2.36946e-11 51.8065

47.3241 -2.98426 3.06275e-11
-2.98426 56.0797 -2.04186e-11
3.06275e-11 -2.04186e-11 51.3968

74.3996 -1.02663 -7.9319e-11
-1.02663 73.2019 3.79358e-11
-7.9319e-11 3.79358e-11 73.0023

72.7661 2.81115 -2.53028e-11
2.81115 75.8842 3.9674e-11
-2.53028e-11 3.9674e-11 73.2382

58.6285 3.17053 5.10436e-11
3.17053 56.1767 1.15579e-11
5.10436e-11 1.15579e-11 57.3047

60.2177 -0.324667 7.12541e-12
-0.324667 51.0695 4.3728e-11
7.12541e-12 4.3728e-11 54.5491

51.6597 3.55247 -4.82558e-11
3.55247 48.3749 -2.00383e-11
-4.82558e-11 -2.00383e-11 49.3481

55.2193 -2.04955 7.70527e-12
-2.04955 65.6665 6.54662e-12
7.70527e-12 6.54662e-12 61.3633

57.669 -3.37861 1.25197e-11
-3.37861 63.7078 -5.39332e-12
1.25197e-11 -5.39332e-12 61.2956

60.5022 -6.13933 1.7141e-11
-6.13933 68.142 4.23599e-12
1.7141e-11 4.23599e-12 64.7346

58.9925 -3.41584 -2.60978e-11
-3.41584 57.6722 -5.40309e-15
-2.60978e-11 -5.40309e-15 57.4906

60.0124 5.7148 -1.44451e-11
5.7148 66.1951 -1.79153e-11
-1.44451e-11 -1.79153e-11 64.1936

67.2714 2.63991 2.23411e-11
2.63991 71.0415 2.59996e-12
2.23411e-11 2.59996e-12 68.9676

67.3764 3.99707 -2.02229e-11
3.99707 69.4353 -9.63859e-13
-2.02229e-11 -9.63859e-13 68.6188

58.1691 -5.37629 1.25199e-11
-5.37629 64.4427 -4.04354e-12
1.25199e-11 -4.04354e-12 61.2746

58.5966 4.88144 -1.30966e-11
4.88144 63.272 -1.69524e-11
-1.30966e-11 -1.69524e-11 61.023

54.8464 6.14827 -1.81043e-11
6.14827 63.4246 -5.00955e-12
-1.81043e-11 -5.00955e-12 63.161

49.5055 0.578049 6.64927e-12
0.578049 60.1227 -4.3916e-11
6.64927e-12 -4.3916e-11 54.794

51.2189 1.33822 -6.35553e-12
1.33822 58.7018 -1.40602e-11
-6.35553e-12 -1.40602e-11 54.5464

59.0893 3.7935 -3.38987e-11
3.7935 58.4407 -2.58209e-11
-3.38987e-11 -2.58209e-11 59.86

52.8995 3.19003 -5.71167e-11
3.19003 52.5089 -2.23478e-11
-5.71167e-11 -2.23478e-11 51.7966

52.8329 -3.3038 -2.85056e-11
-3.3038 60.5242 2.54273e-11
-2.85056e-11 2.54273e-11 57.4149

62.0802 -5.76968 -6.9307e-12
-5.76968 68.3838 -3.29357e-11
-6.9307e-12 -3.29357e-11 66.049

35.0969 1.91338 4.60438e-11
1.91338 37.8168 2.65929e-11
4.60438e-11 2.65929e-11 35.3928

37.2058 1.99477 6.9266e-11
1.99477 35.6498 2.31168e-11
6.9266e-11 2.31168e-11 35.3859

45.6132 -4.27355 8.48181e-12
-4.27355 46.6714 -6.6269e-11
8.48181e-12 -6.6269e-11 44.5701

59.3073 -3.97185 -5.58006e-12
-3.97185 59.8018 -3.15878e-11
-5.58006e-12 -3.15878e-11 59.9357

62.4877 -1.18797 4.91172e-11
-1.18797 52.9433 1.92592e-11
4.91172e-11 1.92592e-11 57.8523

79.2984 4.29868 2.89599e-11
4.29868 81.6954 -4.19812e-11
2.89599e-11 -4.19812e-11 76.6619

82.7302 -4.67625 -1.70893e-11
-4.67625 75.9782 -2.83041e-11
-1.70893e-11 -2.83041e-11 76.217

57.6331 -5.87013 -1.74305e-11
-5.87013 63.691 6.93564e-12
-1.74305e-11 6.93564e-12 60.6345

72.4308 1.08936 2.4263e-11
1.08936 69.8936 -6.54795e-12
2.4263e-11 -6.54795e-12 71.4305

74.1695 -4.45686 2.15773e-11
-4.45686 74.3194 -3.35041e-11
2.15773e-11 -3.35041e-11 72.3481

62.771 -1.55007 -1.90701e-11
-1.55007 54.1532 3.04326e-11
-1.90701e-11 3.04326e-11 59.8709

56.032 -6.09231 2.88969e-12
-6.09231 63.1398 -8.47307e-12
2.88969e-12 -8.47307e-12 63.1948

36.8324 -3.7329 3.23625e-11
-3.7329 38.4335 1.2708e-11
3.23625e-11 1.2708e-11 36.7599

38.2156 2.72038 6.35381e-12
2.72038 38.0695 -1.41594e-11
6.35381e-12 -1.41594e-11 37.0586

38.046 -2.22529 1.34872e-11
-2.22529 43.4145 1.23292e-11
1.34872e-11 1.23292e-11 39.3315

38.8442 -2.44073 3.56359e-11
-2.44073 44.0753 7.70006e-12
3.56359e-11 7.70006e-12 40.0372

43.9069 -1.85373 2.44595e-11
-1.85373 38.0847 -4.84624e-11
2.44595e-11 -4.84624e-11 39.3496

46.9595 3.30115 -1.77138e-11
3.30115 46.2961 -2.56265e-11
-1.77138e-11 -2.56265e-11 45.0824

59.9212 -6.52556 -3.56182e-12
-6.52556 67.2761 -1.56011e-11
-3.56182e-12 -1.56011e-11 64.2904

34.5175 0.331268 4.16113e-11
0.331268 41.2718 3.83376e-11
4.16113e-11 3.83376e-11 36.9119

40.7475 -0.989595 7.72567e-13
-0.989595 34.3066 -1.92702e-11
7.72567e-13 -1.92702e-11 36.8848

70.3245 0.508417 -2.11803e-11
0.508417 77.1206 -8.05049e-11
-2.11803e-11 -8.05049e-11 71.9169

70.0201 -2.65459 1.79139e-11
-2.65459 72.5464 -6.03772e-11
1.79139e-11 -6.03772e-11 71.0568

66.4753 -3.04777 -1.19399e-11
-3.04777 60.1353 -6.93194e-12
-1.19399e-11 -6.93194e-12 63.6819

66.2148 -0.190229 3.42878e-11
-0.190229 51.6744 1.00152e-11
3.42878e-11 1.00152e-11 63.043

43.8204 -3.27628 3.56393e-11
-3.27628 49.8849 2.92812e-11
3.56393e-11 2.92812e-11 46.0588

45.4028 -3.26857 -3.75566e-12
-3.26857 50.9299 4.91246e-11
-3.75566e-12 4.91246e-11 46.6695

63.4769 -0.181209 1.02084e-11
-0.181209 54.0028 1.1944e-11
1.02084e-11 1.1944e-11 60.2054

54.5171 -4.48807 -1.62741e-11
-4.48807 61.1528 -2.73509e-11
-1.62741e-11 -2.73509e-11 57.7803

72.7443 0.0651164 -2.36646e-11
0.0651164 70.5183 -7.79958e-11
-2.36646e-11 -7.79958e-11 71.279

70.9609 1.34181 -6.02808e-11
1.34181 71.7808 1.23225e-11
-6.02808e-11 1.23225e-11 71.2286

64.0739 -4.22893 -1.88756e-11
-4.22893 61.2254 1.57951e-11
-1.88756e-11 1.57951e-11 63.0199

57.4936 -4.31984 5.78041e-12
-4.31984 60.4064 -2.9273e-11
5.78041e-12 -2.9273e-11 60.3729

65.1793 -3.03692 -1.96528e-11
-3.03692 55.5307 2.65794e-11
-1.96528e-11 2.65794e-11 61.7507

55.851 -3.80442 1.483e-11
-3.80442 61.617 -1.42512e-11
1.483e-11 -1.42512e-11 60.0509

29.5038 -7.24813 -2.73594e-11
-7.24813 30.2075 2.46623e-11
-2.73594e-11 2.46623e-11 30.1845

51.953 -1.66869 3.46698e-11
-1.66869 58.6728 -6.93815e-12
3.46698e-11 -6.93815e-12 54.7822

50.1521 -1.25702 3.29387e-11
-1.25702 60.0978 -7.71383e-13
3.29387e-11 -7.71383e-13 54.8967

69.5301 -0.61278 -5.43018e-11
-0.61278 80.0591 -4.62156e-12
-5.43018e-11 -4.62156e-12 72.547

70.3979 -0.72483 1.92643e-12
-0.72483 72.1273 -2.50429e-12
1.92643e-12 -2.50429e-12 71.3493

71.5817 -0.407858 -1.97911e-11
-0.407858 59.5789 3.2736e-12
-1.97911e-11 3.2736e-12 66.5993

70.6609 0.201003 -1.77202e-11
0.201003 60.0242 1.9252e-12
-1.77202e-11 1.9252e-12 66.5563

65.9174 3.17 -4.17922e-11
3.17 64.0349 4.62082e-12
-4.17922e-11 4.62082e-12 66.2794

67.1328 -5.68989 7.71901e-13
-5.68989 63.6474 -3.21965e-15
7.71901e-13 -3.21965e-15 66.0742

72.7445 1.13352 4.46797e-11
1.13352 72.144 -2.50429e-12
4.46797e-11 -2.50429e-12 71.4798

75.1115 -2.02994 6.43226e-11
-2.02994 72.2454 1.4253e-11
6.43226e-11 1.4253e-11 71.7619

77.4403 -2.21687 7.03022e-11
-2.21687 74.9686 -1.5348e-10
7.03022e-11 -1.5348e-10 74.6368

78.0962 6.65528 -5.18869e-11
6.65528 80.9916 -2.31174e-11
-5.18869e-11 -2.31174e-11 75.9762

62.5406 -5.87703 -1.95007e-11
-5.87703 68.7114 2.58084e-11
-1.95007e-11 2.58084e-11 66.5047

59.6446 7.27547 -7.17456e-12
7.27547 64.5019 3.46624e-12
-7.17456e-12 3.46624e-12 65.5885

57.9908 2.94169 4.89265e-11
2.94169 53.2285 2.697e-11
4.89265e-11 2.697e-11 55.8537

53.7283 -2.50945 2.69789e-12
-2.50945 61.9017 3.85236e-11
2.69789e-12 3.85236e-11 58.1714

56.661 -3.80614 1.82977e-11
-3.80614 62.1005 1.65636e-11
1.82977e-11 1.65636e-11 58.6067

58.2694 -3.09675 -3.33262e-11
-3.09675 54.0785 -9.43634e-12
-3.33262e-11 -9.43634e-12 55.9757

56.4456 2.86362 1.47308e-11
2.86362 61.3143 -3.85203e-12
1.47308e-11 -3.85203e-12 58.191

53.6725 1.69108 8.52233e-12
1.69108 62.1069 -4.39173e-11
8.52233e-12 -4.39173e-11 58.1286

54.8578 4.06487 -6.64698e-12
4.06487 54.6617 2.96619e-11
-6.64698e-12 2.96619e-11 54.9813

63.3965 4.87502 8.8568e-12
4.87502 67.5138 -1.04003e-11
8.8568e-12 -1.04003e-11 66.6684

62.4194 -6.51554 1.30982e-11
-6.51554 65.0559 3.08196e-12
1.30982e-11 3.08196e-12 66.0706

55.5307 -4.97829 5.72045e-11
-4.97829 55.9423 -1.27115e-11
5.72045e-11 -1.27115e-11 55.162

67.1683 1.44292 -5.58516e-12
1.44292 60.9642 -4.71864e-11
-5.58516e-12 -4.71864e-11 64.7143

88.0224 -2.19774 -1.10152e-10
-2.19774 86.771 7.77841e-11
-1.10152e-10 7.77841e-11 78.8561

75.0113 1.33744 -7.39515e-11
1.33744 76.2871 1.50299e-10
-7.39515e-11 1.50299e-10 74.5846

61.3538 -4.93037 -1.21347e-11
-4.93037 66.2169 2.40759e-11
-1.21347e-11 2.40759e-11 63.7397

62.8962 -4.88555 -9.63067e-12
-4.88555 57.6832 -2.38813e-11
-9.63067e-12 -2.38813e-11 61.1537

72.6663 -0.422668 2.31088e-11
-0.422668 67.354 1.772e-11
2.31088e-11 1.772e-11 69.5074

36.6378 -3.43226 -1.75262e-11
-3.43226 37.9607 -1.90757e-11
-1.75262e-11 -1.90757e-11 35.959

38.2886 -3.06367 -3.94994e-11
-3.06367 36.1916 -2.05186e-11
-3.94994e-11 -2.05186e-11 36.0118

72.4506 0.33611 -9.03031e-12
0.33611 62.0399 6.16249e-11
-9.03031e-12 6.16249e-11 67.8877

70.7116 -0.263959 -8.37832e-12
-0.263959 62.4795 -1.38651e-11
-8.37832e-12 -1.38651e-11 67.6604

72.848 -0.0634393 -5.00736e-12
-0.0634393 64.5811 -1.7335e-12
-5.00736e-12 -1.7335e-12 69.3545

56.6804 2.08291 4.19072e-12
2.08291 50.7535 -3.42876e-11
4.19072e-12 -3.42876e-11 52.4548

64.3721 -3.14236 2.3353e-11
-3.14236 66.782 7.58842e-11
2.3353e-11 7.58842e-11 65.561

63.7174 3.81548 3.68355e-11
3.81548 63.8171 -3.54362e-11
3.68355e-11 -3.54362e-11 65.0924

81.4069 -3.4886 8.09264e-12
-3.4886 73.615 -8.75967e-11
8.09264e-12 -8.75967e-11 75.4378

85.4705 -0.372305 -4.23791e-12
-0.372305 89.1355 -6.26973e-11
-4.23791e-12 -6.26973e-11 78.9022

58.4174 -5.5377 -1.42525e-11
-5.5377 65.2022 2.33071e-11
-1.42525e-11 2.33071e-11 62.5095

61.2297 -3.88812 5.58894e-12
-3.88812 55.2767 -1.19399e-11
5.58894e-12 -1.19399e-11 58.2469

69.2785 0.852487 -2.04111e-11
0.852487 66.0581 5.58484e-11
-2.04111e-11 5.58484e-11 67.8357

70.2351 0.13159 -4.87232e-11
0.13159 65.3675 -2.23394e-11
-4.87232e-11 -2.23394e-11 67.8048

58.7802 -2.22765 1.38684e-11
-2.22765 65.5186 3.07998e-12
1.38684e-11 3.07998e-12 63.3642

58.0468 -4.08307 2.65771e-11
-4.08307 62.9923 -4.23755e-12
2.65771e-11 -4.23755e-12 63.4143

30.8936 6.12865 3.37184e-11
6.12865 29.9186 1.73846e-12
3.37184e-11 1.73846e-12 30.5702

65.81 3.26819 -3.19688e-11
3.26819 69.8413 1.30954e-11
-3.19688e-11 1.30954e-11 68.4282

65.5472 -4.2536 -2.30841e-12
-4.2536 69.1942 1.42525e-11
-2.30841e-12 1.42525e-11 68.1271

56.6472 -3.8632 2.59992e-11
-3.8632 63.8281 -8.85965e-12
2.59992e-11 -8.85965e-12 62.2733

57.6404 -2.60929 -2.07076e-11
-2.60929 52.2487 1.2716e-11
-2.07076e-11 1.2716e-11 53.1683

64.0769 2.83432 2.98553e-11
2.83432 63.1493 3.50502e-11
2.98553e-11 3.50502e-11 63.7936

66.6514 2.97541 -2.59986e-11
2.97541 67.1446 -3.96777e-11
-2.59986e-11 -3.96777e-11 67.2064

68.3044 -4.58198 -4.23624e-12
-4.58198 64.4552 4.35263e-11
-4.23624e-12 4.35263e-11 66.8455

65.7243 1.14522 1.34819e-11
1.14522 55.873 6.33615e-11
1.34819e-11 6.33615e-11 62.632

72.2149 -0.52728 -1.51422e-11
-0.52728 69.0058 8.0882e-12
-1.51422e-11 8.0882e-12 70.4526

73.553 0.825477 3.02964e-11
0.825477 67.1973 -2.81145e-11
3.02964e-11 -2.81145e-11 70.3404

76.1895 1.51845 7.10532e-11
1.51845 86.3792 -4.77596e-11
7.10532e-11 -4.77596e-11 76.1376

74.3367 0.28713 1.07819e-11
0.28713 80.3952 -5.03594e-11
1.07819e-11 -5.03594e-11 74.9341

30.3241 -1.56795 -4.14238e-11
-1.56795 26.3141 -1.15588e-11
-4.14238e-11 -1.15588e-11 31.0654

24.7813 -1.04214 -3.08168e-12
-1.04214 30.7296 3.89231e-11
-3.08168e-12 3.89231e-11 30.8313

61.8416 -4.87755 2.51337e-11
-4.87755 67.7344 -7.70217e-13
2.51337e-11 -7.70217e-13 64.8523

60.8152 4.23074 -2.96112e-11
4.23074 63.4837 -2.46569e-11
-2.96112e-11 -2.46569e-11 64.2074

60.1544 -6.52585 -1.42493e-11
-6.52585 67.302 -2.29195e-11
-1.42493e-11 -2.29195e-11 64.2106

29.7216 1.67092 2.98695e-11
1.67092 29.4839 -6.47355e-11
2.98695e-11 -6.47355e-11 31.1867

30.2278 2.51951 -1.13688e-11
2.51951 28.5753 -1.50248e-11
-1.13688e-11 -1.50248e-11 31.1377

69.1601 5.33699 -1.01413e-10
5.33699 86.1573 -3.85357e-12
-1.01413e-10 -3.85357e-12 75.6818

74.9876 -4.20817 -4.50318e-11
-4.20817 83.0044 -1.58109e-10
-4.50318e-11 -1.58109e-10 76.2219

61.3879 3.9438 1.56028e-11
3.9438 61.5569 3.90978e-11
1.56028e-11 3.90978e-11 62.2885

55.9553 -4.70698 2.77389e-11
-4.70698 58.7338 -2.85068e-11
2.77389e-11 -2.85068e-11 56.7001

60.887 -4.67577 2.66738e-11
-4.67577 64.4307 3.46693e-11
2.66738e-11 3.46693e-11 63.3621

60.5969 4.70648 -4.94529e-11
4.70648 62.3737 -7.32355e-12
-4.94529e-11 -7.32355e-12 63.2204

57.2775 -5.4599 -6.07122e-12
-5.4599 61.631 5.16212e-11
-6.07122e-12 5.16212e-11 59.503

55.2897 3.79555 3.23584e-11
3.79555 57.3341 -1.0779e-11
3.23584e-11 -1.0779e-11 56.5219

38.0576 -1.99103 -1.27166e-11
-1.99103 44.0194 8.471e-12
-1.27166e-11 8.471e-12 39.9591

39.2642 -1.71299 2.25384e-11
-1.71299 44.0589 2.42713e-11
2.25384e-11 2.42713e-11 40.0207

44.277 -1.39452 2.39893e-11
-1.39452 38.6469 1.32863e-11
2.39893e-11 1.32863e-11 39.7878

56.3054 4.25881 2.37894e-11
4.25881 59.6667 4.00665e-11
2.37894e-11 4.00665e-11 59.1984

34.5994 -0.219373 -4.00717e-11
-0.219373 40.9938 -3.46848e-12
-4.00717e-11 -3.46848e-12 36.9546

40.7361 0.436025 -5.71306e-11
0.436025 35.2901 5.1626e-11
-5.71306e-11 5.1626e-11 36.9241

63.961 -4.46219 -1.01548e-11
-4.46219 68.2526 -3.42842e-11
-1.01548e-11 -3.42842e-11 66.7563

63.6101 5.42063 3.3609e-11
5.42063 64.9486 4.16114e-11
3.3609e-11 4.16114e-11 66.3723

64.823 -3.55449 2.58527e-11
-3.55449 68.8993 6.20124e-11
2.58527e-11 6.20124e-11 67.3836

64.5883 4.79459 5.74858e-11
4.79459 67.7064 -6.53921e-12
5.74858e-11 -6.53921e-12 67.3329

28.4091 -3.19938 4.04946e-12
-3.19938 28.8848 -3.27548e-11
4.04946e-12 -3.27548e-11 30.4848

28.3596 -3.11935 3.10281e-11
-3.11935 29.2214 -8.07776e-12
3.10281e-11 -8.07776e-12 30.6005

59.7014 3.97231 -4.62255e-11
3.97231 60.581 4.92993e-11
-4.62255e-11 4.92993e-11 61.1497

60.2056 -4.31069 1.72351e-11
-4.31069 63.346 4.10242e-11
1.72351e-11 4.10242e-11 61.4913

73.1177 -1.1231 5.43092e-11
-1.1231 78.1484 -5.19983e-11
5.43092e-11 -5.19983e-11 73.1725

71.8242 -1.34542 8.30007e-11
-1.34542 72.9333 -5.64252e-11
8.30007e-11 -5.64252e-11 72.1335

64.1814 -4.64307 -1.36722e-11
-4.64307 71.2373 -1.09772e-11
-1.36722e-11 -1.09772e-11 68.1594

62.3787 4.96533 6.022e-12
4.96533 69.0485 -1.84867e-11
6.022e-12 -1.84867e-11 67.6836

71.5136 -0.0653874 3.21165e-11
-0.0653874 65.9639 -5.70021e-11
3.21165e-11 -5.70021e-11 69.5998

69.7381 1.05381 2.40948e-11
1.05381 66.7774 5.39091e-12
2.40948e-11 5.39091e-12 69.4559

62.4157 4.41546 -1.34618e-12
4.41546 65.5637 -2.25344e-11
-1.34618e-12 -2.25344e-11 64.6633

62.5824 -4.6792 -5.39332e-12
-4.6792 62.7462 5.00492e-12
-5.39332e-12 5.00492e-12 63.9336

71.204 -1.92864 -1.02079e-11
-1.92864 77.5267 7.67439e-11
-1.02079e-11 7.67439e-11 73.1387

75.689 1.87628 -1.11703e-11
1.87628 73.1883 -1.29021e-11
-1.11703e-11 -1.29021e-11 73.2565

79.7065 -4.56665 3.77377e-11
-4.56665 76.3118 2.69161e-12
3.77377e-11 2.69161e-12 74.3811

72.1665 -0.805178 -2.21495e-11
-0.805178 82.751 7.47233e-11
-2.21495e-11 7.47233e-11 74.143

73.9691 1.28376 2.33756e-11
1.28376 72.74 -2.16572e-11
2.33756e-11 -2.16572e-11 72.732

72.292 0.165366 -3.40665e-11
0.165366 77.7011 6.27779e-11
-3.40665e-11 6.27779e-11 74.1603

76.371 -1.40573 -4.34276e-11
-1.40573 71.4678 1.83878e-11
-4.34276e-11 1.83878e-11 72.9558

76.7843 -0.520033 -8.82247e-11
-0.520033 74.1303 4.10143e-11
-8.82247e-11 4.10143e-11 74.3395

73.3524 -2.54049 2.28388e-10
-2.54049 75.9273 -6.7014e-11
2.28388e-10 -6.7014e-11 73.6453

76.6159 6.12482 2.21836e-10
6.12482 81.8624 3.57092e-10
2.21836e-10 3.57092e-10 75.5385

92.1826 1.76086 2.24316e-10
1.76086 90.9087 1.18239e-10
2.24316e-10 1.18239e-10 81.2341

94.3697 -2.92514 6.73035e-10
-2.92514 71.4975 5.0609e-10
6.73035e-10 5.0609e-10 77.8294

74.9275 -3.30462 -3.09095e-11
-3.30462 74.5905 2.73438e-11
-3.09095e-11 2.73438e-11 73.3436

69.6229 -2.43242 2.41201e-11
-2.43242 73.7512 -8.85863e-12
2.41201e-11 -8.85863e-12 71.0889

77.1437 5.71628 -5.81606e-11
5.71628 75.1838 -2.0418e-11
-5.81606e-11 -2.0418e-11 73.9874

69.8566 3.2077 -3.97655e-11
3.2077 71.7534 -2.88935e-11
-3.97655e-11 -2.88935e-11 70.9021

78.7708 6.54624 -2.5005e-11
6.54624 84.4652 -2.38817e-11
-2.5005e-11 -2.38817e-11 76.9699

76.649 -0.705314 -2.49697e-12
-0.705314 75.1052 1.95651e-10
-2.49697e-12 1.95651e-10 74.6864

69.4038 -2.16619 1.46825e-11
-2.16619 72.7559 6.76002e-11
1.46825e-11 6.76002e-11 71.2148

74.6496 -1.30017 -8.77407e-11
-1.30017 74.4637 1.75233e-11
-8.77407e-11 1.75233e-11 73.4509

70.9145 5.36262 -4.43979e-11
5.36262 74.0322 -1.42573e-11
-4.43979e-11 -1.42573e-11 71.8727

72.5891 3.55636 -6.81285e-12
3.55636 75.916 -4.19824e-11
-6.81285e-12 -4.19824e-11 73.3633

58.7647 1.25354 1.92503e-12
1.25354 67.6734 -7.74047e-13
1.92503e-12 -7.74047e-13 63.7373

68.1925 -0.48293 -1.77182e-11
-0.48293 70.7303 -5.78004e-12
-1.77182e-11 -5.78004e-12 68.7103

62.5725 1.20352 1.63251e-11
1.20352 52.6993 6.89503e-11
1.63251e-11 6.89503e-11 57.4556

59.9057 0.291768 -5.78863e-11
0.291768 50.7654 1.98394e-11
-5.78863e-11 1.98394e-11 54.0952

60.2664 1.41891 -1.96439e-11
1.41891 72.0762 1.15534e-11
-1.96439e-11 1.15534e-11 67.1532

69.5397 0.369828 9.24216e-12
0.369828 73.189 2.13765e-11
9.24216e-12 2.13765e-11 72.1756

60.2523 -0.463378 -3.55385e-11
-0.463378 50.9442 -1.6564e-11
-3.55385e-11 -1.6564e-11 54.4933

69.3581 -0.277325 1.861e-11
-0.277325 58.4883 2.07986e-11
1.861e-11 2.07986e-11 64.51

41.1304 -2.78239 -1.45464e-11
-2.78239 47.2906 1.57971e-11
-1.45464e-11 1.57971e-11 43.0546

44.9553 4.50753 -1.98403e-11
4.50753 49.7645 1.57945e-11
-1.98403e-11 1.57945e-11 45.2378

47.3386 4.26609 -4.10341e-11
4.26609 42.727 -1.54847e-12
-4.10341e-11 -1.54847e-12 43.8619

70.6654 5.15521 4.80579e-13
5.15521 73.7674 -6.35536e-12
4.80579e-13 -6.35536e-12 71.6701

66.7567 -1.74867 -2.2526e-11
-1.74867 71.9895 -6.39423e-11
-2.2526e-11 -6.39423e-11 69.1369

60.1105 4.39374 1.42052e-11
4.39374 62.4325 5.58886e-12
1.42052e-11 5.58886e-12 60.053

66.7635 3.87873 5.10181e-12
3.87873 71.9798 1.34951e-12
5.10181e-12 1.34951e-12 69.9979

59.5942 -1.39495 -4.0629e-11
-1.39495 72.0746 -6.47168e-11
-4.0629e-11 -6.47168e-11 66.8619

64.2176 -0.86515 1.93597e-11
-0.86515 54.7642 1.54107e-11
1.93597e-11 1.54107e-11 60.2949

48.9259 2.05688 -2.14765e-11
2.05688 55.2765 -1.34988e-12
-2.14765e-11 -1.34988e-12 49.4633

44.8249 -0.537913 -6.93508e-12
-0.537913 53.1669 1.50298e-11
-6.93508e-12 1.50298e-11 47.4253

53.241 2.09615 -5.785e-12
2.09615 46.2271 7.32285e-12
-5.785e-12 7.32285e-12 47.8486

55.4663 -2.17331 -2.89206e-12
-2.17331 48.1342 -1.04028e-11
-2.89206e-12 -1.04028e-11 50.8558

52.3106 3.74215 -2.73475e-11
3.74215 58.2543 -3.47426e-12
-2.73475e-11 -3.47426e-12 54.732

59.3249 -2.84088 -8.08538e-12
-2.84088 61.456 -4.73831e-11
-8.08538e-12 -4.73831e-11 58.5453

63.2156 -1.39967 -2.76907e-11
-1.39967 52.8535 -2.85061e-11
-2.76907e-11 -2.85061e-11 58.0824

41.9077 2.83253 -1.88814e-11
2.83253 45.1551 2.77405e-11
-1.88814e-11 2.77405e-11 40.8775

67.919 0.297876 -5.60848e-12
0.297876 56.7521 1.86823e-11
-5.60848e-12 1.86823e-11 63.0217

43.3956 3.05982 8.08686e-12
3.05982 40.3928 -4.24157e-12
8.08686e-12 -4.24157e-12 39.9865

67.3451 0.337108 3.00438e-11
0.337108 74.0966 -5.38976e-12
3.00438e-11 -5.38976e-12 69.7963

73.4367 1.77719 -3.27371e-12
1.77719 75.0866 1.38655e-11
-3.27371e-12 1.38655e-11 73.6506

76.3457 -4.5644 -4.96851e-11
-4.5644 76.82 5.01051e-12
-4.96851e-11 5.01051e-12 74.6562

78.2349 1.98573 -6.14553e-11
1.98573 75.0629 3.11918e-11
-6.14553e-11 3.11918e-11 74.6898

52.3544 -0.649765 2.81234e-11
-0.649765 45.1941 1.00202e-11
2.81234e-11 1.00202e-11 46.5577

58.0043 5.34754 7.9922e-12
5.34754 60.9872 2.15736e-11
7.9922e-12 2.15736e-11 58.9673

70.5917 0.797319 -1.74727e-12
0.797319 69.5575 3.65905e-11
-1.74727e-12 3.65905e-11 69.5159

68.9804 -2.43462 4.15149e-12
-2.43462 68.4784 -3.65917e-11
4.15149e-12 -3.65917e-11 69.261

70.4143 -0.317826 4.95975e-12
-0.317826 57.6389 5.39272e-12
4.95975e-12 5.39272e-12 64.66

51.5344 4.42247 2.09997e-11
4.42247 55.9794 -3.73705e-11
2.09997e-11 -3.73705e-11 53.8006

57.0357 -4.03144 -1.05955e-11
-4.03144 60.2016 -6.16433e-12
-1.05955e-11 -6.16433e-12 57.439

56.1424 -2.84536 2.43724e-11
-2.84536 51.4135 -3.12038e-11
2.43724e-11 -3.12038e-11 52.4957

68.6616 -0.674965 1.06898e-11
-0.674965 56.0274 -5.00629e-12
1.06898e-11 -5.00629e-12 63.1675

54.4199 5.21544 -7.12615e-12
5.21544 59.6991 3.255e-11
-7.12615e-12 3.255e-11 55.2735

50.9993 -3.59799 1.38683e-11
-3.59799 55.6218 -5.39598e-12
1.38683e-11 -5.39598e-12 53.2503

55.3134 4.82342 1.35044e-12
4.82342 60.4094 3.10119e-11
1.35044e-12 3.10119e-11 56.0705

51.2074 -2.89096 -3.17864e-12
-2.89096 58.2906 -2.85079e-11
-3.17864e-12 -2.85079e-11 54.2525

68.5797 -2.3895 -6.55039e-12
-2.3895 70.5885 3.1393e-11
-6.55039e-12 3.1393e-11 69.54

57.1191 3.36205 1.48291e-11
3.36205 65.539 6.93297e-12
1.48291e-11 6.93297e-12 62.9098

51.2625 -4.19485 -6.1684e-12
-4.19485 49.5516 -1.97028e-13
-6.1684e-12 -1.97028e-13 49.3065

32.3966 -3.71234 2.92871e-11
-3.71234 31.8652 -3.52623e-11
2.92871e-11 -3.52623e-11 32.0901

30.6541 -3.98944 1.5602e-11
-3.98944 32.6555 4.23813e-12
1.5602e-11 4.23813e-12 31.8339

65.1189 6.25026 3.12938e-11
6.25026 71.7504 -8.66577e-12
3.12938e-11 -8.66577e-12 68.8091

58.9204 -4.0749 5.56604e-11
-4.0749 68.6324 -1.73317e-11
5.56604e-11 -1.73317e-11 66.0378

30.8867 -0.801996 2.46618e-11
-0.801996 30.9255 1.31017e-11
2.46618e-11 1.31017e-11 32.4458

31.5854 -0.860349 1.25229e-11
-0.860349 32.2056 -6.74024e-12
1.25229e-11 -6.74024e-12 32.9386

73.0528 3.57708 1.58011e-11
3.57708 69.2556 -2.38758e-11
1.58011e-11 -2.38758e-11 70.4769

77.9987 -2.72566 2.61941e-11
-2.72566 72.6414 -2.3292e-11
2.61941e-11 -2.3292e-11 75.308

65.0416 -0.123633 -1.56006e-11
-0.123633 55.9739 3.86173e-13
-1.56006e-11 3.86173e-13 62.4206

72.4166 5.02619 2.69969e-12
5.02619 68.7318 4.0051e-11
2.69969e-12 4.0051e-11 70.2536

76.8667 -3.62932 2.8511e-11
-3.62932 69.5529 -3.21501e-11
2.8511e-11 -3.21501e-11 74.003

53.432 3.55039 7.68385e-13
3.55039 60.9468 -6.55046e-12
7.68385e-13 -6.55046e-12 57.8963

60.8017 -2.80009 -1.57917e-11
-2.80009 65.0925 -8.09293e-12
-1.57917e-11 -8.09293e-12 62.4261

76.8914 1.75364 1.20366e-11
1.75364 71.597 4.54377e-12
1.20366e-11 4.54377e-12 73.0817

74.4103 -2.30633 1.58646e-11
-2.30633 72.8482 -2.72883e-11
1.58646e-11 -2.72883e-11 72.8342

66.634 5.42207 -2.00311e-11
5.42207 62.9733 3.03786e-11
-2.00311e-11 3.03786e-11 65.5996

71.5865 -4.28774 -1.61741e-11
-4.28774 65.8706 -2.79451e-12
-1.61741e-11 -2.79451e-12 69.4915

46.2858 -2.89912 -6.5549e-12
-2.89912 41.636 -1.92651e-11
-6.5549e-12 -1.92651e-11 42.5109

71.4895 -0.148153 -1.48315e-11
-0.148153 80.8081 1.46337e-11
-1.48315e-11 1.46337e-11 73.5835

77.5895 1.08875 -5.19886e-12
1.08875 80.6186 -1.20365e-11
-5.19886e-12 -1.20365e-11 78.9126

36.9417 -0.511229 -1.06003e-11
-0.511229 42.3179 -8.09175e-12
-1.06003e-11 -8.09175e-12 38.3636

42.0799 -0.635193 -6.29002e-11
-0.635193 37.4674 -2.69051e-12
-6.29002e-11 -2.69051e-12 38.3014

55.265 3.01163 -3.65778e-12
3.01163 64.7665 9.62948e-12
-3.65778e-12 9.62948e-12 61.4698

64.271 -1.75731 2.48412e-11
-1.75731 69.011 4.23565e-12
2.48412e-11 4.23565e-12 66.7813

89.2791 -1.04054 -1.4904e-10
-1.04054 92.8384 1.0435e-10
-1.4904e-10 1.0435e-10 80.8634

89.832 -3.31609 3.8525e-11
-3.31609 79.815 -2.96591e-11
3.8525e-11 -2.96591e-11 82.1096

64.9197 4.8169 -2.4078e-11
4.8169 58.0312 -9.63415e-12
-2.4078e-11 -9.63415e-12 62.4767

67.8393 -3.17677 1.44392e-11
-3.17677 59.8282 3.10059e-11
1.44392e-11 3.10059e-11 64.9195

51.7466 0.0811096 2.90878e-11
0.0811096 43.9525 1.75315e-11
2.90878e-11 1.75315e-11 45.9198

60.9225 0.156314 1.29063e-11
0.156314 52.61 2.25745e-15
1.29063e-11 2.25745e-15 56.3828

55.9383 2.34217 -1.24215e-11
2.34217 48.1346 -2.11869e-11
-1.24215e-11 -2.11869e-11 50.3887

69.1544 0.858189 2.30949e-12
0.858189 63.4256 -2.75386e-11
2.30949e-12 -2.75386e-11 67.2242

70.6086 -1.70291 9.33665e-11
-1.70291 80.7207 3.50573e-11
9.33665e-11 3.50573e-11 74.6146

75.6787 0.874475 5.46441e-11
0.874475 76.4195 -3.54321e-11
5.46441e-11 -3.54321e-11 74.7789

49.6168 4.06445 3.4482e-11
4.06445 51.2316 2.52363e-11
3.4482e-11 2.52363e-11 47.6422

56.6134 -3.52596 3.94869e-12
-3.52596 54.6935 1.5411e-11
3.94869e-12 1.5411e-11 56.0608

63.0739 3.86467 -3.23641e-11
3.86467 55.8586 -2.35047e-11
-3.23641e-11 -2.35047e-11 59.8044

76.8683 1.65707 -7.47132e-11
1.65707 80.0691 -1.93596e-11
-7.47132e-11 -1.93596e-11 78.3917

75.3176 2.45122 -1.38263e-10
2.45122 83.2639 -7.32536e-12
-1.38263e-10 -7.32536e-12 75.3452

68.2589 -2.04405 -2.02189e-11
-2.04405 64.5868 -2.65785e-11
-2.02189e-11 -2.65785e-11 67.639

65.8147 3.17343 5.97071e-12
3.17343 69.7717 1.59854e-11
5.97071e-12 1.59854e-11 66.9329

58.2387 -0.576813 -1.96402e-11
-0.576813 67.9443 7.69533e-13
-1.96402e-11 7.69533e-13 63.5745

67.0867 2.39436 1.04019e-11
2.39436 56.4024 -8.46912e-12
1.04019e-11 -8.46912e-12 64.0784

68.3557 -0.481637 2.81207e-11
-0.481637 56.6764 7.31942e-12
2.81207e-11 7.31942e-12 65.1332

51.7978 -3.15509 -6.45054e-12
-3.15509 49.7724 8.2816e-12
-6.45054e-12 8.2816e-12 48.2653

70.0986 4.32054 4.81452e-12
4.32054 61.4173 3.3514e-11
4.81452e-12 3.3514e-11 67.0293

72.308 -2.72839 3.37062e-11
-2.72839 61.4681 3.506e-11
3.37062e-11 3.506e-11 69.0498

64.8447 -2.11014 2.00313e-11
-2.11014 57.8458 1.17544e-11
2.00313e-11 1.17544e-11 61.6409

67.3808 3.13781 1.15582e-11
3.13781 59.4986 -5.39232e-12
1.15582e-11 -5.39232e-12 64.7255

68.8139 -1.59935 -9.62193e-16
-1.59935 60.5694 1.10731e-11
-9.62193e-16 1.10731e-11 66.5672

63.561 -1.34336 -4.86411e-12
-1.34336 56.1696 -1.61774e-11
-4.86411e-12 -1.61774e-11 59.8238

60.1996 5.64919 -1.09774e-11
5.64919 62.9535 7.70328e-12
-1.09774e-11 7.70328e-12 63.7282

72.2901 -4.84659 1.69482e-11
-4.84659 69.9311 -1.11709e-11
1.69482e-11 -1.11709e-11 71.2889

56.3233 3.80834 -1.88812e-13
3.80834 54.9704 -3.40952e-11
-1.88812e-13 -3.40952e-11 53.406

70.7927 -3.54465 -2.11847e-12
-3.54465 73.4256 1.67529e-11
-2.11847e-12 1.67529e-11 72.8637

58.3427 3.93768 -7.89709e-12
3.93768 63.8068 6.1625e-12
-7.89709e-12 6.1625e-12 64.0035

56.4953 3.47673 1.94555e-11
3.47673 48.8568 1.54345e-12
1.94555e-11 1.54345e-12 52.0978

62.3432 -3.10777 2.07057e-11
-3.10777 59.2341 -4.23972e-12
2.07057e-11 -4.23972e-12 62.136

63.4862 1.30339 4.7969e-13
1.30339 56.9359 -3.31288e-11
4.7969e-13 -3.31288e-11 59.2993

52.305 4.95809 -1.99347e-11
4.95809 53.1616 -3.19793e-11
-1.99347e-11 -3.19793e-11 51.3058

58.0663 4.00332 3.70333e-11
4.00332 55.8412 -1.03979e-11
3.70333e-11 -1.03979e-11 56.5442

61.125 1.59395 -3.13939e-11
1.59395 67.3918 -2.02248e-11
-3.13939e-11 -2.02248e-11 64.5166

53.938 0.447145 -1.42503e-11
0.447145 66.2587 -8.48003e-12
-1.42503e-11 -8.48003e-12 61.1255

50.0656 -3.04734 -1.7536e-11
-3.04734 43.8753 6.55157e-12
-1.7536e-11 6.55157e-12 45.4997

58.7493 -5.53255 2.15239e-11
-5.53255 63.2409 -9.24831e-12
2.15239e-11 -9.24831e-12 63.6845

61.5895 6.06947 5.10373e-12
6.06947 67.3723 9.4383e-12
5.10373e-12 9.4383e-12 64.7516

55.6407 -4.48137 5.79018e-13
-4.48137 56.0716 -2.09948e-11
5.79018e-13 -2.09948e-11 53.7044

50.7717 5.39761 1.13535e-11
5.39761 53.5058 3.50621e-11
1.13535e-11 3.50621e-11 50.924

62.1056 -2.51099 7.84632e-12
-2.51099 56.5664 2.62838e-11
7.84632e-12 2.62838e-11 59.3472

70.0456 -0.646416 1.94056e-11
-0.646416 59.8958 1.19426e-11
1.94056e-11 1.19426e-11 66.5292

71.2793 0.187212 -1.02572e-11
0.187212 59.5053 6.74076e-12
-1.02572e-11 6.74076e-12 66.5327

57.0094 -4.20471 -4.21817e-11
-4.20471 57.7486 -3.08368e-12
-4.21817e-11 -3.08368e-12 57.3426

44.9053 0.861626 -5.39592e-12
0.861626 53.4294 1.54439e-12
-5.39592e-12 1.54439e-12 47.279

41.2244 0.739272 5.87535e-11
0.739272 51.3617 7.73011e-13
5.87535e-11 7.73011e-13 45.2587

51.3442 0.782722 -1.55998e-11
0.782722 42.5316 -9.82138e-12
-1.55998e-11 -9.82138e-12 45.7739

48.824 4.46725 -2.63866e-11
4.46725 47.7822 -5.04775e-11
-2.63866e-11 -5.04775e-11 46.3685

55.9722 -4.3851 -1.27123e-11
-4.3851 51.6868 4.62334e-12
-1.27123e-11 4.62334e-12 52.6874

76.6672 5.00334 -5.60316e-11
5.00334 82.8742 -2.84066e-11
-5.60316e-11 -2.84066e-11 79.4028

88.1382 -1.3147 -2.15671e-11
-1.3147 88.4085 -8.46793e-12
-2.15671e-11 -8.46793e-12 79.4816

58.2859 -1.48866 1.57921e-11
-1.48866 49.6865 -2.3069e-12
1.57921e-11 -2.3069e-12 53.2948

55.6583 3.94759 -7.31922e-12
3.94759 61.5503 1.92328e-12
-7.31922e-12 1.92328e-12 60.2617

66.0404 -4.46049 5.81831e-13
-4.46049 67.5717 -1.50241e-11
5.81831e-13 -1.50241e-11 66.4709

65.2187 2.04399 -6.1627e-12
2.04399 55.7074 -4.04432e-11
-6.1627e-12 -4.04432e-11 62.0173

52.2025 4.16921 -1.25065e-12
4.16921 59.0996 3.04348e-11
-1.25065e-12 3.04348e-11 53.8761

47.2878 -1.8547 3.06262e-11
-1.8547 56.499 -3.50604e-11
3.06262e-11 -3.50604e-11 51.5416

58.516 4.19537 -2.446e-11
4.19537 68.7118 3.46634e-12
-2.446e-11 3.46634e-12 66.1315

73.5177 -1.72874 -1.07832e-11
-1.72874 76.0091 -2.88984e-12
-1.07832e-11 -2.88984e-12 75.4844

59.3035 4.24605 -9.43649e-12
4.24605 62.6802 2.61919e-11
-9.43649e-12 2.61919e-11 64.1394

72.8864 -4.29981 2.33047e-11
-4.29981 73.3884 2.33034e-11
2.33047e-11 2.33034e-11 73.7572

68.3172 0.344184 1.5411e-12
0.344184 52.2293 6.93322e-12
1.5411e-12 6.93322e-12 64.8377

52.5847 5.41474 1.27166e-11
5.41474 49.6004 1.46446e-11
1.27166e-11 1.46446e-11 50.3629

62.4949 6.48037 -5.53772e-12
6.48037 70.1523 -5.58702e-12
-5.53772e-12 -5.58702e-12 66.2352

58.1668 -4.804 2.05153e-11
-4.804 62.4594 -1.04027e-11
2.05153e-11 -1.04027e-11 64.0583

53.4957 4.58612 4.10284e-11
4.58612 52.901 6.08803e-11
4.10284e-11 6.08803e-11 52.4521

46.1278 -2.78684 1.82883e-12
-2.78684 48.7577 1.74187e-12
1.82883e-12 1.74187e-12 45.4977

57.1653 -4.18193 -3.46737e-11
-4.18193 60.0247 1.34816e-11
-3.46737e-11 1.34816e-11 59.9849

51.0635 -0.890357 -2.46594e-11
-0.890357 56.2507 2.21494e-11
-2.46594e-11 2.21494e-11 50.9626

46.0115 2.37308 -3.4863e-11
2.37308 54.0227 -3.35199e-11
-3.4863e-11 -3.35199e-11 48.473

54.0924 -0.913623 -5.10509e-11
-0.913623 47.9012 1.23297e-11
-5.10509e-11 1.23297e-11 49.1618

57.31 -3.93156 -1.38751e-11
-3.93156 56.335 1.07871e-11
-1.38751e-11 1.07871e-11 55.159

52.267 0.647543 1.7301e-15
0.647543 62.2176 -2.11933e-11
1.7301e-15 -2.11933e-11 56.8842

59.6211 0.904753 -9.05326e-12
0.904753 64.561 4.2372e-12
-9.05326e-12 4.2372e-12 60.2067

47.6822 -3.72377 1.38678e-11
-3.72377 48.7765 1.59914e-11
1.38678e-11 1.59914e-11 46.0411

44.1917 4.63013 -4.56499e-11
4.63013 47.3108 -3.85361e-11
-4.56499e-11 -3.85361e-11 44.3657

66.6647 0.891199 2.92773e-11
0.891199 57.1752 -1.53673e-12
2.92773e-11 -1.53673e-12 65.2229

66.9863 0.00828472 -2.30863e-12
0.00828472 56.8198 -2.90812e-11
-2.30863e-12 -2.90812e-11 65.7601

58.5961 4.72351 9.63377e-13
4.72351 60.9767 -1.34812e-11
9.63377e-13 -1.34812e-11 61.2626

67.4197 -3.92084 7.50866e-12
-3.92084 68.4511 1.3096e-11
7.50866e-12 1.3096e-11 67.5985

64.5435 6.40148 2.3205e-11
6.40148 71.7524 -2.34934e-11
2.3205e-11 -2.34934e-11 68.4557

57.4593 -3.63669 -3.09097e-11
-3.63669 68.0727 -5.00984e-12
-3.09097e-11 -5.00984e-12 65.7506

61.3747 4.2183 2.79214e-12
4.2183 63.0018 -3.08154e-12
2.79214e-12 -3.08154e-12 62.6885

46.0718 2.63515 -1.96495e-11
2.63515 41.3953 -2.13875e-11
-1.96495e-11 -2.13875e-11 41.7892

53.6636 -2.39665 -2.08e-11
-2.39665 59.583 -2.46572e-11
-2.08e-11 -2.46572e-11 55.0248

47.8015 3.23282 1.021e-11
3.23282 56.7445 6.9349e-12
1.021e-11 6.9349e-12 51.927

70.7985 3.85881 -5.01066e-12
3.85881 64.3775 8.08453e-12
-5.01066e-12 8.08453e-12 67.9257

74.2867 -2.21707 2.88915e-11
-2.21707 66.9058 -4.3241e-12
2.88915e-11 -4.3241e-12 71.4266

63.6728 -3.67041 3.47167e-12
-3.67041 60.0857 -1.52156e-11
3.47167e-12 -1.52156e-11 61.2394

65.5491 4.55866 -2.54211e-11
4.55866 60.2165 2.04092e-11
-2.54211e-11 2.04092e-11 63.2464

68.9329 -3.18512 -1.40541e-11
-3.18512 63.7965 -1.36728e-11
-1.40541e-11 -1.36728e-11 66.5665

31.0945 -1.21251 1.29127e-11
-1.21251 25.4992 4.62704e-12
1.29127e-11 4.62704e-12 31.7456

25.0176 -1.50453 -2.56219e-11
-1.50453 30.1895 -1.65706e-11
-2.56219e-11 -1.65706e-11 31.3845

80.0701 5.13842 -2.57979e-11
5.13842 75.3689 4.81392e-11
-2.57979e-11 4.81392e-11 74.6078

82.7054 -3.61363 -2.46592e-11
-3.61363 73.0316 5.41e-11
-2.46592e-11 5.41e-11 77.4914

60.0853 5.01055 9.05453e-12
5.01055 56.579 -9.62349e-12
9.05453e-12 -9.62349e-12 58.2209

46.1398 2.38477 -3.64103e-11
2.38477 40.4132 4.64237e-11
-3.64103e-11 4.64237e-11 41.481

60.7568 4.47051 1.04021e-11
4.47051 67.6651 2.061e-11
1.04021e-11 2.061e-11 64.1162

54.7127 -1.73008 -1.73367e-12
-1.73008 66.1665 3.04328e-11
-1.73367e-12 3.04328e-11 61.6376

49.7741 -4.25459 -3.18279e-12
-4.25459 51.7583 2.92803e-11
-3.18279e-12 2.92803e-11 49.7988

67.2467 2.75309 -3.27397e-12
2.75309 71.2632 -1.44461e-11
-3.27397e-12 -1.44461e-11 69.2132

74.2372 -1.5574 1.81007e-11
-1.5574 76.2005 1.72362e-11
1.81007e-11 1.72362e-11 75.6033

54.5931 3.35092 -1.3006e-11
3.35092 48.7877 2.79315e-11
-1.3006e-11 2.79315e-11 50.002

60.3048 1.80872 2.8707e-11
1.80872 51.8381 2.04166e-11
2.8707e-11 2.04166e-11 55.9252

55.8461 6.26429 4.04332e-12
6.26429 63.7589 -9.24616e-12
4.04332e-12 -9.24616e-12 63.6187

74.6914 -3.21704 1.56009e-11
-3.21704 74.5034 -7.31844e-12
1.56009e-11 -7.31844e-12 74.8588

56.818 5.1819 -2.40769e-11
5.1819 64.1311 -2.31333e-12
-2.40769e-11 -2.31333e-12 59.7691

52.4165 -2.77566 -2.98631e-12
-2.77566 61.0301 2.00338e-11
-2.98631e-12 2.00338e-11 57.7151

61.1048 5.65918 1.05937e-11
5.65918 58.5109 9.24594e-12
1.05937e-11 9.24594e-12 60.6846

66.5645 -4.81814 3.21649e-11
-4.81814 62.3949 2.89628e-12
3.21649e-11 2.89628e-12 64.5853

50.4399 1.60542 7.31929e-12
1.60542 60.7606 1.8878e-11
7.31929e-12 1.8878e-11 55.4464

57.0052 -0.119877 2.65784e-11
-0.119877 63.0492 2.02284e-11
2.65784e-11 2.02284e-11 58.7917

35.3149 -1.83536 -2.62012e-11
-1.83536 38.2909 -4.2776e-11
-2.62012e-11 -4.2776e-11 35.5351

37.8033 -1.78097 3.16929e-11
-1.78097 35.8179 1.34886e-11
3.16929e-11 1.34886e-11 35.5137

62.7616 2.93852 -4.14132e-11
2.93852 54.1418 -5.39859e-12
-4.14132e-11 -5.39859e-12 59.3144

90.6178 0.894313 -1.17094e-10
0.894313 83.7463 2.01019e-10
-1.17094e-10 2.01019e-10 79.1925

89.4278 -3.20642 1.35203e-10
-3.20642 77.8187 -7.89023e-11
1.35203e-10 -7.89023e-11 81.1361

70.6585 -4.25076 1.45407e-11
-4.25076 75.2798 -8.08867e-11
1.45407e-11 -8.08867e-11 72.3345

70.9778 1.33221 -7.19669e-12
1.33221 73.0226 4.91075e-11
-7.19669e-12 4.91075e-11 71.89

66.6059 -0.251586 7.7501e-12
-0.251586 55.1867 7.569e-11
7.7501e-12 7.569e-11 60.6307

61.7407 6.96507 -2.41685e-11
6.96507 69.6516 1.36717e-11
-2.41685e-11 1.36717e-11 65.9217

54.5224 -6.5386 1.57958e-11
-6.5386 63.45 -2.27283e-11
1.57958e-11 -2.27283e-11 63.3359

37.6693 3.48025 -2.50178e-12
3.48025 39.1308 1.27143e-11
-2.50178e-12 1.27143e-11 37.4405

40.1405 3.65517 9.05668e-12
3.65517 39.6258 -9.14439e-12
9.05668e-12 -9.14439e-12 38.236

40.2901 -1.33489 9.83029e-12
-1.33489 45.8206 5.97122e-12
9.83029e-12 5.97122e-12 41.3405

39.2287 2.76025 1.36828e-11
2.76025 44.6123 -2.31074e-12
1.36828e-11 -2.31074e-12 40.4858

45.1311 -0.667282 1.58001e-11
-0.667282 39.2909 -3.15986e-11
1.58001e-11 -3.15986e-11 40.7629

36.6056 1.62677 4.04114e-12
1.62677 43.1494 3.10165e-11
4.04114e-12 3.10165e-11 38.4993

41.5966 1.90661 -6.16411e-12
1.90661 35.9292 -1.53669e-12
-6.16411e-12 -1.53669e-12 37.9045

70.069 0.487203 -7.70332e-12
0.487203 77.3215 -1.77187e-11
-7.70332e-12 -1.77187e-11 72.1398

73.0906 3.66399 2.11734e-12
3.66399 77.0641 7.21882e-12
2.11734e-12 7.21882e-12 74.4644

68.247 0.589929 3.05764e-11
0.589929 62.2484 4.62127e-12
3.05764e-11 4.62127e-12 64.6161

70.0867 -0.112325 9.3429e-12
-0.112325 56.6196 -1.07854e-11
9.3429e-12 -1.07854e-11 64.359

48.8493 -2.21717 5.58908e-12
-2.21717 53.6684 1.40606e-11
5.58908e-12 1.40606e-11 49.3889

45.0243 3.32892 -6.85816e-11
3.32892 50.8684 1.91795e-12
-6.85816e-11 1.91795e-12 47.0182

66.5319 -0.166025 3.32845e-13
-0.166025 54.8586 1.88782e-11
3.32845e-13 1.88782e-11 60.725

76.0578 2.83945 -2.00306e-11
2.83945 71.4611 6.12371e-11
-2.00306e-11 6.12371e-11 72.3085

79.0411 -2.02109 5.31489e-11
-2.02109 71.5249 1.27252e-11
5.31489e-11 1.27252e-11 75.5146

64.3904 2.75208 -8.66499e-12
2.75208 65.1833 6.15889e-12
-8.66499e-12 6.15889e-12 64.2175

57.3942 -4.55889 -3.89998e-11
-4.55889 61.2136 1.04008e-11
-3.89998e-11 1.04008e-11 61.1169

59.8643 5.85522 -1.56977e-11
5.85522 66.5999 -1.86846e-11
-1.56977e-11 -1.86846e-11 62.5463

66.8227 0.583051 7.66083e-12
0.583051 57.0605 -2.31121e-11
7.66083e-12 -2.31121e-11 62.4423

48.6428 4.1873 2.34065e-11
4.1873 47.4611 4.64245e-11
2.34065e-11 4.64245e-11 45.8778

55.0385 -3.46998 -8.47296e-12
-3.46998 62.2584 1.46392e-11
-8.47296e-12 1.46392e-11 60.4065

59.9116 6.25837 -5.4893e-12
6.25837 65.9968 -1.73387e-12
-5.4893e-12 -1.73387e-12 62.3697

30.2798 7.31365 -5.20165e-12
7.31365 30.8276 1.34833e-11
-5.20165e-12 1.34833e-11 30.6504

49.6836 -0.43791 2.17674e-11
-0.43791 60.5754 1.84934e-11
2.17674e-11 1.84934e-11 55.0825

54.9262 2.38492 2.4075e-11
2.38492 62.2409 -5.58516e-12
2.4075e-11 -5.58516e-12 57.5036

69.388 -0.576061 2.11276e-12
-0.576061 80.2384 7.93454e-11
2.11276e-12 7.93454e-11 72.7663

74.7117 2.89606 -2.77296e-11
2.89606 77.094 -6.03734e-11
-2.77296e-11 -6.03734e-11 75.9274

70.3899 2.36616 1.04026e-11
2.36616 56.9422 2.11885e-11
1.04026e-11 2.11885e-11 66.8246

71.749 -1.61271 -3.15853e-11
-1.61271 55.5894 1.34274e-12
-3.15853e-11 1.34274e-12 67.9244

65.4657 3.17222 -1.55043e-11
3.17222 66.2591 1.15532e-11
-1.55043e-11 1.15532e-11 66.5313

64.8203 -4.77644 1.05912e-11
-4.77644 65.7849 -3.62074e-11
1.05912e-11 -3.62074e-11 66.6884

70.3517 2.68447 3.78895e-11
2.68447 74.3313 -4.81288e-12
3.78895e-11 -4.81288e-12 71.6349

70.1687 -3.75256 -2.52531e-11
-3.75256 71.645 -3.07786e-12
-2.52531e-11 -3.07786e-12 71.1911

84.2064 4.92423 1.19386e-10
4.92423 81.5242 1.01311e-10
1.19386e-10 1.01311e-10 77.2003

86.8511 -3.47857 4.27593e-11
-3.47857 77.1259 -5.37503e-12
4.27593e-11 -5.37503e-12 80.3937

61.8101 6.90223 2.38849e-11
6.90223 64.9066 -1.1507e-12
2.38849e-11 -1.1507e-12 66.2122

78.805 -3.70541 -2.29208e-11
-3.70541 74.6404 3.50453e-11
-2.29208e-11 3.50453e-11 76.8702

59.4469 5.11368 1.05938e-11
5.11368 54.2114 -1.153e-12
1.05938e-11 -1.153e-12 57.0846

59.7247 4.41841 8.85853e-12
4.41841 65.2314 -3.33208e-11
8.85853e-12 -3.33208e-11 61.1171

53.4286 -1.76552 -1.09778e-11
-1.76552 62.687 3.42879e-11
-1.09778e-11 3.42879e-11 58.475

61.1317 -5.17816 -3.89466e-13
-5.17816 58.5614 1.42494e-11
-3.89466e-13 1.42494e-11 59.1206

47.7553 -2.79223 2.48484e-11
-2.79223 46.638 -2.5429e-11
2.48484e-11 -2.5429e-11 45.0505

62.6366 -3.72166 1.84882e-11
-3.72166 56.3204 3.13971e-11
1.84882e-11 3.13971e-11 59.2242

56.0997 5.63323 -7.89813e-12
5.63323 55.1627 1.65674e-11
-7.89813e-12 1.65674e-11 55.8341

59.606 -7.5497 -2.11283e-12
-7.5497 65.2331 -3.3513e-11
-2.11283e-12 -3.3513e-11 66.0443

63.7332 6.01562 -7.55866e-12
6.01562 70.2686 -2.19572e-11
-7.55866e-12 -2.19572e-11 67.5996

67.7636 -1.33104 -1.42049e-11
-1.33104 61.8518 -8.47448e-12
-1.42049e-11 -8.47448e-12 64.9944

87.909 -2.2244 -2.83184e-11
-2.2244 86.8312 5.81552e-11
-2.83184e-11 5.81552e-11 79.0481

78.9183 1.91727 1.22853e-10
1.91727 82.2239 1.68523e-11
1.22853e-10 1.68523e-11 79.0397

62.897 2.30973 -7.41348e-12
2.30973 59.7689 2.88791e-12
-7.41348e-12 2.88791e-12 61.9494

73.2935 -0.918375 -2.21456e-12
-0.918375 65.8729 -1.52132e-11
-2.21456e-12 -1.52132e-11 69.4635

38.8991 -2.60505 5.78049e-12
-2.60505 40.5347 9.05424e-12
5.78049e-12 9.05424e-12 37.8157

40.6417 -2.47017 -7.51177e-12
-2.47017 37.5781 -2.07965e-11
-7.51177e-12 -2.07965e-11 37.5809

71.9841 0.758515 3.58231e-11
0.758515 61.9594 2.0414e-11
3.58231e-11 2.0414e-11 68.4482

73.237 0.192841 -2.04136e-11
0.192841 61.4495 1.98284e-11
-2.04136e-11 1.98284e-11 70.1253

72.0925 0.0732458 2.08238e-11
0.0732458 67.2105 -7.70206e-12
2.08238e-11 -7.70206e-12 69.6238

62.9864 -2.04954 4.23123e-11
-2.04954 66.0882 4.64175e-11
4.23123e-11 4.64175e-11 63.2344

54.2438 2.66656 -1.2806e-11
2.66656 62.4968 3.46471e-12
-1.2806e-11 3.46471e-12 58.6653

57.4046 4.10765 1.9457e-11
4.10765 51.753 4.62264e-12
1.9457e-11 4.62264e-12 53.6299

67.0623 4.69057 -1.38718e-11
4.69057 63.6913 9.2442e-12
-1.38718e-11 9.2442e-12 65.9679

72.6664 -3.67168 -2.61917e-11
-3.67168 69.0847 -5.97093e-12
-2.61917e-11 -5.97093e-12 70.9726

77.8923 0.610979 -6.21051e-11
0.610979 75.4346 -3.03299e-11
-6.21051e-11 -3.03299e-11 75.2658

78.7011 -5.19367 -5.86116e-11
-5.19367 85.7037 -3.62625e-11
-5.86116e-11 -3.62625e-11 77.4434

62.7515 2.06168 -6.93297e-12
2.06168 58.457 -1.3484e-11
-6.93297e-12 -1.3484e-11 59.3826

71.366 3.30619 -2.22384e-11
3.30619 65.912 -1.00181e-11
-2.22384e-11 -1.00181e-11 68.6171

73.7794 -2.46385 3.21624e-11
-2.46385 66.5967 1.34847e-11
3.21624e-11 1.34847e-11 71.2325

58.3246 -2.00282 6.70233e-11
-2.00282 66.2103 8.47892e-12
6.70233e-11 8.47892e-12 63.6952

64.278 5.67196 2.72524e-11
5.67196 69.4818 3.7947e-11
2.72524e-11 3.7947e-11 66.2655

62.8395 7.22127 1.30972e-11
7.22127 70.002 2.29209e-11
1.30972e-11 2.29209e-11 66.2821

57.4086 -4.33944 -2.34984e-11
-4.33944 63.121 5.39174e-12
-2.34984e-11 5.39174e-12 63.6536

33.1259 8.34953 -2.29283e-11
8.34953 33.3557 -5.20828e-12
-2.29283e-11 -5.20828e-12 32.3653

65.9579 4.47442 5.39221e-12
4.47442 72.61 -2.3111e-11
5.39221e-12 -2.3111e-11 69.2116

63.0213 -5.10298 2.58062e-11
-5.10298 69.4398 -1.73304e-11
2.58062e-11 -1.73304e-11 68.2191

55.5991 -3.95809 -2.7826e-11
-3.95809 64.128 -3.42887e-11
-2.7826e-11 -3.42887e-11 62.4464

60.7943 6.20118 -7.12334e-12
6.20118 68.3479 1.17478e-11
-7.12334e-12 1.17478e-11 64.647

59.9685 -2.74811 4.04284e-12
-2.74811 54.1927 2.50446e-11
4.04284e-12 2.50446e-11 55.6837

63.4022 -3.3273 -5.77612e-13
-3.3273 62.7321 -2.88901e-11
-5.77612e-13 -2.88901e-11 63.8411

65.4932 3.64175 -9.34282e-12
3.64175 69.0276 1.86832e-11
-9.34282e-12 1.86832e-11 67.4922

64.6982 -4.95867 3.61042e-11
-4.95867 65.4461 7.69936e-12
3.61042e-11 7.69936e-12 66.8726

66.3637 -1.30049 -3.17975e-12
-1.30049 56.9938 -1.11719e-11
-3.17975e-12 -1.11719e-11 62.84

74.3253 1.36674 2.61927e-11
1.36674 70.6539 -1.88741e-11
2.61927e-11 -1.88741e-11 71.5562

75.8025 -1.39968 -6.54284e-12
-1.39968 68.3654 -2.19531e-11
-6.54284e-12 -2.19531e-11 73.378

75.9517 1.52246 3.38921e-11
1.52246 86.4644 -4.9679e-11
3.38921e-11 -4.9679e-11 76.3118

77.5541 2.02084 5.46871e-11
2.02084 83.8985 -7.3652e-11
5.46871e-11 -7.3652e-11 78.8961

30.6542 1.57836 3.64176e-11
1.57836 26.5046 -5.0074e-12
3.64176e-11 -5.0074e-12 31.3803

26.9724 1.57246 -1.15534e-11
1.57246 31.6566 2.31923e-12
-1.15534e-11 2.31923e-12 31.6536

63.1971 4.55751 -2.68829e-12
4.55751 63.3319 -4.08296e-11
-2.68829e-12 -4.08296e-11 64.8429

72.1378 -4.68027 -4.23143e-12
-4.68027 70.9745 -3.1968e-11
-4.23143e-12 -3.1968e-11 71.6849

31.5745 3.11041 -1.13642e-11
3.11041 31.1464 -2.29328e-11
-1.13642e-11 -2.29328e-11 32.5978

30.9444 3.40317 -1.52277e-11
3.40317 31.137 -2.85161e-11
-1.52277e-11 -2.85161e-11 32.4794

87.8345 -1.2217 1.19929e-11
-1.2217 84.6035 -1.90044e-10
1.19929e-11 -1.90044e-10 82.0738

88.466 -0.786639 -5.19865e-11
-0.786639 90.1678 -1.12457e-10
-5.19865e-11 -1.12457e-10 80.167

60.4367 -4.48688 3.17298e-11
-4.48688 61.2192 -3.83323e-13
3.17298e-11 -3.83323e-13 62.4324

63.2333 5.78155 -9.04795e-12
5.78155 61.9895 4.73731e-11
-9.04795e-12 4.73731e-11 63.9174

71.087 -4.86271 -4.80867e-12
-4.86271 67.223 -3.06149e-11
-4.80867e-12 -3.06149e-11 69.4456

56.9378 5.08919 -2.7346e-11
5.08919 57.913 -5.2779e-11
-2.7346e-11 -5.2779e-11 57.339

62.9618 -4.03733 -4.27587e-11
-4.03733 62.0193 -1.61857e-11
-4.27587e-11 -1.61857e-11 61.3421

41.9561 -0.747261 1.34862e-11
-0.747261 46.5807 3.06374e-11
1.34862e-11 3.06374e-11 42.0727

38.4307 2.09983 5.06648e-11
2.09983 44.6497 -7.31948e-12
5.06648e-11 -7.31948e-12 40.3829

45.5574 -0.310817 2.48551e-11
-0.310817 40.2161 -2.77446e-11
2.48551e-11 -2.77446e-11 41.2166

57.7713 5.39573 -1.7912e-11
5.39573 59.6446 1.9252e-12
-1.7912e-11 1.9252e-12 59.7993

65.6114 -5.30919 1.93453e-12
-5.30919 64.7177 -4.4493e-11
1.93453e-12 -4.4493e-11 64.8578

34.9133 0.337865 5.68306e-11
0.337865 41.5156 -1.53655e-12
5.68306e-11 -1.53655e-12 37.2797

41.4286 -0.0367275 -2.90911e-11
-0.0367275 35.9359 4.81708e-11
-2.90911e-11 4.81708e-11 37.377

67.2195 5.50345 -3.31316e-11
5.50345 64.9273 -2.04252e-11
-3.31316e-11 -2.04252e-11 67.2181

76.0705 -3.92349 -5.2368e-11
-3.92349 71.7722 -4.10155e-11
-5.2368e-11 -4.10155e-11 74.1209

67.6634 5.44072 7.51865e-12
5.44072 66.954 -1.19464e-11
7.51865e-12 -1.19464e-11 67.9453

75.2228 -4.76825 -1.7904e-11
-4.76825 70.8185 -3.96626e-11
-1.7904e-11 -3.96626e-11 73.4809

29.3339 3.18921 2.101e-11
3.18921 29.4799 -2.54329e-11
2.101e-11 -2.54329e-11 30.9722

29.3545 2.94439 2.62003e-11
2.94439 29.8821 -2.23497e-11
2.62003e-11 -2.23497e-11 31.0062

61.8749 5.15531 1.54103e-11
5.15531 60.5821 -2.07978e-11
1.54103e-11 -2.07978e-11 61.8919

67.889 -4.26072 3.19765e-11
-4.26072 66.2895 -3.50392e-11
3.19765e-11 -3.50392e-11 66.7685

75.4207 3.33395 2.40723e-11
3.33395 77.8159 -4.27477e-11
2.40723e-11 -4.27477e-11 76.1646

72.9258 -1.07687 6.64316e-11
-1.07687 78.351 3.94887e-11
6.64316e-11 3.94887e-11 73.3897

64.7038 4.33828 4.71837e-11
4.33828 69.1812 -5.38457e-12
4.71837e-11 -5.38457e-12 68.2524

77.7953 -4.93315 -3.38929e-11
-4.93315 74.8889 -1.79105e-11
-3.38929e-11 -1.79105e-11 76.5508

74.582 3.89256 -2.31141e-11
3.89256 66.8262 -1.58007e-11
-2.31141e-11 -1.58007e-11 70.6955

77.5667 -2.528 9.32107e-11
-2.528 66.6002 2.15816e-11
9.32107e-11 2.15816e-11 73.4644

63.2781 5.23825 9.38893e-12
5.23825 68.1115 7.12724e-12
9.38893e-12 7.12724e-12 65.4185

60.7105 -4.39334 3.6062e-11
-4.39334 64.2029 -2.54216e-11
3.6062e-11 -2.54216e-11 64.529

74.3292 3.18561 -1.27059e-11
3.18561 81.8952 -1.68533e-11
-1.27059e-11 -1.68533e-11 76.6534

74.4603 3.68691 -2.5784e-11
3.68691 75.6106 -4.6799e-11
-2.5784e-11 -4.6799e-11 73.6906

76.1166 -6.56469 -2.79744e-11
-6.56469 75.9285 3.27398e-11
-2.79744e-11 3.27398e-11 74.1366

71.897 -0.894461 1.27061e-11
-0.894461 82.8281 2.88897e-11
1.27061e-11 2.88897e-11 74.3284

79.9169 3.8619 2.11828e-11
3.8619 74.4199 2.31633e-12
2.11828e-11 2.31633e-12 74.3802

85.4698 0.819367 -2.23346e-11
0.819367 79.3577 2.23411e-11
-2.23346e-11 2.23411e-11 77.0447

81.9847 -3.56449 -5.46917e-11
-3.56449 71.3623 9.61727e-12
-5.46917e-11 9.61727e-12 76.5733

86.4262 -1.17243 1.65227e-11
-1.17243 75.472 1.80807e-10
1.65227e-11 1.80807e-10 79.3114

79.1737 4.53666 -4.66091e-11
4.53666 83.0613 1.64435e-10
-4.66091e-11 1.64435e-10 76.2033

93.4746 -0.90741 2.99667e-10
-0.90741 90.9647 -2.55272e-10
2.99667e-10 -2.55272e-10 81.3617

91.8425 -3.17492 -3.00911e-10
-3.17492 79.5204 3.56902e-10
-3.00911e-10 3.56902e-10 82.8655

88.7397 -3.90428 -1.40257e-10
-3.90428 79.1917 3.03453e-10
-1.40257e-10 3.03453e-10 82.2573

80.2006 4.36343 3.11943e-11
4.36343 76.1105 4.96891e-11
3.11943e-11 4.96891e-11 74.7219

74.2048 1.95022 1.69453e-11
1.95022 72.6061 1.54234e-12
1.69453e-11 1.54234e-12 71.9478

83.7495 2.18376 7.04923e-11
2.18376 86.8123 -2.02568e-10
7.04923e-11 -2.02568e-10 78.3156

87.39 -3.06258 -1.91898e-12
-3.06258 77.2617 -1.48281e-11
-1.91898e-12 -1.48281e-11 81.0167

87.4371 -3.64263 1.96847e-11
-3.64263 78.89 -2.56065e-11
1.96847e-11 -2.56065e-11 81.4855

81.5846 -2.4977 -3.158e-11
-2.4977 77.0729 -8.28626e-12
-3.158e-11 -8.28626e-12 78.7157

74.9964 5.08201 2.88914e-11
5.08201 72.968 -5.08309e-11
2.88914e-11 -5.08309e-11 72.487

81.0622 2.45971 -1.42544e-11
2.45971 76.1752 -9.62998e-12
-1.42544e-11 -9.62998e-12 75.0646

80.9664 -3.83168 -2.50297e-11
-3.83168 73.8831 -4.43616e-12
-2.50297e-11 -4.43616e-12 77.4013

83.8529 -2.25532 1.50148e-11
-2.25532 75.7038 2.5803e-11
1.50148e-11 2.5803e-11 78.8229

81.7391 0.412996 6.54478e-12
0.412996 81.9461 -4.00519e-11
6.54478e-12 -4.00519e-11 82.9177

87.3536 -0.218943 5.00746e-12
-0.218943 85.7683 -1.55961e-11
5.00746e-12 -1.55961e-11 85.9949

85.0628 0.786048 2.02172e-11
0.786048 82.5918 -9.34045e-12
2.02172e-11 -9.34045e-12 83.6815

80.6639 -0.816521 -3.04253e-11
-0.816521 77.4305 -2.53857e-12
-3.04253e-11 -2.53857e-12 81.0317

81.279 0.13906 -2.88825e-12
0.13906 78.91 1.59237e-11
-2.88825e-12 1.59237e-11 81.7699

87.6989 -1.16529 3.46873e-12
-1.16529 86.3986 -2.23355e-11
3.46873e-12 -2.23355e-11 86.136

84.6017 2.09363 2.11435e-12
2.09363 82.0197 -3.83185e-11
2.11435e-12 -3.83185e-11 83.278

81.3031 -0.196726 -3.85173e-13
-0.196726 78.5256 2.13363e-11
-3.85173e-13 2.13363e-11 81.6761

80.1021 0.942669 1.44428e-11
0.942669 74.2972 1.37684e-11
1.44428e-11 1.37684e-11 78.6722

83.1914 0.197555 2.07955e-11
0.197555 82.5212 -9.48349e-12
2.07955e-11 -9.48349e-12 83.8787

83.2753 -0.184061 -1.50196e-11
-0.184061 82.6767 1.24197e-11
-1.50196e-11 1.24197e-11 83.9508

86.2904 0.109708 1.84845e-11
0.109708 86.9944 1.4456e-13
1.84845e-11 1.4456e-13 86.8277

86.1101 -1.19109 -2.15641e-11
-1.19109 80.6007 -4.14248e-12
-2.15641e-11 -4.14248e-12 82.5117

89.5725 0.0827675 -2.7724e-11
0.0827675 87.6171 2.85932e-11
-2.7724e-11 2.85932e-11 86.9166

81.4398 1.54656 1.15545e-11
1.54656 80.9063 1.74263e-11
1.15545e-11 1.74263e-11 82.3712

79.9322 2.19282 -3.27222e-12
2.19282 80.0709 2.91724e-11
-3.27222e-12 2.91724e-11 81.0212

85.1098 -2.07348 4.24005e-12
-2.07348 82.5529 -3.23486e-11
4.24005e-12 -3.23486e-11 83.799

87.288 1.08292 2.5418e-11
1.08292 86.1486 1.60755e-11
2.5418e-11 1.60755e-11 85.8575

88.2268 0.0595688 3.8027e-11
0.0595688 89.2182 -2.71634e-11
3.8027e-11 -2.71634e-11 88.4771

83.1982 0.21071 5.39141e-12
0.21071 83.7882 7.36506e-12
5.39141e-12 7.36506e-12 84.2991

83.2182 -0.237157 -2.38765e-11
-0.237157 83.8529 5.77616e-12
-2.38765e-11 5.77616e-12 84.3323

86.4886 -0.250565 -1.92545e-12
-0.250565 87.6757 7.21946e-13
-1.92545e-12 7.21946e-13 87.2168

81.5175 0.690671 3.65833e-12
0.690671 81.0512 -2.21428e-12
3.65833e-12 -2.21428e-12 82.541

81.25 0.563282 -1.84859e-11
0.563282 79.4757 2.8883e-11
-1.84859e-11 2.8883e-11 82.146

80.3669 0.541422 -2.81137e-11
0.541422 80.6907 3.46654e-12
-2.81137e-11 3.46654e-12 81.9656

86.527 -0.365972 5.39066e-12
-0.365972 86.3554 2.16614e-11
5.39066e-12 2.16614e-11 86.4903

81.0011 0.685253 -7.51021e-12
0.685253 77.4891 2.56896e-11
-7.51021e-12 2.56896e-11 81.0397

83.0817 0.120668 5.73807e-11
0.120668 83.5792 1.53555e-11
5.73807e-11 1.53555e-11 84.2412

80.3511 -0.930852 -1.55982e-11
-0.930852 74.3076 -1.75163e-11
-1.55982e-11 -1.75163e-11 79.4768

85.6393 -0.248404 -3.77389e-11
-0.248404 86.4437 -3.92312e-12
-3.77389e-11 -3.92312e-12 86.4145

88.6969 -0.20769 -1.15508e-11
-0.20769 85.3935 -1.65595e-11
-1.15508e-11 -1.65595e-11 85.5676

88.486 0.310804 -9.63004e-12
0.310804 84.3842 -2.38753e-11
-9.63004e-12 -2.38753e-11 85.2048

83.9305 -1.04811 -2.63807e-11
-1.04811 82.3399 -2.01209e-11
-2.63807e-11 -2.01209e-11 82.1835

83.9704 1.05399 -4.67914e-11
1.05399 82.4542 -1.63849e-12
-4.67914e-11 -1.63849e-12 82.2235

82.0436 -0.242425 1.50195e-11
-0.242425 80.6503 3.105e-12
1.50195e-11 3.105e-12 82.7566

79.6776 0.196404 -6.73934e-12
0.196404 80.1075 1.39121e-11
-6.73934e-12 1.39121e-11 81.4054

80.529 -1.68113 9.24248e-12
-1.68113 80.5446 -4.23149e-11
9.24248e-12 -4.23149e-11 81.3882

80.4264 1.78259 4.4866e-11
1.78259 80.5829 2.59977e-11
4.4866e-11 2.59977e-11 81.3612

80.2115 -0.821301 -2.58045e-11
-0.821301 74.0423 -2.53335e-11
-2.58045e-11 -2.53335e-11 78.3466

86.4145 -0.467612 -1.92545e-11
-0.467612 87.4916 4.81328e-12
-1.92545e-11 4.81328e-12 86.9074

81.2921 0.0149989 5.96935e-12
0.0149989 80.5577 1.6656e-11
5.96935e-12 1.6656e-11 82.3825

79.9664 0.712975 7.79954e-12
0.712975 73.7551 3.17724e-11
7.79954e-12 3.17724e-11 78.3656

81.5908 -0.642052 2.84987e-11
-0.642052 81.194 9.33946e-12
2.84987e-11 9.33946e-12 82.6157

81.674 -0.422726 -2.81108e-11
-0.422726 81.9893 -4.43853e-11
-2.81108e-11 -4.43853e-11 82.9105

87.9221 -0.890042 -5.77482e-12
-0.890042 87.3899 -1.77144e-11
-5.77482e-12 -1.77144e-11 87.0859

81.8092 0.0336838 7.62533e-11
0.0336838 80.7289 -3.07954e-12
7.62533e-11 -3.07954e-12 82.7196

83.4227 0.344836 3.46596e-11
0.344836 83.344 4.21246e-12
3.46596e-11 4.21246e-12 84.4076

84.6771 0.445741 1.57895e-11
0.445741 85.0486 6.1315e-11
1.57895e-11 6.1315e-11 85.5759

81.952 -3.27451 1.36697e-11
-3.27451 77.9539 1.65615e-11
1.36697e-11 1.65615e-11 80.5615

84.5978 -0.182997 1.23233e-11
-0.182997 85.1702 -1.45736e-11
1.23233e-11 -1.45736e-11 85.5073

82.9424 0.200544 5.55112e-17
0.200544 83.1638 5.36763e-12
5.55112e-17 5.36763e-12 84.0642

90.2291 0.593914 1.03962e-11
0.593914 90.662 -1.87734e-11
1.03962e-11 -1.87734e-11 89.6403

90.2268 -0.59157 4.50528e-11
-0.59157 90.6628 5.06389e-11
4.50528e-11 5.06389e-11 89.6393

88.7025 -0.239488 -2.00241e-11
-0.239488 89.5977 -1.26958e-11
-2.00241e-11 -1.26958e-11 88.8026

90.1777 0.256887 5.31397e-11
0.256887 90.9167 -2.73901e-11
5.31397e-11 -2.73901e-11 89.729

90.1755 -0.255736 3.42715e-11
-0.255736 90.9157 1.47298e-11
3.42715e-11 1.47298e-11 89.7277

86.6503 -0.735276 -8.08631e-12
-0.735276 87.1244 -8.9539e-12
-8.08631e-12 -8.9539e-12 86.7154

82.077 -1.36821 -6.95162e-11
-1.36821 79.1429 -1.70859e-11
-6.95162e-11 -1.70859e-11 80.444

82.0769 1.41254 -2.69585e-11
1.41254 79.1499 -1.45391e-11
-2.69585e-11 -1.45391e-11 80.4521

89.0949 0.3426 -2.42604e-11
0.3426 90.0387 -9.33808e-12
-2.42604e-11 -9.33808e-12 89.035

89.0948 -0.343158 -1.15523e-11
-0.343158 90.0445 4.52464e-12
-1.15523e-11 4.52464e-12 89.0358

82.1583 0.225423 2.73429e-11
0.225423 81.3044 6.18632e-12
2.73429e-11 6.18632e-12 83.1406

86.0101 1.95192 2.27275e-11
1.95192 82.6715 2.75324e-11
2.27275e-11 2.75324e-11 82.7303

91.2728 -1.58097 2.1566e-11
-1.58097 89.3201 1.92626e-12
2.1566e-11 1.92626e-12 87.3687

86.4156 0.458833 -7.70319e-13
0.458833 87.5208 5.77727e-13
-7.70319e-13 5.77727e-13 86.923

83.1042 -0.217504 -5.00662e-12
-0.217504 83.739 1.47064e-11
-5.00662e-12 1.47064e-11 84.333

82.7258 -0.319362 2.77277e-11
-0.319362 82.251 2.82276e-11
2.77277e-11 2.82276e-11 83.6064

86.6855 -0.735221 -2.31011e-12
-0.735221 87.1444 -6.74226e-13
-2.31011e-12 -6.74226e-13 86.4556

82.7248 1.99873 -2.07948e-11
1.99873 80.6749 1.84856e-11
-2.07948e-11 1.84856e-11 82.4563

92.7924 0.416627 -1.4825e-10
0.416627 93.3814 5.56449e-11
-1.4825e-10 5.56449e-11 91.0873

92.789 -0.413612 -9.01045e-11
-0.413612 93.3743 -1.77148e-11
-9.01045e-11 -1.77148e-11 91.0847

80.4184 2.67986 -3.02317e-11
2.67986 77.8713 1.53098e-11
-3.02317e-11 1.53098e-11 79.561

88.6806 0.160976 -5.62216e-11
0.160976 89.6699 2.37313e-11
-5.62216e-11 2.37313e-11 88.7863

88.6856 -0.158765 7.70167e-12
-0.158765 89.6994 1.97392e-12
7.70167e-12 1.97392e-12 88.7981

77.165 1.28973 2.63786e-11
1.28973 79.3077 -2.49381e-11
2.63786e-11 -2.49381e-11 79.8141

88.2921 0.897215 -2.73388e-11
0.897215 88.3793 3.21558e-11
-2.73388e-11 3.21558e-11 87.0763

81.8484 0.238988 2.71506e-11
0.238988 80.553 -3.96664e-11
2.71506e-11 -3.96664e-11 82.7054

81.6035 -0.405577 8.81926e-11
-0.405577 79.394 -1.58629e-11
8.81926e-11 -1.58629e-11 82.2293

80.0326 -1.9978 -3.00402e-11
-1.9978 77.3691 2.78745e-11
-3.00402e-11 2.78745e-11 80.4673

80.9715 2.18864 8.68401e-11
2.18864 83.9231 5.48876e-11
8.68401e-11 5.48876e-11 81.7653

81.0133 -2.28397 -1.69064e-10
-2.28397 83.7074 -1.14439e-11
-1.69064e-10 -1.14439e-11 81.7181

82.1667 0.371501 -4.15922e-11
0.371501 82.184 -1.24185e-11
-4.15922e-11 -1.24185e-11 83.3379

80.4909 0.546543 3.90903e-11
0.546543 79.4862 -2.30097e-11
3.90903e-11 -2.30097e-11 81.8079

88.274 -0.445065 7.31669e-12
-0.445065 89.1277 -5.63182e-12
7.31669e-12 -5.63182e-12 88.4452

90.7477 -0.0290304 -2.19473e-11
-0.0290304 90.0986 -1.17461e-11
-2.19473e-11 -1.17461e-11 87.0704

91.2011 1.64923 -2.0402e-11
1.64923 83.6943 3.85028e-11
-2.0402e-11 3.85028e-11 84.8994

79.9592 2.10714 3.33138e-11
2.10714 77.5691 -2.30094e-11
3.33138e-11 -2.30094e-11 80.4801

85.5422 -0.674493 2.57061e-11
-0.674493 83.3098 1.94497e-11
2.57061e-11 1.94497e-11 84.2369

86.9253 0.204213 2.11783e-11
0.204213 85.3233 -2.28186e-11
2.11783e-11 -2.28186e-11 85.6495

89.0013 -0.00140386 -5.00611e-12
-0.00140386 90.0489 -5.58376e-12
-5.00611e-12 -5.58376e-12 89.0879

89.0163 0.0103895 -2.9266e-11
0.0103895 90.0484 2.70761e-11
-2.9266e-11 2.70761e-11 89.0961

86.1559 0.430708 -3.56276e-12
0.430708 86.9899 -2.39721e-11
-3.56276e-12 -2.39721e-11 86.7856

87.6657 -0.273977 1.84842e-11
-0.273977 88.7209 -2.00909e-11
1.84842e-11 -2.00909e-11 88.0746

89.5909 0.168922 2.50784e-11
0.168922 90.4232 9.049e-12
2.50784e-11 9.049e-12 89.4165

89.5922 -0.165672 1.25151e-11
-0.165672 90.4241 5.12612e-12
1.25151e-11 5.12612e-12 89.4172

88.2386 0.449631 4.73645e-11
0.449631 89.1213 -2.77748e-11
4.73645e-11 -2.77748e-11 88.4328

86.5146 0.33233 4.23706e-12
0.33233 86.383 2.77269e-11
4.23706e-12 2.77269e-11 86.496

89.176 0.423632 -8.08653e-12
0.423632 89.909 2.15406e-11
-8.08653e-12 2.15406e-11 89.0965

89.2062 -0.41068 -1.15521e-11
-0.41068 89.9133 -1.35019e-11
-1.15521e-11 -1.35019e-11 89.1089

80.7297 0.906319 -1.94494e-11
0.906319 77.3312 -2.5081e-11
-1.94494e-11 -2.5081e-11 80.9582

88.8571 -0.52963 3.11914e-11
-0.52963 88.8337 1.74259e-11
3.11914e-11 1.74259e-11 88.2313

81.4579 0.157511 3.25424e-11
0.157511 80.7261 -3.41831e-12
3.25424e-11 -3.41831e-12 82.4747

77.4242 2.08546 5.35325e-11
2.08546 78.3645 1.23224e-11
5.35325e-11 1.23224e-11 78.7115

88.3867 -0.556766 -3.46563e-11
-0.556766 88.3569 -2.14699e-11
-3.46563e-11 -2.14699e-11 87.4519

87.2301 0.0863374 1.19378e-11
0.0863374 88.1658 -1.50184e-11
1.19378e-11 -1.50184e-11 87.6741

79.4182 1.27744 6.06565e-12
1.27744 78.323 1.09762e-11
6.06565e-12 1.09762e-11 81.0115

80.8027 -0.71962 -1.11688e-11
-0.71962 77.777 1.14578e-11
-1.11688e-11 1.14578e-11 81.1514

81.4704 -0.151139 4.23691e-12
-0.151139 81.0844 1.97856e-11
4.23691e-12 1.97856e-11 82.7636

80.3095 -0.52197 -2.3108e-11
-0.52197 79.5679 -4.41431e-11
-2.3108e-11 -4.41431e-11 81.8127

84.7401 1.38865 8.47117e-12
1.38865 83.6263 -6.7397e-12
8.47117e-12 -6.7397e-12 84.5326

85.2703 -1.25399 5.19884e-11
-1.25399 84.275 1.06885e-11
5.19884e-11 1.06885e-11 84.9149

86.2407 -0.0991387 1.72323e-11
-0.0991387 87.0947 -4.19152e-11
1.72323e-11 -4.19152e-11 86.8628

77.0281 -1.37323 1.11686e-11
-1.37323 79.3066 8.66862e-13
1.11686e-11 8.66862e-13 79.7527

86.378 0.135328 -2.88822e-11
0.135328 86.8288 -5.53495e-12
-2.88822e-11 -5.53495e-12 86.726

86.3326 -0.132417 -6.16102e-12
-0.132417 86.7671 -3.56228e-12
-6.16102e-12 -3.56228e-12 86.6897

80.5408 0.616973 7.31807e-12
0.616973 79.4622 -3.88482e-11
7.31807e-12 -3.88482e-11 81.5924

79.3609 1.75216 4.04425e-12
1.75216 72.0631 4.86252e-12
4.04425e-12 4.86252e-12 77.493

79.3775 -1.51482 1.79098e-11
-1.51482 72.0475 1.16493e-11
1.79098e-11 1.16493e-11 77.4859

83.637 0.754453 3.85036e-12
0.754453 82.5957 -1.40565e-11
3.85036e-12 -1.40565e-11 83.9461

80.1938 -0.473475 2.00251e-11
-0.473475 80.751 1.94491e-11
2.00251e-11 1.94491e-11 81.9591

84.3559 0.599862 -7.70152e-13
0.599862 84.3638 -1.44427e-12
-7.70152e-13 -1.44427e-12 84.9861

84.4273 -0.587603 7.70288e-12
-0.587603 84.3938 -1.93507e-11
7.70288e-12 -1.93507e-11 85.0178

86.7229 0.0399954 1.57885e-11
0.0399954 87.2384 2.4682e-11
1.57885e-11 2.4682e-11 87.1228

86.0495 -0.429343 6.16115e-12
-0.429343 86.928 9.53121e-12
6.16115e-12 9.53121e-12 86.7313

86.7775 0.0547712 -3.04221e-11
0.0547712 87.7253 -5.34269e-12
-3.04221e-11 -5.34269e-12 87.2715

95.5342 0.631092 -4.58238e-11
0.631092 90.2247 -2.11832e-11
-4.58238e-11 -2.11832e-11 87.7613

95.0893 -3.14149 4.62193e-12
-3.14149 88.2113 7.12332e-12
4.62193e-12 7.12332e-12 86.7009

87.3326 -0.0377784 -1.3093e-11
-0.0377784 88.1974 1.87972e-11
-1.3093e-11 1.87972e-11 87.7207

87.5707 -0.290818 -2.07945e-11
-0.290818 87.8432 -5.68081e-12
-2.07945e-11 -5.68081e-12 87.2646

88.6555 0.246577 -5.50666e-11
0.246577 89.5835 -4.22852e-12
-5.50666e-11 -4.22852e-12 88.7855

83.6086 -0.725193 -7.70067e-12
-0.725193 82.6555 -2.8113e-11
-7.70067e-12 -2.8113e-11 83.934

89.3479 -1.39709 -2.34885e-11
-1.39709 88.352 -2.17582e-11
-2.34885e-11 -2.17582e-11 87.4123

79.0901 3.70796 -2.04119e-11
3.70796 77.2194 2.60036e-12
-2.04119e-11 2.60036e-12 78.9691

88.9009 0.579098 -1.00126e-11
0.579098 88.8364 5.68024e-12
-1.00126e-11 5.68024e-12 88.2471

88.7906 -0.680663 -2.77264e-11
-0.680663 89.0897 7.31631e-12
-2.77264e-11 7.31631e-12 88.2508

80.6687 1.25666 9.43525e-12
1.25666 80.3048 -1.49237e-11
9.43525e-12 -1.49237e-11 81.3613

89.1912 -0.00701117 1.80986e-11
-0.00701117 90.4741 4.48392e-12
1.80986e-11 4.48392e-12 89.2911

86.7883 -0.0420217 1.53986e-12
-0.0420217 87.5776 2.49349e-11
1.53986e-12 2.49349e-11 87.2218

77.2856 -2.08704 2.61906e-11
-2.08704 78.3955 -3.36037e-11
2.61906e-11 -3.36037e-11 78.6721

86.7578 -0.470234 -2.81111e-11
-0.470234 87.8788 -1.1842e-11
-2.81111e-11 -1.1842e-11 87.2667

81.9544 -0.236288 -1.15537e-11
-0.236288 82.2934 1.92074e-11
-1.15537e-11 1.92074e-11 83.3678

79.8229 -0.258983 1.96412e-11
-0.258983 80.1027 -6.64271e-12
1.96412e-11 -6.64271e-12 81.4214

85.1941 0.176044 2.1565e-11
0.176044 85.0239 -1.43941e-11
2.1565e-11 -1.43941e-11 85.5272

85.199 -0.194307 -1.19366e-11
-0.194307 84.995 -2.869e-11
-1.19366e-11 -2.869e-11 85.5174

86.554 0.224907 4.23585e-12
0.224907 87.81 -1.54047e-12
4.23585e-12 -1.54047e-12 87.2879

86.7608 0.482914 -1.00124e-11
0.482914 87.8369 -4.18771e-12
-1.00124e-11 -4.18771e-12 87.2618

85.2076 -0.283703 1.30914e-11
-0.283703 84.4547 3.85105e-11
1.30914e-11 3.85105e-11 85.0047

85.0612 0.336156 -1.73296e-11
0.336156 84.2909 4.33266e-12
-1.73296e-11 4.33266e-12 84.855

85.6235 -0.0481426 2.27205e-11
-0.0481426 86.1794 -1.03501e-11
2.27205e-11 -1.03501e-11 86.2052

85.6052 0.0377883 -3.19632e-11
0.0377883 86.2522 2.57048e-11
-3.19632e-11 2.57048e-11 86.2139

89.4692 0.139806 2.84957e-11
0.139806 90.2289 -7.46106e-12
2.84957e-11 -7.46106e-12 89.3018

89.4768 -0.133135 -7.70089e-13
-0.133135 90.2298 6.6905e-12
-7.70089e-13 6.6905e-12 89.3043

87.9072 -0.779146 -1.6173e-11
-0.779146 88.4955 -8.8572e-12
-1.6173e-11 -8.8572e-12 87.7368

78.4027 -3.37003 1.90665e-11
-3.37003 77.3111 -1.04943e-11
1.90665e-11 -1.04943e-11 78.5495

78.2213 0.0476979 4.5638e-11
0.0476979 79.6988 3.42745e-11
4.5638e-11 3.42745e-11 80.9118

82.2057 0.124576 -3.42743e-11
0.124576 82.1246 4.01481e-11
-3.42743e-11 4.01481e-11 83.3839

85.1487 -0.345699 2.27191e-11
-0.345699 85.9411 4.20731e-11
2.27191e-11 4.20731e-11 85.7679

89.8401 0.490871 4.58241e-11
0.490871 90.2728 -2.84101e-12
4.58241e-11 -2.84101e-12 89.4131

89.8411 -0.487465 2.34902e-11
-0.487465 90.277 -4.09137e-12
2.34902e-11 -4.09137e-12 89.4138

88.714 0.607636 -2.21422e-11
0.607636 89.4474 6.8352e-12
-2.21422e-11 6.8352e-12 88.6972

88.7096 -0.610264 2.83029e-11
-0.610264 89.4497 2.84004e-11
2.83029e-11 2.84004e-11 88.6966

83.8185 -0.0922015 -1.73292e-11
-0.0922015 84.5067 8.12571e-11
-1.73292e-11 8.12571e-11 84.9065

85.4476 -0.0608825 1.96397e-11
-0.0608825 86.0398 2.53441e-11
1.96397e-11 2.53441e-11 86.1419

85.1462 0.399514 3.54292e-11
0.399514 85.9652 9.72283e-12
3.54292e-11 9.72283e-12 85.7695

91.3795 0.0279231 -7.00832e-11
0.0279231 91.8165 -1.65575e-11
-7.00832e-11 -1.65575e-11 90.3721

91.3778 -0.0267924 4.19726e-11
-0.0267924 91.8116 6.45006e-11
4.19726e-11 6.45006e-11 90.3702

87.8664 -0.534479 1.46345e-11
-0.534479 88.594 -4.89055e-11
1.46345e-11 -4.89055e-11 88.0062

82.3658 -0.217667 1.07831e-11
-0.217667 81.1174 -4.62853e-11
1.07831e-11 -4.62853e-11 83.1395

87.6622 0.281736 3.04216e-11
0.281736 88.7294 3.03703e-12
3.04216e-11 3.03703e-12 88.0763

82.9538 -1.82995 -1.54049e-11
-1.82995 81.6405 7.79797e-12
-1.54049e-11 7.79797e-12 82.9185

86.6867 0.920982 3.4657e-11
0.920982 86.3471 -1.82943e-11
3.4657e-11 -1.82943e-11 86.1799

81.5034 0.118858 1.07831e-11
0.118858 81.594 1.01092e-11
1.07831e-11 1.01092e-11 82.9198

88.8453 0.6759 -1.15512e-11
0.6759 89.0833 4.45739e-11
-1.15512e-11 4.45739e-11 88.2658

87.8301 0.546844 5.66078e-11
0.546844 88.5961 1.54028e-11
5.66078e-11 1.54028e-11 87.9951

75.2698 3.33706 3.71671e-11
3.33706 76.6368 1.96416e-11
3.71671e-11 1.96416e-11 77.299

89.8343 -0.0395293 4.15913e-11
-0.0395293 88.1841 -5.67803e-12
4.15913e-11 -5.67803e-12 87.1629

85.8046 1.66664 4.737e-11
1.66664 79.4546 -1.1848e-11
4.737e-11 -1.1848e-11 81.9709

87.8981 0.809648 1.9639e-11
0.809648 88.5019 -9.33887e-12
1.9639e-11 -9.33887e-12 87.7449

78.9771 1.61562 3.46271e-12
1.61562 79.7126 -4.37114e-11
3.46271e-12 -4.37114e-11 80.7191

81.2394 -0.198664 5.35313e-11
-0.198664 80.6743 2.02656e-11
5.35313e-11 2.02656e-11 82.5029

89.3313 -1.02094 5.39233e-12
-1.02094 88.543 -2.02163e-11
5.39233e-12 -2.02163e-11 87.9807

81.5631 -1.59118 -5.66149e-11
-1.59118 80.9364 4.70773e-11
-5.66149e-11 4.70773e-11 82.3648

83.4184 1.08311 -2.5802e-11
1.08311 83.1996 9.3392e-12
-2.5802e-11 9.3392e-12 84.0386

88.1398 -0.282754 6.00724e-11
-0.282754 89.1536 1.95446e-11
6.00724e-11 1.95446e-11 88.3074

85.5312 -0.792955 1.73275e-11
-0.792955 85.1914 3.98585e-11
1.73275e-11 3.98585e-11 85.5628

89.71 1.21544 -1.00098e-11
1.21544 88.3234 3.1769e-11
-1.00098e-11 3.1769e-11 87.542

83.0174 0.134694 2.27206e-11
0.134694 83.1018 6.02694e-11
2.27206e-11 6.02694e-11 84.1366

82.9387 -0.0728217 -4.23599e-12
-0.0728217 82.3994 -1.23717e-11
-4.23599e-12 -1.23717e-11 83.8516

88.1438 0.286125 6.66198e-11
0.286125 89.1538 2.78211e-11
6.66198e-11 2.78211e-11 88.3088

88.2223 -0.0398545 3.48982e-11
-0.0398545 89.2272 1.81137e-11
3.48982e-11 1.81137e-11 88.4738

92.8584 0.294196 -5.96876e-11
0.294196 92.5862 -5.78559e-11
-5.96876e-11 -5.78559e-11 90.9294

92.8553 -0.291037 3.35035e-11
-0.291037 92.581 -7.25855e-11
3.35035e-11 -7.25855e-11 90.9273

87.6208 0.348609 1.65578e-11
0.348609 87.8235 -1.80035e-11
1.65578e-11 -1.80035e-11 87.2717

79.7075 -1.92372 2.29145e-11
-1.92372 81.0097 -2.45522e-11
2.29145e-11 -2.45522e-11 81.1582

79.6971 1.95769 5.719e-11
1.95769 81.1056 -3.51396e-11
5.719e-11 -3.51396e-11 81.1789

81.0566 -0.253029 6.74039e-12
-0.253029 76.3141 -4.44506e-11
6.74039e-12 -4.44506e-11 80.2853

75.1623 -3.28653 2.00253e-11
-3.28653 76.7065 7.41414e-12
2.00253e-11 7.41414e-12 77.257

85.2356 0.195613 1.07831e-11
0.195613 85.8865 -5.07846e-11
1.07831e-11 -5.07846e-11 85.9923

82.9701 0.0151158 6.16186e-12
0.0151158 82.3531 2.35158e-11
6.16186e-12 2.35158e-11 83.8326

84.9439 0.374294 1.27074e-11
0.374294 85.3723 -2.84976e-11
1.27074e-11 -2.84976e-11 85.687

84.9858 -0.38145 5.19785e-12
-0.38145 85.3839 4.35644e-11
5.19785e-12 4.35644e-11 85.7216

85.9463 0.168305 -3.85096e-11
0.168305 86.4553 -3.09999e-11
-3.85096e-11 -3.09999e-11 86.5111

89.3511 0.985098 -3.69671e-11
0.985098 88.571 1.74253e-11
-3.69671e-11 1.74253e-11 87.9883

83.8129 0.340523 7.69653e-13
0.340523 83.9286 -1.94476e-11
7.69653e-13 -1.94476e-11 84.7201

85.8715 0.0978894 -3.04226e-11
0.0978894 86.249 2.64273e-11
-3.04226e-11 2.64273e-11 86.4217

86.179 -1.15113 -1.93016e-12
-1.15113 82.1929 2.27218e-11
-1.93016e-12 2.27218e-11 82.8396

91.0436 1.24774 -1.30896e-11
1.24774 88.0528 3.61973e-11
-1.30896e-11 3.61973e-11 87.1286

80.9214 -1.36886 -2.9269e-11
-1.36886 78.628 3.75982e-11
-2.9269e-11 3.75982e-11 81.0531

78.9789 -0.228359 -2.00284e-11
-0.228359 70.361 -9.36308e-12
-2.00284e-11 -9.36308e-12 76.4908

85.4504 -0.504672 -3.58132e-11
-0.504672 86.2313 -1.16498e-11
-3.58132e-11 -1.16498e-11 86.122

85.4557 0.499065 3.65827e-11
0.499065 86.2926 -3.01346e-11
3.65827e-11 -3.01346e-11 86.1513

80.784 -0.17321 -2.59968e-11
-0.17321 75.2792 2.92645e-11
-2.59968e-11 2.92645e-11 79.9754

86.6443 0.764404 9.62576e-12
0.764404 87.189 -2.31061e-11
9.62576e-12 -2.31061e-11 86.7142

90.5799 0.460215 -6.46941e-11
0.460215 91.1911 -3.8026e-11
-6.46941e-11 -3.8026e-11 89.992

90.58 -0.457781 4.69794e-11
-0.457781 91.1887 6.88374e-12
4.69794e-11 6.88374e-12 89.991

79.9924 -0.522237 4.19778e-11
-0.522237 80.1267 8.65271e-13
4.19778e-11 8.65271e-13 81.4695

78.8846 -1.64923 1.94492e-11
-1.64923 79.6854 -1.13601e-11
1.94492e-11 -1.13601e-11 80.6811

80.4371 -1.43886 -2.81149e-11
-1.43886 76.8033 1.5165e-11
-2.81149e-11 1.5165e-11 80.4561

82.1489 0.0394033 -4.91018e-11
0.0394033 81.0521 2.92211e-11
-4.91018e-11 2.92211e-11 83.0311

80.422 -1.22843 2.56121e-11
-1.22843 80.3059 -2.17575e-11
2.56121e-11 -2.17575e-11 81.2871

83.2062 -0.263117 1.15534e-11
-0.263117 83.2103 -1.23352e-11
1.15534e-11 -1.23352e-11 84.3253

83.4175 -1.01893 3.08048e-12
-1.01893 83.4221 3.56272e-12
3.08048e-12 3.56272e-12 84.1105

85.4896 0.77501 3.42736e-11
0.77501 84.8386 -1.94104e-13
3.42736e-11 -1.94104e-13 85.4393

89.384 -1.2029 -2.38762e-11
-1.2029 86.6658 2.90727e-11
-2.38762e-11 2.90727e-11 85.8542

88.637 0.871912 -6.54025e-12
0.871912 86.2536 4.52488e-11
-6.54025e-12 4.52488e-11 85.5021

89.5938 0.0254214 -1.27078e-11
0.0254214 90.6715 7.50885e-12
-1.27078e-11 7.50885e-12 89.5264

89.5837 -0.0275006 1.42478e-11
-0.0275006 90.666 4.91697e-11
1.42478e-11 4.91697e-11 89.5241

78.7555 -0.894205 9.62351e-13
-0.894205 79.5776 -3.79345e-11
9.62351e-13 -3.79345e-11 80.9324

78.6347 0.940437 -9.43538e-12
0.940437 79.6798 1.46337e-11
-9.43538e-12 1.46337e-11 80.8963

78.7786 -0.479363 -1.15526e-11
-0.479363 81.2381 -9.63304e-13
-1.15526e-11 -9.63304e-13 80.4696

78.7408 0.535148 7.22096e-11
0.535148 81.1828 2.79669e-12
7.22096e-11 2.79669e-12 80.445

92.1012 0.0249295 -1.65589e-11
0.0249295 92.3491 -5.83386e-11
-1.65589e-11 -5.83386e-11 90.6758

92.0975 -0.0230631 -2.1562e-11
-0.0230631 92.3439 -7.06614e-11
-2.1562e-11 -7.06614e-11 90.6736

89.8949 0.655508 2.42597e-11
0.655508 89.3828 6.64217e-12
2.42597e-11 6.64217e-12 88.8464

89.8919 -0.662837 -3.46631e-12
-0.662837 89.3942 9.4347e-12
-3.46631e-12 9.4347e-12 88.8492

87.6804 -0.142664 -1.77137e-11
-0.142664 88.8361 -8.95325e-12
-1.77137e-11 -8.95325e-12 88.0771

83.5339 -0.730236 -3.46702e-12
-0.730236 82.2269 3.28307e-11
-3.46702e-12 3.28307e-11 83.3599

86.3415 0.168305 1.57886e-11
0.168305 86.2074 6.73831e-12
1.57886e-11 6.73831e-12 86.1304

82.2919 -0.340857 2.23353e-11
-0.340857 81.4725 6.91754e-11
2.23353e-11 6.91754e-11 83.1827

87.6853 0.151954 5.39112e-11
0.151954 88.8378 -2.00735e-11
5.39112e-11 -2.00735e-11 88.0747

83.1939 0.606119 -3.06177e-11
0.606119 82.4589 -1.18418e-11
-3.06177e-11 -1.18418e-11 83.3441

87.164 -0.252535 -3.38869e-11
-0.252535 88.2937 -2.6283e-11
-3.38869e-11 -2.6283e-11 87.6173

74.4152 -2.0914 6.35215e-12
-2.0914 77.9039 2.93682e-11
6.35215e-12 2.93682e-11 77.6976

74.4376 2.09837 -9.04841e-12
2.09837 77.8483 2.21457e-11
-9.04841e-12 2.21457e-11 77.6952

87.1397 0.260217 -5.39203e-12
0.260217 88.2771 -3.47541e-11
-5.39203e-12 -3.47541e-11 87.6046

80.7827 1.54489 -1.15536e-11
1.54489 78.6553 8.95376e-12
-1.15536e-11 8.95376e-12 80.9901

95.4776 0.351168 8.9743e-11
0.351168 82.6774 -8.37309e-11
8.9743e-11 -8.37309e-11 85.4266

95.3501 -0.744179 -5.27525e-11
-0.744179 92.4487 2.1575e-11
-5.27525e-11 2.1575e-11 88.2678

88.0538 0.33251 -3.04217e-11
0.33251 87.228 1.01091e-11
-3.04217e-11 1.01091e-11 86.8624

79.4516 -1.18715 5.12218e-11
-1.18715 78.3612 1.17924e-11
5.12218e-11 1.17924e-11 81.0756

80.8631 -2.25687 -7.70384e-13
-2.25687 77.5248 7.3647e-12
-7.70384e-13 7.3647e-12 79.898

85.087 -0.125467 1.84851e-11
-0.125467 85.3711 2.29854e-11
1.84851e-11 2.29854e-11 85.7704

85.1487 0.0375067 3.27331e-11
0.0375067 86.2054 -1.10719e-11
3.27331e-11 -1.10719e-11 86.1175

90.1808 0.245221 3.84671e-13
0.245221 90.5898 -2.88838e-12
3.84671e-13 -2.88838e-12 89.6772

90.1867 -0.234266 3.88929e-11
-0.234266 90.5866 1.08321e-12
3.88929e-11 1.08321e-12 89.6777

80.905 2.25381 1.13615e-11
2.25381 77.6385 -3.79822e-11
1.13615e-11 -3.79822e-11 79.9314

86.4484 -0.237504 -1.07609e-11
-0.237504 86.1608 5.19877e-11
-1.07609e-11 5.19877e-11 86.1922

87.2096 -0.451265 2.9842e-12
-0.451265 88.2689 1.91584e-11
2.9842e-12 1.91584e-11 87.6903

89.1303 0.688884 -2.69559e-11
0.688884 89.7857 2.89237e-13
-2.69559e-11 2.89237e-13 88.9285

89.1302 -0.687138 -3.88911e-11
-0.687138 89.79 -4.24555e-11
-3.88911e-11 -4.24555e-11 88.9289

82.6913 -3.30842 2.96579e-11
-3.30842 80.9883 -4.95183e-11
2.96579e-11 -4.95183e-11 81.5163

82.6099 3.36947 -7.66397e-11
3.36947 81.0062 -1.26091e-11
-7.66397e-11 -1.26091e-11 81.5051

87.9077 0.982867 -1.00108e-11
0.982867 87.9688 3.07109e-11
-1.00108e-11 3.07109e-11 87.2643

80.8284 -0.418556 -3.04251e-11
-0.418556 79.609 -2.73423e-11
-3.04251e-11 -2.73423e-11 81.7313

89.6713 0.51818 2.02153e-11
0.51818 90.6323 -4.64504e-11
2.02153e-11 -4.64504e-11 89.5164

89.6739 -0.516284 -8.04912e-16
-0.516284 90.6311 3.13838e-11
-8.04912e-16 3.13838e-11 89.5164

83.049 -1.45947 -1.7714e-11
-1.45947 80.6056 -2.13751e-11
-1.7714e-11 -2.13751e-11 81.9381

79.5622 -2.82503 -9.24346e-12
-2.82503 77.6432 7.9915e-12
-9.24346e-12 7.9915e-12 79.0299

84.3565 -0.407825 -1.23229e-11
-0.407825 84.9863 2.55131e-12
-1.23229e-11 2.55131e-12 85.428

77.2254 0.199316 1.54197e-12
0.199316 80.655 2.78262e-11
1.54197e-12 2.78262e-11 79.789

77.1805 -0.199993 -3.42736e-11
-0.199993 80.6269 -2.03185e-11
-3.42736e-11 -2.03185e-11 79.7691

79.3705 -2.79125 3.33159e-11
-2.79125 78.8379 -2.97493e-11
3.33159e-11 -2.97493e-11 80.3358

87.2652 0.4522 -2.8496e-11
0.4522 88.2494 2.53198e-11
-2.8496e-11 2.53198e-11 87.7129

79.9621 0.556471 -3.17724e-12
0.556471 80.1684 -9.63026e-14
-3.17724e-12 -9.63026e-14 81.4321

77.9216 0.174411 -1.03976e-11
0.174411 80.0002 2.79228e-12
-1.03976e-11 2.79228e-12 80.4372

77.8383 -0.20722 -2.38737e-11
-0.20722 80.048 -5.95038e-11
-2.38737e-11 -5.95038e-11 80.4162

80.1637 1.76641 7.12484e-12
1.76641 76.3158 -3.27314e-12
7.12484e-12 -3.27314e-12 80.2338

90.3022 0.329929 -2.58e-11
0.329929 91.2578 2.81101e-11
-2.58e-11 2.81101e-11 89.9427

90.3032 -0.327266 4.85185e-11
-0.327266 91.2517 5.31415e-11
4.85185e-11 5.31415e-11 89.9412

91.1944 -0.0769314 4.61997e-12
-0.0769314 88.9 6.73903e-12
4.61997e-12 6.73903e-12 86.2636

91.01 1.59124 -8.89615e-11
1.59124 88.9795 -3.36827e-11
-8.89615e-11 -3.36827e-11 86.5972

83.9854 0.112441 -3.73546e-11
0.112441 84.6668 7.50905e-12
-3.73546e-11 7.50905e-12 85.032

83.6044 -0.0712207 1.0783e-11
-0.0712207 82.4279 5.87889e-12
1.0783e-11 5.87889e-12 83.9554

88.7717 0.64204 -3.73555e-11
0.64204 89.5447 -6.6138e-11
-3.73555e-11 -6.6138e-11 88.5951

88.7837 -0.639416 -1.73292e-11
-0.639416 89.5471 1.2515e-11
-1.73292e-11 1.2515e-11 88.5984

88.3793 0.706688 2.31142e-12
0.706688 88.3951 1.0686e-11
2.31142e-12 1.0686e-11 87.5247

84.4504 0.1612 -3.11922e-11
0.1612 84.9053 6.80666e-11
-3.11922e-11 6.80666e-11 85.335

85.4087 -0.0590016 4.04353e-11
-0.0590016 85.4082 -6.49854e-12
4.04353e-11 -6.49854e-12 85.9434

92.4462 -0.361561 -1.19754e-10
-0.361561 93.0906 -7.27799e-11
-1.19754e-10 -7.27799e-11 90.9712

92.4495 0.364486 5.8532e-11
0.364486 93.095 7.17184e-11
5.8532e-11 7.17184e-11 90.9732

78.091 -0.0612479 -3.71643e-11
-0.0612479 79.6015 1.29966e-11
-3.71643e-11 1.29966e-11 80.827

87.5231 0.491311 3.85109e-12
0.491311 87.8218 1.27088e-11
3.85109e-12 1.27088e-11 87.4856

88.8302 0.432971 -3.77377e-11
0.432971 89.3779 2.58976e-11
-3.77377e-11 2.58976e-11 88.5826

88.8306 -0.430069 -1.03959e-11
-0.430069 89.381 -4.64028e-11
-1.03959e-11 -4.64028e-11 88.5836

87.7196 0.309452 1.11657e-11
0.309452 88.4981 -4.11085e-11
1.11657e-11 -4.11085e-11 87.7881

87.5183 -0.467692 -1.54044e-11
-0.467692 87.7968 2.41639e-11
-1.54044e-11 2.41639e-11 87.4774

84.1978 -0.0253512 -2.34912e-11
-0.0253512 84.8984 -9.00114e-12
-2.34912e-11 -9.00114e-12 85.1583

84.2545 -0.0336845 -4.62261e-12
-0.0336845 85.0406 7.15329e-11
-4.62261e-12 7.15329e-11 85.2247

85.8914 -0.120446 -3.7739e-11
-0.120446 86.9493 -1.92294e-13
-3.7739e-11 -1.92294e-13 86.6852

87.7062 -0.301928 -2.73423e-11
-0.301928 88.5005 2.49344e-11
-2.73423e-11 2.49344e-11 87.7838

84.0485 -0.308183 -5.31439e-11
-0.308183 84.0449 -8.28033e-12
-5.31439e-11 -8.28033e-12 84.8529

82.516 0.178496 1.81e-11
0.178496 82.0345 -2.31001e-11
1.81e-11 -2.31001e-11 83.509

89.6037 0.595117 7.04683e-11
0.595117 89.7896 -3.6969e-11
7.04683e-11 -3.6969e-11 89.0286

89.6043 -0.598247 -1.46321e-11
-0.598247 89.79 -1.58842e-11
-1.46321e-11 -1.58842e-11 89.0285

89.5883 0.400731 4.00458e-11
0.400731 90.3887 -7.04711e-11
4.00458e-11 -7.04711e-11 89.2747

89.5891 -0.398862 2.54145e-11
-0.398862 90.3905 3.43695e-11
2.54145e-11 3.43695e-11 89.2748

83.3924 -0.312503 2.25276e-11
-0.312503 83.9461 8.0367e-11
2.25276e-11 8.0367e-11 84.5858

83.1643 -0.281331 -1.81e-11
-0.281331 83.1557 3.55737e-11
-1.81e-11 3.55737e-11 84.1116

88.2035 -0.683394 9.01101e-11
-0.683394 88.9958 -1.10697e-11
9.01101e-11 -1.10697e-11 88.2284

88.1979 0.689863 2.77243e-11
0.689863 88.9863 -4.25525e-11
2.77243e-11 -4.25525e-11 88.2254

89.762 -0.385521 5.7377e-11
-0.385521 83.1706 2.25363e-11
5.7377e-11 2.25363e-11 84.7427

90.1807 -0.0360396 -7.35451e-11
-0.0360396 87.9409 7.62559e-11
-7.35451e-11 7.62559e-11 86.5179

89.8594 0.416623 -3.84461e-13
0.416623 90.3173 3.05172e-11
-3.84461e-13 3.05172e-11 89.2637

89.8764 -0.407751 -2.00221e-11
-0.407751 90.3146 -5.16971e-11
-2.00221e-11 -5.16971e-11 89.266

90.4781 0.218175 -3.42718e-11
0.218175 91.0727 -4.95771e-12
-3.42718e-11 -4.95771e-12 89.9144

90.4782 -0.217521 8.08569e-12
-0.217521 91.0696 4.11551e-11
8.08569e-12 4.11551e-11 89.9131

78.543 -0.499605 5.00863e-12
-0.499605 80.2073 -3.75485e-11
5.00863e-12 -3.75485e-11 80.5625

78.6702 0.502616 3.15797e-11
0.502616 80.1587 -1.29022e-11
3.15797e-11 -1.29022e-11 80.607

86.7281 -2.80012 -8.46212e-12
-2.80012 82.9337 -5.02551e-11
-8.46212e-12 -5.02551e-11 82.8368

79.2806 0.138325 -3.36996e-11
0.138325 81.7489 4.63108e-11
-3.36996e-11 4.63108e-11 80.4663

91.2806 0.0819578 -1.03969e-10
0.0819578 91.8343 -1.17461e-11
-1.03969e-10 -1.17461e-11 90.3738

92.2045 -0.250423 -1.23608e-10
-0.250423 92.132 3.76396e-11
-1.23608e-10 3.76396e-11 90.6866

91.2795 -0.0802735 -2.00236e-11
-0.0802735 91.8424 -9.72338e-12
-2.00236e-11 -9.72338e-12 90.3756

92.2067 0.252007 5.39098e-11
0.252007 92.1373 -2.10847e-11
5.39098e-11 -2.10847e-11 90.6886

91.4132 1.70606 2.19538e-11
1.70606 90.2088 3.40776e-11
2.19538e-11 3.40776e-11 87.5

79.297 -0.121325 3.48542e-11
-0.121325 81.7293 4.72719e-11
3.48542e-11 4.72719e-11 80.4654

91.9676 0.00185053 1.88691e-11
0.00185053 91.9691 1.0397e-10
1.88691e-11 1.0397e-10 90.4757

93.218 -0.266029 4.39376e-10
-0.266029 92.8854 -2.654e-10
4.39376e-10 -2.654e-10 91.0737

93.2185 0.268055 -3.86251e-10
0.268055 92.8914 -6.56141e-10
-3.86251e-10 -6.56141e-10 91.0754

91.9739 0.00164465 1.30838e-11
0.00164465 91.9725 -2.03802e-10
1.30838e-11 -2.03802e-10 90.4782

91.7534 -0.17356 1.34772e-11
-0.17356 91.3537 2.94588e-11
1.34772e-11 2.94588e-11 90.2555

90.6581 -0.648348 -5.62193e-11
-0.648348 90.651 -2.46456e-11
-5.62193e-11 -2.46456e-11 89.7366

92.0971 -0.192203 1.69441e-11
-0.192203 92.8012 -1.44403e-11
1.69441e-11 -1.44403e-11 90.7809

91.758 0.177952 3.00368e-11
0.177952 91.3572 2.53184e-11
3.00368e-11 2.53184e-11 90.2577

92.1009 0.194074 3.84806e-12
0.194074 92.8069 -1.11768e-10
3.84806e-12 -1.11768e-10 90.7833

90.6611 0.652251 -1.65581e-11
0.652251 90.6557 3.87002e-11
-1.65581e-11 3.87002e-11 89.7388

90.9188 0.221931 -2.54146e-11
0.221931 91.2652 -8.27922e-12
-2.54146e-11 -8.27922e-12 90.0162

91.4397 0.449146 -3.73516e-11
0.449146 91.5612 1.45366e-11
-3.73516e-11 1.45366e-11 90.3231

90.916 -0.220582 -5.00583e-11
-0.220582 91.2631 -2.91699e-11
-5.00583e-11 -2.91699e-11 90.0146

91.4379 -0.446149 2.92661e-11
-0.446149 91.558 7.12419e-12
2.92661e-11 7.12419e-12 90.3215

51.2966 3.10279 3.56289e-12
3.10279 58.3047 -2.69692e-11
3.56289e-12 -2.69692e-11 54.3114

68.2202 0.503073 1.32899e-11
0.503073 70.6923 8.85706e-12
1.32899e-11 8.85706e-12 68.7025

58.5597 0.874866 -4.04356e-12
0.874866 67.7433 7.31785e-12
-4.04356e-12 7.31785e-12 63.7231

62.2052 1.59186 -2.92951e-13
1.59186 52.5405 -2.42698e-11
-2.92951e-13 -2.42698e-11 57.4165

59.7282 0.457535 3.2268e-11
0.457535 50.2782 -3.85214e-12
3.2268e-11 -3.85214e-12 54.0219

69.5762 -0.344456 1.52128e-11
-0.344456 73.1919 -4.72133e-12
1.52128e-11 -4.72133e-12 72.1779

59.9831 1.3286 -1.52166e-11
1.3286 72.0755 -1.81047e-11
-1.52166e-11 -1.81047e-11 67.1124

60.4236 -0.440393 3.07243e-11
-0.440393 51.7147 2.27213e-11
3.07243e-11 2.27213e-11 54.678

69.8487 0.359824 -9.12396e-12
0.359824 58.4091 1.84873e-11
-9.12396e-12 1.84873e-11 64.5768

41.9913 2.78575 2.21515e-11
2.78575 48.0662 1.53551e-12
2.21515e-11 1.53551e-12 43.9148

44.0314 -4.50521 -3.75629e-12
-4.50521 48.8596 -1.92659e-11
-3.75629e-12 -1.92659e-11 44.3125

49.2799 2.8063 -1.25177e-11
2.8063 43.4856 1.53803e-12
-1.25177e-11 1.53803e-12 44.8822

70.6694 -5.14301 -1.41528e-11
-5.14301 73.8007 -2.7154e-11
-1.41528e-11 -2.7154e-11 71.6593

66.8982 -1.79794 -1.8874e-11
-1.79794 71.9964 1.42533e-11
-1.8874e-11 1.42533e-11 69.1939

52.4419 2.66679 -6.64946e-12
2.66679 60.8248 -8.09138e-12
-6.64946e-12 -8.09138e-12 57.5595

56.0059 3.09415 2.62899e-11
3.09415 65.591 4.353e-11
2.62899e-11 4.353e-11 62.7111

59.7999 -1.4726 6.74015e-12
-1.4726 72.1505 -4.62556e-12
6.74015e-12 -4.62556e-12 66.949

66.7646 -3.85057 -2.27256e-11
-3.85057 71.9867 -2.65746e-11
-2.27256e-11 -2.65746e-11 69.9808

62.9685 -2.74239 -3.91981e-11
-2.74239 54.1876 3.25529e-11
-3.91981e-11 3.25529e-11 59.4312

45.1054 0.879957 2.64881e-11
0.879957 53.6444 4.04509e-11
2.64881e-11 4.04509e-11 47.7116

48.5061 -1.75735 8.57299e-12
-1.75735 54.7695 -3.66211e-12
8.57299e-12 -3.66211e-12 49.1226

53.8545 0.660303 5.39035e-12
0.660303 47.1211 1.15546e-11
5.39035e-12 1.15546e-11 48.427

51.5659 3.59627 -1.12669e-11
3.59627 55.8361 -3.04375e-11
-1.12669e-11 -3.04375e-11 53.6755

56.203 -2.47154 3.17864e-12
-2.47154 48.5737 7.12863e-12
3.17864e-12 7.12863e-12 51.1112

56.9487 3.94974 -1.55991e-11
3.94974 57.6904 -1.59847e-11
-1.55991e-11 -1.59847e-11 57.4156

59.3875 2.7986 1.71427e-11
2.7986 61.3649 -2.15678e-11
1.71427e-11 -2.15678e-11 58.5573

63.6324 -0.845571 -2.86734e-13
-0.845571 53.0943 2.34972e-11
-2.86734e-13 2.34972e-11 58.211

40.0456 1.88986 1.00125e-11
1.88986 44.4005 -6.1267e-11
1.00125e-11 -6.1267e-11 40.0085

67.3726 0.947459 -4.62745e-11
0.947459 56.8314 -1.92169e-12
-4.62745e-11 -1.92169e-12 62.9337

44.5919 1.76281 2.44785e-11
1.76281 41.4199 8.66381e-12
2.44785e-11 8.66381e-12 40.7698

73.4548 -1.75242 -5.76539e-13
-1.75242 75.0867 -1.65618e-11
-5.76539e-13 -1.65618e-11 73.6426

67.3145 0.222906 3.65546e-12
0.222906 74.1447 -1.30973e-11
3.65546e-12 -1.30973e-11 69.8127

78.3192 -1.87898 -3.85403e-12
-1.87898 75.1607 2.13745e-11
-3.85403e-12 2.13745e-11 74.6798

76.2081 4.54702 3.29787e-11
4.54702 76.6841 3.00446e-11
3.29787e-11 3.00446e-11 74.6187

52.6107 -1.19869 2.98665e-12
-1.19869 46.002 1.05977e-11
2.98665e-12 1.05977e-11 46.797

57.1909 4.18996 3.76577e-11
4.18996 59.8914 3.92972e-11
3.76577e-11 3.92972e-11 59.9086

68.7639 2.39552 -3.7231e-11
2.39552 68.0404 1.38642e-11
-3.7231e-11 1.38642e-11 68.8976

70.8094 -0.674315 1.52861e-11
-0.674315 69.8604 1.94507e-11
1.52861e-11 1.94507e-11 69.8323

69.9294 0.362107 2.19579e-11
0.362107 57.7302 -1.73347e-11
2.19579e-11 -1.73347e-11 64.5876

57.1596 3.94754 -1.40582e-11
3.94754 60.2011 1.11736e-11
-1.40582e-11 1.11736e-11 57.4916

57.1858 -3.12803 -5.30006e-12
-3.12803 53.1344 7.70184e-12
-5.30006e-12 7.70184e-12 53.1086

69.16 -0.0368578 -8.14019e-12
-0.0368578 55.9751 -3.5435e-11
-8.14019e-12 -3.5435e-11 63.2482

53.8068 -5.3803 5.4885e-12
-5.3803 58.8918 -5.20169e-12
5.4885e-12 -5.20169e-12 54.6703

55.0901 -4.691 1.08829e-11
-4.691 60.2438 -1.15592e-11
1.08829e-11 -1.15592e-11 55.8066

68.6139 2.37621 3.85062e-13
2.37621 70.5665 -1.7909e-11
3.85062e-13 -1.7909e-11 69.5564

52.8886 -5.3864 6.9251e-11
-5.3864 51.231 -1.4069e-11
6.9251e-11 -1.4069e-11 50.0888

32.2966 -5.36818 -7.32292e-12
-5.36818 31.8857 1.50313e-11
-7.32292e-12 1.50313e-11 31.8939

32.0013 -5.68892 -1.93253e-13
-5.68892 33.4803 -3.12141e-11
-1.93253e-13 -3.12141e-11 32.4268

65.0854 -6.25039 -9.54792e-14
-6.25039 71.7633 -1.21326e-11
-9.54792e-14 -1.21326e-11 68.7694

32.3656 -2.12413 -1.73668e-12
-2.12413 31.9232 -2.75545e-11
-1.73668e-12 -2.75545e-11 33.2551

31.0521 -1.74047 -2.0809e-11
-1.74047 32.2223 1.23328e-11
-2.0809e-11 1.23328e-11 32.7078

78.092 2.71425 1.19331e-11
2.71425 72.6607 -1.9067e-11
1.19331e-11 -1.9067e-11 75.3546

73.0614 -3.59226 1.00147e-11
-3.59226 69.2552 -7.31963e-12
1.00147e-11 -7.31963e-12 70.482

64.9603 -1.87573 -5.00666e-12
-1.87573 55.7179 2.73463e-11
-5.00666e-12 2.73463e-11 62.1016

76.9627 3.6536 8.46493e-12
3.6536 69.6392 -4.52536e-11
8.46493e-12 -4.52536e-11 74.0631

72.4153 -5.03881 1.11711e-11
-5.03881 68.6848 -1.96482e-11
1.11711e-11 -1.96482e-11 70.2471

60.8806 2.76275 3.65944e-12
2.76275 65.0664 1.77235e-11
3.65944e-12 1.77235e-11 62.4523

76.9557 -1.74437 8.16025e-12
-1.74437 71.5508 -2.50027e-11
8.16025e-12 -2.50027e-11 73.0574

74.3708 2.34541 4.10213e-11
2.34541 72.8697 2.80233e-11
4.10213e-11 2.80233e-11 72.8525

71.6475 4.27904 2.73526e-11
4.27904 65.8971 2.4459e-12
2.73526e-11 2.4459e-12 69.5254

66.6672 -5.44196 5.31578e-11
-5.44196 62.9522 2.94538e-11
5.31578e-11 2.94538e-11 65.609

47.2449 -3.71707 2.75485e-11
-3.71707 42.1413 1.30974e-11
2.75485e-11 1.30974e-11 42.8978

77.6183 -1.06155 -2.50317e-12
-1.06155 80.6255 1.45387e-11
-2.50317e-12 1.45387e-11 78.9158

71.3547 -0.175073 9.44145e-12
-0.175073 80.7861 3.84959e-12
9.44145e-12 3.84959e-12 73.5695

51.6127 -4.54486 3.12022e-11
-4.54486 56.159 -5.78559e-12
3.12022e-11 -5.78559e-12 53.9878

38.6619 -1.56683 -4.43312e-12
-1.56683 43.2614 2.17697e-11
-4.43312e-12 2.17697e-11 39.2417

42.4397 -1.46589 2.96684e-11
-1.46589 38.1217 3.85418e-12
2.96684e-11 3.85418e-12 38.593

64.3248 1.76185 3.23557e-11
1.76185 69.0002 -3.65944e-12
3.23557e-11 -3.65944e-12 66.7928

54.7766 2.65232 -1.75277e-11
2.65232 64.8838 1.50246e-11
-1.75277e-11 1.50246e-11 61.4131

89.9358 3.46034 -7.66636e-11
3.46034 79.8478 -1.04713e-10
-7.66636e-11 -1.04713e-10 82.1885

89.2688 1.02885 -1.88698e-10
1.02885 92.8327 1.31183e-11
-1.88698e-10 1.31183e-11 80.8633

57.7458 3.99071 6.93105e-12
3.99071 63.7341 -2.3123e-12
6.93105e-12 -2.3123e-12 63.8937

67.8126 3.15796 -1.61762e-11
3.15796 59.6996 3.13931e-11
-1.61762e-11 3.13931e-11 64.8024

65.0225 -4.80783 6.06735e-11
-4.80783 58.2352 -3.39011e-11
6.06735e-11 -3.39011e-11 62.6414

58.6911 5.47704 -1.72432e-11
5.47704 63.1951 4.84797e-15
-1.72432e-11 4.84797e-15 63.5763

59.6349 -4.16496 1.1364e-11
-4.16496 68.6358 -1.15826e-12
1.1364e-11 -1.15826e-12 66.1566

51.6831 -0.39463 1.12732e-11
-0.39463 43.5242 -1.73339e-11
1.12732e-11 -1.73339e-11 45.8051

60.7284 -1.59324 6.93268e-12
-1.59324 51.8864 -3.848e-12
6.93268e-12 -3.848e-12 55.9815

55.4473 1.95644 1.58957e-11
1.95644 47.9563 -5.0067e-12
1.58957e-11 -5.0067e-12 50.2951

67.8281 2.17151 -1.459e-11
2.17151 63.6251 -2.50365e-11
-1.459e-11 -2.50365e-11 67.0216

70.6022 1.47775 2.04057e-11
1.47775 80.33 7.01018e-11
2.04057e-11 7.01018e-11 74.5544

75.6991 -1.08862 1.05887e-10
-1.08862 76.3067 9.72482e-11
1.05887e-10 9.72482e-11 74.7241

47.9109 3.14217 -4.31461e-11
3.14217 49.7288 -9.24275e-12
-4.31461e-11 -9.24275e-12 46.7379

58.2167 -4.03887 5.20073e-12
-4.03887 56.611 6.16581e-12
5.20073e-12 6.16581e-12 56.7878

64.8445 2.18629 -1.09751e-11
2.18629 57.8757 3.60211e-11
-1.09751e-11 3.60211e-11 61.6358

75.3015 2.43638 -8.20275e-11
2.43638 83.2707 -1.14379e-12
-8.20275e-11 -1.14379e-12 75.357

76.8971 -1.63032 1.15402e-12
-1.63032 80.0751 -2.18545e-11
1.15402e-12 -2.18545e-11 78.3919

69.5748 -0.595605 2.98522e-11
-0.595605 64.2671 3.31243e-11
2.98522e-11 3.31243e-11 67.798

65.8158 -3.14219 -2.18597e-11
-3.14219 69.7825 -2.31068e-11
-2.18597e-11 -2.31068e-11 66.9103

58.4199 -1.01645 -6.06631e-12
-1.01645 68.0224 6.9349e-12
-6.06631e-12 6.9349e-12 63.6553

68.2055 0.697111 1.96408e-11
0.697111 56.6905 -1.77217e-11
1.96408e-11 -1.77217e-11 65.0158

67.279 -2.19011 1.92601e-12
-2.19011 56.3857 -1.15563e-11
1.92601e-12 -1.15563e-11 64.2371

49.4254 -4.46333 4.02613e-11
-4.46333 47.5184 -2.6598e-11
4.02613e-11 -2.6598e-11 46.5562

72.3457 2.755 4.2664e-11
2.755 61.4666 4.46701e-11
4.2664e-11 4.46701e-11 69.0621

70.1138 -4.28437 -4.02532e-11
-4.28437 61.5121 3.08177e-11
-4.02532e-11 3.08177e-11 67.073

63.1642 -3.81543 -1.07827e-11
-3.81543 55.8307 2.04191e-11
-1.07827e-11 2.04191e-11 59.8531

52.4368 -3.80115 -5.20291e-12
-3.80115 58.6122 -3.12099e-11
-5.20291e-12 -3.12099e-11 55.0156

68.72 1.65702 -5.00918e-12
1.65702 60.7097 2.5036e-11
-5.00918e-12 2.5036e-11 66.4777

67.5266 -3.0729 1.0786e-11
-3.0729 59.4125 -2.05107e-11
1.0786e-11 -2.05107e-11 64.8609

64.263 -1.00491 1.87694e-12
-1.00491 57.0678 -1.54096e-11
1.87694e-12 -1.54096e-11 60.1295

72.3171 4.79142 1.15523e-11
4.79142 69.9487 1.34685e-12
1.15523e-11 1.34685e-12 71.3269

54.9832 3.17756 2.61999e-11
3.17756 52.8232 5.47085e-11
2.61999e-11 5.47085e-11 52.6032

58.1724 4.75991 -2.4319e-11
4.75991 62.496 -3.23573e-11
-2.4319e-11 -3.23573e-11 64.0222

70.838 3.54033 -1.21328e-11
3.54033 73.445 -1.38637e-11
-1.21328e-11 -1.38637e-11 72.8899

57.9612 1.7684 -1.13685e-11
1.7684 49.501 -2.06101e-11
-1.13685e-11 -2.06101e-11 52.9915

63.3144 -2.36848 -2.03621e-11
-2.36848 60.4314 3.12009e-11
-2.03621e-11 3.12009e-11 62.5253

62.6136 1.48003 -8.57425e-12
1.48003 55.72 -7.43452e-11
-8.57425e-12 -7.43452e-11 58.9173

50.0105 3.80408 1.44751e-12
3.80408 51.3816 5.58652e-11
1.44751e-12 5.58652e-11 50.1796

56.0074 3.59342 -1.75328e-11
3.59342 54.3511 1.30979e-11
-1.75328e-11 1.30979e-11 55.6416

53.8366 0.0422329 2.27251e-11
0.0422329 66.289 2.7734e-11
2.27251e-11 2.7734e-11 61.1192

61.1588 -1.5489 7.12406e-12
-1.5489 67.3846 -1.61773e-11
7.12406e-12 -1.61773e-11 64.5038

48.12 -4.48042 7.41318e-12
-4.48042 43.0575 2.6964e-11
7.41318e-12 2.6964e-11 44.441

61.6478 -6.11195 2.05099e-11
-6.11195 67.4738 3.06218e-11
2.05099e-11 3.06218e-11 64.9434

50.8951 -5.39036 -1.7141e-11
-5.39036 53.6554 6.08706e-11
-1.7141e-11 6.08706e-11 51.0581

55.7014 4.37349 -3.85795e-12
4.37349 55.841 -2.36944e-11
-3.85795e-12 -2.36944e-11 53.6948

63.0591 -1.99722 1.63731e-11
-1.99722 58.4541 8.27819e-12
1.63731e-11 8.27819e-12 59.8921

71.393 -0.155501 -7.07778e-12
-0.155501 59.4772 1.54069e-11
-7.07778e-12 1.54069e-11 66.693

70.101 0.642097 -1.53138e-11
0.642097 59.9213 -3.04278e-11
-1.53138e-11 -3.04278e-11 66.3961

47.2474 2.00473 5.29804e-12
2.00473 56.3629 -2.23449e-11
5.29804e-12 -2.23449e-11 51.4485

58.7081 -4.81513 -1.33873e-11
-4.81513 60.3346 2.12193e-12
-1.33873e-11 2.12193e-12 58.2686

41.2228 -0.660852 2.31177e-11
-0.660852 51.5172 4.58497e-11
2.31177e-11 4.58497e-11 45.3708

44.942 -0.836706 -1.65594e-11
-0.836706 53.2699 2.6199e-11
-1.65594e-11 2.6199e-11 47.1757

51.3485 -1.10691 -1.48318e-11
-1.10691 42.4518 1.34796e-11
-1.48318e-11 1.34796e-11 45.7306

51.1912 3.18477 1.82994e-11
3.18477 49.8296 1.07868e-11
1.82994e-11 1.07868e-11 48.0339

52.6395 -5.53025 -2.11872e-11
-5.53025 49.6116 1.15659e-11
-2.11872e-11 1.15659e-11 50.5848

88.1398 -1.31241 5.81459e-11
-1.31241 88.4041 -5.50769e-11
5.81459e-11 -5.50769e-11 79.4935

76.7245 -4.98197 -1.95256e-10
-4.98197 82.8888 1.69739e-11
-1.95256e-10 1.69739e-11 79.4098

56.8346 -3.27481 1.23294e-11
-3.27481 48.9303 -2.42721e-11
1.23294e-11 -2.42721e-11 52.3768

66.0957 4.42525 -1.92559e-11
4.42525 67.5647 1.59864e-11
-1.92559e-11 1.59864e-11 66.5021

65.4101 0.29482 -2.42693e-11
0.29482 56.0669 -1.11725e-11
-2.42693e-11 -1.11725e-11 62.4494

52.0796 -4.01337 3.17804e-11
-4.01337 58.9395 -2.50469e-11
3.17804e-11 -2.50469e-11 53.6688

58.0099 4.17714 1.3385e-11
4.17714 68.6533 1.69471e-11
1.3385e-11 1.69471e-11 66.0527

73.5414 1.7395 -5.00566e-12
1.7395 76.0045 3.85277e-12
-5.00566e-12 3.85277e-12 75.4926

60.3908 -5.69112 -1.27142e-11
-5.69112 62.9686 2.11849e-11
-1.27142e-11 2.11849e-11 63.8237

72.9387 4.26074 5.96786e-12
4.26074 73.4753 -3.07876e-12
5.96786e-12 -3.07876e-12 73.8215

54.8168 3.37496 3.32235e-11
3.37496 61.9104 3.31313e-11
3.32235e-11 3.31313e-11 60.2352

68.349 -0.40177 -1.61814e-11
-0.40177 52.2257 -1.5404e-11
-1.61814e-11 -1.5404e-11 64.8575

55.9322 4.16305 6.74505e-12
4.16305 51.4714 -5.969e-12
6.74505e-12 -5.969e-12 52.417

62.4583 -6.4672 1.18916e-11
-6.4672 70.1359 1.07849e-11
1.18916e-11 1.07849e-11 66.1738

57.3911 3.74753 3.04174e-11
3.74753 56.4294 -7.18489e-11
3.04174e-11 -7.18489e-11 55.2603

47.9617 -3.67801 -1.67546e-11
-3.67801 50.1765 -2.88717e-12
-1.67546e-11 -2.88717e-12 46.3961

59.5368 -5.29417 -3.17872e-12
-5.29417 63.718 1.34692e-12
-3.17872e-12 1.34692e-12 61.1935

46.1553 -2.3894 2.69185e-12
-2.3894 54.3154 1.30953e-11
2.69185e-12 1.30953e-11 48.659

51.1186 0.911986 -6.73417e-12
0.911986 56.1092 3.35224e-11
-6.73417e-12 3.35224e-11 50.9483

53.2847 -2.24923 8.86461e-12
-2.24923 46.8794 -1.27149e-11
8.86461e-12 -1.27149e-11 48.4746

53.5743 -4.82337 -1.07877e-11
-4.82337 52.8595 -1.19349e-11
-1.07877e-11 -1.19349e-11 52.398

52.238 -0.228772 2.36861e-11
-0.228772 62.3063 -1.34865e-11
2.36861e-11 -1.34865e-11 56.9004

59.6348 -0.865199 -2.08076e-11
-0.865199 64.4693 -4.69947e-11
-2.08076e-11 -4.69947e-11 60.1733

44.1607 -4.82648 6.55076e-12
-4.82648 47.1169 -3.73725e-11
6.55076e-12 -3.73725e-11 44.184

47.8751 3.57882 -3.8504e-12
3.57882 49.0569 -7.7048e-12
-3.8504e-12 -7.7048e-12 46.2878

67.1109 0.0174348 -2.70054e-12
0.0174348 56.9431 -2.86939e-11
-2.70054e-12 -2.86939e-11 65.8173

66.5786 -0.855757 -8.47607e-12
-0.855757 57.1144 -2.69632e-11
-8.47607e-12 -2.69632e-11 65.2205

67.4734 3.86774 1.48302e-11
3.86774 68.4662 -5.00289e-12
1.48302e-11 -5.00289e-12 67.6398

64.5383 -6.38915 -8.65197e-13
-6.38915 71.7649 -1.79104e-11
-8.65197e-13 -1.79104e-11 68.4229

60.2486 4.3833 1.30325e-12
4.3833 60.974 4.56489e-11
1.30325e-12 4.56489e-11 62.1665

45.3023 2.01462 -1.39715e-11
2.01462 40.8003 9.24845e-12
-1.39715e-11 9.24845e-12 41.3978

53.7117 2.4066 -2.94627e-11
2.4066 59.4917 2.50466e-12
-2.94627e-11 2.50466e-12 55.0208

74.3448 2.22105 3.00494e-11
2.22105 66.9686 3.46101e-12
3.00494e-11 3.46101e-12 71.4645

70.8022 -3.87336 -1.5026e-11
-3.87336 64.3216 1.55124e-12
-1.5026e-11 1.55124e-12 67.925

68.9635 3.16677 -1.29077e-11
3.16677 63.8156 -4.61668e-12
-1.29077e-11 -4.61668e-12 66.5957

65.567 -4.57726 6.39491e-11
-4.57726 60.1844 1.19345e-11
6.39491e-11 1.19345e-11 63.2444

29.3932 -2.28931 3.6413e-11
-2.28931 25.1088 -4.35481e-11
3.6413e-11 -4.35481e-11 31.0018

25.0252 -2.67865 1.61793e-11
-2.67865 30.4238 2.2739e-11
1.61793e-11 2.2739e-11 31.468

47.699 -3.04038 3.92952e-11
-3.04038 56.8959 -3.00571e-11
3.92952e-11 -3.00571e-11 52.0735

82.7668 3.6327 -1.14242e-12
3.6327 73.0701 4.37071e-11
-1.14242e-12 4.37071e-11 77.5415

80.072 -5.13753 -1.27148e-11
-5.13753 75.358 -6.43151e-11
-1.27148e-11 -6.43151e-11 74.608

63.7605 3.68303 7.30734e-12
3.68303 60.1647 -4.41031e-11
7.30734e-12 -4.41031e-11 61.3444

45.7101 1.48801 -8.38352e-12
1.48801 40.3609 -1.65753e-11
-8.38352e-12 -1.65753e-11 41.346

60.7265 -4.43713 1.05908e-11
-4.43713 67.6763 1.23263e-11
1.05908e-11 1.23263e-11 64.0785

55.2614 -2.13052 -2.86967e-11
-2.13052 66.3066 -1.33227e-15
-2.86967e-11 -1.33227e-15 61.826

51.9571 -5.28464 1.43546e-11
-5.28464 53.3407 -4.31536e-11
1.43546e-11 -4.31536e-11 50.772

59.277 -4.27979 7.03141e-16
-4.27979 62.7551 -6.16362e-12
7.03141e-16 -6.16362e-12 64.1965

60.0427 -4.97274 -3.64108e-11
-4.97274 56.4658 -2.04112e-11
-3.64108e-11 -2.04112e-11 58.1389

54.7369 6.47676 -2.01279e-11
6.47676 63.782 -8.09005e-12
-2.01279e-11 -8.09005e-12 63.4591

74.2706 1.57842 2.81145e-11
1.57842 76.1954 -5.68249e-12
2.81145e-11 -5.68249e-12 75.6081

67.1297 2.71631 5.97211e-12
2.71631 71.3006 1.64657e-11
5.97211e-12 1.64657e-11 69.2174

58.6438 -4.76396 -2.73517e-11
-4.76396 61.1369 5.04704e-11
-2.73517e-11 5.04704e-11 61.4159

57.5528 4.6496 5.29668e-11
4.6496 61.3341 6.5542e-12
5.29668e-11 6.5542e-12 61.1829

53.6468 3.09425 1.32902e-11
3.09425 48.0864 -2.3116e-11
1.32902e-11 -2.3116e-11 49.6713

60.6011 -0.00842351 1.98354e-11
-0.00842351 52.6496 -2.23421e-11
1.98354e-11 -2.23421e-11 56.4224

74.6985 3.20957 1.19375e-11
3.20957 74.5163 -2.67672e-11
1.19375e-11 -2.67672e-11 74.8924

56.6788 -5.14545 7.32059e-12
-5.14545 64.0768 8.47537e-12
7.32059e-12 8.47537e-12 59.6061

49.4742 0.780458 -7.03493e-12
0.780458 60.6814 -3.46582e-12
-7.03493e-12 -3.46582e-12 55.0533

66.6145 4.80786 1.4639e-11
4.80786 62.4197 9.62845e-12
1.4639e-11 9.62845e-12 64.6335

57.0492 0.134565 -3.10136e-11
0.134565 62.9931 -4.70008e-11
-3.10136e-11 -4.70008e-11 58.7857

57.8423 -3.58479 -1.86846e-11
-3.58479 67.8969 1.65645e-11
-1.86846e-11 1.65645e-11 65.7313

36.8145 -3.02769 -1.09808e-11
-3.02769 38.5576 5.93371e-11
-1.09808e-11 5.93371e-11 36.1099

38.5208 -3.09549 -3.30419e-11
-3.09549 36.4491 2.31134e-12
-3.30419e-11 2.31134e-12 35.9197

64.1274 1.062 -2.60014e-12
1.062 54.8364 -1.9251e-11
-2.60014e-12 -1.9251e-11 60.2944

61.1323 -5.66695 -2.17644e-11
-5.66695 58.4831 -1.14782e-12
-2.17644e-11 -1.14782e-12 60.6768

89.3831 3.21556 -3.62036e-11
3.21556 77.8601 5.21146e-12
-3.62036e-11 5.21146e-12 81.1775

90.6051 -0.904294 -2.07586e-10
-0.904294 83.7342 -5.38964e-11
-2.07586e-10 -5.38964e-11 79.1902

56.0382 -3.99343 -3.54386e-11
-3.99343 61.9964 1.31008e-11
-3.54386e-11 1.31008e-11 60.6684

71.1104 -1.21074 4.98379e-12
-1.21074 73.1106 1.73039e-12
4.98379e-12 1.73039e-12 71.9244

70.4951 4.18677 -4.58118e-11
4.18677 75.1291 3.54314e-11
-4.58118e-11 3.54314e-11 72.2574

66.3865 0.376415 -5.20499e-11
0.376415 54.6142 2.0416e-11
-5.20499e-11 2.0416e-11 60.4752

61.6662 -6.93164 1.91624e-11
-6.93164 69.6021 -5.2021e-12
1.91624e-11 -5.2021e-12 65.8282

39.9389 2.33008 3.3717e-11
2.33008 40.1306 1.34849e-11
3.3717e-11 1.34849e-11 38.5314

38.7035 2.24645 -1.59838e-11
2.24645 38.7566 4.82281e-13
-1.59838e-11 4.82281e-13 37.5769

37.9363 -2.69744 -2.94785e-11
-2.69744 44.2209 -8.0839e-12
-2.94785e-11 -8.0839e-12 39.9424

41.6422 1.34256 3.27502e-11
1.34256 46.2271 6.1647e-12
3.27502e-11 6.1647e-12 41.9241

44.0971 -2.29122 1.4803e-15
-2.29122 38.4468 1.5304e-11
1.4803e-15 1.5304e-11 40.0689

55.6391 -6.36345 9.61361e-13
-6.36345 63.4233 -2.42725e-11
9.61361e-13 -2.42725e-11 63.5142

34.5479 0.128161 3.44805e-11
0.128161 41.915 -4.9326e-11
3.44805e-11 -4.9326e-11 37.4206

42.2647 0.190119 5.78012e-12
0.190119 36.0021 7.32618e-12
5.78012e-12 7.32618e-12 38.1446

70.192 0.427424 -2.23355e-11
0.427424 77.3599 -1.1554e-11
-2.23355e-11 -1.1554e-11 72.1794

73.097 -3.65091 4.42757e-12
-3.65091 77.0766 2.4077e-12
4.42757e-12 2.4077e-12 74.4554

67.0961 1.46455 2.18153e-11
1.46455 60.931 2.61922e-11
2.18153e-11 2.61922e-11 64.1092

69.8698 0.243716 1.93107e-11
0.243716 56.596 -1.9273e-12
1.93107e-11 -1.9273e-12 64.3094

45.0221 -3.4434 1.03951e-11
-3.4434 51.0021 4.39213e-11
1.03951e-11 4.39213e-11 47.1372

48.9631 2.2031 1.75299e-11
2.2031 53.5922 -1.9275e-12
1.75299e-11 -1.9275e-12 49.4089

66.5619 0.288756 -5.97132e-11
0.288756 55.066 -1.69456e-11
-5.97132e-11 -1.69456e-11 60.7691

53.5347 -3.50361 -1.21336e-11
-3.50361 61.2153 1.15562e-11
-1.21336e-11 1.15562e-11 58.1969

79.0798 2.04333 -4.31466e-11
2.04333 71.6134 -2.59858e-11
-4.31466e-11 -2.59858e-11 75.5652

76.062 -2.83376 -1.00202e-11
-2.83376 71.4251 -2.69592e-11
-1.00202e-11 -2.69592e-11 72.3048

62.652 3.33564 -1.84472e-11
3.33564 62.4026 1.14941e-12
-1.84472e-11 1.14941e-12 63.2668

60.0307 -5.85497 1.06889e-11
-5.85497 66.701 2.36894e-11
1.06889e-11 2.36894e-11 62.7097

65.8751 1.51165 1.6898e-11
1.51165 56.5601 -7.0107e-11
1.6898e-11 -7.0107e-11 62.1292

47.1274 3.06061 -4.2572e-11
3.06061 46.125 -9.24779e-12
-4.2572e-11 -9.24779e-12 45.1699

59.8203 -6.31522 3.95003e-12
-6.31522 66.0835 6.35514e-12
3.95003e-12 6.35514e-12 62.2988

30.3751 5.60106 4.27688e-11
5.60106 30.4721 -1.23308e-11
4.27688e-11 -1.23308e-11 30.7263

54.732 -2.30963 3.87147e-11
-2.30963 62.1568 -1.52222e-11
3.87147e-11 -1.52222e-11 57.3616

50.4035 -1.36491 2.86924e-11
-1.36491 60.8328 -1.65687e-11
2.86924e-11 -1.65687e-11 55.3931

69.3177 -0.61162 -9.43327e-12
-0.61162 80.2594 4.23861e-12
-9.43327e-12 4.23861e-12 72.77

74.7326 -2.87147 1.77175e-11
-2.87147 77.1044 1.65605e-11
1.77175e-11 1.65605e-11 75.9239

71.6909 1.59948 8.48107e-12
1.59948 55.6793 2.61926e-11
8.48107e-12 2.61926e-11 67.9379

70.4539 -2.36249 -2.00306e-11
-2.36249 56.8709 -8.85967e-12
-2.00306e-11 -8.85967e-12 66.8427

64.5558 4.82916 1.48754e-11
4.82916 64.7757 3.31305e-11
1.48754e-11 3.31305e-11 66.1692

65.6495 -3.09389 -5.10532e-12
-3.09389 66.932 -5.0057e-12
-5.10532e-12 -5.0057e-12 66.9827

70.0121 3.71449 -2.40218e-11
3.71449 71.6353 2.75397e-11
-2.40218e-11 2.75397e-11 71.1454

70.4605 -2.58413 -3.56966e-11
-2.58413 74.3942 -4.10201e-11
-3.56966e-11 -4.10201e-11 71.6723

87.0252 3.53286 -1.54233e-11
3.53286 77.2142 -3.00346e-11
-1.54233e-11 -3.00346e-11 80.4862

84.1978 -4.93886 -3.23529e-11
-4.93886 81.5125 -1.11548e-11
-3.23529e-11 -1.11548e-11 77.1996

78.772 3.64676 -2.52291e-11
3.64676 74.697 -2.88835e-11
-2.52291e-11 -2.88835e-11 76.9024

61.7845 -6.8888 -2.69566e-12
-6.8888 64.8483 -3.69777e-11
-2.69566e-12 -3.69777e-11 66.1909

62.7479 3.81296 -6.93023e-12
3.81296 56.4695 2.92811e-11
-6.93023e-12 2.92811e-11 59.4089

59.7037 -4.31489 -1.1169e-11
-4.31489 65.2291 5.77827e-12
-1.1169e-11 5.77827e-12 61.0168

53.7774 -2.60682 7.71568e-13
-2.60682 62.6046 5.47031e-11
7.71568e-13 5.47031e-11 58.6691

49.0077 -3.83235 2.572e-11
-3.83235 48.1387 3.00528e-11
2.572e-11 3.00528e-11 45.7501

59.3733 -5.06076 -2.85027e-11
-5.06076 54.0743 3.8903e-11
-2.85027e-11 3.8903e-11 56.9329

53.6697 1.74234 -9.92005e-12
1.74234 62.5702 1.46387e-11
-9.92005e-12 1.46387e-11 58.3892

61.1776 5.06876 1.84813e-11
5.06876 58.8121 -3.33219e-11
1.84813e-11 -3.33219e-11 59.2541

59.6689 7.5211 1.83135e-12
7.5211 65.2642 -1.07871e-11
1.83135e-12 -1.07871e-11 66.0758

63.5939 -6.10944 -2.33526e-11
-6.10944 70.2683 1.9263e-11
-2.33526e-11 1.9263e-11 67.542

56.0179 -5.76487 -5.41303e-11
-5.76487 54.9449 -7.31363e-12
-5.41303e-11 -7.31363e-12 55.7177

68.9302 -0.412501 -1.98368e-11
-0.412501 63.2381 4.62225e-11
-1.98368e-11 4.62225e-11 65.4647

78.9579 -1.90436 2.9074e-11
-1.90436 82.2317 -2.58981e-11
2.9074e-11 -2.58981e-11 79.0402

87.9116 -2.21547 -3.21545e-11
-2.21547 86.8339 -6.7009e-11
-3.21545e-11 -6.7009e-11 79.06

58.5435 -2.24329 4.61928e-12
-2.24329 66.1611 3.85151e-12
4.61928e-12 3.85151e-12 63.7301

61.4257 3.11298 2.43953e-13
3.11298 58.4018 2.92742e-11
2.43953e-13 2.92742e-11 61.2313

71.8872 -0.229734 -1.2109e-11
-0.229734 66.6952 -4.15974e-11
-1.2109e-11 -4.15974e-11 69.3658

36.6949 -3.92119 -1.50217e-11
-3.92119 39.4514 4.31573e-11
-1.50217e-11 4.31573e-11 36.7364

39.0389 -3.52224 -4.85491e-11
-3.52224 36.6548 2.17781e-11
-4.85491e-11 2.17781e-11 36.7562

73.278 -0.146821 -1.88679e-11
-0.146821 61.7885 4.89151e-11
-1.88679e-11 4.89151e-11 70.2144

71.9731 -0.729416 1.15576e-12
-0.729416 61.6332 1.38646e-11
1.15576e-12 1.38646e-11 68.3954

73.5051 0.78488 -1.40109e-11
0.78488 66.2127 -4.23609e-12
-1.40109e-11 -4.23609e-12 69.6784

63.0218 2.04765 2.20264e-11
2.04765 66.0024 1.84895e-11
2.20264e-11 1.84895e-11 63.2291

59.393 2.65125 -1.07322e-11
2.65125 54.0896 2.90816e-11
-1.07322e-11 2.90816e-11 55.3977

72.7401 3.62624 -1.52126e-11
3.62624 69.1074 2.11774e-11
-1.52126e-11 2.11774e-11 71.0181

67.0699 -4.74587 4.77668e-11
-4.74587 63.6227 -1.93664e-12
4.77668e-11 -1.93664e-12 65.9536

77.7858 -0.601487 2.14602e-12
-0.601487 74.7386 -2.33798e-12
2.14602e-12 -2.33798e-12 75.0227

78.6065 5.20191 -1.33676e-11
5.20191 85.6386 -1.16037e-10
-1.33676e-11 -1.16037e-10 77.4326

56.7635 -4.06033 -3.89094e-11
-4.06033 64.0152 -6.1248e-11
-3.89094e-11 -6.1248e-11 62.6403

61.5804 2.66548 -2.41111e-12
2.66548 56.2816 2.27279e-11
-2.41111e-12 2.27279e-11 58.6134

73.8416 2.46217 3.73697e-11
2.46217 66.6805 -3.92649e-13
3.73697e-11 -3.92649e-13 71.2757

71.343 -3.32018 -3.98601e-11
-3.32018 65.873 -2.19486e-11
-3.98601e-11 -2.19486e-11 68.613

64.2385 -5.6596 -4.71985e-12
-5.6596 69.5332 -2.8888e-12
-4.71985e-12 -2.8888e-12 66.2231

62.7484 -7.24204 8.66594e-12
-7.24204 69.9946 -4.42996e-12
8.66594e-12 -4.42996e-12 66.216

31.6892 6.69394 5.56781e-11
6.69394 32.4094 -5.39409e-12
5.56781e-11 -5.39409e-12 31.7269

63.0362 5.11302 6.06741e-12
5.11302 69.3983 3.23573e-11
6.06741e-12 3.23573e-11 68.195

65.9105 -4.51425 -3.37003e-11
-4.51425 72.717 -2.69597e-11
-3.37003e-11 -2.69597e-11 69.2542

60.7245 -6.22901 1.47321e-11
-6.22901 68.3702 2.69414e-12
1.47321e-11 2.69414e-12 64.5852

57.979 -4.23457 -1.13635e-11
-4.23457 51.9142 7.70443e-12
-1.13635e-11 7.70443e-12 53.9318

64.8806 -2.79723 -2.44615e-11
-2.79723 65.8951 -2.60019e-11
-2.44615e-11 -2.60019e-11 64.6928

64.7446 4.83404 1.41565e-11
4.83404 65.2575 1.27091e-11
1.41565e-11 1.27091e-11 66.7913

65.6756 -3.87308 -3.59149e-11
-3.87308 69.702 -2.25297e-11
-3.59149e-11 -2.25297e-11 67.7491

67.2754 -0.388899 -1.68057e-11
-0.388899 57.3429 6.16459e-12
-1.68057e-11 6.16459e-12 63.0702

75.7729 1.42167 -2.89066e-11
1.42167 68.416 -7.0859e-11
-2.89066e-11 -7.0859e-11 73.4068

74.3897 -1.36866 1.15524e-11
-1.36866 70.6251 -9.63074e-12
1.15524e-11 -9.63074e-12 71.5634

77.5703 -1.99977 -3.11942e-11
-1.99977 83.9031 5.219e-11
-3.11942e-11 5.219e-11 78.8913

75.9819 1.52526 -9.67189e-13
1.52526 86.4651 -5.39218e-11
-9.67189e-13 -5.39218e-11 76.3293

32.2719 0.513469 -5.01154e-12
0.513469 27.0014 1.9155e-13
-5.01154e-12 1.9155e-13 32.1426

26.9349 0.463412 -2.07151e-11
0.463412 31.604 1.42562e-11
-2.07151e-11 1.42562e-11 31.6252

72.2079 4.60965 -2.50733e-12
4.60965 70.9922 -3.92865e-11
-2.50733e-12 -3.92865e-11 71.7317

63.1465 -4.6057 -3.08472e-12
-4.6057 63.2665 2.31125e-11
-3.08472e-12 2.31125e-11 64.817

58.1212 -4.41076 -5.68168e-11
-4.41076 63.263 5.0116e-12
-5.68168e-11 5.0116e-12 63.7697

30.1543 1.64175 2.90941e-11
1.64175 30.2269 -1.81125e-11
2.90941e-11 -1.81125e-11 31.8168

30.3376 1.78949 -1.46426e-11
1.78949 30.4063 -2.69927e-12
-1.46426e-11 -2.69927e-12 32.0824

88.45 0.776553 4.198e-11
0.776553 90.1575 1.35558e-10
4.198e-11 1.35558e-10 80.1641

87.807 1.25086 7.93201e-11
1.25086 84.5733 -6.99132e-11
7.93201e-11 -6.99132e-11 82.1002

61.5934 -4.14161 -2.58099e-11
-4.14161 64.0823 -2.54263e-11
-2.58099e-11 -2.54263e-11 63.1449

56.9831 -5.134 -4.35341e-11
-5.134 58.0294 -2.58109e-11
-4.35341e-11 -2.58109e-11 57.4095

71.1683 4.82176 2.51044e-12
4.82176 67.239 4.06279e-11
2.51044e-12 4.06279e-11 69.4935

63.2528 -5.80734 3.27257e-12
-5.80734 61.9631 -3.31317e-11
3.27257e-12 -3.31317e-11 63.9192

57.8113 -5.44848 -2.54181e-11
-5.44848 59.6703 -2.27244e-11
-2.54181e-11 -2.27244e-11 59.8676

62.9819 3.95302 1.42533e-11
3.95302 61.9967 -1.54232e-12
1.42533e-11 -1.54232e-12 61.3766

38.6263 -1.78336 7.13034e-12
-1.78336 45.0344 1.34852e-11
7.13034e-12 1.34852e-11 40.504

41.752 1.05936 -3.67908e-11
1.05936 46.3501 3.67958e-11
-3.67908e-11 3.67958e-11 41.9967

44.8911 -1.64927 5.52906e-11
-1.64927 40.1326 1.42433e-11
5.52906e-11 1.42433e-11 40.9951

65.6699 5.25227 1.92957e-13
5.25227 64.7422 -3.27049e-12
1.92957e-13 -3.27049e-12 64.9062

36.9752 -1.28154 -4.21884e-11
-1.28154 42.697 9.63407e-12
-4.21884e-11 9.63407e-12 38.3678

41.5811 -0.877577 3.12035e-11
-0.877577 35.775 1.50292e-11
3.12035e-11 1.50292e-11 37.3742

76.1879 3.85264 -2.92664e-11
3.85264 71.7996 1.04055e-11
-2.92664e-11 1.04055e-11 74.1762

67.1643 -5.60447 1.65659e-11
-5.60447 64.9074 6.16144e-12
1.65659e-11 6.16144e-12 67.196

75.3148 4.73228 -3.54356e-11
4.73228 70.85 1.61785e-11
-3.54356e-11 1.61785e-11 73.5295

67.65 -5.48283 4.50702e-11
-5.48283 66.9348 1.61666e-11
4.50702e-11 1.61666e-11 67.9398

29.7618 2.01541 3.4879e-11
2.01541 29.98 6.82073e-11
3.4879e-11 6.82073e-11 31.3933

29.5955 1.97021 -1.59917e-11
1.97021 29.6986 1.11697e-11
-1.59917e-11 1.11697e-11 31.0874

67.9455 4.21478 1.54083e-11
4.21478 66.3032 7.31297e-12
1.54083e-11 7.31297e-12 66.8151

61.8997 -5.20475 -4.68005e-11
-5.20475 60.6075 -1.91203e-12
-4.68005e-11 -1.91203e-12 61.9056

75.4397 -3.31017 -7.89324e-12
-3.31017 77.8303 8.52123e-11
-7.89324e-12 8.52123e-11 76.16

72.9332 -1.13478 2.92717e-11
-1.13478 78.3621 1.5019e-11
2.92717e-11 1.5019e-11 73.4049

77.8105 4.80351 -3.17761e-11
4.80351 74.8948 -1.61745e-11
-3.17761e-11 -1.61745e-11 76.5722

64.8439 -4.28867 2.83152e-11
-4.28867 69.1889 4.2367e-11
2.83152e-11 4.2367e-11 68.2798

77.6101 2.5264 -1.2336e-11
2.5264 66.6816 -1.63654e-11
-1.2336e-11 -1.63654e-11 73.5136

74.5791 -3.90588 -2.11876e-11
-3.90588 66.7848 -2.04119e-11
-2.11876e-11 -2.04119e-11 70.6878

60.7888 4.40664 -4.71876e-11
4.40664 64.0341 2.81214e-11
-4.71876e-11 2.81214e-11 64.4466

63.2745 -5.12064 -2.86463e-11
-5.12064 68.7878 -2.44587e-11
-2.86463e-11 -2.44587e-11 65.789

74.6465 -3.55976 -8.95014e-12
-3.55976 75.5584 -6.93278e-11
-8.95014e-12 -6.93278e-11 73.6599

74.3368 -3.18055 5.77686e-12
-3.18055 81.9018 -2.05094e-11
5.77686e-12 -2.05094e-11 76.6455

82.012 3.57016 2.1954e-11
3.57016 71.3591 2.30445e-12
2.1954e-11 2.30445e-12 76.6067

86.44 1.165 2.9653e-11
1.165 75.5201 -8.47751e-12
2.9653e-11 -8.47751e-12 79.357

79.9294 -3.86037 2.69727e-12
-3.86037 74.4026 -2.85026e-11
2.69727e-12 -2.85026e-11 74.3806

85.4566 -0.8249 -6.1622e-11
-0.8249 79.3397 -7.4708e-11
-6.1622e-11 -7.4708e-11 77.0403

71.999 -0.888798 5.58368e-12
-0.888798 82.8512 -5.66206e-11
5.58368e-12 -5.66206e-11 74.3603

76.0892 6.55716 -9.46502e-12
6.55716 75.9511 -1.15571e-11
-9.46502e-12 -1.15571e-11 74.1539

89.3453 3.91977 7.24157e-11
3.91977 79.1989 1.82471e-11
7.24157e-11 1.82471e-11 82.4319

91.7144 3.24509 -6.01506e-10
3.24509 79.8094 6.5401e-10
-6.01506e-10 6.5401e-10 82.9604

93.4703 0.902688 -8.16565e-10
0.902688 90.9722 -8.15927e-10
-8.16565e-10 -8.15927e-10 81.3657

79.1474 -4.55621 -1.5054e-10
-4.55621 83.0518 3.81328e-10
-1.5054e-10 3.81328e-10 76.202

87.79 2.97201 -6.16966e-12
2.97201 77.2886 -2.36822e-11
-6.16966e-12 -2.36822e-11 81.1387

81.7566 2.38666 6.54484e-12
2.38666 77.1042 -2.00261e-11
6.54484e-12 -2.00261e-11 78.7753

87.6968 3.84079 -4.58428e-11
3.84079 78.9827 -3.45575e-12
-4.58428e-11 -3.45575e-12 81.6091

80.1847 -4.38606 -1.65542e-11
-4.38606 76.0795 2.8503e-11
-1.65542e-11 2.8503e-11 74.7187

83.7421 -2.19876 3.42836e-11
-2.19876 86.8054 8.20271e-11
3.42836e-11 8.20271e-11 78.3166

74.2052 -1.96407 -1.57849e-11
-1.96407 72.5555 2.85049e-11
-1.57849e-11 2.85049e-11 71.9445

81.1821 3.87467 1.57961e-11
3.87467 73.9568 4.1395e-11
1.57961e-11 4.1395e-11 77.4872

83.9228 2.27391 -1.04013e-11
2.27391 75.7752 9.61009e-13
-1.04013e-11 9.61009e-13 78.884

74.9998 -5.08758 1.73308e-11
-5.08758 72.9389 -1.04053e-11
1.73308e-11 -1.04053e-11 72.486

81.0562 -2.46876 4.15897e-11
-2.46876 76.1417 -3.08158e-11
4.15897e-11 -3.08158e-11 75.06

TENSORS Lagrange_strain float
0.000307782 5.38886e-05 8.36434e-08
5.38886e-05 0.000381589 1.05968e-08
8.36434e-08 1.05968e-08 0.00030942

0.00036684 3.58893e-05 -3.02689e-09
3.58893e-05 0.000427326 1.54599e-08
-3.02689e-09 1.54599e-08 0.000380771

0.000364537 2.87703e-05 -1.1864e-07
2.87703e-05 0.000423024 -2.35394e-08
-1.1864e-07 -2.35394e-08 0.000379191

0.000412802 1.57434e-05 -1.92483e-08
1.57434e-05 0.000283327 -1.34118e-08
-1.92483e-08 -1.34118e-08 0.000335413

0.000399425 6.24471e-06 4.60994e-08
6.24471e-06 0.000276923 2.25538e-08
4.60994e-08 2.25538e-08 0.000306372

0.000367168 3.39144e-05 3.09744e-09
3.39144e-05 0.000428816 -5.57747e-08
3.09744e-09 -5.57747e-08 0.000405623

0.00036405 3.14535e-05 -1.11484e-07
3.14535e-05 0.000426564 -1.06817e-07
-1.11484e-07 -1.06817e-07 0.00040417

0.000403264 -7.87743e-06 4.20756e-08
-7.87743e-06 0.000281989 5.14181e-08
4.20756e-08 5.14181e-08 0.000309073

0.000461938 1.31367e-06 -5.0264e-08
1.31367e-06 0.00030598 -8.9992e-08
-5.0264e-08 -8.9992e-08 0.000385896

0.000243747 5.24195e-05 -1.8959e-08
5.24195e-05 0.000324555 1.0403e-07
-1.8959e-08 1.0403e-07 0.000224375

0.000239613 -5.59311e-05 -1.43743e-08
-5.59311e-05 0.000319058 6.80942e-08
-1.43743e-08 6.80942e-08 0.000215452

0.000317949 5.41826e-05 8.77115e-08
5.41826e-05 0.000260502 1.49573e-08
8.77115e-08 1.49573e-08 0.000225931

0.000398425 -4.43481e-05 -7.07523e-08
-4.43481e-05 0.000436836 6.87027e-08
-7.07523e-08 6.87027e-08 0.000411367

0.000400256 -5.00628e-05 -2.32569e-08
-5.00628e-05 0.000444126 -1.49165e-07
-2.32569e-08 -1.49165e-07 0.000413667

0.000307745 5.09377e-05 8.26068e-08
5.09377e-05 0.00039467 -1.55107e-07
8.26068e-08 -1.55107e-07 0.000338517

0.000332716 6.11349e-05 6.94775e-08
6.11349e-05 0.000418842 -3.3744e-10
6.94775e-08 -3.3744e-10 0.000376059

0.000362639 -2.32653e-05 6.0079e-08
-2.32653e-05 0.000424428 -1.0833e-08
6.0079e-08 -1.0833e-08 0.000402759

0.000364623 -2.49616e-05 -5.33766e-08
-2.49616e-05 0.000426754 -1.30755e-07
-5.33766e-08 -1.30755e-07 0.000404063

0.000421155 2.31988e-05 2.01018e-08
2.31988e-05 0.000344486 1.95099e-08
2.01018e-08 1.95099e-08 0.000367996

0.000264215 2.03239e-05 4.63702e-08
2.03239e-05 0.000372034 -2.27854e-08
4.63702e-08 -2.27854e-08 0.00025388

0.000263219 -1.93823e-05 -9.0583e-08
-1.93823e-05 0.000372384 -7.82208e-08
-9.0583e-08 -7.82208e-08 0.000251642

0.000364566 1.65784e-05 -3.86233e-08
1.65784e-05 0.000289623 9.64918e-08
-3.86233e-08 9.64918e-08 0.000257146

0.000308629 6.0149e-05 4.78802e-08
6.0149e-05 0.000366715 5.01247e-08
4.78802e-08 5.01247e-08 0.000306794

0.000367727 -3.07324e-05 -1.00425e-08
-3.07324e-05 0.00026876 2.84964e-08
-1.00425e-08 2.84964e-08 0.000282818

0.000347313 5.52097e-05 -9.3379e-08
5.52097e-05 0.000366093 4.27413e-08
-9.3379e-08 4.27413e-08 0.00033357

0.000315455 6.01047e-05 1.99725e-08
6.01047e-05 0.000390676 1.44947e-07
1.99725e-08 1.44947e-07 0.000316135

0.000420863 -1.30221e-05 9.46217e-08
-1.30221e-05 0.000283293 3.04553e-08
9.46217e-08 3.04553e-08 0.000340066

0.000237139 4.66373e-05 -4.22708e-08
4.66373e-05 0.000325814 6.08321e-08
-4.22708e-08 6.08321e-08 0.000177395

0.000447663 5.83919e-06 5.50063e-08
5.83919e-06 0.000297626 4.14301e-08
5.50063e-08 4.14301e-08 0.000376415

0.000311676 4.67285e-05 -5.45493e-08
4.67285e-05 0.000254095 -6.5174e-08
-5.45493e-08 -6.5174e-08 0.000177963

0.000414685 7.34556e-06 -5.13966e-09
7.34556e-06 0.000442292 -5.25734e-08
-5.13966e-09 -5.25734e-08 0.00041456

0.00041481 2.5271e-06 -5.20628e-08
2.5271e-06 0.000441383 -1.29916e-07
-5.20628e-08 -1.29916e-07 0.000414508

0.000484809 2.61538e-05 2.53431e-07
2.61538e-05 0.00043642 -1.43217e-08
2.53431e-07 -1.43217e-08 0.000439047

0.00048495 -2.50326e-05 2.47989e-08
-2.50326e-05 0.000437216 7.60991e-08
2.47989e-08 7.60991e-08 0.000438634

0.000361627 -1.94504e-05 -1.45336e-07
-1.94504e-05 0.000258593 9.95416e-08
-1.45336e-07 9.95416e-08 0.000240541

0.000340644 5.94283e-05 -1.51457e-07
5.94283e-05 0.000385409 -2.59632e-08
-1.51457e-07 -2.59632e-08 0.000355677

0.000430901 1.07504e-05 -1.50618e-08
1.07504e-05 0.000405412 9.39111e-08
-1.50618e-08 9.39111e-08 0.00041157

0.000431723 -9.8835e-06 -6.18252e-08
-9.8835e-06 0.000407668 5.7936e-08
-6.18252e-08 5.7936e-08 0.000413982

0.000469755 1.48327e-07 -7.80371e-08
1.48327e-07 0.000298085 4.73056e-08
-7.80371e-08 4.73056e-08 0.000387507

0.000308984 6.5182e-05 1.22678e-07
6.5182e-05 0.000388637 8.04183e-09
1.22678e-07 8.04183e-09 0.000313646

0.0003641 -3.98531e-05 -2.41819e-08
-3.98531e-05 0.000307839 -6.55152e-08
-2.41819e-08 -6.55152e-08 0.00029292

0.00046261 -3.9181e-06 -5.46536e-08
-3.9181e-06 0.000287343 -1.46286e-08
-5.46536e-08 -1.46286e-08 0.00037858

0.000305321 -6.03184e-05 6.78358e-08
-6.03184e-05 0.000366408 9.21791e-08
6.78358e-08 9.21791e-08 0.000303705

0.000307641 -5.16759e-05 -9.00432e-09
-5.16759e-05 0.000382293 9.67111e-09
-9.00432e-09 9.67111e-09 0.000309045

0.000342197 6.86257e-05 3.72377e-08
6.86257e-05 0.000428438 -9.21045e-08
3.72377e-08 -9.21045e-08 0.000380961

0.000327742 -6.44289e-05 1.22401e-07
-6.44289e-05 0.00030387 -5.28719e-08
1.22401e-07 -5.28719e-08 0.000269473

8.61915e-05 0.000131399 -7.33259e-08
0.000131399 0.000176606 -7.33259e-08
-7.33259e-08 -7.33259e-08 4.32147e-05

0.000165131 0.000129857 5.01636e-08
0.000129857 9.45837e-05 5.01636e-08
5.01636e-08 5.01636e-08 4.19007e-05

0.000354102 -6.12879e-05 -2.98034e-08
-6.12879e-05 0.000430362 8.4204e-08
-2.98034e-08 8.4204e-08 0.000400417

0.000155681 5.51415e-05 3.90759e-08
5.51415e-05 0.000266528 -1.3714e-07
3.90759e-08 -1.3714e-07 8.91824e-05

0.00024896 4.94543e-05 1.21067e-07
4.94543e-05 0.000168318 -6.39481e-08
1.21067e-07 -6.39481e-08 9.10359e-05

0.000422786 -4.29573e-05 -3.63845e-08
-4.29573e-05 0.000460388 2.96164e-08
-3.63845e-08 2.96164e-08 0.000437564

0.000422786 4.28498e-05 2.8577e-08
4.28498e-05 0.000459767 1.37296e-08
2.8577e-08 1.37296e-08 0.000437626

0.000451614 1.24118e-06 -5.21199e-08
1.24118e-06 0.000356571 4.62525e-08
-5.21199e-08 4.62525e-08 0.000395027

0.0004246 -3.72746e-05 -5.25153e-08
-3.72746e-05 0.000450513 -8.39039e-08
-5.25153e-08 -8.39039e-08 0.000440676

0.000424521 3.74422e-05 7.85227e-08
3.74422e-05 0.000449939 -3.37765e-07
7.85227e-08 -3.37765e-07 0.000440782

0.00031536 6.01501e-05 7.31297e-09
6.01501e-05 0.00040673 -1.37746e-08
7.31297e-09 -1.37746e-08 0.00034445

0.000483517 2.44965e-05 3.54053e-08
2.44965e-05 0.000408491 6.1374e-09
3.54053e-08 6.1374e-09 0.00043284

0.000484652 -2.44877e-05 1.15823e-07
-2.44877e-05 0.000408173 3.59504e-08
1.15823e-07 3.59504e-08 0.000432549

0.000398559 -4.98523e-05 3.0074e-08
-4.98523e-05 0.000424606 -4.38785e-09
3.0074e-08 -4.38785e-09 0.000409842

0.000398275 4.93329e-05 -1.07137e-07
4.93329e-05 0.000424551 -2.0132e-07
-1.07137e-07 -2.0132e-07 0.000410094

0.00030843 -5.34416e-05 -7.48434e-08
-5.34416e-05 0.000238295 1.33054e-07
-7.48434e-08 1.33054e-07 0.000208877

0.000416943 2.39891e-05 5.94769e-08
2.39891e-05 0.000479586 9.17492e-08
5.94769e-08 9.17492e-08 0.000433411

0.000414502 1.87642e-05 1.34698e-07
1.87642e-05 0.000478089 1.62096e-07
1.34698e-07 1.62096e-07 0.000431759

0.000309576 -6.6332e-05 3.37407e-08
-6.6332e-05 0.000390633 5.05454e-08
3.37407e-08 5.05454e-08 0.000315146

0.000219226 -4.39281e-05 1.825e-08
-4.39281e-05 0.000325595 2.22334e-08
1.825e-08 2.22334e-08 0.000164388

0.000314471 -4.35528e-05 2.67837e-07
-4.35528e-05 0.000222541 -9.39721e-08
2.67837e-07 -9.39721e-08 0.000161908

0.000330947 5.24205e-05 1.22002e-07
5.24205e-05 0.000422058 -7.40867e-08
1.22002e-07 -7.40867e-08 0.000370348

0.000327307 4.88352e-05 -9.672e-08
4.88352e-05 0.00041338 -3.92375e-08
-9.672e-08 -3.92375e-08 0.000367522

0.000507659 -7.30063e-05 2.38579e-07
-7.30063e-05 0.000459546 3.59728e-07
2.38579e-07 3.59728e-07 0.00047356

0.000509312 7.27929e-05 -5.54248e-07
7.27929e-05 0.000458919 2.11114e-07
-5.54248e-07 2.11114e-07 0.000473673

0.000345014 7.42885e-05 1.10567e-07
7.42885e-05 0.000425394 7.57315e-08
1.10567e-07 7.57315e-08 0.000388123

0.000411311 3.65604e-05 5.05929e-09
3.65604e-05 0.000381807 3.09482e-08
5.05929e-09 3.09482e-08 0.00039282

0.000411624 -3.70338e-05 5.28365e-08
-3.70338e-05 0.00038035 -5.55582e-08
5.28365e-08 -5.55582e-08 0.000391615

0.000345352 7.08623e-05 -5.71713e-08
7.08623e-05 0.000410998 1.14275e-08
-5.71713e-08 1.14275e-08 0.000383754

0.00035939 -6.50285e-05 -4.88054e-09
-6.50285e-05 0.000438669 -1.41988e-07
-4.88054e-09 -1.41988e-07 0.000403365

0.000356678 -7.13459e-07 -1.35481e-07
-7.13459e-07 0.000236603 3.12373e-08
-1.35481e-07 3.12373e-08 0.000236451

0.000375352 2.89872e-05 -9.28242e-08
2.89872e-05 0.000266803 5.83414e-08
-9.28242e-08 5.83414e-08 0.000276027

0.000433025 1.18818e-05 2.66083e-08
1.18818e-05 0.00035411 -8.9856e-08
2.66083e-08 -8.9856e-08 0.000403731

0.00046056 -1.80825e-05 2.62786e-07
-1.80825e-05 0.000450245 1.94979e-07
2.62786e-07 1.94979e-07 0.000442383

0.000459129 1.55057e-05 -1.11178e-07
1.55057e-05 0.000451827 1.54832e-07
-1.11178e-07 1.54832e-07 0.000442712

0.000296715 5.3694e-05 1.16647e-07
5.3694e-05 0.000324125 9.46414e-08
1.16647e-07 9.46414e-08 0.00024317

0.000354221 -4.67742e-05 -8.83084e-08
-4.67742e-05 0.000331021 -2.42328e-09
-8.83084e-08 -2.42328e-09 0.000326221

0.000420524 2.80799e-05 1.87445e-08
2.80799e-05 0.000360778 4.25615e-08
1.87445e-08 4.25615e-08 0.000368917

0.000430961 1.51104e-05 -1.01219e-07
1.51104e-05 0.000474437 5.26603e-08
-1.01219e-07 5.26603e-08 0.000439082

0.000430725 1.31286e-05 -3.32865e-07
1.31286e-05 0.000474388 4.83619e-08
-3.32865e-07 4.83619e-08 0.000438357

0.000434615 -8.69038e-06 -5.00464e-08
-8.69038e-06 0.000360189 1.10764e-07
-5.00464e-08 1.10764e-07 0.000407249

0.000363214 -1.83668e-05 5.70793e-08
-1.83668e-05 0.00042388 -6.2093e-08
5.70793e-08 -6.2093e-08 0.000378367

0.000364629 -2.48974e-05 -3.20949e-08
-2.48974e-05 0.000427319 1.48805e-07
-3.20949e-08 1.48805e-07 0.000379675

0.000456936 -1.7239e-05 9.63387e-08
-1.7239e-05 0.000375741 -8.90153e-08
9.63387e-08 -8.90153e-08 0.000418087

0.000457857 1.74675e-05 -1.00381e-07
1.74675e-05 0.000375644 1.36521e-08
-1.00381e-07 1.36521e-08 0.000419264

0.000318072 -5.32201e-05 1.15424e-09
-5.32201e-05 0.000316574 1.85881e-07
1.15424e-09 1.85881e-07 0.000245734

0.000409847 3.2912e-06 6.73752e-08
3.2912e-06 0.000327378 4.3191e-08
6.73752e-08 4.3191e-08 0.0003337

0.000451562 -2.64652e-05 -1.59757e-07
-2.64652e-05 0.000404066 2.28271e-07
-1.59757e-07 2.28271e-07 0.000433381

0.000450691 2.61363e-05 -6.35151e-08
2.61363e-05 0.0004046 8.4954e-08
-6.35151e-08 8.4954e-08 0.000433841

0.00042009 -2.91017e-05 -1.24826e-07
-2.91017e-05 0.000361837 8.89992e-08
-1.24826e-07 8.89992e-08 0.000367925

0.000315996 -6.03746e-05 3.59963e-08
-6.03746e-05 0.000395331 5.34498e-08
3.59963e-08 5.34498e-08 0.00031827

0.000455832 -1.93116e-05 1.04044e-07
-1.93116e-05 0.000384345 -4.86129e-08
1.04044e-07 -4.86129e-08 0.00041481

0.0004566 1.96459e-05 -1.05842e-07
1.96459e-05 0.000384341 4.03172e-08
-1.05842e-07 4.03172e-08 0.000416135

0.00041404 -1.2692e-05 8.42933e-08
-1.2692e-05 0.000314681 5.31151e-08
8.42933e-08 5.31151e-08 0.000351005

0.000356118 8.4902e-05 4.64133e-08
8.4902e-05 0.000434295 2.15335e-07
4.64133e-08 2.15335e-07 0.000392929

0.000348779 4.67806e-05 4.01303e-09
4.67806e-05 0.000327792 4.69069e-08
4.01303e-09 4.69069e-08 0.000293658

0.000343978 7.16123e-05 -1.86553e-08
7.16123e-05 0.000430085 1.35504e-07
-1.86553e-08 1.35504e-07 0.00039053

0.00035124 8.01413e-05 3.41222e-08
8.01413e-05 0.000439728 -9.79766e-08
3.41222e-08 -9.79766e-08 0.000393638

0.000378883 3.46316e-05 -3.58701e-08
3.46316e-05 0.000302908 9.77282e-08
-3.58701e-08 9.77282e-08 0.000301394

0.0003883 -2.87459e-05 1.31138e-07
-2.87459e-05 0.00034592 -5.76433e-08
1.31138e-07 -5.76433e-08 0.000371423

0.000407935 1.57855e-05 -2.17067e-09
1.57855e-05 0.000315844 3.05828e-08
-2.17067e-09 3.05828e-08 0.000343876

0.000308636 5.9188e-05 4.69311e-08
5.9188e-05 0.000324159 3.06008e-08
4.69311e-08 3.06008e-08 0.000279607

0.000348607 4.79399e-05 -8.8243e-08
4.79399e-05 0.000329726 -2.57835e-08
-8.8243e-08 -2.57835e-08 0.000323693

0.000320023 4.00669e-06 9.14529e-08
4.00669e-06 0.000409325 8.45995e-08
9.14529e-08 8.45995e-08 0.000365142

0.000320769 6.60629e-06 -4.78044e-08
6.60629e-06 0.000409387 -7.5883e-09
-4.78044e-08 -7.5883e-09 0.000365315

0.000318677 -6.0259e-05 1.6186e-08
-6.0259e-05 0.000270947 -2.07299e-07
1.6186e-08 -2.07299e-07 0.000230752

0.000345332 -7.15333e-05 -4.15257e-08
-7.15333e-05 0.000411966 1.1115e-07
-4.15257e-08 1.1115e-07 0.000384411

0.000311768 -7.07702e-05 6.52416e-08
-7.07702e-05 0.000359793 -1.47477e-07
6.52416e-08 -1.47477e-07 0.000287209

0.000311142 7.2346e-05 1.47425e-07
7.2346e-05 0.000358236 2.14298e-07
1.47425e-07 2.14298e-07 0.000286507

0.000397819 -2.62794e-05 6.27482e-08
-2.62794e-05 0.000333135 5.84967e-09
6.27482e-08 5.84967e-09 0.000347254

0.000468576 -3.95919e-06 -5.66005e-08
-3.95919e-06 0.000309932 -8.37652e-08
-5.66005e-08 -8.37652e-08 0.000403213

0.000468518 4.33607e-06 -8.57262e-08
4.33607e-06 0.00031037 3.77749e-08
-8.57262e-08 3.77749e-08 0.000401711

0.000278922 3.84276e-05 5.51791e-08
3.84276e-05 0.000373658 -1.50592e-09
5.51791e-08 -1.50592e-09 0.000290834

0.000347882 -5.80411e-05 -6.43645e-08
-5.80411e-05 0.000365017 1.10033e-07
-6.43645e-08 1.10033e-07 0.000332352

0.000224368 -1.35401e-06 -1.42182e-07
-1.35401e-06 0.000362164 -8.39382e-08
-1.42182e-07 -8.39382e-08 0.000238057

0.000223272 2.86381e-06 7.04553e-08
2.86381e-06 0.000362825 -1.2504e-07
7.04553e-08 -1.2504e-07 0.000236508

0.000358257 -4.68206e-07 -2.86124e-08
-4.68206e-07 0.000243664 1.22299e-07
-2.86124e-08 1.22299e-07 0.000240562

0.000317226 5.6619e-05 6.21778e-08
5.6619e-05 0.000318544 -1.43438e-07
6.21778e-08 -1.43438e-07 0.000244738

0.000334602 -6.64001e-05 5.09648e-08
-6.64001e-05 0.00032673 1.3889e-07
5.09648e-08 1.3889e-07 0.000289222

0.000432317 -3.15505e-05 3.3323e-07
-3.15505e-05 0.000502564 -1.62866e-07
3.3323e-07 -1.62866e-07 0.000445045

0.000432884 -3.02425e-05 6.86886e-08
-3.02425e-05 0.000503008 -1.21958e-09
6.86886e-08 -1.21958e-09 0.000445439

0.000383403 -3.39739e-05 4.24327e-08
-3.39739e-05 0.000303708 -1.28658e-07
4.24327e-08 -1.28658e-07 0.00030511

0.000336597 7.87457e-05 1.23846e-08
7.87457e-05 0.000422942 -9.62699e-09
1.23846e-08 -9.62699e-09 0.000364868

0.000451848 -2.10193e-06 -5.12327e-08
-2.10193e-06 0.00035602 2.08691e-08
-5.12327e-08 2.08691e-08 0.000394109

0.000277995 -3.77753e-05 -1.44385e-07
-3.77753e-05 0.000376715 4.90468e-08
-1.44385e-07 4.90468e-08 0.000291456

0.000359489 7.05227e-05 -2.26348e-08
7.05227e-05 0.000442662 2.50822e-08
-2.26348e-08 2.50822e-08 0.000405611

0.000350541 6.63861e-05 8.51175e-08
6.63861e-05 0.000433679 1.30915e-07
8.51175e-08 1.30915e-07 0.000401645

0.00035695 -8.47854e-05 -6.04334e-08
-8.47854e-05 0.000434408 -1.68077e-07
-6.04334e-08 -1.68077e-07 0.000393415

0.000353251 8.17188e-05 -3.13094e-08
8.17188e-05 0.000448394 -6.37311e-08
-3.13094e-08 -6.37311e-08 0.000398889

0.000329094 6.89692e-05 1.0597e-07
6.89692e-05 0.00040939 -1.31771e-07
1.0597e-07 -1.31771e-07 0.000359403

0.000485423 2.05538e-07 1.01359e-07
2.05538e-07 0.000393297 1.98303e-08
1.01359e-07 1.98303e-08 0.000447658

0.000335866 6.52026e-05 2.58946e-08
6.52026e-05 0.000321218 -1.69655e-07
2.58946e-08 -1.69655e-07 0.000286433

0.000343962 -7.24337e-05 -1.37582e-08
-7.24337e-05 0.000429664 2.79612e-08
-1.37582e-08 2.79612e-08 0.000390525

0.000333932 5.6766e-05 7.14891e-08
5.6766e-05 0.000359854 3.1402e-07
7.14891e-08 3.1402e-07 0.000302189

0.000285658 -4.91315e-05 -1.08671e-07
-4.91315e-05 0.000319751 6.19165e-08
-1.08671e-07 6.19165e-08 0.000232363

0.00034016 -6.01396e-05 1.25617e-07
-6.01396e-05 0.000388012 -1.70214e-07
1.25617e-07 -1.70214e-07 0.00035612

0.000273285 -3.43164e-05 -1.58206e-08
-3.43164e-05 0.000383843 -1.55905e-07
-1.58206e-08 -1.55905e-07 0.000263449

0.000271776 3.34182e-05 -2.98267e-08
3.34182e-05 0.000381655 -1.78911e-07
-2.98267e-08 -1.78911e-07 0.000262216

0.000367928 -2.34948e-05 9.2342e-08
-2.34948e-05 0.00029824 -1.4626e-07
9.2342e-08 -1.4626e-07 0.000264308

0.000333995 -5.85305e-05 6.13889e-08
-5.85305e-05 0.000359894 -1.51707e-07
6.13889e-08 -1.51707e-07 0.000301106

0.000320518 9.09017e-06 -5.13807e-08
9.09017e-06 0.000411008 6.42665e-08
-5.13807e-08 6.42665e-08 0.000329768

0.000320444 -2.3723e-07 9.45932e-08
-2.3723e-07 0.000409906 2.14656e-08
9.45932e-08 2.14656e-08 0.000329718

0.000272864 -6.74533e-05 -1.66983e-08
-6.74533e-05 0.000315501 1.75356e-07
-1.66983e-08 1.75356e-07 0.000226589

0.000269938 6.82871e-05 -1.32251e-07
6.82871e-05 0.000318087 -5.14594e-08
-1.32251e-07 -5.14594e-08 0.000229294

0.000483274 -6.00789e-06 2.88718e-08
-6.00789e-06 0.000378645 -9.97339e-08
2.88718e-08 -9.97339e-08 0.000440434

0.000483765 6.26227e-06 1.31859e-07
6.26227e-06 0.00037874 -2.642e-08
1.31859e-07 -2.642e-08 0.000440843

0.00034503 7.43634e-05 -1.70523e-07
7.43634e-05 0.000425162 7.03896e-08
-1.70523e-07 7.03896e-08 0.000372428

0.000350061 -6.77339e-05 5.20739e-09
-6.77339e-05 0.000435484 7.16967e-08
5.20739e-09 7.16967e-08 0.000400405

0.000357546 4.92667e-05 6.59685e-09
4.92667e-05 0.000383786 -1.40829e-08
6.59685e-09 -1.40829e-08 0.000371334

0.000312583 5.44802e-05 6.93259e-08
5.44802e-05 0.000241563 -1.58985e-07
6.93259e-08 -1.58985e-07 0.00019467

0.000281013 4.65581e-05 1.00875e-07
4.65581e-05 0.00038948 1.48743e-07
1.00875e-07 1.48743e-07 0.000295905

0.000428869 3.25367e-05 1.64797e-07
3.25367e-05 0.000425366 -2.08074e-07
1.64797e-07 -2.08074e-07 0.000427554

0.000429648 -3.2773e-05 -1.02823e-07
-3.2773e-05 0.000425586 -8.30485e-09
-1.02823e-07 -8.30485e-09 0.000427317

0.000410151 -4.45275e-05 5.50588e-08
-4.45275e-05 0.000401252 -3.01862e-08
5.50588e-08 -3.01862e-08 0.000390908

0.000409874 4.41612e-05 1.41439e-08
4.41612e-05 0.00040139 -7.5684e-08
1.41439e-08 -7.5684e-08 0.000391274

0.000160898 1.45394e-05 -1.75903e-07
1.45394e-05 0.000335619 2.92448e-08
-1.75903e-07 2.92448e-08 8.81686e-05

0.000316767 1.50712e-05 7.9619e-09
1.50712e-05 0.00017801 8.84931e-08
7.9619e-09 8.84931e-08 8.83188e-05

0.000279124 -4.42511e-05 -9.27294e-08
-4.42511e-05 0.000391483 7.17996e-08
-9.27294e-08 7.17996e-08 0.000297603

0.000463782 -3.55154e-05 -1.08449e-07
-3.55154e-05 0.000472712 -6.70553e-08
-1.08449e-07 -6.70553e-08 0.000463916

0.000463014 3.56157e-05 -3.81116e-08
3.56157e-05 0.000472712 8.862e-09
-3.81116e-08 8.862e-09 0.00046395

0.000374962 5.41741e-05 1.63512e-07
5.41741e-05 0.000377646 -2.92838e-09
1.63512e-07 -2.92838e-09 0.000350003

0.000333039 2.96772e-05 2.41565e-08
2.96772e-05 0.000216712 -3.02e-08
2.41565e-08 -3.02e-08 0.000193307

0.00040992 -5.5963e-06 6.80189e-08
-5.5963e-06 0.000327794 -1.13735e-07
6.80189e-08 -1.13735e-07 0.000333765

0.000327798 -3.89289e-05 -7.78677e-08
-3.89289e-05 0.000412159 -1.29874e-07
-7.78677e-08 -1.29874e-07 0.000367712

0.000332675 -4.25932e-05 1.96109e-08
-4.25932e-05 0.000417666 1.73944e-07
1.96109e-08 1.73944e-07 0.000370725

0.000306828 -6.43153e-05 8.99676e-08
-6.43153e-05 0.0003306 -8.93639e-08
8.99676e-08 -8.93639e-08 0.000274128

0.000353308 -8.19771e-05 -1.05499e-07
-8.19771e-05 0.000449301 -3.57879e-08
-1.05499e-07 -3.57879e-08 0.000399296

0.000374719 -5.48427e-05 1.63706e-08
-5.48427e-05 0.000378396 -9.0917e-09
1.63706e-08 -9.0917e-09 0.000349235

0.000336594 7.84419e-05 2.67795e-08
7.84419e-05 0.000426477 6.59587e-08
2.67795e-08 6.59587e-08 0.000388697

0.000398674 5.6725e-05 8.46847e-08
5.6725e-05 0.000444299 1.80646e-08
8.46847e-08 1.80646e-08 0.000415091

0.000397191 5.1357e-05 1.46741e-07
5.1357e-05 0.000435445 1.26887e-07
1.46741e-07 1.26887e-07 0.000412714

0.000344804 -7.4775e-05 -9.50213e-08
-7.4775e-05 0.000426809 -1.47579e-07
-9.50213e-08 -1.47579e-07 0.000373534

0.000337893 6.73146e-05 -1.48422e-07
6.73146e-05 0.000409518 -4.71722e-08
-1.48422e-07 -4.71722e-08 0.000364689

0.000351607 4.65134e-05 -2.42063e-08
4.65134e-05 0.000280841 -6.54415e-08
-2.42063e-08 -6.54415e-08 0.000272001

0.000350293 8.64391e-05 -8.50042e-09
8.64391e-05 0.000440879 -1.01847e-07
-8.50042e-09 -1.01847e-07 0.000395959

0.000307726 -5.28292e-05 -6.63635e-09
-5.28292e-05 0.000398 -2.30129e-08
-6.63635e-09 -2.30129e-08 0.000339868

0.000288643 2.06244e-05 3.57674e-08
2.06244e-05 0.000396631 5.3372e-08
3.57674e-08 5.3372e-08 0.000318085

0.000369309 6.2861e-05 6.97459e-08
6.2861e-05 0.000396819 -8.37468e-08
6.97459e-08 -8.37468e-08 0.000372273

0.000295746 2.64192e-05 1.80367e-07
2.64192e-05 0.00040018 -4.48614e-08
1.80367e-07 -4.48614e-08 0.000321524

0.000359701 -7.3243e-05 -9.63666e-08
-7.3243e-05 0.000444388 -1.09929e-07
-9.63666e-08 -1.09929e-07 0.000404221

0.000216649 -6.29702e-05 -1.58913e-09
-6.29702e-05 0.000223599 -2.01205e-07
-1.58913e-09 -2.01205e-07 0.000125795

0.000219163 -6.37052e-05 8.61099e-08
-6.37052e-05 0.000219494 -1.11887e-07
8.61099e-08 -1.11887e-07 0.000125235

0.000369165 -6.31817e-05 4.3066e-08
-6.31817e-05 0.000396717 -3.1918e-08
4.3066e-08 -3.1918e-08 0.000371974

0.000420525 -2.38183e-05 -1.28536e-07
-2.38183e-05 0.00034448 -6.82741e-09
-1.28536e-07 -6.82741e-09 0.000367143

0.000508793 7.50487e-05 -4.11054e-07
7.50487e-05 0.000472784 5.55746e-07
-4.11054e-07 5.55746e-07 0.000473699

0.000506671 -7.47162e-05 3.38789e-07
-7.47162e-05 0.000473501 1.18545e-07
3.38789e-07 1.18545e-07 0.000473627

0.000337268 -7.82023e-05 1.7368e-09
-7.82023e-05 0.000425259 -1.00331e-07
1.7368e-09 -1.00331e-07 0.00036737

0.000421454 1.63788e-05 -1.75522e-07
1.63788e-05 0.000435236 -1.11198e-07
-1.75522e-07 -1.11198e-07 0.000428797

0.000422017 -1.52414e-05 -9.70651e-08
-1.52414e-05 0.000435875 1.01629e-07
-9.70651e-08 1.01629e-07 0.000428784

0.000445515 1.0456e-06 -9.97833e-10
1.0456e-06 0.000289353 -2.40351e-08
-9.97833e-10 -2.40351e-08 0.000356375

0.00033627 -7.87674e-05 -4.30635e-08
-7.87674e-05 0.000427646 -1.50629e-08
-4.30635e-08 -1.50629e-08 0.000388357

0.000235534 7.67999e-05 6.59577e-08
7.67999e-05 0.00024222 -1.13334e-07
6.59577e-08 -1.13334e-07 0.000155471

0.000228893 7.27593e-05 3.27647e-08
7.27593e-05 0.000243453 -1.60686e-07
3.27647e-08 -1.60686e-07 0.000157072

0.00022736 -5.46652e-05 1.33805e-07
-5.46652e-05 0.000327805 4.40887e-08
1.33805e-07 4.40887e-08 0.000183274

0.000232346 5.73172e-05 8.50752e-08
5.73172e-05 0.000331912 1.5822e-07
8.50752e-08 1.5822e-07 0.000187994

0.000318506 -4.54635e-05 -9.93681e-08
-4.54635e-05 0.00024374 -1.00477e-07
-9.93681e-08 -1.00477e-07 0.00018365

0.000349726 -8.68178e-05 1.01362e-08
-8.68178e-05 0.000443043 1.53081e-07
1.01362e-08 1.53081e-07 0.000396045

0.000162702 2.00919e-05 -1.77161e-07
2.00919e-05 0.000316555 1.98388e-08
-1.77161e-07 1.98388e-08 0.000156314

0.000305426 2.56963e-05 -9.85403e-09
2.56963e-05 0.000183328 8.45161e-08
-9.85403e-09 8.45161e-08 0.000158094

0.000411211 -2.67223e-05 -1.25497e-07
-2.67223e-05 0.000455426 -4.33414e-08
-1.25497e-07 -4.33414e-08 0.000426276

0.000414366 -3.24338e-05 1.417e-07
-3.24338e-05 0.000457182 1.88455e-07
1.417e-07 1.88455e-07 0.000427872

0.000433885 1.02389e-05 3.27142e-08
1.02389e-05 0.000350201 -8.4038e-08
3.27142e-08 -8.4038e-08 0.000379671

0.000470716 7.00258e-07 -5.61928e-08
7.00258e-07 0.000286666 -1.64887e-08
-5.61928e-08 -1.64887e-08 0.000387721

0.000267333 -4.96287e-05 2.18499e-08
-4.96287e-05 0.000355741 -1.10875e-07
2.18499e-08 -1.10875e-07 0.000256179

0.000265538 4.84569e-05 -1.32617e-07
4.84569e-05 0.000354467 -5.50355e-08
-1.32617e-07 -5.50355e-08 0.000255307

0.000445981 -8.03836e-08 2.66401e-09
-8.03836e-08 0.00028778 -4.40208e-08
2.66401e-09 -4.40208e-08 0.000358326

0.000315846 -5.9769e-05 4.91003e-08
-5.9769e-05 0.000409535 -1.37294e-07
4.91003e-08 -1.37294e-07 0.000346747

0.000459963 -2.54866e-05 -8.40796e-08
-2.54866e-05 0.000454378 -9.5772e-08
-8.40796e-08 -9.5772e-08 0.000454128

0.000459625 2.56234e-05 -2.33194e-07
2.56234e-05 0.000453868 -2.21034e-07
-2.33194e-07 -2.21034e-07 0.000454215

0.000382778 3.50872e-05 -5.42381e-09
3.50872e-05 0.000388963 -3.32939e-09
-5.42381e-09 -3.32939e-09 0.000375606

0.000336223 -6.70421e-05 1.59854e-07
-6.70421e-05 0.000409856 -9.66552e-09
1.59854e-07 -9.66552e-09 0.000364365

0.000434318 1.02843e-05 4.60095e-08
1.02843e-05 0.00030571 5.2043e-08
4.60095e-08 5.2043e-08 0.000370826

0.000297966 5.58279e-05 1.47456e-07
5.58279e-05 0.000287622 -2.73208e-08
1.47456e-07 -2.73208e-08 0.000233787

0.000329448 -6.87858e-05 4.28009e-08
-6.87858e-05 0.000409653 -6.21047e-08
4.28009e-08 -6.21047e-08 0.000359913

0.000118772 -0.000120896 -1.42422e-07
-0.000120896 0.000123021 1.42422e-07
-1.42422e-07 1.42422e-07 2.79988e-05

0.000291647 -1.64535e-05 -1.55523e-07
-1.64535e-05 0.000394451 1.97707e-08
-1.55523e-07 1.97707e-08 0.000318254

0.000297477 -2.26184e-05 -1.54926e-07
-2.26184e-05 0.000396989 -6.64278e-08
-1.54926e-07 -6.64278e-08 0.000320799

0.000417262 -5.3264e-06 -1.27813e-07
-5.3264e-06 0.000449163 3.14223e-07
-1.27813e-07 3.14223e-07 0.00042965

0.000418053 -3.09235e-06 -3.72362e-08
-3.09235e-06 0.000448935 1.35617e-07
-3.72362e-08 1.35617e-07 0.000429699

0.000485921 -1.87494e-05 -6.35325e-08
-1.87494e-05 0.000407417 2.09764e-08
-6.35325e-08 2.09764e-08 0.000456805

0.000485988 1.87723e-05 7.0549e-08
1.87723e-05 0.000407576 -1.06339e-07
7.0549e-08 -1.06339e-07 0.000457153

0.000387603 -3.6786e-05 1.18668e-08
-3.6786e-05 0.00039591 7.8955e-08
1.18668e-08 7.8955e-08 0.000400398

0.000388202 3.78891e-05 1.0457e-07
3.78891e-05 0.000390378 4.51252e-08
1.0457e-07 4.51252e-08 0.000397671

0.000413 -3.2918e-05 -1.45565e-07
-3.2918e-05 0.000448601 -1.04634e-07
-1.45565e-07 -1.04634e-07 0.000424689

0.0004124 3.42953e-05 -1.72409e-07
3.42953e-05 0.000448251 -1.24558e-07
-1.72409e-07 -1.24558e-07 0.000424592

0.000479788 5.08846e-05 2.65657e-07
5.08846e-05 0.00047571 5.16156e-07
2.65657e-07 5.16156e-07 0.000467554

0.000480742 -5.0931e-05 -3.92433e-07
-5.0931e-05 0.000476372 7.57692e-08
-3.92433e-07 7.57692e-08 0.000467477

0.000375163 -8.40269e-05 7.42432e-08
-8.40269e-05 0.000449239 -7.20329e-08
7.42432e-08 -7.20329e-08 0.000414522

0.000375183 8.45403e-05 -1.17457e-07
8.45403e-05 0.000448582 -8.25146e-08
-1.17457e-07 -8.25146e-08 0.000414756

0.000378266 5.02831e-05 1.57491e-07
5.02831e-05 0.000354999 2.14438e-08
1.57491e-07 2.14438e-08 0.000345101

0.000327695 -3.9684e-05 -6.78759e-08
-3.9684e-05 0.000406627 -6.11146e-08
-6.78759e-08 -6.11146e-08 0.000343146

0.000330354 -4.94695e-05 -4.24676e-08
-4.94695e-05 0.000416523 -1.88631e-07
-4.24676e-08 -1.88631e-07 0.000347272

0.000307717 -5.00687e-05 -7.25794e-08
-5.00687e-05 0.000293657 9.96667e-08
-7.25794e-08 9.96667e-08 0.000227707

0.000377627 -5.01901e-05 4.23335e-08
-5.01901e-05 0.000356258 1.15265e-07
4.23335e-08 1.15265e-07 0.000344478

0.000326879 3.74319e-05 -9.61507e-08
3.74319e-05 0.000403972 -9.27318e-09
-9.61507e-08 -9.27318e-09 0.000341839

0.000346957 7.03521e-05 -2.25136e-07
7.03521e-05 0.000373711 5.07484e-08
-2.25136e-07 5.07484e-08 0.000332532

0.000356543 -7.31025e-05 1.06242e-07
-7.31025e-05 0.000428769 -1.10415e-08
1.06242e-07 -1.10415e-08 0.000403584

0.000357327 7.15092e-05 -7.62919e-08
7.15092e-05 0.00042866 1.17119e-07
-7.62919e-08 1.17119e-07 0.000404022

0.000345852 -7.1487e-05 -8.26813e-08
-7.1487e-05 0.000373462 -2.6392e-08
-8.26813e-08 -2.6392e-08 0.000331681

0.000437181 -7.15526e-06 1.30204e-07
-7.15526e-06 0.000355066 -5.79739e-08
1.30204e-07 -5.79739e-08 0.000385743

0.000442123 1.99704e-05 -9.03007e-09
1.99704e-05 0.000477622 1.89259e-07
-9.03007e-09 1.89259e-07 0.000444441

0.00044388 1.76042e-05 -3.58793e-07
1.76042e-05 0.000475578 6.43287e-08
-3.58793e-07 6.43287e-08 0.000444979

0.000359288 -6.28987e-05 -1.32412e-08
-6.28987e-05 0.000432986 1.96365e-07
-1.32412e-08 1.96365e-07 0.000384811

0.000382369 3.06025e-05 -1.03018e-08
3.06025e-05 0.000342253 -6.89412e-08
-1.03018e-08 -6.89412e-08 0.000365446

0.000468937 -7.45409e-06 -4.31954e-08
-7.45409e-06 0.000363723 -6.26734e-08
-4.31954e-08 -6.26734e-08 0.000414295

0.000231029 -6.75428e-05 1.42542e-07
-6.75428e-05 0.000241398 -3.89601e-08
1.42542e-07 -3.89601e-08 0.000139565

0.000233009 -6.6022e-05 9.98911e-08
-6.6022e-05 0.000242124 -9.1867e-08
9.98911e-08 -9.1867e-08 0.00014103

0.000483878 -2.14342e-05 1.00143e-07
-2.14342e-05 0.0004039 2.24198e-07
1.00143e-07 2.24198e-07 0.000453029

0.000483523 2.16771e-05 -9.10633e-08
2.16771e-05 0.000404153 8.37646e-08
-9.10633e-08 8.37646e-08 0.000453279

0.000469671 6.13549e-06 6.00562e-09
6.13549e-06 0.000366336 1.31151e-07
6.00562e-09 1.31151e-07 0.000415405

0.000330883 4.9125e-05 1.21859e-07
4.9125e-05 0.000414508 -8.84735e-08
1.21859e-07 -8.84735e-08 0.000346648

0.000379126 3.87732e-05 -4.36277e-08
3.87732e-05 0.000337348 -1.28584e-07
-4.36277e-08 -1.28584e-07 0.000311873

0.000396887 -5.58458e-05 2.93275e-08
-5.58458e-05 0.000436166 -1.03823e-08
2.93275e-08 -1.03823e-08 0.000408368

0.000396619 5.52319e-05 -1.49067e-07
5.52319e-05 0.000435586 1.3256e-07
-1.49067e-07 1.3256e-07 0.000408549

0.000480117 -1.01314e-05 1.01053e-07
-1.01314e-05 0.000426716 -3.65545e-07
1.01053e-07 -3.65545e-07 0.000444314

0.000479846 1.01882e-05 2.17943e-07
1.01882e-05 0.000432197 -2.37846e-07
2.17943e-07 -2.37846e-07 0.000445104

0.000339372 -7.17644e-05 5.77394e-08
-7.17644e-05 0.000429074 2.24983e-07
5.77394e-08 2.24983e-07 0.000381982

0.000395418 3.07602e-05 2.28573e-08
3.07602e-05 0.000333679 -4.16582e-08
2.28573e-08 -4.16582e-08 0.000340844

0.000450922 2.12159e-05 -6.22571e-08
2.12159e-05 0.000424449 3.39048e-08
-6.22571e-08 3.39048e-08 0.000435141

0.000451772 -2.15469e-05 -1.66591e-07
-2.15469e-05 0.000424138 -7.68956e-08
-1.66591e-07 -7.68956e-08 0.000434876

0.000354921 -5.57092e-05 -4.62942e-08
-5.57092e-05 0.000422381 -1.5183e-07
-4.62942e-08 -1.5183e-07 0.000381155

0.000341172 -7.6842e-05 -5.91084e-08
-7.6842e-05 0.00042686 -1.2365e-08
-5.91084e-08 -1.2365e-08 0.00038721

0.000122043 -0.000125347 -6.10115e-08
-0.000125347 0.000128652 6.10115e-08
-6.10115e-08 6.10115e-08 3.06654e-05

0.000372077 5.25304e-05 5.38973e-08
5.25304e-05 0.000445269 -1.45134e-07
5.38973e-08 -1.45134e-07 0.000411705

0.000371897 -5.32444e-05 6.69853e-08
-5.32444e-05 0.000446119 -9.07387e-08
6.69853e-08 -9.07387e-08 0.000411895

0.000330002 -6.63705e-05 3.25439e-08
-6.63705e-05 0.000418112 -1.26637e-07
3.25439e-08 -1.26637e-07 0.000376634

0.000384282 -4.18994e-05 2.57987e-08
-4.18994e-05 0.000338439 1.28666e-07
2.57987e-08 1.28666e-07 0.000315041

0.000388672 -3.33248e-05 1.27796e-07
-3.33248e-05 0.000390847 2.03615e-09
1.27796e-07 2.03615e-09 0.000379346

0.000381308 4.54154e-05 1.34467e-07
4.54154e-05 0.000418152 -5.58215e-08
1.34467e-07 -5.58215e-08 0.000402011

0.000380586 -4.68487e-05 -9.66382e-09
-4.68487e-05 0.000419753 -2.20608e-09
-9.66382e-09 -2.20608e-09 0.000402406

0.00043718 -6.76354e-06 1.29971e-07
-6.76354e-06 0.000306747 3.56261e-08
1.29971e-07 3.56261e-08 0.000376581

0.000480131 1.63979e-05 -1.36853e-07
1.63979e-05 0.000435467 -1.43821e-07
-1.36853e-07 -1.43821e-07 0.000462217

0.000480574 -1.63864e-05 1.44871e-07
-1.63864e-05 0.000435344 1.89118e-09
1.44871e-07 1.89118e-09 0.000462218

0.000432191 7.50813e-06 1.6565e-07
7.50813e-06 0.000513185 1.18333e-08
1.6565e-07 1.18333e-08 0.000441185

0.000433084 4.96923e-06 -8.03045e-08
4.96923e-06 0.000512383 -2.18535e-07
-8.03045e-08 -2.18535e-07 0.000441407

0.000150151 5.24428e-06 -9.38501e-08
5.24428e-06 0.000335051 -4.90997e-08
-9.38501e-08 -4.90997e-08 8.57757e-05

0.00031527 4.68153e-06 -6.07532e-08
4.68153e-06 0.000156086 2.04313e-07
-6.07532e-08 2.04313e-07 8.57548e-05

0.000369816 -7.19473e-05 1.63303e-07
-7.19473e-05 0.000446723 9.90275e-08
1.63303e-07 9.90275e-08 0.000400567

0.000369881 7.17755e-05 1.87564e-07
7.17755e-05 0.000446446 5.76389e-08
1.87564e-07 5.76389e-08 0.000400776

0.000347067 -8.16191e-05 1.21781e-07
-8.16191e-05 0.000441636 1.37408e-07
1.21781e-07 1.37408e-07 0.000392805

0.000133256 -5.8901e-05 -5.85136e-08
-5.8901e-05 0.00026932 8.77107e-08
-5.85136e-08 8.77107e-08 7.56186e-05

0.00025744 -5.636e-05 -3.76126e-10
-5.636e-05 0.000146824 7.04383e-08
-3.76126e-10 7.04383e-08 7.7083e-05

0.000456653 -7.48588e-05 -1.59197e-08
-7.48588e-05 0.000514524 -2.03706e-07
-1.59197e-08 -2.03706e-07 0.000478431

0.000455787 7.58016e-05 1.87738e-08
7.58016e-05 0.000515164 1.65251e-07
1.87738e-08 1.65251e-07 0.00047846

0.000358606 -4.97998e-05 -4.50645e-08
-4.97998e-05 0.000384616 -1.45409e-07
-4.50645e-08 -1.45409e-07 0.000373061

0.000342799 -6.90544e-05 -3.19872e-08
-6.90544e-05 0.000390709 6.02992e-08
-3.19872e-08 6.02992e-08 0.000340454

0.000370646 -7.24571e-05 1.69733e-07
-7.24571e-05 0.000425983 6.26879e-08
1.69733e-07 6.26879e-08 0.000394653

0.000370485 7.20317e-05 1.73046e-07
7.20317e-05 0.000425181 -3.49295e-08
1.73046e-07 -3.49295e-08 0.000394806

0.000344161 -7.79934e-05 -5.75896e-08
-7.79934e-05 0.000412035 9.42729e-08
-5.75896e-08 9.42729e-08 0.000363226

0.000343235 6.91314e-05 -1.70441e-07
6.91314e-05 0.000388967 -4.34922e-08
-1.70441e-07 -4.34922e-08 0.000340271

0.000217046 -2.24389e-05 -1.31681e-07
-2.24389e-05 0.000346019 -2.7819e-08
-1.31681e-07 -2.7819e-08 0.000187472

0.00021326 2.7068e-05 2.1993e-09
2.7068e-05 0.000340033 1.6891e-07
2.1993e-09 1.6891e-07 0.000188299

0.000332029 -1.70364e-05 -4.76882e-08
-1.70364e-05 0.000240122 1.20043e-07
-4.76882e-08 1.20043e-07 0.000189478

0.00034434 7.75404e-05 -1.53992e-07
7.75404e-05 0.00041102 -1.96482e-08
-1.53992e-07 -1.96482e-08 0.00036282

0.000158308 -1.39361e-05 -1.10408e-07
-1.39361e-05 0.000320386 3.46148e-08
-1.10408e-07 3.46148e-08 0.000152369

0.00030785 -1.34721e-05 2.38723e-07
-1.34721e-05 0.000164415 1.38575e-07
2.38723e-07 1.38575e-07 0.000150428

0.000389245 -7.11071e-05 1.89162e-08
-7.11071e-05 0.000445493 1.29648e-07
1.89162e-08 1.29648e-07 0.000416926

0.000389793 7.07392e-05 -1.87113e-07
7.07392e-05 0.000445302 -1.47718e-08
-1.87113e-07 -1.47718e-08 0.000417156

0.000394067 -6.16255e-05 -8.75433e-09
-6.16255e-05 0.000454034 3.518e-08
-8.75433e-09 3.518e-08 0.000422731

0.000394451 6.14949e-05 -2.09143e-07
6.14949e-05 0.000453407 6.1601e-08
-2.09143e-07 6.1601e-08 0.000422852

0.000127312 -5.92258e-05 -1.60195e-07
-5.92258e-05 0.000260373 -9.25697e-08
-1.60195e-07 -9.25697e-08 6.64941e-05

0.000250297 -5.48419e-05 -9.69668e-08
-5.48419e-05 0.000132718 1.46052e-07
-9.69668e-08 1.46052e-07 6.59337e-05

0.000368468 6.54448e-05 7.23983e-08
6.54448e-05 0.000416766 -1.07156e-07
7.23983e-08 -1.07156e-07 0.000377351

0.000368365 -6.58577e-05 6.11897e-08
-6.58577e-05 0.000417774 1.39628e-07
6.11897e-08 1.39628e-07 0.000377193

0.000427982 -1.03776e-05 1.54153e-07
-1.03776e-05 0.000453465 -5.96256e-08
1.54153e-07 -5.96256e-08 0.000432808

0.000428497 -1.39061e-05 -1.33793e-08
-1.39061e-05 0.000454977 1.97486e-07
-1.33793e-08 1.97486e-07 0.000433411

0.000381516 -7.14407e-05 9.76558e-08
-7.14407e-05 0.00046925 -5.04578e-09
9.76558e-08 -5.04578e-09 0.000425

0.000381381 7.15772e-05 -1.55307e-07
7.15772e-05 0.000469104 3.5659e-08
-1.55307e-07 3.5659e-08 0.000425176

0.000459738 -2.79071e-05 -8.74292e-08
-2.79071e-05 0.000428975 -1.26318e-07
-8.74292e-08 -1.26318e-07 0.000452441

0.000459459 2.77308e-05 -2.48491e-07
2.77308e-05 0.000429254 -8.22043e-08
-2.48491e-07 -8.22043e-08 0.000452565

0.000359318 5.90409e-05 -1.0944e-08
5.90409e-05 0.00041734 -5.13796e-08
-1.0944e-08 -5.13796e-08 0.000387552

0.000358815 -5.87105e-05 -1.15916e-07
-5.87105e-05 0.000419407 -3.77753e-09
-1.15916e-07 -3.77753e-09 0.000387981

0.000411781 -2.20256e-05 1.68625e-07
-2.20256e-05 0.000498317 -7.2587e-08
1.68625e-07 -7.2587e-08 0.000436431

0.000487685 -4.04205e-05 1.06e-07
-4.04205e-05 0.000467202 3.08436e-08
1.06e-07 3.08436e-08 0.000474704

0.000484064 -4.15774e-05 4.29427e-08
-4.15774e-05 0.000468161 -2.75099e-08
4.29427e-08 -2.75099e-08 0.000474716

0.000487341 4.03868e-05 5.68179e-08
4.03868e-05 0.000467202 4.27305e-10
5.68179e-08 4.27305e-10 0.000474658

0.000484064 4.13088e-05 8.14531e-08
4.13088e-05 0.000468302 -2.23701e-08
8.14531e-08 -2.23701e-08 0.000474741

0.00040876 -1.70955e-05 -1.53352e-07
-1.70955e-05 0.000499115 2.26723e-07
-1.53352e-07 2.26723e-07 0.000434958

0.000449587 -4.50868e-05 1.29294e-07
-4.50868e-05 0.000448082 -2.93158e-07
1.29294e-07 -2.93158e-07 0.000434715

0.000447802 4.67433e-05 9.87014e-08
4.67433e-05 0.000448869 5.91177e-08
9.87014e-08 5.91177e-08 0.000435294

0.00046131 -5.9931e-05 -1.13056e-06
-5.9931e-05 0.000490229 1.73356e-06
-1.13056e-06 1.73356e-06 0.00045909

0.000610296 -4.02924e-05 -3.30373e-06
-4.02924e-05 0.000450154 -2.3259e-06
-3.30373e-06 -2.3259e-06 0.00047192

0.000601845 4.34963e-05 9.39159e-07
4.34963e-05 0.000450154 -9.21124e-07
9.39159e-07 -9.21124e-07 0.000472037

0.000458663 5.76386e-05 3.5984e-07
5.76386e-05 0.000490229 4.67123e-07
3.5984e-07 4.67123e-07 0.000459178

0.000472941 -6.2389e-05 -4.81465e-08
-6.2389e-05 0.000470958 9.28561e-08
-4.81465e-08 9.28561e-08 0.000454705

0.000425976 -5.03512e-05 9.92461e-08
-5.03512e-05 0.000475609 -4.74716e-09
9.92461e-08 -4.74716e-09 0.000441822

0.000479023 -4.74178e-05 -2.18846e-07
-4.74178e-05 0.000479205 -6.97614e-07
-2.18846e-07 -6.97614e-07 0.000467459

0.000473034 6.21734e-05 -2.40492e-08
6.21734e-05 0.000470958 -1.14771e-07
-2.40492e-08 -1.14771e-07 0.000454756

0.000478548 4.85162e-05 4.8567e-08
4.85162e-05 0.000479205 -4.51044e-07
4.8567e-08 -4.51044e-07 0.00046754

0.000425934 5.00907e-05 1.23852e-07
5.00907e-05 0.000475609 -1.683e-08
1.23852e-07 -1.683e-08 0.000441879

0.000426218 -5.18228e-05 1.08994e-07
-5.18228e-05 0.000475304 -1.24178e-07
1.08994e-07 -1.24178e-07 0.000448581

0.000462154 -4.22224e-05 -1.23501e-07
-4.22224e-05 0.000477798 -1.96586e-07
-1.23501e-07 -1.96586e-07 0.000461482

0.000426218 5.18053e-05 1.35586e-07
5.18053e-05 0.000474874 1.26933e-07
1.35586e-07 1.26933e-07 0.000448633

0.000461382 4.23692e-05 -5.88696e-08
4.23692e-05 0.00047734 1.87495e-07
-5.88696e-08 1.87495e-07 0.000461524

0.000364121 3.39588e-05 1.04576e-07
3.39588e-05 0.000406567 -1.47104e-07
1.04576e-07 -1.47104e-07 0.00038083

0.000325835 -9.53223e-06 -3.72923e-08
-9.53223e-06 0.0004294 -9.07479e-08
-3.72923e-08 -9.07479e-08 0.000382746

0.00038693 -1.06877e-05 -5.78281e-08
-1.06877e-05 0.000287174 -4.69064e-08
-5.78281e-08 -4.69064e-08 0.000346615

0.000373698 5.46465e-07 -1.20524e-09
5.46465e-07 0.000278908 -7.74202e-08
-1.20524e-09 -7.74202e-08 0.000322623

0.000364038 3.41171e-05 8.7429e-08
3.41171e-05 0.000414168 5.23629e-08
8.7429e-08 5.23629e-08 0.000404606

0.000324717 -1.4569e-05 -1.83118e-08
-1.4569e-05 0.000463391 1.30026e-07
-1.83118e-08 1.30026e-07 0.000405268

0.000373749 1.89906e-05 -1.08929e-09
1.89906e-05 0.00027949 6.40227e-09
-1.08929e-09 6.40227e-09 0.000324548

0.000417544 2.44862e-05 5.68012e-08
2.44862e-05 0.00032072 4.79948e-08
5.68012e-08 4.79948e-08 0.000391996

0.000234574 4.83931e-05 1.05353e-07
4.83931e-05 0.000302567 7.85107e-10
1.05353e-07 7.85107e-10 0.00025719

0.000237764 4.66936e-05 -5.02735e-08
4.66936e-05 0.000303765 3.19811e-08
-5.02735e-08 3.19811e-08 0.00025233

0.000296369 4.2373e-05 1.21955e-08
4.2373e-05 0.000235225 7.40865e-08
1.21955e-08 7.40865e-08 0.000248947

0.000389445 2.19079e-05 -1.06423e-07
2.19079e-05 0.000445434 -2.7013e-08
-1.06423e-07 -2.7013e-08 0.00041207

0.000400228 -4.08012e-05 1.32338e-07
-4.08012e-05 0.000422812 4.67435e-08
1.32338e-07 4.67435e-08 0.000411866

0.000346339 -5.19121e-05 9.54938e-08
-5.19121e-05 0.000361358 -2.24298e-08
9.54938e-08 -2.24298e-08 0.000349307

0.000322858 1.72998e-05 1.48465e-07
1.72998e-05 0.00046444 1.27939e-07
1.48465e-07 1.27939e-07 0.000403515

0.000362595 -1.93637e-05 -8.87014e-08
-1.93637e-05 0.000410657 1.81251e-07
-8.87014e-08 1.81251e-07 0.000403266

0.000405463 1.36397e-05 6.39357e-09
1.36397e-05 0.000288384 -3.2339e-08
6.39357e-09 -3.2339e-08 0.000348471

0.000250239 2.24148e-05 1.09621e-07
2.24148e-05 0.000344526 -7.43068e-09
1.09621e-07 -7.43068e-09 0.000277579

0.000262901 1.69234e-05 4.67322e-08
1.69234e-05 0.000336007 -1.16515e-07
4.67322e-08 -1.16515e-07 0.000275167

0.00033593 1.32974e-05 7.30569e-08
1.32974e-05 0.000256018 3.67013e-08
7.30569e-08 3.67013e-08 0.000269909

0.000304682 5.22897e-05 8.73799e-08
5.22897e-05 0.000364075 -5.5463e-08
8.73799e-08 -5.5463e-08 0.000319173

0.000289318 -3.18531e-05 -1.02953e-07
-3.18531e-05 0.000365642 -1.2928e-07
-1.02953e-07 -1.2928e-07 0.000323635

0.000390846 2.97934e-05 -9.97455e-08
2.97934e-05 0.000285418 -3.33283e-08
-9.97455e-08 -3.33283e-08 0.000350385

0.000227359 3.5066e-05 8.65055e-08
3.5066e-05 0.000277965 -3.4937e-08
8.65055e-08 -3.4937e-08 0.000229232

0.000419295 -1.35778e-05 -4.73728e-09
-1.35778e-05 0.000297447 -5.43885e-08
-4.73728e-09 -5.43885e-08 0.00038379

0.000414658 9.19867e-06 -1.47442e-07
9.19867e-06 0.000425892 1.43659e-07
-1.47442e-07 1.43659e-07 0.000414294

0.000388867 -2.66259e-06 8.34193e-08
-2.66259e-06 0.000462954 1.6957e-07
8.34193e-08 1.6957e-07 0.000413527

0.000540165 5.24558e-05 1.17909e-07
5.24558e-05 0.000447354 -1.71742e-08
1.17909e-07 -1.71742e-08 0.000435349

0.000538716 -2.38812e-05 2.03385e-07
-2.38812e-05 0.000410537 2.02358e-08
2.03385e-07 2.02358e-08 0.000439606

0.000331098 -5.9378e-05 9.09127e-08
-5.9378e-05 0.000359412 -2.62089e-08
9.09127e-08 -2.62089e-08 0.000344395

0.000296446 -5.02629e-05 2.65689e-08
-5.02629e-05 0.000357491 -1.73628e-09
2.65689e-08 -1.73628e-09 0.000316577

0.00033086 -7.30703e-07 1.10903e-07
-7.30703e-07 0.000240831 -1.6699e-07
1.10903e-07 -1.6699e-07 0.000269737

0.000454376 3.28591e-05 6.2549e-08
3.28591e-05 0.000395655 2.82667e-09
6.2549e-08 2.82667e-09 0.000414208

0.000446315 -8.8964e-06 2.50757e-09
-8.8964e-06 0.000388096 6.77961e-08
2.50757e-09 6.77961e-08 0.00041421

0.000420202 -5.38258e-06 -4.56179e-08
-5.38258e-06 0.000298169 -5.61943e-08
-4.56179e-08 -5.61943e-08 0.000394648

0.00028807 -3.83903e-05 6.23915e-08
-3.83903e-05 0.000350431 9.11387e-08
6.23915e-08 9.11387e-08 0.000319914

0.000415671 7.41913e-06 5.17888e-08
7.41913e-06 0.000286526 -3.80482e-08
5.17888e-08 -3.80482e-08 0.00038617

0.000341469 -3.7522e-05 1.44732e-08
-3.7522e-05 0.000300979 1.34323e-07
1.44732e-08 1.34323e-07 0.000304925

0.000301566 5.49673e-05 -9.56503e-08
5.49673e-05 0.000338483 2.93982e-08
-9.56503e-08 2.93982e-08 0.000318588

0.000354373 4.08162e-05 4.62071e-08
4.08162e-05 0.00026801 -7.97707e-09
4.62071e-08 -7.97707e-09 0.000300786

0.000345321 -2.37359e-05 -1.15862e-08
-2.37359e-05 0.000266042 -8.08198e-08
-1.15862e-08 -8.08198e-08 0.000297564

0.000295947 4.61026e-05 1.50355e-08
4.61026e-05 0.000364224 -9.02886e-08
1.50355e-08 -9.02886e-08 0.000321618

0.000305841 -3.47739e-05 -2.24561e-08
-3.47739e-05 0.000415129 -9.64705e-08
-2.24561e-08 -9.64705e-08 0.000382001

0.000332166 6.15933e-05 3.83701e-08
6.15933e-05 0.000409018 2.96419e-08
3.83701e-08 2.96419e-08 0.000378026

0.000306141 -4.3516e-05 1.82126e-08
-4.3516e-05 0.00036123 -1.01771e-08
1.82126e-08 -1.01771e-08 0.000320143

0.000298555 5.74278e-05 -2.00232e-08
5.74278e-05 0.000360469 7.09637e-08
-2.00232e-08 7.09637e-08 0.00031645

0.000181539 -4.84733e-05 -4.32713e-08
-4.84733e-05 0.000189973 4.25116e-08
-4.32713e-08 4.25116e-08 0.000188545

0.000177547 5.54753e-05 -3.99197e-08
5.54753e-05 0.000196397 -7.07364e-08
-3.99197e-08 -7.07364e-08 0.00018567

0.000327628 4.74724e-05 -1.42981e-07
4.74724e-05 0.000434937 -1.31723e-08
-1.42981e-07 -1.31723e-08 0.000403189

0.000354629 -5.54188e-05 -8.36224e-08
-5.54188e-05 0.000418281 -3.50796e-08
-8.36224e-08 -3.50796e-08 0.00040139

0.000304654 5.23742e-05 8.844e-08
5.23742e-05 0.000384598 -2.9836e-08
8.844e-08 -2.9836e-08 0.000343636

0.000179977 1.7809e-05 -4.50978e-08
1.7809e-05 0.000181725 9.07568e-08
-4.50978e-08 9.07568e-08 0.000196301

0.000175852 -3.12448e-08 7.13184e-08
-3.12448e-08 0.000194662 4.8042e-08
7.13184e-08 4.8042e-08 0.00019864

0.000403212 -4.02559e-05 -2.07613e-07
-4.02559e-05 0.000419168 1.87828e-07
-2.07613e-07 1.87828e-07 0.00041981

0.000406293 1.951e-05 9.84782e-08
1.951e-05 0.000431473 2.28803e-07
9.84782e-08 2.28803e-07 0.000418391

0.000432577 -1.20624e-06 6.96338e-08
-1.20624e-06 0.000295662 -5.57621e-08
6.96338e-08 -5.57621e-08 0.000365684

0.000403956 -3.74983e-05 -2.11323e-07
-3.74983e-05 0.000421107 1.61715e-07
-2.11323e-07 1.61715e-07 0.000419327

0.000408448 1.32283e-05 1.00709e-07
1.32283e-05 0.00041316 2.131e-07
1.00709e-07 2.131e-07 0.000418269

0.000289436 -3.34901e-05 -1.17138e-07
-3.34901e-05 0.000388158 4.84171e-08
-1.17138e-07 4.84171e-08 0.00034793

0.00049537 4.98238e-05 -2.22429e-08
4.98238e-05 0.000437774 4.91768e-08
-2.22429e-08 4.91768e-08 0.000430529

0.000506337 -4.13481e-05 -6.3443e-08
-4.13481e-05 0.000399585 -8.05826e-08
-6.3443e-08 -8.05826e-08 0.000434698

0.000381139 -3.98078e-05 3.51041e-08
-3.98078e-05 0.000378906 1.22087e-08
3.51041e-08 1.22087e-08 0.000393979

0.00038241 3.03284e-05 -1.36671e-07
3.03284e-05 0.000385362 -1.49768e-07
-1.36671e-07 -1.49768e-07 0.000392224

0.000407603 3.0031e-06 -3.68824e-08
3.0031e-06 0.000517816 -4.46892e-08
-3.68824e-08 -4.46892e-08 0.00042992

0.000415482 2.4112e-05 1.01562e-07
2.4112e-05 0.000467429 6.40721e-08
1.01562e-07 6.40721e-08 0.000431586

0.000213991 1.65107e-05 -2.71035e-08
1.65107e-05 0.000267175 6.76467e-08
-2.71035e-08 6.76467e-08 0.000223845

0.000264166 1.69962e-05 -1.91595e-07
1.69962e-05 0.000216023 -5.44619e-08
-1.91595e-07 -5.44619e-08 0.000224016

0.000324885 4.96004e-05 -1.01146e-07
4.96004e-05 0.0004043 3.2706e-10
-1.01146e-07 3.2706e-10 0.000369943

0.000297231 -3.06813e-05 -4.00582e-08
-3.06813e-05 0.000413779 -9.27282e-08
-4.00582e-08 -9.27282e-08 0.000372756

0.000479154 -6.42567e-05 3.47777e-07
-6.42567e-05 0.000553234 2.59724e-07
3.47777e-07 2.59724e-07 0.000446903

0.000511956 3.92116e-05 5.89579e-07
3.92116e-05 0.000445232 8.42666e-07
5.89579e-07 8.42666e-07 0.000447446

0.000337912 5.2866e-05 -1.22576e-08
5.2866e-05 0.000307299 -4.1339e-08
-1.22576e-08 -4.1339e-08 0.000311816

0.000396835 2.05996e-05 6.86936e-08
2.05996e-05 0.000327913 1.08585e-07
6.86936e-08 1.08585e-07 0.000372125

0.000393905 -2.63539e-05 8.12926e-08
-2.63539e-05 0.000326027 -2.41731e-08
8.12926e-08 -2.41731e-08 0.00037264

0.000440018 -2.84764e-05 -3.42523e-09
-2.84764e-05 0.00033788 4.16319e-08
-3.42523e-09 4.16319e-08 0.000407862

0.000329193 1.19536e-05 9.82195e-08
1.19536e-05 0.000240971 2.61578e-08
9.82195e-08 2.61578e-08 0.000271034

0.000565244 3.75062e-06 -1.05174e-07
3.75062e-06 0.000430466 -1.22915e-07
-1.05174e-07 -1.22915e-07 0.000443034

0.000542019 -7.1382e-06 -2.85217e-08
-7.1382e-06 0.000506428 5.59713e-08
-2.85217e-08 5.59713e-08 0.000438464

0.000348982 6.35285e-05 6.65374e-08
6.35285e-05 0.00031756 3.68476e-08
6.65374e-08 3.68476e-08 0.00033822

0.000404973 1.69736e-05 1.4355e-09
1.69736e-05 0.000315898 5.1505e-08
1.4355e-09 5.1505e-08 0.000351884

0.00028259 5.15283e-05 -8.54613e-08
5.15283e-05 0.00030198 1.28313e-08
-8.54613e-08 1.28313e-08 0.000270471

0.000438145 -2.85966e-05 -2.17944e-08
-2.85966e-05 0.000531382 -4.83597e-08
-2.17944e-08 -4.83597e-08 0.000435036

0.000432719 1.81521e-05 -2.33017e-08
1.81521e-05 0.00046351 3.36993e-08
-2.33017e-08 3.36993e-08 0.000438047

0.000447188 5.28539e-05 6.1975e-08
5.28539e-05 0.000360887 5.39999e-09
6.1975e-08 5.39999e-09 0.000408777

0.000362927 -1.67309e-05 -9.84153e-08
-1.67309e-05 0.000405056 1.75107e-08
-9.84153e-08 1.75107e-08 0.000380006

0.000323648 1.15277e-05 1.54216e-07
1.15277e-05 0.00043083 2.95615e-08
1.54216e-07 2.95615e-08 0.000381517

0.000434578 -8.13559e-06 -1.16785e-07
-8.13559e-06 0.000304952 9.30197e-08
-1.16785e-07 9.30197e-08 0.000382524

0.000441202 5.927e-06 7.87497e-08
5.927e-06 0.000301363 -4.96057e-08
7.87497e-08 -4.96057e-08 0.000382837

0.000301503 -3.38292e-05 7.14273e-08
-3.38292e-05 0.000279792 -1.46797e-07
7.14273e-08 -1.46797e-07 0.000266875

0.000391423 1.82239e-06 1.04769e-08
1.82239e-06 0.000280058 -3.02886e-08
1.04769e-08 -3.02886e-08 0.000323157

0.000436466 6.45946e-06 1.76931e-08
6.45946e-06 0.000340666 8.07025e-08
1.76931e-08 8.07025e-08 0.000400901

0.000425512 -1.46477e-05 -1.11662e-07
-1.46477e-05 0.000349339 -8.98563e-08
-1.11662e-07 -8.98563e-08 0.000401396

0.000401609 -1.96321e-05 1.09567e-07
-1.96321e-05 0.000309988 -4.71796e-08
1.09567e-07 -4.71796e-08 0.000352558

0.000433183 -9.41303e-06 -1.44991e-07
-9.41303e-06 0.000329901 -5.4871e-08
-1.44991e-07 -5.4871e-08 0.000385857

0.000440816 3.89547e-06 4.59578e-08
3.89547e-06 0.000330422 1.10507e-07
4.59578e-08 1.10507e-07 0.000385864

0.000396447 4.23337e-05 1.32593e-08
4.23337e-05 0.000312692 1.76886e-07
1.32593e-08 1.76886e-07 0.000359559

0.000303223 -5.57172e-05 1.05915e-07
-5.57172e-05 0.000296225 1.48616e-07
1.05915e-07 1.48616e-07 0.000287345

0.000340626 7.22085e-05 -2.84562e-08
7.22085e-05 0.000410653 7.48745e-08
-2.84562e-08 7.48745e-08 0.000384715

0.000331352 -6.10481e-05 5.03151e-08
-6.10481e-05 0.000387607 8.82305e-08
5.03151e-08 8.82305e-08 0.000389512

0.000324225 -4.61975e-05 -5.0564e-08
-4.61975e-05 0.000392914 -4.35126e-08
-5.0564e-08 -4.35126e-08 0.000394101

0.000343853 7.64232e-05 -2.31803e-08
7.64232e-05 0.000423453 -8.6159e-08
-2.31803e-08 -8.6159e-08 0.000389139

0.000361796 2.62812e-05 -2.77091e-08
2.62812e-05 0.0002625 -1.01479e-08
-2.77091e-08 -1.01479e-08 0.000300334

0.000275293 -3.1834e-05 6.28074e-08
-3.1834e-05 0.000237903 -5.72033e-08
6.28074e-08 -5.72033e-08 0.000235995

0.000397123 5.99603e-05 -1.10479e-07
5.99603e-05 0.000334848 -1.21444e-07
-1.10479e-07 -1.21444e-07 0.000376734

0.000390209 -1.96895e-05 -5.73043e-08
-1.96895e-05 0.000311367 -4.85557e-08
-5.73043e-08 -4.85557e-08 0.000353226

0.000283185 -2.49136e-05 -1.87162e-09
-2.49136e-05 0.000232349 -1.9241e-07
-1.87162e-09 -1.9241e-07 0.000238141

0.000346152 -4.89709e-05 9.01571e-08
-4.89709e-05 0.000316155 7.44935e-08
9.01571e-08 7.44935e-08 0.000334258

0.000285416 5.42595e-07 -5.739e-08
5.42595e-07 0.000429738 -8.04017e-08
-5.739e-08 -8.04017e-08 0.000369006

0.00031861 7.71724e-06 1.61771e-07
7.71724e-06 0.000391614 -1.17698e-07
1.61771e-07 -1.17698e-07 0.000367257

0.000303581 6.30046e-05 -9.85852e-08
6.30046e-05 0.000305613 1.00238e-09
-9.85852e-08 1.00238e-09 0.000297314

0.000301759 -3.64175e-05 6.7821e-08
-3.64175e-05 0.000239965 -5.24856e-08
6.7821e-08 -5.24856e-08 0.000256109

0.000356164 6.68836e-05 1.66922e-08
6.68836e-05 0.000376954 -1.10564e-07
1.66922e-08 -1.10564e-07 0.000389445

0.00035072 -6.43914e-05 -8.13996e-08
-6.43914e-05 0.00039507 1.1707e-07
-8.13996e-08 1.1707e-07 0.000384299

0.000290561 -4.75227e-05 5.62626e-08
-4.75227e-05 0.000330559 1.41953e-07
5.62626e-08 1.41953e-07 0.000297221

0.000297826 -5.26297e-05 2.60222e-08
-5.26297e-05 0.000325741 1.98283e-09
2.60222e-08 1.98283e-09 0.000293673

0.000391129 4.8932e-05 6.10066e-08
4.8932e-05 0.000319568 3.72765e-08
6.10066e-08 3.72765e-08 0.000355627

0.000450756 2.97847e-05 -1.47792e-08
2.97847e-05 0.000299041 -2.23737e-08
-1.47792e-08 -2.23737e-08 0.000407069

0.000452632 -2.04463e-05 -1.20773e-07
-2.04463e-05 0.000285674 3.69788e-08
-1.20773e-07 3.69788e-08 0.000407522

0.000276596 3.8734e-05 6.97764e-08
3.8734e-05 0.000359669 -5.91034e-08
6.97764e-08 -5.91034e-08 0.000303908

0.000349765 5.94928e-05 6.17355e-08
5.94928e-05 0.000338356 6.1013e-08
6.17355e-08 6.1013e-08 0.000342726

0.000216489 5.51125e-06 3.07793e-08
5.51125e-06 0.000336837 -3.49488e-08
3.07793e-08 -3.49488e-08 0.000265909

0.000228741 3.06246e-06 -2.63676e-08
3.06246e-06 0.00033097 -1.36589e-07
-2.63676e-08 -1.36589e-07 0.000263595

0.000332963 2.76997e-06 6.93385e-08
2.76997e-06 0.000219884 2.58956e-08
6.93385e-08 2.58956e-08 0.000260064

0.00031787 -4.51234e-05 8.63001e-09
-4.51234e-05 0.000286515 -8.73972e-08
8.63001e-09 -8.73972e-08 0.000296426

0.000437993 -3.11158e-05 1.42528e-07
-3.11158e-05 0.000494227 -1.88871e-08
1.42528e-07 -1.88871e-08 0.000444569

0.000548888 1.47737e-05 -1.77766e-07
1.47737e-05 0.000547753 -9.78205e-08
-1.77766e-07 -9.78205e-08 0.000440611

0.000339208 5.36625e-05 5.43032e-09
5.36625e-05 0.000270341 6.46259e-08
5.43032e-09 6.46259e-08 0.000296286

0.000364829 -2.2583e-05 -1.41173e-08
-2.2583e-05 0.000263279 9.27028e-09
-1.41173e-08 9.27028e-09 0.000304138

0.000284077 3.7919e-05 -9.18537e-08
3.7919e-05 0.000227244 3.14891e-08
-9.18537e-08 3.14891e-08 0.000241654

0.000305855 -3.9089e-05 -6.14793e-09
-3.9089e-05 0.000386335 -4.23497e-08
-6.14793e-09 -4.23497e-08 0.000366112

0.000327318 7.09251e-05 6.29967e-08
7.09251e-05 0.000399782 -5.07863e-08
6.29967e-08 -5.07863e-08 0.000361789

0.000432568 -1.06489e-06 6.92757e-08
-1.06489e-06 0.000295536 -4.55243e-08
6.92757e-08 -4.55243e-08 0.000365354

0.0002581 3.56879e-05 8.63506e-08
3.56879e-05 0.000361517 -6.60482e-08
8.63506e-08 -6.60482e-08 0.000306462

0.000313596 -4.75523e-05 1.64408e-08
-4.75523e-05 0.000437004 1.01766e-07
1.64408e-08 1.01766e-07 0.000405285

0.000351967 6.6622e-05 -9.88869e-08
6.6622e-05 0.00042781 7.79844e-08
-9.88869e-08 7.79844e-08 0.000401939

0.000278237 4.17679e-05 1.23378e-09
4.17679e-05 0.000303408 3.36291e-08
1.23378e-09 3.36291e-08 0.000266001

0.000295216 4.43255e-05 4.01515e-09
4.43255e-05 0.000287191 3.12975e-08
4.01515e-09 3.12975e-08 0.000262749

0.000286808 3.34913e-05 -1.21587e-07
3.34913e-05 0.000230466 1.1547e-07
-1.21587e-07 1.1547e-07 0.000242941

0.00033965 7.33758e-05 -7.06944e-08
7.33758e-05 0.000431708 -7.71716e-08
-7.06944e-08 -7.71716e-08 0.0003907

0.000327163 -5.25597e-05 5.33624e-08
-5.25597e-05 0.000380651 7.72906e-08
5.33624e-08 7.72906e-08 0.000396208

0.000459453 2.12943e-06 -5.39378e-08
2.12943e-06 0.000297763 -7.92779e-08
-5.39378e-08 -7.92779e-08 0.000391291

0.000344399 4.95359e-05 4.86638e-08
4.95359e-05 0.000378643 -1.47498e-08
4.86638e-08 -1.47498e-08 0.000395721

0.000345942 -6.24595e-05 3.3428e-08
-6.24595e-05 0.000418344 -1.86998e-07
3.3428e-08 -1.86998e-07 0.000391531

0.000344604 6.07253e-05 1.23157e-08
6.07253e-05 0.000355405 -1.77828e-08
1.23157e-08 -1.77828e-08 0.000362611

0.000251803 -1.33081e-05 -1.54921e-07
-1.33081e-05 0.000346866 6.47988e-08
-1.54921e-07 6.47988e-08 0.00028215

0.000266262 -1.71181e-05 -1.41131e-07
-1.71181e-05 0.000341786 -7.12338e-08
-1.41131e-07 -7.12338e-08 0.000280045

0.000337079 -1.06843e-05 9.55555e-08
-1.06843e-05 0.000258338 -2.94187e-08
9.55555e-08 -2.94187e-08 0.000276278

0.000316881 -3.72522e-05 -4.51377e-10
-3.72522e-05 0.000316528 7.28727e-08
-4.51377e-10 7.28727e-08 0.000307212

0.000318748 6.5537e-06 1.52385e-07
6.5537e-06 0.000382472 7.10079e-08
1.52385e-07 7.10079e-08 0.000335734

0.000285658 2.23274e-06 -5.1467e-08
2.23274e-06 0.000399845 3.85141e-08
-5.1467e-08 3.85141e-08 0.000337879

0.000254857 -4.09524e-05 -6.03152e-08
-4.09524e-05 0.000296914 2.2631e-07
-6.03152e-08 2.2631e-07 0.000254657

0.000254051 -3.93155e-05 2.05943e-08
-3.93155e-05 0.000287598 -1.7411e-07
2.05943e-08 -1.7411e-07 0.000255762

0.000462781 -2.30638e-06 -9.30553e-08
-2.30638e-06 0.000303562 -1.99619e-08
-9.30553e-08 -1.99619e-08 0.00039192

0.000456489 2.74453e-06 6.83466e-08
2.74453e-06 0.000307855 1.22427e-07
6.83466e-08 1.22427e-07 0.000391685

0.000325918 -4.89506e-05 1.46082e-07
-4.89506e-05 0.000373867 2.42442e-08
1.46082e-07 2.42442e-08 0.000371447

0.000331279 6.45133e-05 -1.07408e-07
6.45133e-05 0.00040454 2.20532e-08
-1.07408e-07 2.20532e-08 0.000366919

0.000314533 4.1462e-05 6.09696e-08
4.1462e-05 0.000432314 5.96868e-08
6.09696e-08 5.96868e-08 0.00040411

0.000351839 -6.1149e-05 4.34883e-08
-6.1149e-05 0.000422608 -7.93226e-08
4.34883e-08 -7.93226e-08 0.000401235

0.000366647 -4.9123e-05 -1.40548e-07
-4.9123e-05 0.00035881 3.48154e-08
-1.40548e-07 3.48154e-08 0.000373918

0.000258733 -2.56358e-05 -7.70214e-08
-2.56358e-05 0.000365125 -1.30495e-07
-7.70214e-08 -1.30495e-07 0.000307771

0.000412486 7.38882e-06 -1.40626e-07
7.38882e-06 0.000386482 -1.49672e-07
-1.40626e-07 -1.49672e-07 0.000405217

0.000405415 -2.4839e-05 -1.09003e-07
-2.4839e-05 0.000379768 7.96147e-09
-1.09003e-07 7.96147e-09 0.000406407

0.000359252 -3.75875e-05 -3.19279e-08
-3.75875e-05 0.000330197 -4.72674e-08
-3.19279e-08 -4.72674e-08 0.000344155

0.000392755 -3.18645e-05 8.03817e-08
-3.18645e-05 0.000350088 -3.45774e-08
8.03817e-08 -3.45774e-08 0.000376911

0.000395409 2.73761e-05 7.22649e-08
2.73761e-05 0.000365297 6.66684e-08
7.22649e-08 6.66684e-08 0.00037521

0.000178754 -1.48152e-05 8.11069e-08
-1.48152e-05 0.000125441 -8.18666e-08
8.11069e-08 -8.18666e-08 0.000198476

0.000299695 6.36369e-05 -2.49218e-08
6.36369e-05 0.000325681 6.29329e-09
-2.49218e-08 6.29329e-09 0.000295033

0.00014056 3.07198e-05 8.03596e-08
3.07198e-05 0.0001814 3.45655e-08
8.03596e-08 3.45655e-08 0.000197237

0.000276639 -3.38583e-05 -1.75006e-07
-3.38583e-05 0.000359151 1.60524e-08
-1.75006e-07 1.60524e-08 0.000305423

0.000429583 -3.3232e-05 -2.2203e-08
-3.3232e-05 0.000467783 -4.67695e-08
-2.2203e-08 -4.67695e-08 0.000435845

0.000452791 1.32638e-05 -4.95746e-08
1.32638e-05 0.000437465 -1.21641e-07
-4.95746e-08 -1.21641e-07 0.000435548

0.000360742 4.09089e-05 -5.69488e-08
4.09089e-05 0.000343797 -1.22861e-07
-5.69488e-08 -1.22861e-07 0.00034177

0.000391456 -2.15403e-06 1.02581e-08
-2.15403e-06 0.000278054 2.3492e-08
1.02581e-08 2.3492e-08 0.000323621

0.000324706 5.18525e-05 7.13675e-08
5.18525e-05 0.00028501 7.36087e-08
7.13675e-08 7.36087e-08 0.000292233

0.00029839 2.51323e-05 7.4214e-08
2.51323e-05 0.000423536 6.97445e-08
7.4214e-08 6.97445e-08 0.000372537

0.000327109 -3.48142e-05 -4.83209e-08
-3.48142e-05 0.000395927 4.26483e-08
-4.83209e-08 4.26483e-08 0.000370283

0.000397306 5.72762e-05 1.01277e-07
5.72762e-05 0.000428838 6.48962e-08
1.01277e-07 6.48962e-08 0.000412954

0.000393016 -3.18452e-05 1.31507e-08
-3.18452e-05 0.000438719 1.01552e-07
1.31507e-08 1.01552e-07 0.000413605

0.000336964 7.79881e-05 -6.31389e-08
7.79881e-05 0.000423793 -8.97798e-08
-6.31389e-08 -8.97798e-08 0.000389388

0.00029587 -7.34853e-05 -2.05568e-08
-7.34853e-05 0.000398104 -4.62376e-08
-2.05568e-08 -4.62376e-08 0.000395515

0.000294499 4.00407e-05 2.83731e-08
4.00407e-05 0.000383292 3.94612e-08
2.83731e-08 3.94612e-08 0.000347618

0.000287842 2.00583e-05 -8.81237e-09
2.00583e-05 0.000376912 1.58372e-07
-8.81237e-09 1.58372e-07 0.000326722

0.000354426 -4.52418e-05 -2.83856e-08
-4.52418e-05 0.000347018 -5.03281e-08
-2.83856e-08 -5.03281e-08 0.000364026

0.000354965 4.79245e-05 1.4984e-07
4.79245e-05 0.000360187 5.54162e-08
1.4984e-07 5.54162e-08 0.000361646

0.000324109 4.8937e-05 6.04053e-08
4.8937e-05 0.00032842 -8.77777e-08
6.04053e-08 -8.77777e-08 0.000305505

0.000306537 -4.81708e-05 2.31101e-08
-4.81708e-05 0.000381224 -1.13708e-07
2.31101e-08 -1.13708e-07 0.000345317

0.000268364 -7.96312e-06 2.87006e-09
-7.96312e-06 0.000394078 6.41004e-08
2.87006e-09 6.41004e-08 0.000329961

0.000210525 3.4295e-05 -1.9415e-10
3.4295e-05 0.000233374 -1.79957e-07
-1.9415e-10 -1.79957e-07 0.000207381

0.00023046 3.51529e-05 -1.22802e-07
3.51529e-05 0.000212915 -6.09117e-08
-1.22802e-07 -6.09117e-08 0.000207682

0.000276078 -4.12688e-05 -3.33406e-08
-4.12688e-05 0.000289071 2.42313e-07
-3.33406e-08 2.42313e-07 0.000260353

0.000401975 -1.5312e-05 1.10198e-07
-1.5312e-05 0.000289254 -3.08561e-08
1.10198e-07 -3.08561e-08 0.000348604

0.000476264 -5.09473e-05 5.07272e-07
-5.09473e-05 0.000505909 -1.24142e-07
5.07272e-07 -1.24142e-07 0.000445514

0.000524471 5.42612e-05 1.35084e-07
5.42612e-05 0.00044518 -2.51192e-07
1.35084e-07 -2.51192e-07 0.000445679

0.000450089 5.26826e-05 3.18831e-08
5.26826e-05 0.000451402 -3.51962e-08
3.18831e-08 -3.51962e-08 0.000427026

0.000440271 -1.40357e-05 4.59345e-09
-1.40357e-05 0.000411111 6.51309e-08
4.59345e-09 6.51309e-08 0.000430036

0.000399175 -5.77062e-07 -2.595e-08
-5.77062e-07 0.000294545 -2.95909e-08
-2.595e-08 -2.95909e-08 0.000365537

0.000339188 -6.91697e-05 1.11124e-07
-6.91697e-05 0.000414825 -5.6751e-08
1.11124e-07 -5.6751e-08 0.000389531

0.000306863 7.16544e-05 -2.31101e-09
7.16544e-05 0.000394603 6.0088e-08
-2.31101e-09 6.0088e-08 0.000394247

0.00022271 -3.37148e-05 1.15285e-07
-3.37148e-05 0.00023888 -4.7929e-08
1.15285e-07 -4.7929e-08 0.00021633

0.000227478 4.34222e-05 6.18425e-08
4.34222e-05 0.000227773 3.76112e-08
6.18425e-08 3.76112e-08 0.00021892

0.000209598 -1.56814e-05 -1.40005e-07
-1.56814e-05 0.000280186 -3.40415e-08
-1.40005e-07 -3.40415e-08 0.000231852

0.000224812 -1.94082e-05 1.22781e-07
-1.94082e-05 0.000284141 4.03709e-08
1.22781e-07 4.03709e-08 0.000233475

0.00028318 -1.33988e-05 -2.50012e-07
-1.33988e-05 0.000212977 2.50076e-07
-2.50012e-07 2.50076e-07 0.000230313

0.000284582 5.11418e-05 -9.07457e-08
5.11418e-05 0.000274416 3.35427e-08
-9.07457e-08 3.35427e-08 0.000265247

0.00018416 1.51561e-05 8.73582e-08
1.51561e-05 0.000269803 -3.4674e-08
8.73582e-08 -3.4674e-08 0.000218883

0.000266245 2.7787e-06 -1.53628e-07
2.7787e-06 0.000187502 7.96571e-08
-1.53628e-07 7.96571e-08 0.000218804

0.000406214 -5.48091e-06 -3.36763e-08
-5.48091e-06 0.000487301 -1.75908e-07
-3.36763e-08 -1.75908e-07 0.000425023

0.000413598 -2.23547e-05 1.00091e-07
-2.23547e-05 0.000442316 -1.92603e-08
1.00091e-07 -1.92603e-08 0.000426368

0.000414612 -1.75176e-05 -2.35688e-08
-1.75176e-05 0.00034005 6.08153e-08
-2.35688e-08 6.08153e-08 0.000385127

0.000433675 7.68444e-06 -1.27098e-08
7.68444e-06 0.000259583 3.9911e-08
-1.27098e-08 3.9911e-08 0.000395183

0.000252734 -3.34125e-05 -3.96985e-08
-3.34125e-05 0.000322159 5.10026e-08
-3.96985e-08 5.10026e-08 0.000271861

0.000250029 -2.41981e-05 -2.55696e-08
-2.41981e-05 0.000323195 2.20679e-07
-2.55696e-08 2.20679e-07 0.000275322

0.000405655 1.601e-05 -3.6685e-08
1.601e-05 0.000297971 -8.34172e-08
-3.6685e-08 -8.34172e-08 0.000367381

0.00042416 -1.59089e-05 -2.0207e-07
-1.59089e-05 0.000434485 1.65196e-07
-2.0207e-07 1.65196e-07 0.000427515

0.000444479 8.67002e-08 2.0222e-07
8.67002e-08 0.00041795 1.75088e-07
2.0222e-07 1.75088e-07 0.000426944

0.000383592 -3.40902e-05 -5.52072e-09
-3.40902e-05 0.000371374 1.25772e-07
-5.52072e-09 1.25772e-07 0.000380204

0.000345854 5.65967e-05 3.27742e-08
5.65967e-05 0.000368322 -1.00914e-07
3.27742e-08 -1.00914e-07 0.000370662

0.000331063 -5.93456e-05 8.89855e-08
-5.93456e-05 0.000394677 3.68472e-08
8.89855e-08 3.68472e-08 0.000365438

0.000414469 -1.51065e-05 -1.70303e-08
-1.51065e-05 0.000300556 -6.88901e-08
-1.70303e-08 -6.88901e-08 0.000377441

0.000317252 4.76246e-05 -8.77257e-08
4.76246e-05 0.000381881 -4.75407e-08
-8.77257e-08 -4.75407e-08 0.000366471

0.000330904 -6.28975e-05 -6.51014e-08
-6.28975e-05 0.000390069 -6.45866e-08
-6.51014e-08 -6.45866e-08 0.000362793

0.000173361 -6.97227e-05 1.98684e-07
-6.97227e-05 0.000178938 2.44857e-07
1.98684e-07 2.44857e-07 0.000182098

0.000269245 1.53014e-05 6.56098e-08
1.53014e-05 0.000391674 -1.15071e-08
6.56098e-08 -1.15071e-08 0.000328329

0.000292593 -1.37617e-05 -2.08321e-07
-1.37617e-05 0.000371406 -5.60511e-08
-2.08321e-07 -5.60511e-08 0.000326726

0.000390591 7.14093e-06 3.39291e-08
7.14093e-06 0.000518653 -1.20609e-07
3.39291e-08 -1.20609e-07 0.00042698

0.00041781 -1.12371e-06 -1.09605e-07
-1.12371e-06 0.00043859 -7.82003e-08
-1.09605e-07 -7.82003e-08 0.000429104

0.000453726 -2.79144e-06 1.83326e-07
-2.79144e-06 0.000327035 -2.77729e-08
1.83326e-07 -2.77729e-08 0.00040449

0.000464536 4.9118e-06 -2.85719e-08
4.9118e-06 0.000319399 6.40912e-08
-2.85719e-08 6.40912e-08 0.000404503

0.000412853 6.7754e-05 -3.39743e-08
6.7754e-05 0.000379127 3.0359e-08
-3.39743e-08 3.0359e-08 0.000402323

0.000398312 -3.82889e-05 6.48331e-08
-3.82889e-05 0.000372107 9.32109e-08
6.48331e-08 9.32109e-08 0.000400532

0.000464415 2.46649e-05 1.92753e-08
2.46649e-05 0.000430603 1.84214e-08
1.92753e-08 1.84214e-08 0.000423449

0.000439105 -1.37773e-05 -2.73275e-08
-1.37773e-05 0.000434825 -7.18881e-08
-2.73275e-08 -7.18881e-08 0.000425537

0.000476229 2.79109e-05 -1.0507e-07
2.79109e-05 0.000448428 -2.37143e-07
-1.0507e-07 -2.37143e-07 0.0004425

0.000467375 -8.02624e-05 -7.01117e-09
-8.02624e-05 0.000502509 -1.54226e-07
-7.01117e-09 -1.54226e-07 0.000442422

0.000356839 7.06986e-05 -2.989e-08
7.06986e-05 0.000429724 -6.82778e-08
-2.989e-08 -6.82778e-08 0.000403531

0.000336693 -8.72597e-05 2.07472e-08
-8.72597e-05 0.000395329 8.44027e-08
2.07472e-08 8.44027e-08 0.000408149

0.000363883 3.734e-05 -9.83668e-08
3.734e-05 0.000310622 6.67942e-08
-9.83668e-08 6.67942e-08 0.000335093

0.000297593 2.99764e-05 8.3605e-08
2.99764e-05 0.000394618 5.09754e-09
8.3605e-08 5.09754e-09 0.000350476

0.000329211 -4.87317e-05 1.09097e-07
-4.87317e-05 0.000327164 -2.1949e-08
1.09097e-07 -2.1949e-08 0.000331504

0.000326377 -3.79995e-05 -8.21107e-08
-3.79995e-05 0.000386034 -1.82684e-07
-8.21107e-08 -1.82684e-07 0.000348527

0.000361365 -3.49353e-05 -3.66436e-08
-3.49353e-05 0.000306172 -7.01545e-08
-3.66436e-08 -7.01545e-08 0.000336957

0.000324627 4.17085e-05 -9.94232e-08
4.17085e-05 0.000389651 1.04172e-07
-9.94232e-08 1.04172e-07 0.000347359

0.00033526 5.92125e-05 4.03878e-09
5.92125e-05 0.000337789 -1.34386e-07
4.03878e-09 -1.34386e-07 0.000328806

0.000361248 7.88148e-05 4.83141e-09
7.88148e-05 0.000395899 -2.89993e-08
4.83141e-09 -2.89993e-08 0.000406524

0.000366606 -5.84928e-05 5.59689e-08
-5.84928e-05 0.0004149 -1.92842e-07
5.59689e-08 -1.92842e-07 0.000404279

0.000424177 3.56928e-05 -8.38681e-08
3.56928e-05 0.000348922 -1.31126e-07
-8.38681e-08 -1.31126e-07 0.00038992

0.000549268 2.79875e-05 1.77182e-07
2.79875e-05 0.000538313 9.11941e-08
1.77182e-07 9.11941e-08 0.000439836

0.000446268 2.5352e-05 1.02446e-07
2.5352e-05 0.000464797 -3.64661e-07
1.02446e-07 -3.64661e-07 0.000444031

0.000383463 -3.64499e-05 -9.8369e-09
-3.64499e-05 0.000330575 6.56533e-08
-9.8369e-09 6.56533e-08 0.000371148

0.000458899 2.51025e-06 -1.41585e-07
2.51025e-06 0.000359151 -1.21708e-08
-1.41585e-07 -1.21708e-08 0.000418323

0.000213248 -3.07443e-05 -1.40515e-07
-3.07443e-05 0.000237516 -2.91815e-08
-1.40515e-07 -2.91815e-08 0.000211449

0.000237264 -2.54138e-05 8.88378e-08
-2.54138e-05 0.000212129 2.62962e-07
8.88378e-08 2.62962e-07 0.000211981

0.000448322 2.61546e-06 1.30268e-07
2.61546e-06 0.000348792 -9.36525e-08
1.30268e-07 -9.36525e-08 0.000410868

0.000464576 -3.75376e-06 -4.05532e-08
-3.75376e-06 0.00033973 7.81848e-08
-4.05532e-08 7.81848e-08 0.000410457

0.000456052 6.99828e-06 -3.29246e-08
6.99828e-06 0.000393071 3.99156e-08
-3.29246e-08 3.99156e-08 0.000416312

0.000297069 -2.23012e-05 -4.1909e-08
-2.23012e-05 0.000399505 9.74761e-08
-4.1909e-08 9.74761e-08 0.000351099

0.000361928 2.90539e-05 -2.37148e-08
2.90539e-05 0.000298806 1.25455e-07
-2.37148e-08 1.25455e-07 0.000308856

0.000379631 -4.55534e-05 7.65185e-08
-4.55534e-05 0.000383134 3.42311e-07
7.65185e-08 3.42311e-07 0.000396423

0.000380167 3.78147e-05 -1.37847e-07
3.78147e-05 0.000408354 -1.40408e-07
-1.37847e-07 -1.40408e-07 0.000393955

0.00051983 3.67481e-06 4.85626e-08
3.67481e-06 0.000564429 -4.18818e-07
4.85626e-08 -4.18818e-07 0.000440145

0.000517043 4.3686e-05 1.43859e-07
4.3686e-05 0.000419185 3.95152e-07
1.43859e-07 3.95152e-07 0.000444718

0.000379241 -2.87282e-05 -4.36143e-09
-2.87282e-05 0.000321128 6.14002e-08
-4.36143e-09 6.14002e-08 0.000349812

0.000436839 -1.56308e-06 2.77937e-08
-1.56308e-06 0.000377903 -3.29164e-07
2.77937e-08 -3.29164e-07 0.000407519

0.000425692 -1.0206e-05 -1.09484e-07
-1.0206e-05 0.000387787 7.44421e-09
-1.09484e-07 7.44421e-09 0.000408286

0.000355275 -5.18448e-05 -7.59064e-08
-5.18448e-05 0.000405976 6.1917e-08
-7.59064e-08 6.1917e-08 0.000383068

0.000330585 2.71577e-05 -1.3844e-07
2.71577e-05 0.000410787 -7.81186e-08
-1.3844e-07 -7.81186e-08 0.000385655

0.000328706 4.96888e-05 5.34837e-08
4.96888e-05 0.000386599 6.94694e-08
5.34837e-08 6.94694e-08 0.000392766

0.000342367 -7.03494e-05 6.42236e-08
-7.03494e-05 0.000415058 -5.1245e-08
6.42236e-08 -5.1245e-08 0.000388569

0.00018907 8.98878e-05 6.84519e-09
8.98878e-05 0.000180437 -7.78917e-08
6.84519e-09 -7.78917e-08 0.000184602

0.00038002 5.20009e-05 -1.97764e-08
5.20009e-05 0.00042739 2.0974e-08
-1.97764e-08 2.0974e-08 0.000412814

0.000381058 -3.96848e-05 1.20559e-07
-3.96848e-05 0.000430593 -5.84401e-08
1.20559e-07 -5.84401e-08 0.000412562

0.000316886 4.73945e-05 -7.98929e-08
4.73945e-05 0.000399253 -9.68267e-08
-7.98929e-08 -9.68267e-08 0.000382447

0.000331816 -5.92397e-05 -3.81151e-08
-5.92397e-05 0.000403648 7.3401e-08
-3.81151e-08 7.3401e-08 0.000378788

0.000365427 -2.81523e-05 -7.45047e-09
-2.81523e-05 0.000292474 -9.38639e-08
-7.45047e-09 -9.38639e-08 0.00031352

0.0003957 5.1007e-05 -1.02923e-07
5.1007e-05 0.000364491 -1.51569e-08
-1.02923e-07 -1.51569e-08 0.000383706

0.000419805 5.43592e-05 -2.88011e-08
5.43592e-05 0.000379783 1.05523e-08
-2.88011e-08 1.05523e-08 0.000404506

0.000397296 -3.5689e-05 4.49103e-08
-3.5689e-05 0.000396132 3.47101e-08
4.49103e-08 3.47101e-08 0.000403382

0.000424162 3.48486e-05 -7.83887e-08
3.48486e-05 0.000303061 1.42217e-07
-7.83887e-08 1.42217e-07 0.000382382

0.0004445 6.4343e-06 6.60955e-08
6.4343e-06 0.000405255 2.25313e-07
6.60955e-08 2.25313e-07 0.000422908

0.000460506 -9.24454e-06 -6.16838e-08
-9.24454e-06 0.000385689 -2.68388e-08
-6.16838e-08 -2.68388e-08 0.000422407

0.000433409 1.16827e-05 -1.93448e-07
1.16827e-05 0.000505833 -6.41158e-08
-1.93448e-07 -6.41158e-08 0.000440674

0.000437707 -1.86071e-05 -2.86679e-08
-1.86071e-05 0.000558755 -1.17891e-07
-2.86679e-08 -1.17891e-07 0.00043704

0.000193088 -8.46725e-06 -1.23582e-08
-8.46725e-06 0.000140567 1.12722e-07
-1.23582e-08 1.12722e-07 0.000196532

0.000124502 -2.0512e-06 2.58637e-07
-2.0512e-06 0.000195284 -1.74688e-08
2.58637e-07 -1.74688e-08 0.000197446

0.000354551 5.86619e-05 5.83523e-09
5.86619e-05 0.000423541 3.65567e-08
5.83523e-09 3.65567e-08 0.000390088

0.000352872 -5.06113e-05 -1.88777e-07
-5.06113e-05 0.000384066 -1.7889e-07
-1.88777e-07 -1.7889e-07 0.000394025

0.000175964 3.16139e-05 1.9208e-09
3.16139e-05 0.000172427 -1.21343e-07
1.9208e-09 -1.21343e-07 0.000194359

0.000181616 4.06347e-05 2.45438e-07
4.06347e-05 0.000165408 -4.10589e-08
2.45438e-07 -4.10589e-08 0.000194201

0.000367353 -6.65787e-05 -1.52722e-07
-6.65787e-05 0.000567397 -7.2374e-07
-1.52722e-07 -7.2374e-07 0.000447069

0.000432521 4.92024e-05 3.12118e-07
4.92024e-05 0.000530263 -4.12026e-07
3.12118e-07 -4.12026e-07 0.000446971

0.00038272 6.21235e-05 -8.34032e-08
6.21235e-05 0.000354972 -3.20831e-08
-8.34032e-08 -3.20831e-08 0.000378287

0.000354499 5.63391e-05 -3.06652e-08
5.63391e-05 0.00039603 -1.96138e-07
-3.06652e-08 -1.96138e-07 0.000383549

0.000354909 -5.66524e-05 -2.44329e-07
-5.66524e-05 0.000378277 1.75377e-07
-2.44329e-07 1.75377e-07 0.000386801

0.000330426 5.69759e-05 -1.07814e-07
5.69759e-05 0.000359338 5.5625e-08
-1.07814e-07 5.5625e-08 0.000337425

0.000325029 -4.5228e-05 1.64295e-07
-4.5228e-05 0.000351692 7.32551e-08
1.64295e-07 7.32551e-08 0.000340535

0.000213565 -7.20803e-06 4.00391e-08
-7.20803e-06 0.000284478 1.46476e-08
4.00391e-08 1.46476e-08 0.00023517

0.000223214 -1.46169e-05 9.70103e-09
-1.46169e-05 0.000285126 2.89477e-08
9.70103e-09 2.89477e-08 0.00023423

0.000285454 -6.03842e-06 -2.95109e-07
-6.03842e-06 0.000218359 -2.42612e-08
-2.95109e-07 -2.42612e-08 0.000232405

0.000331621 6.57777e-05 -1.12587e-07
6.57777e-05 0.000382557 4.86375e-08
-1.12587e-07 4.86375e-08 0.000356998

0.000325438 -5.08734e-05 1.57015e-07
-5.08734e-05 0.000367162 8.37876e-08
1.57015e-07 8.37876e-08 0.000360632

0.000195738 1.03437e-05 -2.0632e-08
1.03437e-05 0.000266446 6.80696e-08
-2.0632e-08 6.80696e-08 0.000217316

0.000264091 1.56934e-05 -1.96707e-07
1.56934e-05 0.000196786 -1.08801e-07
-1.96707e-07 -1.08801e-07 0.000217318

0.000373716 -6.41099e-05 9.47275e-09
-6.41099e-05 0.000388505 -2.17198e-07
9.47275e-09 -2.17198e-07 0.000407168

0.000371176 5.30357e-05 2.04209e-07
5.30357e-05 0.000420745 7.49053e-08
2.04209e-07 7.49053e-08 0.000403958

0.000376058 -5.64079e-05 1.46872e-07
-5.64079e-05 0.000413763 2.59211e-07
1.46872e-07 2.59211e-07 0.000409334

0.000377096 4.23868e-05 1.63598e-07
4.23868e-05 0.000423443 2.15686e-07
1.63598e-07 2.15686e-07 0.00040707

0.000165408 -2.64204e-05 2.23675e-07
-2.64204e-05 0.000170918 -2.49173e-08
2.23675e-07 -2.49173e-08 0.000189612

0.000164826 -2.72881e-05 9.03157e-08
-2.72881e-05 0.000171735 2.54135e-07
9.03157e-08 2.54135e-07 0.000190695

0.000353666 5.18473e-05 1.62818e-07
5.18473e-05 0.000390011 -5.72825e-08
1.62818e-07 -5.72825e-08 0.000368255

0.000353685 -4.73991e-05 -2.0875e-08
-4.73991e-05 0.000365629 1.50544e-08
-2.0875e-08 1.50544e-08 0.000371472

0.000429464 1.25952e-05 -1.94675e-08
1.25952e-05 0.000489327 -1.75081e-07
-1.94675e-08 -1.75081e-07 0.000429922

0.000428854 -7.72302e-06 -1.83574e-07
-7.72302e-06 0.00044056 -2.7427e-09
-1.83574e-07 -2.7427e-09 0.000432578

0.00035066 -5.95714e-05 -4.71147e-08
-5.95714e-05 0.000432074 -1.27478e-07
-4.71147e-08 -1.27478e-07 0.000414596

0.000364342 5.61119e-05 1.85661e-08
5.61119e-05 0.000447692 -2.19516e-07
1.85661e-08 -2.19516e-07 0.000411416

0.000425492 -1.22515e-05 -2.12327e-07
-1.22515e-05 0.000390419 7.16468e-08
-2.12327e-07 7.16468e-08 0.000422221

0.000444647 1.48858e-06 2.42997e-07
1.48858e-06 0.000378673 -1.94997e-07
2.42997e-07 -1.94997e-07 0.000421653

0.000369918 5.53523e-05 -6.20357e-08
5.53523e-05 0.000379765 1.10316e-08
-6.20357e-08 1.10316e-08 0.000391941

0.000365736 -5.41513e-05 -1.42745e-07
-5.41513e-05 0.000397498 4.14454e-08
-1.42745e-07 4.14454e-08 0.000387868

0.000475712 1.68524e-05 3.58162e-09
1.68524e-05 0.000416129 2.17722e-08
3.58162e-09 2.17722e-08 0.000434368

0.000471559 5.84291e-06 2.40413e-07
5.84291e-06 0.000440061 -1.97391e-07
2.40413e-07 -1.97391e-07 0.000442218

0.000449429 -1.55189e-05 2.21745e-07
-1.55189e-05 0.000435222 1.09386e-07
2.21745e-07 1.09386e-07 0.000434796

0.000419059 -3.07884e-06 8.25796e-08
-3.07884e-06 0.000484254 -1.93989e-08
8.25796e-08 -1.93989e-08 0.000442439

0.000409 1.06799e-05 -1.1171e-08
1.06799e-05 0.00053878 4.22978e-08
-1.1171e-08 4.22978e-08 0.000432385

0.000496444 5.46628e-05 -9.22028e-08
5.46628e-05 0.000456686 -5.80398e-08
-9.22028e-08 -5.80398e-08 0.000432058

0.000462724 -2.10199e-05 -4.01773e-08
-2.10199e-05 0.000433798 -6.31834e-08
-4.01773e-08 -6.31834e-08 0.000435395

0.000411177 -1.29261e-05 1.36631e-07
-1.29261e-05 0.000487036 -3.73532e-07
1.36631e-07 -3.73532e-07 0.000434868

0.000432358 3.03834e-05 4.20433e-07
3.03834e-05 0.000464771 6.56988e-07
4.20433e-07 6.56988e-07 0.00043917

0.000644514 2.80966e-05 5.74505e-06
2.80966e-05 0.000385891 -3.066e-06
5.74505e-06 -3.066e-06 0.000448078

0.000578409 -2.05597e-05 -2.09228e-06
-2.05597e-05 0.000562441 -1.59022e-06
-2.09228e-06 -1.59022e-06 0.000447133

0.000451946 -7.87618e-05 -3.86226e-07
-7.87618e-05 0.000531407 6.29556e-07
-3.86226e-07 6.29556e-07 0.000439269

0.000453319 4.163e-05 -4.41183e-08
4.163e-05 0.000450707 -4.71727e-08
-4.41183e-08 -4.71727e-08 0.000435371

0.000408282 3.05324e-05 -2.32963e-07
3.05324e-05 0.000455758 -1.72225e-07
-2.32963e-07 -1.72225e-07 0.000424777

0.000467276 8.77922e-06 -5.3098e-08
8.77922e-06 0.000455662 -5.59197e-09
-5.3098e-08 -5.59197e-09 0.000444612

0.000473649 -6.85726e-05 1.26463e-07
-6.85726e-05 0.000450652 -1.47574e-07
1.26463e-07 -1.47574e-07 0.000436013

0.000465327 -7.9034e-05 6.02837e-08
-7.9034e-05 0.000532217 -4.54043e-07
6.02837e-08 -4.54043e-07 0.000444101

0.00041354 -3.88483e-05 6.44426e-08
-3.88483e-05 0.000437643 -1.06503e-07
6.44426e-08 -1.06503e-07 0.000426486

0.000417624 -6.45552e-05 6.38599e-08
-6.45552e-05 0.00045445 -9.93606e-08
6.38599e-08 -9.93606e-08 0.000429535

0.000427417 -4.25875e-05 -3.17756e-08
-4.25875e-05 0.000467183 -1.29145e-07
-3.17756e-08 -1.29145e-07 0.000437382

0.000407818 2.73025e-05 -2.28462e-07
2.73025e-05 0.000446253 -1.17063e-07
-2.28462e-07 -1.17063e-07 0.00042864

0.00045201 1.5949e-05 -4.34094e-08
1.5949e-05 0.000449039 -1.74696e-07
-4.34094e-08 -1.74696e-07 0.000437122

0.00030817 4.61106e-05 1.1629e-07
4.61106e-05 0.000350718 -7.87372e-08
1.1629e-07 -7.87372e-08 0.000322054

0.000352449 2.32787e-05 1.2673e-07
2.32787e-05 0.000412348 -1.14434e-07
1.2673e-07 -1.14434e-07 0.000382068

0.000340338 2.01393e-05 8.41334e-08
2.01393e-05 0.000408538 -1.9763e-08
8.41334e-08 -1.9763e-08 0.000383852

0.000393707 2.64214e-05 1.71334e-07
2.64214e-05 0.000282739 1.20879e-07
1.71334e-07 1.20879e-07 0.000345179

0.00037708 8.94394e-06 -3.31196e-08
8.94394e-06 0.000268537 8.3531e-09
-3.31196e-08 8.3531e-09 0.000320386

0.000353932 1.40499e-05 1.08012e-07
1.40499e-05 0.000426429 1.03311e-07
1.08012e-07 1.03311e-07 0.000405519

0.000338021 3.24016e-05 7.47886e-08
3.24016e-05 0.00043672 8.89523e-08
7.47886e-08 8.89523e-08 0.000407311

0.000382398 -1.05577e-05 -3.05043e-08
-1.05577e-05 0.000274675 -1.04078e-08
-3.05043e-08 -1.04078e-08 0.000322792

0.000417741 -2.12472e-05 -9.48201e-09
-2.12472e-05 0.000321704 3.92512e-08
-9.48201e-09 3.92512e-08 0.000391387

0.000247313 4.17231e-05 9.1675e-08
4.17231e-05 0.000290947 -1.95005e-08
9.1675e-08 -1.95005e-08 0.000256998

0.000244253 -4.1567e-05 -7.73082e-08
-4.1567e-05 0.000285564 9.61218e-08
-7.73082e-08 9.61218e-08 0.000252435

0.000302394 -3.84565e-05 1.40033e-08
-3.84565e-05 0.000232417 2.99513e-08
1.40033e-08 2.99513e-08 0.000251287

0.000382105 -3.94429e-05 -1.02174e-07
-3.94429e-05 0.000431474 1.66807e-08
-1.02174e-07 1.66807e-08 0.000414826

0.000399826 -2.73779e-05 -1.12396e-07
-2.73779e-05 0.00042966 4.21896e-08
-1.12396e-07 4.21896e-08 0.00041271

0.000308082 3.9177e-05 1.16872e-07
3.9177e-05 0.0003659 1.35393e-08
1.16872e-07 1.35393e-08 0.000347357

0.000320814 4.70333e-05 -7.07736e-08
4.70333e-05 0.000396395 3.60968e-08
-7.07736e-08 3.60968e-08 0.000382758

0.00033889 -3.03972e-05 -1.00088e-07
-3.03972e-05 0.000436446 1.54133e-08
-1.00088e-07 1.54133e-08 0.000405464

0.000348343 -9.12784e-06 1.59882e-08
-9.12784e-06 0.000426582 -3.62717e-08
1.59882e-08 -3.62717e-08 0.000404697

0.000409773 1.18031e-05 2.74172e-08
1.18031e-05 0.000283817 -9.77446e-08
2.74172e-08 -9.77446e-08 0.000348236

0.000263666 1.4995e-05 6.15892e-08
1.4995e-05 0.000333093 3.89057e-08
6.15892e-08 3.89057e-08 0.000277246

0.00026264 -1.22244e-05 -8.00581e-08
-1.22244e-05 0.000330454 9.08479e-08
-8.00581e-08 9.08479e-08 0.000276488

0.000343929 -1.06421e-05 -6.99671e-08
-1.06421e-05 0.000251016 -2.41434e-08
-6.99671e-08 -2.41434e-08 0.000270315

0.000313572 5.27636e-05 3.1621e-08
5.27636e-05 0.000329412 1.48457e-08
3.1621e-08 1.48457e-08 0.00032014

0.000358701 -3.53115e-05 -3.26879e-08
-3.53115e-05 0.000257486 -1.13682e-08
-3.26879e-08 -1.13682e-08 0.000301066

0.000354604 5.59424e-05 3.78974e-08
5.59424e-05 0.000329632 1.51741e-08
3.78974e-08 1.51741e-08 0.000343056

0.000302479 4.47073e-05 5.97295e-08
4.47073e-05 0.000362349 -9.91028e-09
5.97295e-08 -9.91028e-09 0.000321757

0.000395859 -2.24005e-05 9.66246e-08
-2.24005e-05 0.000281983 -6.11304e-08
9.66246e-08 -6.11304e-08 0.000349513

0.000240387 2.96706e-05 3.89559e-08
2.96706e-05 0.000270058 -1.17173e-07
3.89559e-08 -1.17173e-07 0.000228899

0.000422562 2.75632e-05 -1.82545e-07
2.75632e-05 0.000308222 -1.19238e-08
-1.82545e-07 -1.19238e-08 0.000382379

0.000277323 -2.56098e-05 2.25451e-07
-2.56098e-05 0.000225912 -9.02129e-08
2.25451e-07 -9.02129e-08 0.000225773

0.00039957 -9.74266e-06 6.39901e-08
-9.74266e-06 0.00043803 1.20424e-07
6.39901e-08 1.20424e-07 0.000415471

0.000398243 1.7004e-05 1.59938e-07
1.7004e-05 0.000439591 5.58553e-08
1.59938e-07 5.58553e-08 0.000415748

0.000539578 -5.28863e-05 -6.32418e-08
-5.28863e-05 0.000448213 7.32212e-08
-6.32418e-08 7.32212e-08 0.000435484

0.000539887 5.43001e-05 -1.29158e-07
5.43001e-05 0.000447064 -5.71854e-09
-1.29158e-07 -5.71854e-09 0.000435682

0.000336527 -1.4306e-05 -1.57631e-08
-1.4306e-05 0.000241539 -2.0255e-08
-1.57631e-08 -2.0255e-08 0.000270017

0.000351024 6.12674e-05 1.1163e-08
6.12674e-05 0.000347241 -1.64542e-08
1.1163e-08 -1.64542e-08 0.00036278

0.000455292 -3.20653e-05 7.31621e-08
-3.20653e-05 0.000394841 -1.56324e-07
7.31621e-08 -1.56324e-07 0.000414375

0.000452138 3.1764e-05 1.17863e-08
3.1764e-05 0.000392144 -5.25949e-08
1.17863e-08 -5.25949e-08 0.000412076

0.000417907 1.11499e-05 -3.4388e-08
1.11499e-05 0.000309681 -1.84662e-08
-3.4388e-08 -1.84662e-08 0.000392907

0.000295643 5.02787e-05 -5.04849e-09
5.02787e-05 0.000359643 7.64441e-08
-5.04849e-09 7.64441e-08 0.000317877

0.000355802 -4.30343e-05 -2.35234e-08
-4.30343e-05 0.000282966 4.95681e-08
-2.35234e-08 4.95681e-08 0.00030929

0.000415623 -2.23992e-06 -4.28498e-09
-2.23992e-06 0.000293141 -4.99652e-08
-4.28498e-09 -4.99652e-08 0.000385251

0.000308734 -5.32462e-05 -2.29585e-08
-5.32462e-05 0.000328876 -5.20428e-08
-2.29585e-08 -5.20428e-08 0.000318063

0.000307524 -4.35774e-05 -9.26121e-08
-4.35774e-05 0.000351035 -1.26834e-07
-9.26121e-08 -1.26834e-07 0.000322211

0.000329317 4.97127e-05 -7.69024e-08
4.97127e-05 0.000410366 3.70305e-08
-7.69024e-08 3.70305e-08 0.000378742

0.000324031 -6.01077e-05 -1.239e-07
-6.01077e-05 0.000280257 4.09103e-08
-1.239e-07 4.09103e-08 0.00029067

0.000199334 -4.64472e-05 -9.30278e-08
-4.64472e-05 0.00017331 6.32374e-08
-9.30278e-08 6.32374e-08 0.000187686

0.000194014 6.45106e-05 -1.55711e-08
6.45106e-05 0.000185287 1.51352e-07
-1.55711e-08 1.51352e-07 0.000187615

0.000328527 -5.9546e-05 9.75511e-08
-5.9546e-05 0.000423931 9.22916e-08
9.75511e-08 9.22916e-08 0.000405595

0.000200638 8.11528e-06 -3.68746e-09
8.11528e-06 0.000172279 -5.23602e-08
-3.68746e-09 -5.23602e-08 0.000197405

0.000184219 -1.57422e-05 1.39615e-07
-1.57422e-05 0.000176309 7.44651e-08
1.39615e-07 7.44651e-08 0.00019856

0.000408693 -1.36942e-05 7.74789e-08
-1.36942e-05 0.000424673 -2.68516e-07
7.74789e-08 -2.68516e-07 0.000418169

0.000408693 1.40306e-05 1.18439e-07
1.40306e-05 0.000424206 -5.09911e-08
1.18439e-07 -5.09911e-08 0.000418309

0.000441245 -1.20562e-06 -9.96829e-08
-1.20562e-06 0.000289105 -5.19509e-08
-9.96829e-08 -5.19509e-08 0.000365315

0.00041077 -7.80909e-06 1.11353e-07
-7.80909e-06 0.000404625 -3.01261e-08
1.11353e-07 -3.01261e-08 0.000417883

0.000410641 8.58192e-06 1.17992e-07
8.58192e-06 0.000404401 -4.78438e-08
1.17992e-07 -4.78438e-08 0.000418059

0.000302629 4.65796e-05 6.11875e-08
4.65796e-05 0.000385717 8.33885e-09
6.11875e-08 8.33885e-09 0.000345587

0.000496708 -4.90366e-05 -1.70828e-07
-4.90366e-05 0.000439363 4.2379e-08
-1.70828e-07 4.2379e-08 0.000430499

0.000494188 4.95882e-05 -7.91399e-08
4.95882e-05 0.000438726 -8.01744e-08
-7.91399e-08 -8.01744e-08 0.000430857

0.000383737 -2.45023e-05 1.76342e-08
-2.45023e-05 0.000378902 1.31945e-07
1.76342e-08 1.31945e-07 0.000391876

0.000384872 2.49559e-05 5.37914e-08
2.49559e-05 0.000378666 1.02269e-07
5.37914e-08 1.02269e-07 0.000392104

0.000299597 -4.18871e-05 -8.52697e-08
-4.18871e-05 0.00022366 -5.3304e-08
-8.52697e-08 -5.3304e-08 0.000248614

0.000390565 2.45665e-05 -1.04023e-08
2.45665e-05 0.000507308 -5.6667e-08
-1.04023e-08 -5.6667e-08 0.000433565

0.000422996 -4.47061e-06 2.66891e-08
-4.47061e-06 0.000465903 -2.24124e-08
2.66891e-08 -2.24124e-08 0.000431814

0.000297058 -5.11114e-05 8.37034e-08
-5.11114e-05 0.00036049 6.90684e-08
8.37034e-08 6.90684e-08 0.000318961

0.000217974 -1.31646e-05 7.10292e-08
-1.31646e-05 0.000257639 -1.12388e-07
7.10292e-08 -1.12388e-07 0.00022411

0.000270076 -1.3531e-05 -5.97357e-10
-1.3531e-05 0.000199045 -1.09396e-07
-5.97357e-10 -1.09396e-07 0.000223074

0.000317734 3.97002e-05 -8.29542e-08
3.97002e-05 0.000406633 3.57438e-08
-8.29542e-08 3.57438e-08 0.00037095

0.000315746 3.96439e-05 -1.2805e-08
3.96439e-05 0.000393214 4.96645e-08
-1.2805e-08 4.96645e-08 0.000373767

0.000516501 -3.9311e-05 -4.19522e-07
-3.9311e-05 0.000422888 9.82866e-07
-4.19522e-07 9.82866e-07 0.000446502

0.000515529 3.70474e-05 -7.47218e-07
3.70474e-05 0.000430702 7.81522e-09
-7.47218e-07 7.81522e-09 0.000446966

0.000329113 5.17423e-05 -2.43148e-08
5.17423e-05 0.000385387 1.22109e-07
-2.43148e-08 1.22109e-07 0.000394965

0.000399207 1.59291e-05 -1.8433e-08
1.59291e-05 0.000321629 -1.5755e-08
-1.8433e-08 -1.5755e-08 0.000372089

0.000399143 -1.65855e-05 -6.20228e-08
-1.65855e-05 0.000319982 -1.28126e-07
-6.20228e-08 -1.28126e-07 0.000370963

0.000357345 6.99783e-05 4.5494e-08
6.99783e-05 0.000371205 -1.36497e-07
4.5494e-08 -1.36497e-07 0.000389295

0.000351169 -4.68307e-05 -1.85202e-07
-4.68307e-05 0.000421887 1.37618e-08
-1.85202e-07 1.37618e-08 0.000401566

0.000333031 -1.20302e-06 -1.32817e-08
-1.20302e-06 0.000227841 -3.74547e-08
-1.32817e-08 -3.74547e-08 0.000267057

0.000397959 1.15107e-06 1.21746e-08
1.15107e-06 0.000275789 -1.05917e-07
1.21746e-08 -1.05917e-07 0.000322524

0.000359957 3.1235e-05 3.22981e-08
3.1235e-05 0.000258189 -8.49935e-09
3.22981e-08 -8.49935e-09 0.0002957

0.00044504 5.18007e-05 -3.04798e-08
5.18007e-05 0.000353466 1.338e-07
-3.04798e-08 1.338e-07 0.000405536

0.000543299 -7.19134e-06 -1.72245e-07
-7.19134e-06 0.000503385 1.42707e-08
-1.72245e-07 1.42707e-08 0.000438844

0.000542182 7.00159e-06 -2.10137e-07
7.00159e-06 0.000507394 -1.56175e-10
-2.10137e-07 -1.56175e-10 0.000438574

0.000296004 4.5323e-05 6.07453e-08
4.5323e-05 0.000290215 -1.73588e-08
6.07453e-08 -1.73588e-08 0.000270455

0.000358815 -5.76911e-05 1.27522e-07
-5.76911e-05 0.000308891 -9.90467e-08
1.27522e-07 -9.90467e-08 0.000337023

0.000407728 -1.45346e-05 -3.52487e-08
-1.45346e-05 0.000311112 -1.49683e-07
-3.52487e-08 -1.49683e-07 0.000351028

0.000421024 5.6297e-05 3.29709e-07
5.6297e-05 0.000520943 2.60648e-08
3.29709e-07 2.60648e-08 0.00043898

0.00043965 -1.4879e-05 -1.15422e-07
-1.4879e-05 0.000459854 -5.69811e-08
-1.15422e-07 -5.69811e-08 0.000438178

0.000448608 -5.0717e-05 1.03231e-07
-5.0717e-05 0.000361999 -2.14567e-08
1.03231e-07 -2.14567e-08 0.000408765

0.000340817 -1.46736e-05 -1.01071e-07
-1.46736e-05 0.000411061 -1.42463e-09
-1.01071e-07 -1.42463e-09 0.00038264

0.000347439 -1.55595e-05 1.91731e-08
-1.55595e-05 0.000413566 5.57306e-09
1.91731e-08 5.57306e-09 0.00038172

0.000446288 -3.96289e-06 1.41765e-08
-3.96289e-06 0.000293336 7.81078e-09
1.41765e-08 7.81078e-09 0.000380871

0.000449068 3.89564e-06 1.5474e-08
3.89564e-06 0.000292428 2.04929e-08
1.5474e-08 2.04929e-08 0.000382023

0.000306167 3.91395e-05 -7.00748e-08
3.91395e-05 0.000281619 -9.04111e-08
-7.00748e-08 -9.04111e-08 0.000265863

0.000441814 -3.61902e-06 -5.29327e-08
-3.61902e-06 0.000332082 -7.67789e-08
-5.29327e-08 -7.67789e-08 0.00039986

0.00044131 2.63365e-06 1.20703e-07
2.63365e-06 0.000332905 8.59441e-08
1.20703e-07 8.59441e-08 0.000400098

0.000409201 1.42877e-05 1.8193e-08
1.42877e-05 0.000310607 1.71612e-08
1.8193e-08 1.71612e-08 0.000351516

0.000303777 -4.51279e-05 -5.84606e-08
-4.51279e-05 0.000364759 -1.1398e-07
-5.84606e-08 -1.1398e-07 0.000323231

0.000446076 -1.62494e-06 -1.06996e-08
-1.62494e-06 0.000323238 -1.20984e-07
-1.06996e-08 -1.20984e-07 0.000384268

0.00044876 1.94706e-06 2.25133e-08
1.94706e-06 0.000323081 -1.81227e-08
2.25133e-08 -1.81227e-08 0.000385518

0.000401321 -3.49244e-05 5.21788e-08
-3.49244e-05 0.000310645 3.63711e-08
5.21788e-08 3.63711e-08 0.000359074

0.000340673 6.41267e-05 8.2376e-08
6.41267e-05 0.000406635 -4.10058e-08
8.2376e-08 -4.10058e-08 0.000385186

0.000345289 4.89567e-05 -1.22478e-07
4.89567e-05 0.000297374 1.05396e-08
-1.22478e-07 1.05396e-08 0.000309259

0.000345538 5.18102e-05 8.69548e-08
5.18102e-05 0.00037668 -2.93696e-09
8.69548e-08 -2.93696e-09 0.000396114

0.000342234 6.35891e-05 -1.06235e-07
6.35891e-05 0.000416802 -1.82342e-08
-1.06235e-07 -1.82342e-08 0.00038986

0.000366367 -2.47691e-05 -1.34768e-07
-2.47691e-05 0.000259288 5.86232e-09
-1.34768e-07 5.86232e-09 0.000300466

0.000402666 -5.676e-05 -1.41768e-07
-5.676e-05 0.000332293 1.27461e-08
-1.41768e-07 1.27461e-08 0.000376781

0.000395907 3.44767e-05 3.42922e-08
3.44767e-05 0.000309647 -2.32161e-07
3.42922e-08 -2.32161e-07 0.000352476

0.000314037 5.67386e-05 2.86241e-08
5.67386e-05 0.000295972 -4.68669e-08
2.86241e-08 -4.68669e-08 0.000297396

0.000354399 5.81847e-05 2.92833e-08
5.81847e-05 0.00030626 1.3012e-07
2.92833e-08 1.3012e-07 0.000334338

0.000304976 5.64967e-06 7.59907e-08
5.64967e-06 0.00040299 -2.39532e-08
7.59907e-08 -2.39532e-08 0.000369312

0.000307076 2.18358e-06 1.21536e-07
2.18358e-06 0.000402653 -1.17105e-07
1.21536e-07 -1.17105e-07 0.000369197

0.000306421 4.1338e-05 -7.29002e-08
4.1338e-05 0.000236538 -1.59801e-07
-7.29002e-08 -1.59801e-07 0.000255274

0.000358294 -7.00089e-05 3.97485e-08
-7.00089e-05 0.000371503 -6.23617e-08
3.97485e-08 -6.23617e-08 0.000390373

0.000299382 -5.57998e-05 9.73797e-08
-5.57998e-05 0.000327153 -1.72308e-08
9.73797e-08 -1.72308e-08 0.000296367

0.000297452 5.59092e-05 -1.03419e-08
5.59092e-05 0.000328612 3.25423e-08
-1.03419e-08 3.25423e-08 0.000295688

0.000395252 -4.16052e-05 -1.30586e-08
-4.16052e-05 0.000310544 -1.06748e-07
-1.30586e-08 -1.06748e-07 0.000355356

0.000451415 -2.83142e-05 -6.24143e-09
-2.83142e-05 0.000303055 3.6066e-08
-6.24143e-09 3.6066e-08 0.000406593

0.000446601 2.7869e-05 8.46508e-08
2.7869e-05 0.000307032 1.29115e-07
8.46508e-08 1.29115e-07 0.000405042

0.000274921 3.0788e-05 -9.17656e-09
3.0788e-05 0.000343699 -1.32084e-07
-9.17656e-09 -1.32084e-07 0.000305109

0.00035749 -5.86153e-05 1.33045e-07
-5.86153e-05 0.000329437 -7.31093e-08
1.33045e-07 -7.31093e-08 0.000342541

0.000229881 -2.37672e-06 6.07804e-10
-2.37672e-06 0.000325379 1.91273e-08
6.07804e-10 1.91273e-08 0.000265276

0.000229032 1.00811e-06 1.79961e-07
1.00811e-06 0.000325601 1.52479e-08
1.79961e-07 1.52479e-08 0.000264995

0.000338491 2.92232e-06 -8.31671e-08
2.92232e-06 0.000217979 1.3854e-08
-8.31671e-08 1.3854e-08 0.000259909

0.00030184 -4.05046e-05 6.3488e-10
-4.05046e-05 0.000283429 1.18004e-07
6.3488e-10 1.18004e-07 0.000264274

0.000321579 4.92358e-05 -3.20598e-08
4.92358e-05 0.000286957 -5.45711e-08
-3.20598e-08 -5.45711e-08 0.000294921

0.000469219 -0.000101327 7.38218e-08
-0.000101327 0.000511708 -1.16993e-07
7.38218e-08 -1.16993e-07 0.000444395

0.000491428 4.43347e-05 -3.90088e-07
4.43347e-05 0.000521449 2.54322e-07
-3.90088e-07 2.54322e-07 0.000445039

0.000368553 2.27374e-05 -4.57559e-08
2.27374e-05 0.000260747 -7.29687e-08
-4.57559e-08 -7.29687e-08 0.000302588

0.000323225 6.18477e-05 -4.26641e-08
6.18477e-05 0.000396915 -7.65898e-08
-4.26641e-08 -7.65898e-08 0.000362598

0.000440965 1.1537e-06 -1.08605e-07
1.1537e-06 0.0002887 9.75449e-08
-1.08605e-07 9.75449e-08 0.000364311

0.000274716 -2.9744e-05 2.6614e-08
-2.9744e-05 0.000345764 -1.61509e-07
2.6614e-08 -1.61509e-07 0.000306225

0.000311331 6.13483e-05 3.59479e-08
6.13483e-05 0.000427325 -8.54965e-09
3.59479e-08 -8.54965e-09 0.000407254

0.000353109 5.00259e-05 -1.26886e-07
5.00259e-05 0.000424491 2.65381e-08
-1.26886e-07 2.65381e-08 0.000402643

0.000341054 -6.37331e-05 -8.08439e-08
-6.37331e-05 0.00040612 1.14272e-07
-8.08439e-08 1.14272e-07 0.000385401

0.000339696 6.45488e-05 1.16235e-07
6.45488e-05 0.00042226 8.0563e-08
1.16235e-07 8.0563e-08 0.000391305

0.00032197 4.85189e-05 -2.51212e-08
4.85189e-05 0.000370705 -1.28319e-07
-2.51212e-08 -1.28319e-07 0.000367157

0.00047042 6.20627e-07 1.13653e-07
6.20627e-07 0.000286666 -1.64887e-08
1.13653e-07 -1.64887e-08 0.000389207

0.000323442 -4.88954e-05 -1.8e-08
-4.88954e-05 0.000284248 1.31508e-07
-1.8e-08 1.31508e-07 0.000292549

0.000345562 -5.18823e-05 -8.54306e-09
-5.18823e-05 0.00037717 8.23155e-08
-8.54306e-09 8.23155e-08 0.000396735

0.000321747 -4.18813e-05 7.16643e-09
-4.18813e-05 0.000325493 -1.34662e-07
7.16643e-09 -1.34662e-07 0.000305599

0.000285072 -4.01802e-05 -7.21706e-09
-4.01802e-05 0.00028557 1.00716e-07
-7.21706e-09 1.00716e-07 0.000264299

0.000350435 -6.02429e-05 1.69735e-08
-6.02429e-05 0.000349591 9.81137e-08
1.69735e-08 9.81137e-08 0.000363668

0.000266617 -2.47547e-05 -1.22443e-07
-2.47547e-05 0.000338953 8.9205e-08
-1.22443e-07 8.9205e-08 0.00028199

0.000265784 2.36154e-05 -8.49479e-08
2.36154e-05 0.000339284 -1.27048e-07
-8.49479e-08 -1.27048e-07 0.000281523

0.000339955 1.43085e-05 -1.41684e-07
1.43085e-05 0.000258317 -1.05422e-07
-1.41684e-07 -1.05422e-07 0.000275383

0.000320693 4.33561e-05 -2.54402e-08
4.33561e-05 0.00032473 5.09238e-08
-2.54402e-08 5.09238e-08 0.000305403

0.000306554 7.85467e-06 1.15526e-07
7.85467e-06 0.00038518 3.5223e-09
1.15526e-07 3.5223e-09 0.000337735

0.000305731 -1.47129e-06 7.49823e-08
-1.47129e-06 0.000384639 -3.7488e-09
7.49823e-08 -3.7488e-09 0.000337561

0.000261552 -4.74555e-05 -7.85621e-08
-4.74555e-05 0.0002859 8.04359e-08
-7.85621e-08 8.04359e-08 0.000255894

0.000263198 4.76264e-05 -1.23547e-07
4.76264e-05 0.00028491 -6.16665e-08
-1.23547e-07 -6.16665e-08 0.000254972

0.000471287 3.95388e-06 1.41401e-07
3.95388e-06 0.000295291 2.91914e-08
1.41401e-07 2.91914e-08 0.000389772

0.000472524 -3.5107e-06 1.00749e-07
-3.5107e-06 0.000294438 3.66084e-09
1.00749e-07 3.66084e-09 0.000390235

0.000330042 5.60929e-05 7.12376e-10
5.60929e-05 0.000400645 -9.55657e-08
7.12376e-10 -9.55657e-08 0.000367564

0.000305276 -5.46993e-05 -7.88917e-08
-5.46993e-05 0.000423436 1.55324e-07
-7.88917e-08 1.55324e-07 0.000406516

0.00038645 6.18486e-05 -2.36794e-07
6.18486e-05 0.000347128 -3.50929e-08
-2.36794e-07 -3.50929e-08 0.000376728

0.000292503 2.87425e-05 -1.58532e-07
2.87425e-05 0.000217036 -6.61059e-08
-1.58532e-07 -6.61059e-08 0.000240471

0.000273118 3.72831e-05 -4.00923e-08
3.72831e-05 0.000361717 -1.45972e-08
-4.00923e-08 -1.45972e-08 0.000306777

0.00041537 3.89649e-06 2.15349e-07
3.89649e-06 0.000379587 9.868e-08
2.15349e-07 9.868e-08 0.000404968

0.000415307 -3.07227e-06 3.74923e-09
-3.07227e-06 0.000380153 1.31532e-07
3.74923e-09 1.31532e-07 0.000404756

0.0003634 3.62284e-05 4.15451e-09
3.62284e-05 0.000339352 1.87735e-07
4.15451e-09 1.87735e-07 0.000342021

0.000397877 -2.21346e-05 -3.46191e-08
-2.21346e-05 0.000358965 1.85853e-07
-3.46191e-08 1.85853e-07 0.000374844

0.0003978 2.24294e-05 -2.18356e-08
2.24294e-05 0.00035941 2.35717e-08
-2.18356e-08 2.35717e-08 0.000375036

0.000188247 -2.29205e-05 1.22628e-08
-2.29205e-05 0.000137344 -4.20536e-08
1.22628e-08 -4.20536e-08 0.000198409

0.00012401 2.84148e-05 -1.06925e-07
2.84148e-05 0.000177362 6.8556e-08
-1.06925e-07 6.8556e-08 0.000197157

0.000271765 -3.64249e-05 -5.35925e-08
-3.64249e-05 0.000362928 -1.14673e-07
-5.35925e-08 -1.14673e-07 0.00030769

0.000455492 -8.23133e-06 4.62624e-08
-8.23133e-06 0.000429156 1.86551e-07
4.62624e-08 1.86551e-07 0.000434924

0.000456034 9.23881e-06 -2.84574e-07
9.23881e-06 0.000430028 1.04545e-07
-2.84574e-07 1.04545e-07 0.000434953

0.000296097 2.41924e-05 -1.92815e-07
2.41924e-05 0.000213764 3.16415e-08
-1.92815e-07 3.16415e-08 0.000240302

0.000312103 -3.03425e-05 -1.70016e-08
-3.03425e-05 0.000402565 4.08018e-08
-1.70016e-08 4.08018e-08 0.000373852

0.00031918 -2.97005e-05 -1.4057e-07
-2.97005e-05 0.000406496 -7.20969e-08
-1.4057e-07 -7.20969e-08 0.000371728

0.000310594 -5.90866e-05 -4.51004e-08
-5.90866e-05 0.000299565 1.2957e-07
-4.51004e-08 1.2957e-07 0.000293926

0.000339863 -6.47345e-05 -3.12524e-08
-6.47345e-05 0.00042226 -3.13069e-08
-3.12524e-08 -3.13069e-08 0.000391082

0.000305881 7.72689e-05 3.16663e-09
7.72689e-05 0.000391658 1.25315e-07
3.16663e-09 1.25315e-07 0.000395657

0.000400588 3.50611e-05 1.30726e-08
3.50611e-05 0.000426245 1.73861e-08
1.30726e-08 1.73861e-08 0.000413486

0.00038339 4.84995e-05 -2.83014e-08
4.84995e-05 0.000428697 -4.34835e-09
-2.83014e-08 -4.34835e-09 0.000416257

0.00032995 -5.65759e-05 9.87612e-08
-5.65759e-05 0.000401537 7.85243e-09
9.87612e-08 7.85243e-09 0.000368397

0.000351278 5.94545e-05 2.97879e-08
5.94545e-05 0.00036019 -1.4658e-07
2.97879e-08 -1.4658e-07 0.000371909

0.000363018 -3.6473e-05 1.58229e-07
-3.6473e-05 0.000339737 7.87673e-08
1.58229e-07 7.87673e-08 0.000342248

0.000345389 4.42782e-05 -7.7505e-08
4.42782e-05 0.00025854 1.8958e-07
-7.7505e-08 1.8958e-07 0.000292387

0.000397489 -1.32874e-06 3.14547e-08
-1.32874e-06 0.000275624 9.6836e-08
3.14547e-08 9.6836e-08 0.000323065

0.000337836 6.75122e-05 1.60842e-07
6.75122e-05 0.00041755 6.01868e-09
1.60842e-07 6.01868e-09 0.000390163

0.000307042 -4.08518e-05 -1.0336e-07
-4.08518e-05 0.000367468 2.14562e-08
-1.0336e-07 2.14562e-08 0.000349011

0.000282466 1.47935e-05 -8.53384e-08
1.47935e-05 0.00037384 8.32092e-08
-8.53384e-08 8.32092e-08 0.000328163

0.000354742 4.14335e-05 -1.62326e-07
4.14335e-05 0.0003548 4.39625e-08
-1.62326e-07 4.39625e-08 0.000361731

0.000285627 1.82996e-05 -8.66105e-08
1.82996e-05 0.000379983 9.8706e-08
-8.66105e-08 9.8706e-08 0.000329117

0.000356122 -5.23772e-05 -3.24018e-08
-5.23772e-05 0.000425166 -3.97837e-08
-3.24018e-08 -3.97837e-08 0.000400976

0.00021602 -2.89463e-05 8.59876e-08
-2.89463e-05 0.000221525 1.10768e-07
8.59876e-08 1.10768e-07 0.000207421

0.000238724 -2.9851e-05 -1.44073e-07
-2.9851e-05 0.000196132 -1.23541e-07
-1.44073e-07 -1.23541e-07 0.00020695

0.000408147 -1.15145e-05 -1.99052e-08
-1.15145e-05 0.000283907 1.2697e-07
-1.99052e-08 1.2697e-07 0.000347774

0.000355285 -4.16555e-05 2.2995e-08
-4.16555e-05 0.000354214 1.94173e-07
2.2995e-08 1.94173e-07 0.000361589

0.000529359 -5.65221e-05 7.36628e-08
-5.65221e-05 0.000431256 -2.04108e-07
7.36628e-08 -2.04108e-07 0.000444929

0.000529359 5.44138e-05 -5.25353e-07
5.44138e-05 0.000434185 5.41787e-07
-5.25353e-07 5.41787e-07 0.000445118

0.000325171 -6.06232e-05 6.11738e-08
-6.06232e-05 0.000398724 -1.05019e-08
6.11738e-08 -1.05019e-08 0.000364696

0.00045122 -5.25756e-05 -1.21883e-07
-5.25756e-05 0.000451961 8.5506e-08
-1.21883e-07 8.5506e-08 0.000427199

0.000449274 5.29926e-05 8.65745e-08
5.29926e-05 0.000451095 4.30032e-08
8.65745e-08 4.30032e-08 0.000427064

0.000403659 1.15684e-05 1.09379e-08
1.15684e-05 0.000296658 2.14244e-07
1.09379e-08 2.14244e-07 0.000364438

0.000304618 -7.74503e-05 -3.04308e-08
-7.74503e-05 0.000390345 5.01813e-08
-3.04308e-08 5.01813e-08 0.000395711

0.000229112 -3.50846e-05 9.79784e-08
-3.50846e-05 0.000226054 -1.41249e-07
9.79784e-08 -1.41249e-07 0.000215936

0.000242658 3.5179e-05 1.88512e-08
3.5179e-05 0.000217746 -5.78197e-08
1.88512e-08 -5.78197e-08 0.000218913

0.000227186 -2.58289e-05 9.3248e-08
-2.58289e-05 0.000276159 -8.53318e-08
9.3248e-08 -8.53318e-08 0.00023307

0.000219598 2.39097e-05 -6.42784e-08
2.39097e-05 0.000276705 -9.97704e-09
-6.42784e-08 -9.97704e-09 0.000231343

0.000283033 1.51753e-05 1.64515e-07
1.51753e-05 0.000208301 5.59542e-08
1.64515e-07 5.59542e-08 0.000229264

0.000336942 -6.82785e-05 3.44626e-08
-6.82785e-05 0.000418477 7.60271e-08
3.44626e-08 7.60271e-08 0.000389772

0.000194336 7.92117e-06 4.91277e-10
7.92117e-06 0.000261092 -1.2886e-07
4.91277e-10 -1.2886e-07 0.00021927

0.000270697 -8.46478e-06 1.99311e-07
-8.46478e-06 0.000186521 6.02313e-11
1.99311e-07 6.02313e-11 0.000216784

0.000389249 -2.14497e-05 -1.00501e-08
-2.14497e-05 0.0004752 2.05235e-07
-1.00501e-08 2.05235e-07 0.000428321

0.000421187 -1.48617e-06 -2.61307e-08
-1.48617e-06 0.000446162 2.18755e-07
-2.61307e-08 2.18755e-07 0.000426783

0.000422012 3.38962e-05 5.7288e-08
3.38962e-05 0.000340249 2.17385e-07
5.7288e-08 2.17385e-07 0.000384307

0.000431876 -2.31836e-06 -1.79475e-08
-2.31836e-06 0.000269207 -6.64794e-08
-1.79475e-08 -6.64794e-08 0.000393851

0.000259588 3.44065e-05 -1.25486e-07
3.44065e-05 0.000322273 -7.81939e-08
-1.25486e-07 -7.81939e-08 0.000274315

0.000258965 -3.6142e-05 -8.39597e-08
-3.6142e-05 0.000322663 1.35203e-07
-8.39597e-08 1.35203e-07 0.000274938

0.00041013 -6.2818e-06 6.59458e-08
-6.2818e-06 0.000298731 -8.59792e-08
6.59458e-08 -8.59792e-08 0.000366366

0.0003038 -4.61272e-05 -7.27442e-08
-4.61272e-05 0.000389114 9.40239e-08
-7.27442e-08 9.40239e-08 0.000347532

0.000449279 4.28779e-06 2.01395e-07
4.28779e-06 0.000408278 3.73235e-09
2.01395e-07 3.73235e-09 0.000426392

0.000449173 -3.97757e-06 -2.85767e-07
-3.97757e-06 0.000408407 1.03134e-07
-2.85767e-07 1.03134e-07 0.000426461

0.000395189 5.16245e-05 -2.63672e-08
5.16245e-05 0.000358428 -2.23338e-07
-2.63672e-08 -2.23338e-07 0.000380224

0.000350868 -5.81249e-05 -1.07822e-08
-5.81249e-05 0.000359917 -3.20461e-08
-1.07822e-08 -3.20461e-08 0.000372118

0.000421803 3.0925e-05 1.24128e-08
3.0925e-05 0.000301346 -2.41912e-07
1.24128e-08 -2.41912e-07 0.000376699

0.00029741 4.61383e-05 3.90174e-09
4.61383e-05 0.000261732 2.07651e-07
3.90174e-09 2.07651e-07 0.000263914

0.000322476 -5.0246e-05 -2.66874e-08
-5.0246e-05 0.000372674 -3.91715e-08
-2.66874e-08 -3.91715e-08 0.000368092

0.000184762 7.8302e-05 -1.97511e-08
7.8302e-05 0.000166908 -1.87682e-07
-1.97511e-08 -1.87682e-07 0.000182965

0.000284952 -1.11255e-05 8.43052e-08
-1.11255e-05 0.000372904 -9.81641e-09
8.43052e-08 -9.81641e-09 0.000328603

0.000286955 -1.65222e-05 -1.84983e-08
-1.65222e-05 0.000376365 -3.66771e-08
-1.84983e-08 -3.66771e-08 0.000328238

0.000395258 2.25801e-05 1.94844e-07
2.25801e-05 0.000476826 -1.48794e-07
1.94844e-07 -1.48794e-07 0.000430109

0.000407035 -3.39456e-05 5.62793e-08
-3.39456e-05 0.000465241 1.65641e-07
5.62793e-08 1.65641e-07 0.000429802

0.000471405 -1.87212e-06 1.34858e-07
-1.87212e-06 0.00031037 3.77749e-08
1.34858e-07 3.77749e-08 0.00040249

0.000471373 1.74013e-06 3.31044e-08
1.74013e-06 0.000309932 -8.37652e-08
3.31044e-08 -8.37652e-08 0.000402813

0.000417089 -6.73197e-05 9.91894e-08
-6.73197e-05 0.000377837 -1.48898e-07
9.91894e-08 -1.48898e-07 0.00040264

0.000415224 6.78593e-05 1.93254e-07
6.78593e-05 0.000368843 -1.26595e-07
1.93254e-07 -1.26595e-07 0.000399934

0.000465641 -2.45853e-05 -1.38832e-07
-2.45853e-05 0.000429221 1.34211e-08
-1.38832e-07 1.34211e-08 0.000423786

0.00046373 2.4481e-05 8.40291e-08
2.4481e-05 0.0004295 5.39277e-08
8.40291e-08 5.39277e-08 0.000423574

0.000479977 -2.19458e-05 3.20678e-07
-2.19458e-05 0.00043547 -1.89658e-07
3.20678e-07 -1.89658e-07 0.000441845

0.000479022 2.32257e-05 1.69578e-07
2.32257e-05 0.000438006 5.01134e-07
1.69578e-07 5.01134e-07 0.000442145

0.000355893 -6.43233e-05 2.19612e-08
-6.43233e-05 0.000421442 -4.20377e-08
2.19612e-08 -4.20377e-08 0.000403507

0.000357371 6.4179e-05 1.48203e-08
6.4179e-05 0.000421259 5.84524e-08
1.48203e-08 5.84524e-08 0.000404088

0.000366495 -3.33698e-05 1.07769e-07
-3.33698e-05 0.000306476 -1.28716e-07
1.07769e-07 -1.28716e-07 0.000335567

0.000313146 -2.83424e-05 -1.15087e-08
-2.83424e-05 0.000380671 7.86037e-08
-1.15087e-08 7.86037e-08 0.000351277

0.000334694 5.45659e-05 1.12294e-07
5.45659e-05 0.000333669 1.68218e-07
1.12294e-07 1.68218e-07 0.000329288

0.000316151 -3.9753e-05 -1.16306e-07
-3.9753e-05 0.000392379 6.96019e-08
-1.16306e-07 6.96019e-08 0.000349996

0.000299381 -4.17532e-05 -8.9856e-08
-4.17532e-05 0.000266626 1.42778e-08
-8.9856e-08 1.42778e-08 0.000261044

0.000366374 3.28724e-05 4.14217e-08
3.28724e-05 0.000305624 1.33122e-08
4.14217e-08 1.33122e-08 0.000334753

0.000315316 2.81348e-05 -1.15068e-08
2.81348e-05 0.000379103 1.18273e-07
-1.15068e-08 1.18273e-07 0.000349829

0.000362803 -7.97611e-05 7.36657e-08
-7.97611e-05 0.000393472 5.55963e-08
7.36657e-08 5.55963e-08 0.000407306

0.000362062 7.98575e-05 8.3027e-08
7.98575e-05 0.000392893 -4.19033e-09
8.3027e-08 -4.19033e-09 0.00040725

0.000426396 -3.21455e-05 9.68398e-09
-3.21455e-05 0.000346693 6.6113e-08
9.68398e-09 6.6113e-08 0.000389885

0.000489542 -6.05157e-05 8.11387e-08
-6.05157e-05 0.000540257 -2.49356e-07
8.11387e-08 -2.49356e-07 0.000443707

0.000486148 6.0814e-05 3.54883e-07
6.0814e-05 0.000447114 -2.43048e-07
3.54883e-07 -2.43048e-07 0.000444346

0.000351093 -4.51837e-05 -1.83806e-07
-4.51837e-05 0.000412766 -4.25932e-08
-1.83806e-07 -4.25932e-08 0.00038356

0.000396098 5.65937e-05 7.69327e-09
5.65937e-05 0.00032751 2.34786e-07
7.69327e-09 2.34786e-07 0.000371136

0.000452394 3.46382e-06 1.05009e-07
3.46382e-06 0.000389999 8.10387e-08
1.05009e-07 8.10387e-08 0.000415243

0.000333671 -5.29642e-05 -1.79652e-07
-5.29642e-05 0.00033578 3.26157e-08
-1.79652e-07 3.26157e-08 0.000329444

0.000221886 3.40087e-05 -6.12804e-08
3.40087e-05 0.000234068 2.17466e-08
-6.12804e-08 2.17466e-08 0.00021093

0.000240083 3.38336e-05 -9.81708e-08
3.38336e-05 0.000206771 6.72859e-08
-9.81708e-08 6.72859e-08 0.000211029

0.000470537 6.22062e-06 4.15667e-08
6.22062e-06 0.000331807 -7.80729e-08
4.15667e-08 -7.80729e-08 0.000409181

0.000469962 -6.93454e-06 -1.03367e-07
-6.93454e-06 0.000331664 7.25965e-08
-1.03367e-07 7.25965e-08 0.000409182

0.000456995 -5.5233e-06 -3.79573e-08
-5.5233e-06 0.000393764 -7.28079e-08
-3.79573e-08 -7.28079e-08 0.000416149

0.000317695 3.76293e-05 -8.23082e-08
3.76293e-05 0.000390983 1.01916e-07
-8.23082e-08 1.01916e-07 0.00034946

0.000366414 -2.64552e-05 -1.35716e-07
-2.64552e-05 0.000295731 6.13323e-08
-1.35716e-07 6.13323e-08 0.000309714

0.000381398 -3.25103e-05 -2.48343e-08
-3.25103e-05 0.000401105 -2.09088e-07
-2.48343e-08 -2.09088e-07 0.000393819

0.000382728 3.21038e-05 6.72465e-08
3.21038e-05 0.000400858 -4.92162e-09
6.72465e-08 -4.92162e-09 0.000394036

0.00051913 -3.64506e-06 1.04644e-08
-3.64506e-06 0.000563745 -3.5367e-07
1.04644e-08 -3.5367e-07 0.000440304

0.000520732 3.23931e-06 -9.75254e-08
3.23931e-06 0.000563745 1.93519e-07
-9.75254e-08 1.93519e-07 0.000440498

0.000326847 -5.48784e-05 7.35096e-08
-5.48784e-05 0.00040889 6.11507e-08
7.35096e-08 6.11507e-08 0.000378992

0.00038981 4.32477e-05 -9.7497e-08
4.32477e-05 0.000309806 1.48237e-07
-9.7497e-08 1.48237e-07 0.000349449

0.000441657 -5.3283e-06 1.1802e-07
-5.3283e-06 0.000369442 2.02281e-07
1.1802e-07 2.02281e-07 0.000406984

0.000442247 6.31048e-06 -4.94974e-08
6.31048e-06 0.000369168 7.42588e-08
-4.94974e-08 7.42588e-08 0.000406839

0.000332101 -3.48337e-05 8.88114e-08
-3.48337e-05 0.000399142 -3.27718e-08
8.88114e-08 -3.27718e-08 0.000387445

0.000328409 -5.5342e-05 -1.44642e-07
-5.5342e-05 0.000382238 6.93851e-08
-1.44642e-07 6.93851e-08 0.000394495

0.000181646 -8.12583e-05 1.99458e-07
-8.12583e-05 0.000184346 1.25087e-08
1.99458e-07 1.25087e-08 0.000184571

0.000382142 -5.21247e-05 5.92702e-08
-5.21247e-05 0.000425977 2.63709e-08
5.92702e-08 2.63709e-08 0.000413311

0.000381402 5.23826e-05 5.27653e-08
5.23826e-05 0.000425106 5.67699e-08
5.27653e-08 5.67699e-08 0.000413002

0.000321109 -5.32899e-05 -3.17966e-08
-5.32899e-05 0.000388469 -7.13112e-08
-3.17966e-08 -7.13112e-08 0.000383951

0.000369262 2.7848e-05 -4.30585e-08
2.7848e-05 0.000296444 -5.01583e-08
-4.30585e-08 -5.01583e-08 0.000311537

0.000401722 -4.91256e-05 -1.41666e-07
-4.91256e-05 0.000360459 1.09076e-08
-1.41666e-07 1.09076e-08 0.000383926

0.000423474 -5.5255e-05 1.25417e-07
-5.5255e-05 0.000378067 -5.00319e-08
1.25417e-07 -5.00319e-08 0.000404988

0.000423202 5.33473e-05 1.17648e-07
5.33473e-05 0.000375882 1.28692e-07
1.17648e-07 1.28692e-07 0.000404351

0.000426391 -3.09741e-05 9.71729e-09
-3.09741e-05 0.000303944 5.2632e-08
9.71729e-09 5.2632e-08 0.000382062

0.000465765 1.36715e-05 5.6441e-08
1.36715e-05 0.000375637 -1.52002e-07
5.6441e-08 -1.52002e-07 0.000421417

0.00046573 -1.29787e-05 -1.40303e-07
-1.29787e-05 0.000376126 -1.10985e-07
-1.40303e-07 -1.10985e-07 0.000421223

0.000420667 -2.23799e-05 -3.4782e-08
-2.23799e-05 0.000533844 -1.31613e-07
-3.4782e-08 -1.31613e-07 0.000440734

0.000439081 4.7269e-05 -1.64667e-07
4.7269e-05 0.000523188 2.84667e-07
-1.64667e-07 2.84667e-07 0.000441082

0.000197937 6.8958e-06 9.96764e-08
6.8958e-06 0.000118632 2.21605e-07
9.96764e-08 2.21605e-07 0.000197145

0.000142301 1.30847e-05 1.04521e-07
1.30847e-05 0.000182495 1.26243e-07
1.04521e-07 1.26243e-07 0.000197539

0.000354888 5.15504e-05 -1.96495e-08
5.15504e-05 0.000416992 7.29802e-08
-1.96495e-08 7.29802e-08 0.000390454

0.000354564 -5.13779e-05 -7.97627e-08
-5.13779e-05 0.000416366 1.15563e-07
-7.97627e-08 1.15563e-07 0.000390134

0.000338129 -6.58391e-05 6.58547e-08
-6.58391e-05 0.000417769 7.16204e-08
6.58547e-08 7.16204e-08 0.000388469

0.000173298 -3.42677e-05 1.84449e-07
-3.42677e-05 0.00016669 1.78637e-07
1.84449e-07 1.78637e-07 0.000193563

0.000178278 -2.83382e-05 -1.02842e-07
-2.83382e-05 0.000167909 5.96911e-08
-1.02842e-07 5.96911e-08 0.00019403

0.000436295 4.53392e-05 9.89037e-08
4.53392e-05 0.000527484 -2.5343e-08
9.89037e-08 -2.5343e-08 0.00044615

0.000437703 -4.72996e-05 -1.66178e-07
-4.72996e-05 0.000523662 -4.22001e-07
-1.66178e-07 -4.22001e-07 0.000446185

0.000386469 -6.2127e-05 -3.12148e-08
-6.2127e-05 0.000349377 1.05119e-07
-3.12148e-08 1.05119e-07 0.000378732

0.000328707 -5.02506e-05 -1.38939e-07
-5.02506e-05 0.000359535 1.02165e-07
-1.38939e-07 1.02165e-07 0.000338295

0.000354886 4.9452e-05 -2.43944e-08
4.9452e-05 0.000390345 4.27196e-08
-2.43944e-08 4.27196e-08 0.00038379

0.00035475 -4.96178e-05 -2.25198e-08
-4.96178e-05 0.000390516 -2.07882e-07
-2.25198e-08 -2.07882e-07 0.00038362

0.000329906 -5.84428e-05 7.02967e-08
-5.84428e-05 0.000379205 -1.76112e-07
7.02967e-08 -1.76112e-07 0.000357933

0.000330367 5.10046e-05 1.49749e-07
5.10046e-05 0.000358828 1.03615e-07
1.49749e-07 1.03615e-07 0.00033804

0.000225507 -1.84853e-05 -2.18141e-08
-1.84853e-05 0.000278159 -1.00766e-07
-2.18141e-08 -1.00766e-07 0.000235399

0.000224704 1.55269e-05 2.02322e-07
1.55269e-05 0.000280813 -8.10791e-08
2.02322e-07 -8.10791e-08 0.000234158

0.000283408 1.34494e-05 1.80519e-07
1.34494e-05 0.000216258 -1.73918e-08
1.80519e-07 -1.73918e-08 0.000231892

0.000330188 5.77194e-05 3.08026e-09
5.77194e-05 0.00037862 -1.08459e-07
3.08026e-09 -1.08459e-07 0.000357595

0.000199207 -9.10041e-06 1.6146e-07
-9.10041e-06 0.000257031 -1.21091e-07
1.6146e-07 -1.21091e-07 0.000217326

0.000268255 -5.34853e-06 -3.39002e-08
-5.34853e-06 0.000184518 1.56636e-07
-3.39002e-08 1.56636e-07 0.000217722

0.000370453 -4.75902e-05 1.34279e-07
-4.75902e-05 0.000414045 7.01763e-08
1.34279e-07 7.01763e-08 0.000403871

0.000371847 4.78419e-05 8.52833e-09
4.78419e-05 0.000414925 7.84279e-08
8.52833e-09 7.84279e-08 0.000404197

0.000376803 -3.63399e-05 3.24161e-08
-3.63399e-05 0.000416846 -2.77588e-07
3.24161e-08 -2.77588e-07 0.000406984

0.000378435 3.61932e-05 4.13816e-08
3.61932e-05 0.000416507 -3.5473e-08
4.13816e-08 -3.5473e-08 0.00040715

0.000177779 3.17782e-05 6.77808e-09
3.17782e-05 0.000157888 1.63198e-07
6.77808e-09 1.63198e-07 0.000191278

0.000172312 3.00094e-05 -9.43237e-08
3.00094e-05 0.000159287 -1.93629e-07
-9.43237e-08 -1.93629e-07 0.00019024

0.000353496 4.51359e-05 -1.51692e-07
4.51359e-05 0.000384865 -4.86634e-08
-1.51692e-07 -4.86634e-08 0.000368553

0.000354093 -4.57542e-05 -1.91362e-08
-4.57542e-05 0.000385369 -2.10276e-07
-1.91362e-08 -2.10276e-07 0.000368423

0.000415099 -4.41955e-05 1.91332e-08
-4.41955e-05 0.000477761 2.03536e-07
1.91332e-08 2.03536e-07 0.000433289

0.000432345 1.99331e-05 -1.73884e-07
1.99331e-05 0.00044363 2.2736e-07
-1.73884e-07 2.2736e-07 0.000433131

0.000364074 -4.9505e-05 8.85314e-08
-4.9505e-05 0.000439264 1.48437e-07
8.85314e-08 1.48437e-07 0.000411563

0.000364997 4.96247e-05 8.45816e-09
4.96247e-05 0.000437798 7.83172e-08
8.45816e-09 7.83172e-08 0.000411713

0.000449617 3.70254e-06 1.92548e-07
3.70254e-06 0.000369552 -7.68821e-08
1.92548e-07 -7.68821e-08 0.000420959

0.000449356 -2.68452e-06 -2.70105e-07
-2.68452e-06 0.00036975 -3.93456e-08
-2.70105e-07 -3.93456e-08 0.00042096

0.000373391 -5.62279e-05 4.6979e-08
-5.62279e-05 0.00037805 -5.11914e-08
4.6979e-08 -5.11914e-08 0.000392621

0.000374948 5.63496e-05 -1.55839e-07
5.63496e-05 0.000375743 1.37044e-07
-1.55839e-07 1.37044e-07 0.00039178

0.000479408 1.36289e-05 5.69743e-08
1.36289e-05 0.000408173 3.59504e-08
5.69743e-08 3.59504e-08 0.000433112

0.000475654 2.33074e-06 8.80262e-08
2.33074e-06 0.000432298 7.21576e-09
8.80262e-08 7.21576e-09 0.000441341

0.000480356 -1.3818e-05 -1.55881e-07
-1.3818e-05 0.000408491 6.1374e-09
-1.55881e-07 6.1374e-09 0.000433372

0.000477419 -3.47871e-06 3.62509e-08
-3.47871e-06 0.000430143 1.83937e-07
3.62509e-08 1.83937e-07 0.000441446

0.000420097 1.94142e-06 1.23268e-08
1.94142e-06 0.000482131 -1.5412e-07
1.23268e-08 -1.5412e-07 0.000435176

0.000496509 5.5057e-05 -1.46344e-08
5.5057e-05 0.000455885 -1.29165e-08
-1.46344e-08 -1.29165e-08 0.000432435

0.000495962 -5.43859e-05 9.19354e-08
-5.43859e-05 0.000455837 -1.4486e-07
9.19354e-08 -1.4486e-07 0.000432325

0.000390395 -2.98843e-05 3.56164e-08
-2.98843e-05 0.000531035 -2.37537e-07
3.56164e-08 -2.37537e-07 0.000436009

0.000435321 -2.33537e-05 -8.30067e-08
-2.33537e-05 0.000450729 6.87927e-09
-8.30067e-08 6.87927e-09 0.000438396

0.000647838 -4.0333e-05 -2.20027e-06
-4.0333e-05 0.000345845 -3.67224e-07
-2.20027e-06 -3.67224e-07 0.000446922

0.000434432 2.66407e-05 4.33281e-07
2.66407e-05 0.00045384 7.18939e-07
4.33281e-07 7.18939e-07 0.000439108

0.000651375 3.39166e-05 -7.60767e-07
3.39166e-05 0.000357363 1.80867e-08
-7.60767e-07 1.80867e-08 0.000447731

0.000456122 -3.58104e-05 -8.89488e-08
-3.58104e-05 0.000440702 1.58867e-08
-8.89488e-08 1.58867e-08 0.00043497

0.000409191 -2.4953e-05 -2.05602e-07
-2.4953e-05 0.000446902 9.31343e-08
-2.05602e-07 9.31343e-08 0.000424841

0.000470986 -1.93824e-06 8.92867e-08
-1.93824e-06 0.000435647 8.41261e-07
8.92867e-08 8.41261e-07 0.000443728

0.00045411 3.73886e-05 -8.97924e-08
3.73886e-05 0.00044121 -7.39286e-08
-8.97924e-08 -7.39286e-08 0.000435383

0.000410435 2.58808e-05 1.11003e-07
2.58808e-05 0.000445121 5.90372e-08
1.11003e-07 5.90372e-08 0.000424904

0.00046934 2.07249e-06 -2.59026e-08
2.07249e-06 0.000441695 -3.69793e-07
-2.59026e-08 -3.69793e-07 0.000444382

0.000408461 -2.01373e-05 -2.00049e-07
-2.01373e-05 0.000438566 2.50756e-08
-2.00049e-07 2.50756e-08 0.000428334

0.000454662 -1.11935e-05 3.60423e-08
-1.11935e-05 0.000439655 9.86026e-08
3.60423e-08 9.86026e-08 0.00043658

0.000409749 2.14102e-05 1.00473e-07
2.14102e-05 0.000438638 -6.99991e-08
1.00473e-07 -6.99991e-08 0.000428548

0.000455222 1.2155e-05 -2.77988e-07
1.2155e-05 0.000439992 4.78654e-08
-2.77988e-07 4.78654e-08 0.000436789

0.000305024 4.83545e-05 1.37189e-08
4.83545e-05 0.000361139 -5.73179e-08
1.37189e-08 -5.73179e-08 0.000317828

0.00032585 9.44484e-06 3.84693e-08
9.44484e-06 0.000429345 3.69575e-08
3.84693e-08 3.69575e-08 0.000382726

0.000363958 2.5898e-05 1.42672e-07
2.5898e-05 0.000404338 2.31526e-08
1.42672e-07 2.31526e-08 0.00038089

0.000390976 -3.14129e-05 -5.50536e-08
-3.14129e-05 0.000285245 1.05599e-07
-5.50536e-08 1.05599e-07 0.000346525

0.000373634 -1.91565e-05 2.80618e-08
-1.91565e-05 0.000277071 6.08044e-08
2.80618e-08 6.08044e-08 0.000322706

0.000324717 1.4569e-05 3.9751e-08
1.4569e-05 0.000463391 2.20612e-08
3.9751e-08 2.20612e-08 0.000405232

0.000363726 2.68795e-05 1.3424e-07
2.68795e-05 0.000412908 1.21269e-07
1.3424e-07 1.21269e-07 0.000404672

0.000373687 1.267e-07 2.79553e-08
1.267e-07 0.000281876 -1.61938e-08
2.79553e-08 -1.61938e-08 0.000324579

0.000417685 1.23307e-05 3.91944e-09
1.23307e-05 0.000305664 8.82711e-08
3.91944e-09 8.82711e-08 0.000393312

0.00024269 4.21068e-05 5.07254e-08
4.21068e-05 0.000303288 -7.49919e-08
5.07254e-08 -7.49919e-08 0.000255673

0.000228108 3.29922e-05 8.01134e-08
3.29922e-05 0.000303918 -7.93827e-08
8.01134e-08 -7.93827e-08 0.000253914

0.000293683 3.3423e-05 -4.65789e-08
3.3423e-05 0.000234559 9.16465e-08
-4.65789e-08 9.16465e-08 0.000249715

0.000399426 -5.05547e-05 5.35864e-08
-5.05547e-05 0.000427582 1.47627e-07
5.35864e-08 1.47627e-07 0.000411819

0.000388746 -2.09686e-05 -1.20422e-09
-2.09686e-05 0.000444997 -1.05008e-07
-1.20422e-09 -1.05008e-07 0.000411965

0.000352282 -5.82661e-05 4.54509e-08
-5.82661e-05 0.00034533 7.09377e-08
4.54509e-08 7.09377e-08 0.000350602

0.000304691 4.68037e-05 1.84277e-08
4.68037e-05 0.000377779 4.45106e-09
1.84277e-08 4.45106e-09 0.000342508

0.000334455 5.46643e-05 -4.48226e-08
5.46643e-05 0.000402814 1.32982e-07
-4.48226e-08 1.32982e-07 0.000378249

0.00036231 -2.6475e-05 -1.0911e-08
-2.6475e-05 0.000412013 1.87043e-07
-1.0911e-08 1.87043e-07 0.000403477

0.00032283 -1.71037e-05 -1.37594e-07
-1.71037e-05 0.000464702 -2.20098e-08
-1.37594e-07 -2.20098e-08 0.000403426

0.00040343 1.4543e-05 2.74063e-08
1.4543e-05 0.000288772 3.50946e-08
2.74063e-08 3.50946e-08 0.000348959

0.000261692 1.39704e-05 -4.45445e-08
1.39704e-05 0.000340052 1.1445e-07
-4.45445e-08 1.1445e-07 0.000275634

0.000247633 6.00293e-06 2.31497e-08
6.00293e-06 0.000340795 7.81722e-09
2.31497e-08 7.81722e-09 0.000277072

0.000336344 5.97004e-06 1.24859e-07
5.97004e-06 0.000252189 -1.36659e-08
1.24859e-07 -1.36659e-08 0.000270286

0.000287606 3.27432e-05 8.13728e-08
3.27432e-05 0.000368063 -5.41285e-09
8.13728e-08 -5.41285e-09 0.000321924

0.000303431 5.42698e-05 9.70585e-08
5.42698e-05 0.000350183 -1.47696e-07
9.70585e-08 -1.47696e-07 0.000316309

0.000388057 9.13722e-06 -1.32799e-07
9.13722e-06 0.000286803 -8.09332e-08
-1.32799e-07 -8.09332e-08 0.000350642

0.000231635 2.50111e-05 8.23273e-08
2.50111e-05 0.000278124 -1.53874e-08
8.23273e-08 -1.53874e-08 0.000228117

0.000419594 -3.40631e-05 -2.63683e-08
-3.40631e-05 0.000304571 -3.39625e-09
-2.63683e-08 -3.39625e-09 0.000382983

0.000388867 2.66259e-06 -2.77415e-08
2.66259e-06 0.000462954 4.82962e-08
-2.77415e-08 4.82962e-08 0.000413461

0.000414617 7.96854e-07 -2.00032e-08
7.96854e-07 0.000425495 1.81226e-07
-2.00032e-08 1.81226e-07 0.000414298

0.000539712 2.24817e-05 -2.05109e-07
2.24817e-05 0.000411619 -2.25082e-08
-2.05109e-07 -2.25082e-08 0.00043963

0.000538682 -5.51878e-05 -4.67648e-08
-5.51878e-05 0.000446572 1.83871e-07
-4.67648e-08 1.83871e-07 0.000435859

0.000334629 -6.20323e-05 -1.87164e-08
-6.20323e-05 0.000351133 1.79963e-08
-1.87164e-08 1.79963e-08 0.000346398

0.000292286 -5.0174e-05 1.28192e-08
-5.0174e-05 0.000348238 6.00161e-09
1.28192e-08 6.00161e-09 0.000318529

0.000331196 -1.74928e-05 3.75634e-08
-1.74928e-05 0.000238322 -1.22296e-09
3.75634e-08 -1.22296e-09 0.000269988

0.000450033 8.87614e-06 4.69081e-08
8.87614e-06 0.000388407 6.9543e-08
4.69081e-08 6.9543e-08 0.000416572

0.000450827 -3.23051e-05 6.15243e-08
-3.23051e-05 0.000393529 6.3581e-08
6.15243e-08 6.3581e-08 0.000412204

0.000419336 -1.42812e-05 2.54052e-08
-1.42812e-05 0.000306318 -1.11006e-09
2.54052e-08 -1.11006e-09 0.000393699

0.00041582 -4.17036e-06 -2.11486e-09
-4.17036e-06 0.000288694 -1.53198e-08
-2.11486e-09 -1.53198e-08 0.000386699

0.000344533 -5.11381e-05 -2.31933e-08
-5.11381e-05 0.000295304 6.3141e-08
-2.31933e-08 6.3141e-08 0.000305673

0.000354113 2.36914e-05 1.56471e-07
2.36914e-05 0.000269357 -5.52655e-08
1.56471e-07 -5.52655e-08 0.000300714

0.000347187 -4.20246e-05 -2.56062e-08
-4.20246e-05 0.000264924 4.32181e-08
-2.56062e-08 4.32181e-08 0.000297853

0.000305845 3.43392e-05 -4.91663e-08
3.43392e-05 0.000415471 -2.01595e-08
-4.91663e-08 -2.01595e-08 0.000382013

0.00029302 -4.19522e-05 -1.24744e-07
-4.19522e-05 0.000364098 -1.32952e-07
-1.24744e-07 -1.32952e-07 0.000322355

0.000289352 4.02177e-05 -2.90558e-08
4.02177e-05 0.000348047 1.24575e-07
-2.90558e-08 1.24575e-07 0.000319134

0.00018932 -6.33082e-05 -7.59301e-08
-6.33082e-05 0.000192247 -1.94731e-08
-7.59301e-08 -1.94731e-08 0.000187993

0.000172882 3.88998e-05 -2.89514e-08
3.88998e-05 0.000192431 -1.21586e-07
-2.89514e-08 -1.21586e-07 0.000186077

0.000327106 -4.7168e-05 4.8276e-08
-4.7168e-05 0.000433993 -8.62595e-08
4.8276e-08 -8.62595e-08 0.000403108

0.000287448 3.12417e-05 8.29227e-08
3.12417e-05 0.000387991 3.2086e-08
8.29227e-08 3.2086e-08 0.000346837

0.000174958 6.70383e-06 -3.90511e-08
6.70383e-06 0.000181109 1.93422e-07
-3.90511e-08 1.93422e-07 0.000197088

0.000176778 -1.26806e-05 -1.78433e-08
-1.26806e-05 0.000197163 -1.667e-08
-1.78433e-08 -1.667e-08 0.000198229

0.000405118 -1.91853e-05 -1.23501e-07
-1.91853e-05 0.000434205 8.78617e-08
-1.23501e-07 8.78617e-08 0.000418274

0.000403524 4.01274e-05 1.2617e-07
4.01274e-05 0.000420534 9.66815e-08
1.2617e-07 9.66815e-08 0.000419744

0.000432656 4.49869e-07 2.96336e-08
4.49869e-07 0.000295202 3.42704e-08
2.96336e-08 3.42704e-08 0.000365882

0.000407312 -1.29411e-05 -1.24802e-07
-1.29411e-05 0.000413431 7.87021e-08
-1.24802e-07 7.87021e-08 0.00041819

0.000404233 3.7599e-05 1.72345e-07
3.7599e-05 0.000420971 -2.28278e-07
1.72345e-07 -2.28278e-07 0.000419261

0.000506711 4.08325e-05 -9.53811e-08
4.08325e-05 0.000400221 3.38723e-08
-9.53811e-08 3.38723e-08 0.000434418

0.000493799 -5.00642e-05 -1.6096e-07
-5.00642e-05 0.000437774 1.21699e-07
-1.6096e-07 1.21699e-07 0.000431144

0.000381859 -3.0106e-05 1.01554e-07
-3.0106e-05 0.000386131 6.61636e-08
1.01554e-07 6.61636e-08 0.000392082

0.000381487 3.97954e-05 -2.04077e-07
3.97954e-05 0.000378535 -6.78426e-08
-2.04077e-07 -6.78426e-08 0.000393956

0.00040803 -2.9511e-06 -8.66857e-08
-2.9511e-06 0.000517816 5.58514e-08
-8.66857e-08 5.58514e-08 0.000429915

0.000415973 1.42211e-05 -8.64755e-08
1.42211e-05 0.000466192 -1.81278e-07
-8.64755e-08 -1.81278e-07 0.000431748

0.000297944 -5.67357e-05 4.48142e-08
-5.67357e-05 0.000363377 1.42187e-07
4.48142e-08 1.42187e-07 0.000318573

0.000208247 5.95656e-06 1.1469e-07
5.95656e-06 0.000267747 -2.61479e-08
1.1469e-07 -2.61479e-08 0.000225037

0.000263139 7.21797e-06 -1.33586e-07
7.21797e-06 0.000213653 3.67614e-08
-1.33586e-07 3.67614e-08 0.000224555

0.000297147 3.03202e-05 8.02304e-08
3.03202e-05 0.000414166 7.02892e-09
8.02304e-08 7.02892e-09 0.000372777

0.000325943 4.38001e-05 -1.90872e-08
4.38001e-05 0.000398195 1.39004e-07
-1.90872e-08 1.39004e-07 0.000370103

0.000512482 -4.14238e-05 -3.88721e-07
-4.14238e-05 0.000438045 6.75022e-07
-3.88721e-07 6.75022e-07 0.00044703

0.000479591 6.38023e-05 -3.89213e-07
6.38023e-05 0.000553234 2.577e-07
-3.89213e-07 2.577e-07 0.000446796

0.000336381 4.00154e-05 1.25637e-07
4.00154e-05 0.000314792 1.63996e-07
1.25637e-07 1.63996e-07 0.0003112

0.000345668 6.81671e-05 -1.22371e-07
6.81671e-05 0.00041408 -1.215e-08
-1.22371e-07 -1.215e-08 0.000389506

0.000394248 2.57494e-05 -1.42643e-08
2.57494e-05 0.000326876 -1.14483e-07
-1.42643e-08 -1.14483e-07 0.000373208

0.00039595 -2.03973e-05 1.518e-07
-2.03973e-05 0.000327387 -6.09239e-08
1.518e-07 -6.09239e-08 0.000371438

0.000352182 6.44613e-05 -4.20774e-08
6.44613e-05 0.000395016 -1.56799e-07
-4.20774e-08 -1.56799e-07 0.000386859

0.000354477 -6.38741e-05 -1.19697e-07
-6.38741e-05 0.000424033 7.99672e-08
-1.19697e-07 7.99672e-08 0.000400711

0.00044288 -5.44354e-05 2.82022e-08
-5.44354e-05 0.000352891 -8.33698e-08
2.82022e-08 -8.33698e-08 0.000405836

0.000329503 -4.74647e-06 4.58785e-08
-4.74647e-06 0.000242631 -1.27839e-07
4.58785e-08 -1.27839e-07 0.000270976

0.000542821 7.25468e-06 -1.44262e-07
7.25468e-06 0.00050362 1.38639e-07
-1.44262e-07 1.38639e-07 0.000439037

0.000561571 -3.66558e-06 9.54779e-08
-3.66558e-06 0.000432287 -1.72659e-07
9.54779e-08 -1.72659e-07 0.000443035

0.000346044 4.94269e-05 -9.40251e-08
4.94269e-05 0.000323956 -5.36022e-08
-9.40251e-08 -5.36022e-08 0.000337684

0.000402861 1.87645e-05 3.38377e-08
1.87645e-05 0.000308818 -7.3659e-08
3.38377e-08 -7.3659e-08 0.000352927

0.000284513 4.22386e-05 -1.21726e-07
4.22386e-05 0.00030307 -6.30678e-08
-1.21726e-07 -6.30678e-08 0.000269176

0.000431682 1.00527e-05 1.36802e-07
1.00527e-05 0.000463234 -1.26967e-07
1.36802e-07 -1.26967e-07 0.000438043

0.000438145 2.85966e-05 -7.8358e-08
2.85966e-05 0.000531382 5.78775e-08
-7.8358e-08 5.78775e-08 0.000435018

0.000444263 2.67279e-05 5.71488e-08
2.67279e-05 0.000344347 2.36101e-08
5.71488e-08 2.36101e-08 0.000411205

0.000323658 -1.11392e-05 -1.3993e-07
-1.11392e-05 0.000430646 -6.14208e-08
-1.3993e-07 -6.14208e-08 0.000381362

0.000362643 -2.44901e-05 -3.79084e-08
-2.44901e-05 0.00040662 -1.67627e-07
-3.79084e-08 -1.67627e-07 0.000380266

0.000435939 7.82141e-06 -1.57742e-07
7.82141e-06 0.000303664 -9.23085e-08
-1.57742e-07 -9.23085e-08 0.00038314

0.000439539 -6.38122e-06 7.09604e-08
-6.38122e-06 0.00030255 3.34403e-08
7.09604e-08 3.34403e-08 0.000382205

0.000303977 -4.26831e-05 4.82944e-08
-4.26831e-05 0.000284163 8.79793e-08
4.82944e-08 8.79793e-08 0.000265523

0.000391477 1.93433e-07 -9.08526e-09
1.93433e-07 0.000277378 1.67775e-08
-9.08526e-09 1.67775e-08 0.000323425

0.000436289 -7.06819e-06 -1.02095e-08
-7.06819e-06 0.000340193 -1.11398e-08
-1.02095e-08 -1.11398e-08 0.000400749

0.00042548 1.39491e-05 1.25043e-07
1.39491e-05 0.000349884 1.93448e-07
1.25043e-07 1.93448e-07 0.000401484

0.000403448 -1.77229e-05 6.10963e-08
-1.77229e-05 0.000318071 1.2877e-08
6.10963e-08 1.2877e-08 0.000351433

0.000307276 -5.01244e-05 -5.05182e-08
-5.01244e-05 0.000364932 1.94361e-08
-5.05182e-08 1.94361e-08 0.000322626

0.000439314 -4.26065e-06 5.0338e-08
-4.26065e-06 0.000330968 -7.46893e-08
5.0338e-08 -7.46893e-08 0.000385157

0.000434395 8.95048e-06 -1.55647e-07
8.95048e-06 0.000329428 -1.02541e-07
-1.55647e-07 -1.02541e-07 0.000386498

0.000393082 2.05106e-05 -6.13458e-08
2.05106e-05 0.000311727 5.19856e-08
-6.13458e-08 5.19856e-08 0.0003601

0.000299922 -6.42572e-05 -1.62415e-07
-6.42572e-05 0.000292292 4.1374e-08
-1.62415e-07 4.1374e-08 0.000288456

0.000331264 6.11942e-05 1.44538e-07
6.11942e-05 0.000387904 1.28294e-07
1.44538e-07 1.28294e-07 0.000389468

0.000347881 6.09501e-05 6.13683e-08
6.09501e-05 0.000419986 1.90819e-07
6.13683e-08 1.90819e-07 0.000392539

0.000324447 4.57356e-05 -2.58989e-08
4.57356e-05 0.000392508 2.36165e-08
-2.58989e-08 2.36165e-08 0.00039413

0.000360462 2.25654e-05 8.43495e-08
2.25654e-05 0.000262407 -3.25022e-08
8.43495e-08 -3.25022e-08 0.000300924

0.000274499 -4.42225e-05 4.71124e-08
-4.42225e-05 0.000235877 1.38179e-07
4.71124e-08 1.38179e-07 0.000236747

0.000388475 3.73192e-05 1.85011e-08
3.73192e-05 0.000336339 -1.99867e-08
1.85011e-08 -1.99867e-08 0.000377334

0.000393674 -3.98274e-05 3.03699e-08
-3.98274e-05 0.000311479 -1.63085e-07
3.03699e-08 -1.63085e-07 0.000352967

0.000280948 -3.8558e-05 -2.64809e-08
-3.8558e-05 0.000231378 -1.5662e-08
-2.64809e-08 -1.5662e-08 0.000238547

0.000352991 -6.37275e-05 4.90219e-08
-6.37275e-05 0.000309923 6.05122e-09
4.90219e-08 6.05122e-09 0.000334935

0.000318656 1.62698e-06 -1.32486e-07
1.62698e-06 0.000391355 -1.18476e-07
-1.32486e-07 -1.18476e-07 0.000367304

0.000285986 -4.48541e-07 -1.46376e-07
-4.48541e-07 0.000429708 -5.80693e-08
-1.46376e-07 -5.80693e-08 0.000368891

0.000303781 5.41812e-05 1.26359e-07
5.41812e-05 0.000308807 1.63627e-07
1.26359e-07 1.63627e-07 0.000295968

0.00030426 -4.55582e-05 6.05485e-08
-4.55582e-05 0.000241012 -2.32553e-07
6.05485e-08 -2.32553e-07 0.00025529

0.000354884 -6.55077e-05 -1.00247e-07
-6.55077e-05 0.000376924 -1.13706e-07
-1.00247e-07 -1.13706e-07 0.000387024

0.000299473 -5.888e-05 7.73759e-08
-5.888e-05 0.000329946 -6.25064e-08
7.73759e-08 -6.25064e-08 0.000295891

0.000295607 -5.9678e-05 -2.84746e-08
-5.9678e-05 0.000323638 2.87206e-07
-2.84746e-08 2.87206e-07 0.000295191

0.000384631 3.0356e-05 -2.34784e-08
3.0356e-05 0.000326698 -5.91097e-08
-2.34784e-08 -5.91097e-08 0.00035576

0.000456238 1.98189e-05 -4.98183e-08
1.98189e-05 0.000283128 3.54446e-08
-4.98183e-08 3.54446e-08 0.000409159

0.000447591 -3.06574e-05 6.71672e-08
-3.06574e-05 0.000303495 -5.2885e-08
6.71672e-08 -5.2885e-08 0.000405674

0.000276047 3.41865e-05 -1.44533e-07
3.41865e-05 0.000354302 -1.2586e-07
-1.44533e-07 -1.2586e-07 0.000303107

0.000257578 2.3342e-05 1.20886e-08
2.3342e-05 0.000365458 -1.97445e-08
1.20886e-08 -1.97445e-08 0.000306183

0.000228784 -4.80672e-06 5.1228e-08
-4.80672e-06 0.000331302 1.45699e-07
5.1228e-08 1.45699e-07 0.000264138

0.000218254 -6.49386e-06 -2.00657e-07
-6.49386e-06 0.000336147 -5.36469e-08
-2.00657e-07 -5.36469e-08 0.000265325

0.000332816 -4.59571e-06 1.43504e-07
-4.59571e-06 0.000220567 4.05294e-08
1.43504e-07 4.05294e-08 0.000259973

0.000321343 -5.36424e-05 4.23739e-08
-5.36424e-05 0.000289383 9.35697e-08
4.23739e-08 9.35697e-08 0.00029479

0.000434436 -3.98398e-05 -1.34439e-07
-3.98398e-05 0.0004946 -4.09532e-08
-1.34439e-07 -4.09532e-08 0.000444544

0.000548888 -1.47737e-05 -2.06924e-07
-1.47737e-05 0.000547753 9.86477e-08
-2.06924e-07 9.86477e-08 0.000440587

0.000336916 3.80943e-05 1.04486e-07
3.80943e-05 0.000272589 3.7294e-08
1.04486e-07 3.7294e-08 0.000295953

0.000365347 -2.57757e-05 -1.64077e-07
-2.57757e-05 0.000264524 2.71267e-08
-1.64077e-07 2.71267e-08 0.00030349

0.000284857 2.38159e-05 -7.59208e-08
2.38159e-05 0.000229642 5.86857e-08
-7.59208e-08 5.86857e-08 0.000241153

0.000305647 3.88422e-05 -3.53463e-08
3.88422e-05 0.000388169 -6.52902e-08
-3.53463e-08 -6.52902e-08 0.000366012

0.000432642 6.38352e-07 2.85583e-08
6.38352e-07 0.00029592 6.50121e-08
2.85583e-08 6.50121e-08 0.000365126

0.000351921 5.96114e-05 -7.95498e-08
5.96114e-05 0.000421783 -1.04997e-07
-7.95498e-08 -1.04997e-07 0.000402399

0.000313787 4.70094e-05 1.32793e-08
4.70094e-05 0.000437097 -6.13291e-08
1.32793e-08 -6.13291e-08 0.000405315

0.000270623 3.06593e-05 1.58204e-07
3.06593e-05 0.000303725 -7.6886e-08
1.58204e-07 -7.6886e-08 0.000267702

0.000292205 3.41588e-05 -4.6065e-08
3.41588e-05 0.000282694 9.43391e-08
-4.6065e-08 9.43391e-08 0.000264048

0.000340772 -7.17079e-05 -4.90602e-08
-7.17079e-05 0.00041063 5.26988e-08
-4.90602e-08 5.26988e-08 0.000385067

0.000288074 1.92078e-05 -1.92533e-08
1.92078e-05 0.000230004 -1.01371e-07
-1.92533e-08 -1.01371e-07 0.000242781

0.000327065 5.26128e-05 7.86103e-08
5.26128e-05 0.000380539 -1.09034e-07
7.86103e-08 -1.09034e-07 0.000396215

0.000329842 6.45625e-05 -3.37162e-09
6.45625e-05 0.000390177 -1.25725e-08
-3.37162e-09 -1.25725e-08 0.000361375

0.000459657 -9.49671e-07 -7.53723e-08
-9.49671e-07 0.000297763 8.83476e-08
-7.53723e-08 8.83476e-08 0.000391294

0.000341593 -4.85528e-05 -1.48103e-07
-4.85528e-05 0.000380325 1.30161e-08
-1.48103e-07 1.30161e-08 0.000395258

0.00034357 5.32332e-05 -6.76914e-08
5.32332e-05 0.000347639 -1.85139e-07
-6.76914e-08 -1.85139e-07 0.000341

0.000269919 -2.6251e-05 2.21741e-09
-2.6251e-05 0.000342385 1.73614e-07
2.21741e-09 1.73614e-07 0.000281074

0.000252358 -2.48127e-05 -9.1273e-08
-2.48127e-05 0.000345951 -1.15944e-07
-9.1273e-08 -1.15944e-07 0.00028191

0.000336685 -1.87672e-05 2.12882e-07
-1.87672e-05 0.000263146 -1.05851e-07
2.12882e-07 -1.05851e-07 0.000275779

0.000320903 -4.81878e-05 4.90861e-08
-4.81878e-05 0.00032761 -9.35481e-08
4.90861e-08 -9.35481e-08 0.000305043

0.000286374 -3.57788e-06 -1.53136e-07
-3.57788e-06 0.000398489 7.80109e-08
-1.53136e-07 7.80109e-08 0.000337838

0.000318892 -5.81403e-07 -1.35446e-07
-5.81403e-07 0.000384793 -5.89469e-08
-1.35446e-07 -5.89469e-08 0.000335664

0.000263184 -5.21772e-05 -7.48332e-08
-5.21772e-05 0.000287142 1.54117e-08
-7.48332e-08 1.54117e-08 0.000254192

0.000249528 -5.03525e-05 1.75665e-07
-5.03525e-05 0.000296154 -1.46629e-07
1.75665e-07 -1.46629e-07 0.000255987

0.000457873 -2.50196e-06 6.96405e-08
-2.50196e-06 0.000306574 -1.31543e-07
6.96405e-08 -1.31543e-07 0.000392075

0.000461493 2.72417e-06 -1.278e-07
2.72417e-06 0.000304889 1.87003e-09
-1.278e-07 1.87003e-09 0.000391529

0.00032607 4.98394e-05 -1.02142e-07
4.98394e-05 0.000375036 -3.67387e-08
-1.02142e-07 -3.67387e-08 0.000371309

0.000314463 -4.11104e-05 -5.32123e-08
-4.11104e-05 0.000431307 -5.09348e-08
-5.32123e-08 -5.09348e-08 0.000403969

0.000381329 -6.38473e-05 -4.09733e-08
-6.38473e-05 0.000346329 9.18994e-08
-4.09733e-08 9.18994e-08 0.000374818

0.000405612 2.47632e-05 2.71222e-07
2.47632e-05 0.000379267 -7.96412e-08
2.71222e-07 -7.96412e-08 0.000406379

0.000411819 -7.67515e-06 -1.12264e-07
-7.67515e-06 0.000387427 5.98625e-08
-1.12264e-07 5.98625e-08 0.000405119

0.000394586 -2.65311e-05 1.57842e-07
-2.65311e-05 0.00036518 8.04182e-09
1.57842e-07 8.04182e-09 0.000375018

0.000393012 3.20144e-05 -3.33086e-08
3.20144e-05 0.000350047 1.09053e-07
-3.33086e-08 1.09053e-07 0.000376937

0.000183408 -2.64789e-05 -6.42346e-08
-2.64789e-05 0.0001245 -3.11695e-08
-6.42346e-08 -3.11695e-08 0.000197547

0.000291152 5.11988e-05 -6.17314e-08
5.11988e-05 0.000324234 -3.06761e-07
-6.17314e-08 -3.06761e-07 0.000297151

0.000142042 1.87189e-05 2.23897e-08
1.87189e-05 0.000180733 -7.66392e-08
2.23897e-08 -7.66392e-08 0.000197312

0.000339719 5.74635e-05 7.74426e-08
5.74635e-05 0.000372474 5.70038e-08
7.74426e-08 5.70038e-08 0.000360631

0.000277046 -4.02372e-05 5.95937e-08
-4.02372e-05 0.000362728 3.73842e-09
5.95937e-08 3.73842e-09 0.000306712

0.000258397 -3.59202e-05 -8.24495e-08
-3.59202e-05 0.000363099 -1.38691e-07
-8.24495e-08 -1.38691e-07 0.000307476

0.000452357 -1.17571e-05 2.44039e-07
-1.17571e-05 0.000437866 -5.6573e-08
2.44039e-07 -5.6573e-08 0.00043549

0.000430005 3.36188e-05 8.25741e-08
3.36188e-05 0.000467783 -4.90181e-11
8.25741e-08 -4.90181e-11 0.000435779

0.000359762 3.78359e-05 5.77754e-08
3.78359e-05 0.000330489 -7.71657e-08
5.77754e-08 -7.71657e-08 0.000343821

0.00039151 -3.87256e-06 -9.49445e-09
-3.87256e-06 0.000281177 1.17318e-07
-9.49445e-09 1.17318e-07 0.000323294

0.000321444 4.28794e-05 -1.14808e-07
4.28794e-05 0.000282112 5.11587e-08
-1.14808e-07 5.11587e-08 0.000293718

0.000298701 -2.46103e-05 9.54029e-08
-2.46103e-05 0.00042341 5.66731e-08
9.54029e-08 5.66731e-08 0.00037235

0.000327001 -4.05598e-05 8.79894e-09
-4.05598e-05 0.000399419 -1.44916e-07
8.79894e-09 -1.44916e-07 0.000370666

0.000339721 -7.3731e-05 -5.25785e-08
-7.3731e-05 0.000431568 6.30265e-08
-5.25785e-08 6.30265e-08 0.000390599

0.000360239 -4.12422e-05 -1.45924e-07
-4.12422e-05 0.000344851 -9.59754e-08
-1.45924e-07 -9.59754e-08 0.000342

0.00034028 6.86833e-05 1.70173e-07
6.86833e-05 0.000414275 2.21796e-08
1.70173e-07 2.21796e-08 0.000390054

0.00039337 3.20052e-05 -4.79641e-08
3.20052e-05 0.000438719 -5.73248e-08
-4.79641e-08 -5.73248e-08 0.000413621

0.000397913 4.79846e-05 -1.13326e-07
4.79846e-05 0.000423107 -1.02789e-07
-1.13326e-07 -1.02789e-07 0.000413143

0.000330926 -6.48867e-05 1.49966e-07
-6.48867e-05 0.000406004 -6.52271e-08
1.49966e-07 -6.52271e-08 0.000368007

0.000337628 5.85454e-05 1.07519e-07
5.85454e-05 0.000393673 -5.55766e-08
1.07519e-07 -5.55766e-08 0.000366985

0.000295827 7.35127e-05 -2.16726e-09
7.35127e-05 0.000397777 2.57669e-08
-2.16726e-09 2.57669e-08 0.000395535

0.000265834 6.91604e-06 8.40057e-09
6.91604e-06 0.000393148 -9.5385e-09
8.40057e-09 -9.5385e-09 0.000329013

0.00028586 1.6478e-05 -1.75988e-07
1.6478e-05 0.000376005 -3.69555e-08
-1.75988e-07 -3.69555e-08 0.000326006

0.000354678 4.52311e-05 2.29554e-07
4.52311e-05 0.00034702 7.09274e-08
2.29554e-07 7.09274e-08 0.000363985

0.000320672 3.83699e-05 -1.33732e-07
3.83699e-05 0.000316642 -2.27386e-07
-1.33732e-07 -2.27386e-07 0.000307473

0.000292826 -4.04069e-05 -1.28571e-07
-4.04069e-05 0.000385431 -5.21243e-08
-1.28571e-07 -5.21243e-08 0.00034784

0.000352333 -6.92532e-05 9.76762e-08
-6.92532e-05 0.000428067 3.79311e-09
9.76762e-08 3.79311e-09 0.000400098

0.000205002 2.25164e-05 1.17613e-07
2.25164e-05 0.000237766 -5.30617e-08
1.17613e-07 -5.30617e-08 0.000208252

0.000230193 2.41946e-05 4.20671e-08
2.41946e-05 0.000210759 2.02893e-08
4.20671e-08 2.02893e-08 0.000208315

0.000273767 -5.12225e-05 1.44481e-07
-5.12225e-05 0.000286593 -1.65129e-07
1.44481e-07 -1.65129e-07 0.000261363

0.000353925 -4.74002e-05 -2.0609e-07
-4.74002e-05 0.000359999 -4.45334e-08
-2.0609e-07 -4.45334e-08 0.000361582

0.000403756 -1.43148e-05 6.36004e-08
-1.43148e-05 0.000288912 7.75706e-08
6.36004e-08 7.75706e-08 0.000348073

0.000477026 5.14273e-05 -4.46057e-07
5.14273e-05 0.000508528 1.20888e-07
-4.46057e-07 1.20888e-07 0.000445403

0.000523742 -5.64044e-05 -5.58742e-08
-5.64044e-05 0.000444932 -1.2606e-07
-5.58742e-08 -1.2606e-07 0.000445538

0.000328076 -7.05038e-05 6.88652e-08
-7.05038e-05 0.000401198 -1.04829e-07
6.88652e-08 -1.04829e-07 0.000364149

0.000441824 1.33342e-05 8.81102e-09
1.33342e-05 0.000412083 2.23076e-08
8.81102e-09 2.23076e-08 0.000430253

0.000449093 -5.34195e-05 -2.95322e-08
-5.34195e-05 0.000450343 1.79977e-07
-2.95322e-08 1.79977e-07 0.000427173

0.000399886 -1.89466e-05 -9.91309e-08
-1.89466e-05 0.000296159 8.16598e-08
-9.91309e-08 8.16598e-08 0.000365305

0.000308237 -7.29267e-05 -9.18985e-08
-7.29267e-05 0.000392344 1.07235e-07
-9.18985e-08 1.07235e-07 0.000394105

0.000218508 -4.47053e-05 2.86204e-08
-4.47053e-05 0.000237455 1.34908e-07
2.86204e-08 1.34908e-07 0.000217244

0.000231878 3.27594e-05 5.53684e-08
3.27594e-05 0.000230439 6.39146e-08
5.53684e-08 6.39146e-08 0.000218186

0.000215254 -2.68781e-05 7.16501e-08
-2.68781e-05 0.00027947 -1.12341e-07
7.16501e-08 -1.12341e-07 0.000230596

0.000220797 -2.92862e-05 1.82907e-08
-2.92862e-05 0.000282997 1.31855e-08
1.82907e-08 1.31855e-08 0.000234765

0.000284654 -2.22497e-05 -1.36156e-07
-2.22497e-05 0.000214401 -4.52958e-08
-1.36156e-07 -4.52958e-08 0.000229689

0.000287494 3.95104e-05 -1.28151e-07
3.95104e-05 0.000278665 -3.78872e-08
-1.28151e-07 -3.78872e-08 0.000264588

0.000336582 -7.82892e-05 -7.08856e-08
-7.82892e-05 0.000425051 3.3125e-08
-7.08856e-08 3.3125e-08 0.000389045

0.000188973 4.12188e-06 -6.81473e-08
4.12188e-06 0.000269413 -6.06884e-08
-6.81473e-08 -6.06884e-08 0.000217715

0.000265151 -1.23362e-05 5.74434e-09
-1.23362e-05 0.00018813 -7.34331e-08
5.74434e-09 -7.34331e-08 0.000218896

0.000405368 6.35203e-06 1.18718e-07
6.35203e-06 0.000487202 1.40438e-07
1.18718e-07 1.40438e-07 0.000424931

0.000413442 -3.21809e-05 -6.32277e-08
-3.21809e-05 0.000444079 -9.14582e-08
-6.32277e-08 -9.14582e-08 0.000426044

0.000417493 -3.64254e-05 -1.11463e-07
-3.64254e-05 0.000341613 4.9645e-08
-1.11463e-07 4.9645e-08 0.000384098

0.000433273 -2.14916e-06 1.3908e-08
-2.14916e-06 0.00025831 -3.46866e-08
1.3908e-08 -3.46866e-08 0.00039517

0.000246533 -3.90315e-05 1.3937e-07
-3.90315e-05 0.00032014 1.62007e-07
1.3937e-07 1.62007e-07 0.00027345

0.000259077 -3.95518e-05 -8.25019e-08
-3.95518e-05 0.00032608 7.23438e-08
-8.25019e-08 7.23438e-08 0.000274307

0.00040668 -2.22067e-06 -1.31728e-07
-2.22067e-06 0.000293097 -8.17865e-08
-1.31728e-07 -8.17865e-08 0.00036755

0.000307702 -5.40162e-05 -4.82628e-08
-5.40162e-05 0.000387872 -1.34137e-08
-4.82628e-08 -1.34137e-08 0.000346853

0.000444448 1.03818e-06 6.77993e-08
1.03818e-06 0.000418693 1.51116e-07
6.77993e-08 1.51116e-07 0.000426888

0.000424185 1.60036e-05 -4.27448e-08
1.60036e-05 0.000434347 -1.47731e-07
-4.27448e-08 -1.47731e-07 0.000427466

0.000393101 -5.07529e-05 1.75104e-08
-5.07529e-05 0.000358629 1.31295e-07
1.75104e-08 1.31295e-07 0.000380114

0.00033399 -5.18617e-05 -1.34372e-08
-5.18617e-05 0.000368706 -1.54575e-07
-1.34372e-08 -1.54575e-07 0.000368396

0.000417589 -3.63773e-05 -1.04162e-07
-3.63773e-05 0.0003019 -9.51689e-08
-1.04162e-07 -9.51689e-08 0.000376562

0.000315181 -4.5937e-05 1.81073e-08
-4.5937e-05 0.000384657 -1.33809e-07
1.81073e-08 -1.33809e-07 0.000366012

0.000174742 -8.69624e-05 1.37347e-07
-8.69624e-05 0.000182121 1.06934e-07
1.37347e-07 1.06934e-07 0.000182508

0.000292752 -2.01999e-05 6.28126e-08
-2.01999e-05 0.000374215 1.08898e-08
6.28126e-08 1.08898e-08 0.000326908

0.000271638 -1.48217e-05 5.0861e-08
-1.48217e-05 0.000392396 1.49868e-07
5.0861e-08 1.49868e-07 0.000328828

0.000390591 -7.14093e-06 -3.82459e-08
-7.14093e-06 0.000518653 1.09885e-07
-3.82459e-08 1.09885e-07 0.000426954

0.000417462 -8.6615e-06 5.14365e-08
-8.6615e-06 0.00043861 -2.37647e-07
5.14365e-08 -2.37647e-07 0.000429063

0.000464114 -4.78532e-06 -1.41416e-07
-4.78532e-06 0.000320035 1.96546e-08
-1.41416e-07 1.96546e-08 0.000404214

0.000454092 2.63897e-06 1.31419e-07
2.63897e-06 0.000326399 -5.10205e-08
1.31419e-07 -5.10205e-08 0.000404746

0.000399038 3.76843e-05 1.42232e-07
3.76843e-05 0.000376122 4.23513e-08
1.42232e-07 4.23513e-08 0.000403431

0.000412829 -6.82114e-05 1.15904e-07
-6.82114e-05 0.000370564 8.5756e-08
1.15904e-07 8.5756e-08 0.000399752

0.000440427 1.37522e-05 4.81585e-08
1.37522e-05 0.000433787 -1.45029e-07
4.81585e-08 -1.45029e-07 0.000425647

0.000463897 -2.41111e-05 -7.26085e-08
-2.41111e-05 0.000429181 -4.92687e-09
-7.26085e-08 -4.92687e-09 0.000423583

0.00047593 -2.69648e-05 2.18541e-07
-2.69648e-05 0.00044854 -1.10007e-07
2.18541e-07 -1.10007e-07 0.000442288

0.000467834 8.05044e-05 5.8884e-08
8.05044e-05 0.000505157 9.13498e-08
5.8884e-08 9.13498e-08 0.000442361

0.000355481 -7.07671e-05 1.84867e-08
-7.07671e-05 0.000429732 4.86973e-08
1.84867e-08 4.86973e-08 0.000403106

0.000336767 8.74663e-05 5.03573e-08
8.74663e-05 0.000395272 -1.15194e-07
5.03573e-08 -1.15194e-07 0.000408144

0.000362143 3.51973e-05 5.78111e-08
3.51973e-05 0.000304739 -7.73307e-08
5.78111e-08 -7.73307e-08 0.000336493

0.000297651 -3.01005e-05 1.01724e-07
-3.01005e-05 0.000396869 9.88407e-08
1.01724e-07 9.88407e-08 0.000350869

0.000325416 -4.58709e-05 3.97632e-08
-4.58709e-05 0.000391437 3.59369e-08
3.97632e-08 3.59369e-08 0.000348948

0.000363253 -3.73615e-05 -1.29448e-07
-3.73615e-05 0.000312892 -1.70656e-08
-1.29448e-07 -1.70656e-08 0.000335432

0.000325593 3.44152e-05 -2.10232e-08
3.44152e-05 0.000384081 3.6636e-08
-2.10232e-08 3.6636e-08 0.000346858

0.000296828 2.05893e-05 8.06704e-08
2.05893e-05 0.000398415 3.3693e-08
8.06704e-08 3.3693e-08 0.000350117

0.000330055 4.87663e-05 4.97845e-08
4.87663e-05 0.000327419 -7.56546e-08
4.97845e-08 -7.56546e-08 0.000331107

0.000366035 5.87131e-05 -5.75934e-08
5.87131e-05 0.000415807 1.46554e-07
-5.75934e-08 1.46554e-07 0.000405431

0.000362917 -7.84534e-05 5.08994e-08
-7.84534e-05 0.00039439 -3.85549e-08
5.08994e-08 -3.85549e-08 0.000406338

0.000333728 -6.03121e-05 1.87986e-08
-6.03121e-05 0.000338999 -6.7204e-08
1.87986e-08 -6.7204e-08 0.000329089

0.000420818 1.70589e-05 1.27916e-08
1.70589e-05 0.00034679 -1.7913e-08
1.27916e-08 -1.7913e-08 0.000391395

0.000549268 -2.59928e-05 1.41014e-07
-2.59928e-05 0.000534261 -1.15036e-07
1.41014e-07 -1.15036e-07 0.000439805

0.000448771 1.64602e-05 -2.22856e-07
1.64602e-05 0.000464265 1.06089e-07
-2.22856e-07 1.06089e-07 0.000443952

0.000354263 -5.93912e-05 -1.16247e-07
-5.93912e-05 0.000412425 -5.95827e-08
-1.16247e-07 -5.95827e-08 0.000382769

0.000392136 -5.85281e-05 1.48436e-08
-5.85281e-05 0.000329184 9.41529e-08
1.48436e-08 9.41529e-08 0.00037083

0.000453798 -5.08271e-06 5.9405e-08
-5.08271e-06 0.000389673 -7.12195e-08
5.9405e-08 -7.12195e-08 0.000415627

0.000218782 -4.12531e-05 4.18124e-08
-4.12531e-05 0.000234497 1.70887e-07
4.18124e-08 1.70887e-07 0.000210566

0.000238591 -3.69337e-05 -1.27618e-07
-3.69337e-05 0.000213351 -4.49702e-08
-1.27618e-07 -4.49702e-08 0.000211337

0.000465305 3.92976e-06 -1.64272e-07
3.92976e-06 0.000339841 -8.72293e-09
-1.64272e-07 -8.72293e-09 0.000410482

0.000447465 -2.81261e-06 -6.92697e-08
-2.81261e-06 0.000348394 1.85048e-07
-6.92697e-08 1.85048e-07 0.000410798

0.00046153 -7.61878e-07 -5.8639e-08
-7.61878e-07 0.000362059 6.5723e-08
-5.8639e-08 6.5723e-08 0.000419277

0.000360588 2.51127e-05 8.36274e-08
2.51127e-05 0.000289849 -5.704e-08
8.36274e-08 -5.704e-08 0.000310024

0.000379636 -3.76069e-05 1.04859e-07
-3.76069e-05 0.000409004 9.27069e-08
1.04859e-07 9.27069e-08 0.000393818

0.000379982 4.56054e-05 -1.89017e-07
4.56054e-05 0.000381494 -1.87766e-07
-1.89017e-07 -1.87766e-07 0.000396371

0.000517008 -4.21407e-05 -2.01483e-07
-4.21407e-05 0.000424665 -1.50368e-09
-2.01483e-07 -1.50368e-09 0.000445047

0.000519605 -4.46498e-06 1.84035e-09
-4.46498e-06 0.000564429 -1.22267e-07
1.84035e-09 -1.22267e-07 0.00044065

0.000329172 -6.64955e-05 9.10428e-08
-6.64955e-05 0.000410775 2.39922e-08
9.10428e-08 2.39922e-08 0.000378346

0.00038656 -4.6602e-05 1.16295e-07
-4.6602e-05 0.000314024 1.53709e-08
1.16295e-07 1.53709e-08 0.000349866

0.000425642 1.01904e-05 1.28013e-07
1.01904e-05 0.000387579 7.29829e-08
1.28013e-07 7.29829e-08 0.000408288

0.00043665 1.40746e-06 -6.06133e-09
1.40746e-06 0.000378237 1.74099e-07
-6.06133e-09 1.74099e-07 0.00040744

0.0003305 -2.67484e-05 6.1525e-08
-2.67484e-05 0.000410882 8.03385e-08
6.1525e-08 8.03385e-08 0.000385556

0.000327352 -4.89489e-05 5.11964e-08
-4.89489e-05 0.000386451 9.04361e-08
5.11964e-08 9.04361e-08 0.00039256

0.000188095 7.37486e-05 1.39317e-07
7.37486e-05 0.000176701 -2.02985e-07
1.39317e-07 -2.02985e-07 0.000184191

0.000382352 3.91189e-05 9.52716e-08
3.91189e-05 0.000430719 -1.48107e-07
9.52716e-08 -1.48107e-07 0.000413581

0.00038185 -5.14262e-05 7.34421e-08
-5.14262e-05 0.000424892 8.35332e-09
7.34421e-08 8.35332e-09 0.0004124

0.000314297 -4.66714e-05 5.98929e-08
-4.66714e-05 0.00040027 7.98423e-08
5.98929e-08 7.98423e-08 0.000382247

0.000365849 -3.08219e-05 -1.62979e-07
-3.08219e-05 0.000300581 1.01239e-08
-1.62979e-07 1.01239e-08 0.000312267

0.000387927 3.43762e-05 1.71844e-08
3.43762e-05 0.000376609 -4.03925e-08
1.71844e-08 -4.03925e-08 0.000384003

0.000398437 3.51539e-05 1.71177e-07
3.51539e-05 0.000403716 -6.67037e-08
1.71177e-07 -6.67037e-08 0.000405046

0.000421382 -5.50788e-05 8.47867e-08
-5.50788e-05 0.000373946 -5.61694e-09
8.47867e-08 -5.61694e-09 0.000403538

0.000420701 1.35524e-05 1.46731e-08
1.35524e-05 0.000302496 8.07753e-08
1.46731e-08 8.07753e-08 0.00038362

0.000443888 -5.98389e-06 -1.08699e-07
-5.98389e-06 0.000405255 -1.0923e-08
-1.08699e-07 -1.0923e-08 0.000422732

0.000461128 9.83368e-06 -1.66342e-07
9.83368e-06 0.000384338 1.55624e-09
-1.66342e-07 1.55624e-09 0.000422524

0.000437707 1.86071e-05 -8.54613e-08
1.86071e-05 0.000558755 1.14999e-07
-8.54613e-08 1.14999e-07 0.000437011

0.000433615 3.47586e-06 -8.46833e-08
3.47586e-06 0.000506278 -3.4255e-08
-8.46833e-08 -3.4255e-08 0.000440601

0.000188397 -1.85505e-05 -1.29721e-07
-1.85505e-05 0.000141175 1.32592e-07
-1.29721e-07 1.32592e-07 0.000197477

0.000124632 -1.25862e-05 1.31388e-07
-1.25862e-05 0.000196708 6.35905e-08
1.31388e-07 6.35905e-08 0.000197394

0.000353645 -5.84145e-05 -1.96555e-07
-5.84145e-05 0.000424024 -1.23386e-07
-1.96555e-07 -1.23386e-07 0.000389907

0.000353145 5.06623e-05 7.14926e-08
5.06623e-05 0.00038412 2.09917e-07
7.14926e-08 2.09917e-07 0.000393971

0.000338795 -7.82781e-05 1.02125e-07
-7.82781e-05 0.000425004 8.83856e-09
1.02125e-07 8.83856e-09 0.000387726

0.000176008 2.02136e-05 1.72127e-07
2.02136e-05 0.000172807 8.64581e-08
1.72127e-07 8.64581e-08 0.000193577

0.000182818 3.00869e-05 -3.2584e-08
3.00869e-05 0.00016336 -2.29495e-07
-3.2584e-08 -2.29495e-07 0.000193889

0.000368523 6.40555e-05 -2.93968e-07
6.40555e-05 0.000575136 -1.72839e-08
-2.93968e-07 -1.72839e-08 0.000446908

0.000432131 -5.10205e-05 3.9333e-08
-5.10205e-05 0.000530326 -3.95649e-08
3.9333e-08 -3.95649e-08 0.000447016

0.000367229 4.76942e-05 -7.0641e-08
4.76942e-05 0.000369035 3.53874e-08
-7.0641e-08 3.53874e-08 0.000377486

0.00032939 -5.70665e-05 1.33548e-07
-5.70665e-05 0.000362783 1.29024e-07
1.33548e-07 1.29024e-07 0.000338038

0.000353712 -5.61853e-05 -2.06152e-07
-5.61853e-05 0.000396688 -6.91507e-08
-2.06152e-07 -6.91507e-08 0.000383479

0.000355164 5.65267e-05 -5.82871e-09
5.65267e-05 0.000376847 -2.83018e-07
-5.82871e-09 -2.83018e-07 0.000386746

0.000331183 -6.58442e-05 1.7211e-07
-6.58442e-05 0.000382922 7.78599e-08
1.7211e-07 7.78599e-08 0.000357675

0.000325714 4.61033e-05 -6.44445e-08
4.61033e-05 0.000348994 1.18394e-07
-6.44445e-08 1.18394e-07 0.000340336

0.000213132 -2.3909e-05 -1.90689e-07
-2.3909e-05 0.000284162 -7.92536e-09
-1.90689e-07 -7.92536e-09 0.000235644

0.000224596 -2.06433e-05 -3.2119e-10
-2.06433e-05 0.000282164 -1.31857e-07
-3.2119e-10 -1.31857e-07 0.000233774

0.00028631 -1.6914e-05 -1.28195e-07
-1.6914e-05 0.000218057 3.13681e-09
-1.28195e-07 3.13681e-09 0.000232193

0.000325708 5.17066e-05 -1.17289e-07
5.17066e-05 0.000365422 4.09958e-08
-1.17289e-07 4.09958e-08 0.000360444

0.000190106 -2.3067e-06 -1.62496e-07
-2.3067e-06 0.000266743 -4.42835e-08
-1.62496e-07 -4.42835e-08 0.000218512

0.000262819 4.78257e-06 -1.36109e-07
4.78257e-06 0.000198116 9.93795e-09
-1.36109e-07 9.93795e-09 0.000217345

0.000370013 -5.36699e-05 -9.78227e-09
-5.36699e-05 0.000421276 -1.62995e-07
-9.78227e-09 -1.62995e-07 0.000403676

0.00037403 6.5358e-05 3.56346e-08
6.5358e-05 0.000389021 2.02988e-07
3.56346e-08 2.02988e-07 0.000407153

0.000376107 -4.25814e-05 7.54294e-08
-4.25814e-05 0.000425959 1.2792e-07
7.54294e-08 1.2792e-07 0.000406939

0.000376419 5.75248e-05 6.26101e-08
5.75248e-05 0.000414626 1.0948e-07
6.26101e-08 1.0948e-07 0.000409277

0.000165845 -3.84707e-05 1.50085e-07
-3.84707e-05 0.000172076 -3.05716e-08
1.50085e-07 -3.05716e-08 0.000190346

0.000164035 -3.72443e-05 1.02686e-07
-3.72443e-05 0.000173688 1.09902e-07
1.02686e-07 1.09902e-07 0.000190948

0.000353928 4.748e-05 2.49235e-07
4.748e-05 0.000364498 -9.99677e-08
2.49235e-07 -9.99677e-08 0.000371378

0.000352699 -5.15845e-05 -2.08515e-07
-5.15845e-05 0.000390675 -6.74726e-08
-2.08515e-07 -6.74726e-08 0.000368307

0.000429464 -1.25952e-05 -7.95112e-08
-1.25952e-05 0.000489327 1.51981e-07
-7.95112e-08 1.51981e-07 0.000429885

0.000428926 -1.62549e-05 -9.36004e-08
-1.62549e-05 0.000442172 -8.96903e-08
-9.36004e-08 -8.96903e-08 0.000432468

0.00036354 -5.60075e-05 -3.83937e-08
-5.60075e-05 0.000448214 -1.14053e-07
-3.83937e-08 -1.14053e-07 0.000411342

0.000350896 5.98803e-05 -2.22002e-08
5.98803e-05 0.000429833 1.11267e-07
-2.22002e-08 1.11267e-07 0.00041458

0.000444561 -6.88221e-07 6.54257e-08
-6.88221e-07 0.000377771 1.29473e-07
6.54257e-08 1.29473e-07 0.00042166

0.000425496 1.24738e-05 -5.45242e-08
1.24738e-05 0.000390483 -4.08229e-08
-5.45242e-08 -4.08229e-08 0.000422172

0.000364369 5.27237e-05 -1.10938e-07
5.27237e-05 0.000401395 -4.66948e-08
-1.10938e-07 -4.66948e-08 0.000391216

0.000372837 -5.5609e-05 -9.8138e-09
-5.5609e-05 0.000374046 -2.22125e-09
-9.8138e-09 -2.22125e-09 0.000389242

0.000411108 -2.30972e-05 -7.97718e-08
-2.30972e-05 0.000487341 6.8944e-08
-7.97718e-08 6.8944e-08 0.000434579

0.00046485 2.27513e-05 -1.046e-07
2.27513e-05 0.000434642 -2.49806e-07
-1.046e-07 -2.49806e-07 0.000435489

0.000496211 -5.52544e-05 2.29579e-08
-5.52544e-05 0.000456548 -6.96734e-08
2.29579e-08 -6.96734e-08 0.000432508

0.000408136 -9.54332e-06 1.45179e-07
-9.54332e-06 0.000535231 -1.16117e-07
1.45179e-07 -1.16117e-07 0.0004323

0.000449455 1.57795e-05 -1.62772e-07
1.57795e-05 0.000434586 -5.11969e-08
-1.62772e-07 -5.11969e-08 0.000434563

0.000419835 2.34495e-06 -3.36275e-07
2.34495e-06 0.000484816 1.09361e-07
-3.36275e-07 1.09361e-07 0.000442316

0.000475603 -1.73249e-05 4.17316e-09
-1.73249e-05 0.000416765 -1.25448e-07
4.17316e-09 -1.25448e-07 0.000434555

0.000471617 -7.18865e-06 1.35354e-08
-7.18865e-06 0.000438939 -1.16785e-07
1.35354e-08 -1.16785e-07 0.000442293

0.000435027 -3.03888e-05 -6.06072e-08
-3.03888e-05 0.000466368 6.60883e-08
-6.06072e-08 6.60883e-08 0.000438587

0.000452185 7.34157e-05 -4.89362e-07
7.34157e-05 0.000513067 -5.9897e-07
-4.89362e-07 -5.9897e-07 0.000439147

0.000578544 2.02199e-05 2.16527e-06
2.02199e-05 0.000562441 -1.67899e-06
2.16527e-06 -1.67899e-06 0.000447033

0.00064582 -4.13191e-05 -2.3782e-06
-4.13191e-05 0.000361561 -8.3332e-07
-2.3782e-06 -8.3332e-07 0.000447354

0.000454106 -3.92222e-05 -1.36735e-08
-3.92222e-05 0.000449311 -5.0531e-09
-1.36735e-08 -5.0531e-09 0.00043509

0.000407236 -2.92943e-05 1.09064e-07
-2.92943e-05 0.000456715 -8.63286e-08
1.09064e-07 -8.63286e-08 0.000424776

0.000473833 6.86655e-05 -1.59363e-07
6.86655e-05 0.000448927 -9.8761e-08
-1.59363e-07 -9.8761e-08 0.000435934

0.000413903 3.87291e-05 1.18e-07
3.87291e-05 0.00043556 8.49069e-08
1.18e-07 8.49069e-08 0.000426458

0.000465638 7.8648e-05 -7.32713e-08
7.8648e-05 0.000532217 -4.97437e-07
-7.32713e-08 -4.97437e-07 0.000444007

0.00046764 -8.22781e-06 8.86404e-08
-8.22781e-06 0.000446134 4.6874e-07
8.86404e-08 4.6874e-07 0.000444084

0.000406779 -2.60959e-05 1.15481e-07
-2.60959e-05 0.000446968 -1.64955e-07
1.15481e-07 -1.64955e-07 0.000428445

0.000451436 -1.50455e-05 2.35799e-07
-1.50455e-05 0.00044952 -1.27486e-07
2.35799e-07 -1.27486e-07 0.000436964

0.000417992 6.46235e-05 1.1828e-07
6.46235e-05 0.00045617 8.83346e-08
1.1828e-07 8.83346e-08 0.000429498

0.000427934 4.24558e-05 7.05771e-08
4.24558e-05 0.000469013 1.03192e-07
7.05771e-08 1.03192e-07 0.000437328

0.000325493 1.50409e-05 3.66038e-09
1.50409e-05 0.000430909 2.51979e-08
3.66038e-09 2.51979e-08 0.000384975

0.000403859 -5.88822e-06 8.05519e-08
-5.88822e-06 0.000434431 -4.80052e-08
8.05519e-08 -4.80052e-08 0.000409858

0.000405855 1.45923e-05 9.40891e-08
1.45923e-05 0.000287143 4.9491e-08
9.40891e-08 4.9491e-08 0.000344461

0.000389824 3.3911e-06 -8.76226e-08
3.3911e-06 0.000279507 -5.76624e-08
-8.76226e-08 -5.76624e-08 0.000320008

0.000324904 1.69183e-05 5.41083e-10
1.69183e-05 0.000466932 6.14806e-08
5.41083e-10 6.14806e-08 0.000407398

0.000405561 4.63659e-06 8.8943e-08
4.63659e-06 0.000448966 4.95681e-08
8.8943e-08 4.95681e-08 0.000436958

0.000392116 -5.63892e-06 -8.39524e-08
-5.63892e-06 0.000280612 -8.63561e-08
-8.39524e-08 -8.63561e-08 0.000322912

0.000448161 -3.2584e-06 3.00368e-08
-3.2584e-06 0.000317696 -9.40595e-08
3.00368e-08 -9.40595e-08 0.000389961

0.000231019 -3.32996e-05 -1.37794e-08
-3.32996e-05 0.000305377 2.0159e-08
-1.37794e-08 2.0159e-08 0.000253915

0.000259805 5.3964e-05 2.08422e-08
5.3964e-05 0.000317261 -6.76974e-08
2.08422e-08 -6.76974e-08 0.000263203

0.000300657 5.15719e-05 1.98677e-08
5.15719e-05 0.000245485 -4.45344e-08
1.98677e-08 -4.45344e-08 0.000258757

0.000416502 6.19265e-05 1.13124e-07
6.19265e-05 0.000453671 5.0057e-08
1.13124e-07 5.0057e-08 0.000428492

0.000386 -2.14895e-05 1.23524e-07
-2.14895e-05 0.000447764 -2.08824e-08
1.23524e-07 -2.08824e-08 0.000414463

0.00035655 5.28688e-05 1.49859e-07
5.28688e-05 0.000384632 -1.0746e-07
1.49859e-07 -1.0746e-07 0.000355902

0.000384123 4.65099e-05 -6.25058e-08
4.65099e-05 0.000446893 -5.67123e-08
-6.25058e-08 -5.67123e-08 0.000423125

0.000318499 -1.72447e-05 -3.17844e-08
-1.72447e-05 0.000467549 7.3533e-08
-3.17844e-08 7.3533e-08 0.000405836

0.000412425 -1.04795e-05 6.21678e-08
-1.04795e-05 0.000299199 -5.93501e-08
6.21678e-08 -5.93501e-08 0.000365409

0.000280165 2.44915e-05 -3.34435e-09
2.44915e-05 0.000355927 -2.19685e-08
-3.34435e-09 -2.19685e-08 0.000286556

0.000247525 -6.60541e-06 -2.71622e-08
-6.60541e-06 0.000347035 -5.53436e-09
-2.71622e-08 -5.53436e-09 0.000278527

0.000344849 2.54514e-05 -2.99233e-08
2.54514e-05 0.0002608 -1.24588e-08
-2.99233e-08 -1.24588e-08 0.000279868

0.000357151 -2.63203e-05 4.517e-08
-2.63203e-05 0.000269184 -2.95686e-08
4.517e-08 -2.95686e-08 0.00030166

0.000297579 4.48617e-05 3.55152e-08
4.48617e-05 0.000367669 -8.91731e-08
3.55152e-08 -8.91731e-08 0.000326562

0.000353488 -3.44177e-05 1.06503e-07
-3.44177e-05 0.000378828 1.86645e-07
1.06503e-07 1.86645e-07 0.00034433

0.000410801 -1.68513e-05 -1.13886e-07
-1.68513e-05 0.000286598 -7.43619e-08
-1.13886e-07 -7.43619e-08 0.000349131

0.000247204 3.40486e-05 9.2996e-08
3.40486e-05 0.000286789 6.66834e-08
9.2996e-08 6.66834e-08 0.000234866

0.00044025 3.66195e-06 3.7973e-09
3.66195e-06 0.000305983 -5.32002e-08
3.7973e-09 -5.32002e-08 0.000381373

0.000273143 3.6634e-05 -1.43707e-09
3.6634e-05 0.000237393 -5.66402e-08
-1.43707e-09 -5.66402e-08 0.000232516

0.000385881 4.30075e-06 -3.12865e-08
4.30075e-06 0.000467528 7.38526e-08
-3.12865e-08 7.38526e-08 0.000415692

0.000437354 2.14174e-05 -1.08596e-07
2.14174e-05 0.000457208 -2.72163e-08
-1.08596e-07 -2.72163e-08 0.000440145

0.000461236 -5.49641e-05 -1.78913e-07
-5.49641e-05 0.000465782 -1.15583e-07
-1.78913e-07 -1.15583e-07 0.00044093

0.000483591 2.34543e-05 6.50429e-08
2.34543e-05 0.000446185 -5.1329e-08
6.50429e-08 -5.1329e-08 0.000440966

0.000340608 -7.44806e-06 3.33446e-08
-7.44806e-06 0.000253925 -2.33586e-08
3.33446e-08 -2.33586e-08 0.000270746

0.000340488 6.40458e-05 -3.67373e-08
6.40458e-05 0.000377003 4.03821e-08
-3.67373e-08 4.03821e-08 0.000352154

0.000428394 9.28022e-06 9.6596e-08
9.28022e-06 0.000416242 -1.53405e-07
9.6596e-08 -1.53405e-07 0.000415463

0.000414899 -2.92837e-05 -9.85474e-08
-2.92837e-05 0.000408376 -7.93787e-08
-9.85474e-08 -7.93787e-08 0.000418273

0.00046017 -3.97676e-06 3.64305e-08
-3.97676e-06 0.000306619 -5.46418e-08
3.64305e-08 -5.46418e-08 0.00039101

0.000295798 5.28411e-05 1.93827e-08
5.28411e-05 0.000349562 -6.76685e-08
1.93827e-08 -6.76685e-08 0.000323359

0.000335641 -4.8149e-05 -6.17333e-08
-4.8149e-05 0.000373934 -3.76291e-08
-6.17333e-08 -3.76291e-08 0.000340354

0.000354062 -3.44542e-05 6.20611e-08
-3.44542e-05 0.000297569 8.27366e-08
6.20611e-08 8.27366e-08 0.000310184

0.000448792 -8.09045e-06 1.73101e-08
-8.09045e-06 0.000297562 1.24416e-07
1.73101e-08 1.24416e-07 0.000382824

0.000314612 6.26355e-05 -2.09345e-08
6.26355e-05 0.000378763 4.54517e-08
-2.09345e-08 4.54517e-08 0.000324906

0.000292366 -4.31128e-05 -7.66425e-08
-4.31128e-05 0.000347306 -1.30737e-08
-7.66425e-08 -1.30737e-08 0.000319633

0.000320435 5.8173e-05 -4.39454e-08
5.8173e-05 0.000382168 6.42494e-08
-4.39454e-08 6.42494e-08 0.00032966

0.000287452 -3.43828e-05 -9.17322e-09
-3.43828e-05 0.00037172 5.93726e-08
-9.17322e-09 5.93726e-08 0.000323908

0.000406149 -2.8728e-05 -1.55816e-07
-2.8728e-05 0.00043049 5.15808e-08
-1.55816e-07 5.15808e-08 0.000417689

0.000314615 4.03399e-05 -9.49583e-08
4.03399e-05 0.00041509 -1.11095e-07
-9.49583e-08 -1.11095e-07 0.000384261

0.000314784 -5.05115e-05 6.23532e-08
-5.05115e-05 0.000295092 8.27604e-08
6.23532e-08 8.27604e-08 0.00029176

0.000196112 -4.45452e-05 -2.71552e-08
-4.45452e-05 0.000189419 1.09707e-08
-2.71552e-08 1.09707e-08 0.000192538

0.000177744 -4.76995e-05 6.60554e-08
-4.76995e-05 0.000201483 4.79331e-08
6.60554e-08 4.79331e-08 0.000191859

0.000370873 7.51628e-05 1.44365e-07
7.51628e-05 0.000450188 3.82283e-08
1.44365e-07 3.82283e-08 0.000414932

0.000320041 -4.85822e-05 5.72704e-08
-4.85822e-05 0.000436704 -4.5964e-08
5.72704e-08 -4.5964e-08 0.000405786

0.000182307 -9.46883e-06 5.41519e-08
-9.46883e-06 0.000183216 -1.54325e-07
5.41519e-08 -1.54325e-07 0.000200958

0.000185756 -1.03797e-05 1.69032e-07
-1.03797e-05 0.000192741 2.04386e-08
1.69032e-07 2.04386e-08 0.00020195

0.000451725 4.22734e-05 5.01601e-08
4.22734e-05 0.000406884 1.02712e-07
5.01601e-08 1.02712e-07 0.000420797

0.000484261 -3.29516e-05 9.56482e-08
-3.29516e-05 0.000420562 4.83873e-08
9.56482e-08 4.83873e-08 0.000452503

0.000413911 -1.45729e-06 5.50852e-08
-1.45729e-06 0.000305508 -6.19035e-08
5.50852e-08 -6.19035e-08 0.000382638

0.000446775 5.99859e-05 7.31653e-08
5.99859e-05 0.000402749 -5.91881e-08
7.31653e-08 -5.91881e-08 0.000420877

0.000481856 -4.33326e-05 1.15526e-07
-4.33326e-05 0.000393579 1.88284e-07
1.15526e-07 1.88284e-07 0.000447895

0.000297151 4.29961e-05 5.11396e-08
4.29961e-05 0.000388175 1.06705e-07
5.11396e-08 1.06705e-07 0.000350626

0.000353263 -3.40518e-05 1.36089e-07
-3.40518e-05 0.000404863 -1.84001e-07
1.36089e-07 -1.84001e-07 0.000372974

0.000480299 2.15759e-05 -1.75616e-07
2.15759e-05 0.000416765 -1.25448e-07
-1.75616e-07 -1.25448e-07 0.000434497

0.000453465 -2.76448e-05 1.26363e-07
-2.76448e-05 0.000434586 -5.11969e-08
1.26363e-07 -5.11969e-08 0.000434487

0.000409885 6.52263e-05 6.09876e-09
6.52263e-05 0.000366185 6.67489e-08
6.09876e-09 6.67489e-08 0.000397305

0.000445623 -5.15556e-05 -1.1215e-08
-5.15556e-05 0.000376387 2.14628e-08
-1.1215e-08 2.14628e-08 0.000420594

0.000294545 -3.48336e-05 -1.70895e-08
-3.48336e-05 0.000238296 -4.73384e-08
-1.70895e-08 -4.73384e-08 0.00024948

0.000406874 -1.94153e-06 -4.42343e-08
-1.94153e-06 0.000519521 -2.37856e-08
-4.42343e-08 -2.37856e-08 0.000431922

0.000457974 1.29391e-05 2.70673e-08
1.29391e-05 0.000494017 -1.48074e-07
2.70673e-08 -1.48074e-07 0.000473515

0.000208408 -5.88524e-06 5.12429e-09
-5.88524e-06 0.000272982 -6.41295e-09
5.12429e-09 -6.41295e-09 0.000225274

0.000269345 -8.15392e-06 -2.10926e-08
-8.15392e-06 0.000214006 -4.46849e-08
-2.10926e-08 -4.46849e-08 0.000224093

0.000300224 3.59749e-05 1.27837e-07
3.59749e-05 0.000413884 -6.37386e-08
1.27837e-07 -6.37386e-08 0.000375096

0.000372198 -2.11542e-05 1.33682e-07
-2.11542e-05 0.000428804 -9.95237e-09
1.33682e-07 -9.95237e-09 0.000401839

0.000548876 -1.24313e-05 -1.00582e-06
-1.24313e-05 0.000595047 -3.94272e-07
-1.00582e-06 -3.94272e-07 0.000445218

0.000573024 -3.8835e-05 -8.67468e-07
-3.8835e-05 0.000457226 1.42638e-07
-8.67468e-07 1.42638e-07 0.000482638

0.0004092 5.79156e-05 2.28824e-08
5.79156e-05 0.000325687 -5.15956e-09
2.28824e-08 -5.15956e-09 0.000379315

0.000429438 -3.80317e-05 -1.16496e-07
-3.80317e-05 0.000333449 7.21536e-09
-1.16496e-07 7.21536e-09 0.000394401

0.000338266 1.33243e-06 1.4887e-08
1.33243e-06 0.000244724 1.04582e-07
1.4887e-08 1.04582e-07 0.000268044

0.000391836 1.85348e-06 -1.33187e-07
1.85348e-06 0.000291892 4.54267e-08
-1.33187e-07 4.54267e-08 0.000337139

0.000362609 2.78599e-05 -1.96039e-07
2.78599e-05 0.000268605 -2.94142e-08
-1.96039e-07 -2.94142e-08 0.000296054

0.000430815 1.01372e-05 3.94828e-08
1.01372e-05 0.000361604 9.84648e-08
3.94828e-08 9.84648e-08 0.000407632

0.000396071 -2.11705e-05 2.77599e-07
-2.11705e-05 0.000515803 1.12455e-07
2.77599e-07 1.12455e-07 0.000444188

0.000455123 1.12356e-05 -5.13092e-07
1.12356e-05 0.00046365 2.16886e-07
-5.13092e-07 2.16886e-07 0.000444281

0.000298682 4.9049e-05 -3.8637e-09
4.9049e-05 0.000317765 -6.59327e-08
-3.8637e-09 -6.59327e-08 0.00027501

0.000345191 -4.22507e-05 1.29822e-07
-4.22507e-05 0.0003215 1.607e-08
1.29822e-07 1.607e-08 0.000338374

0.000400025 4.64961e-05 -4.33157e-08
4.64961e-05 0.000313246 -5.84661e-08
-4.33157e-08 -5.84661e-08 0.000360596

0.000451722 1.98954e-05 2.28595e-07
1.98954e-05 0.000491003 -1.97095e-07
2.28595e-07 -1.97095e-07 0.000470817

0.000436072 3.08259e-05 -1.78575e-07
3.08259e-05 0.000533735 -5.64641e-08
-1.78575e-07 -5.64641e-08 0.000437027

0.000418684 -2.45622e-05 -7.81447e-08
-2.45622e-05 0.000374593 1.21286e-08
-7.81447e-08 1.21286e-08 0.000411268

0.000385171 3.79588e-05 -6.99467e-08
3.79588e-05 0.000432841 7.05292e-08
-6.99467e-08 7.05292e-08 0.000398742

0.000319747 -7.47037e-06 -3.73118e-08
-7.47037e-06 0.000436999 -2.09796e-08
-3.73118e-08 -2.09796e-08 0.000383871

0.000429876 2.87908e-05 1.56202e-09
2.87908e-05 0.000302182 -2.8682e-08
1.56202e-09 -2.8682e-08 0.00039429

0.000440675 -5.62296e-06 8.59437e-09
-5.62296e-06 0.000300157 -3.26573e-08
8.59437e-09 -3.26573e-08 0.000401795

0.000321818 -3.77266e-05 -8.55749e-08
-3.77266e-05 0.000297841 7.22495e-08
-8.55749e-08 7.22495e-08 0.000279774

0.000444781 5.25218e-05 5.36514e-08
5.25218e-05 0.000340476 5.8568e-08
5.36514e-08 5.8568e-08 0.000407798

0.000462578 -3.22072e-05 -1.58389e-08
-3.22072e-05 0.000332889 5.00443e-08
-1.58389e-08 5.00443e-08 0.000423537

0.000409877 -2.52653e-05 5.51299e-08
-2.52653e-05 0.000326302 -1.47025e-07
5.51299e-08 -1.47025e-07 0.000371508

0.000425322 3.77992e-05 -3.69575e-09
3.77992e-05 0.000330975 -1.4601e-09
-3.69575e-09 -1.4601e-09 0.000393986

0.000434711 -1.87474e-05 1.72727e-08
-1.87474e-05 0.000335662 1.49499e-08
1.72727e-08 1.49499e-08 0.00040746

0.00040423 -1.60033e-05 -1.3437e-07
-1.60033e-05 0.000314501 -2.943e-08
-1.3437e-07 -2.943e-08 0.000359235

0.000349208 6.77758e-05 8.87607e-08
6.77758e-05 0.000382085 -5.09128e-08
8.87607e-08 -5.09128e-08 0.000391475

0.000440862 -5.85284e-05 -3.46757e-08
-5.85284e-05 0.000412974 1.68651e-07
-3.46757e-08 1.68651e-07 0.000429065

0.000347018 4.55735e-05 -1.0903e-07
4.55735e-05 0.000330279 -5.06658e-08
-1.0903e-07 -5.06658e-08 0.000311859

0.000415781 -4.23513e-05 -1.21893e-07
-4.23513e-05 0.000447633 -1.23407e-08
-1.21893e-07 -1.23407e-08 0.000440857

0.000327925 4.74159e-05 7.95651e-09
4.74159e-05 0.000394505 8.28137e-08
7.95651e-09 8.28137e-08 0.000396225

0.000363747 4.14377e-05 -6.83396e-08
4.14377e-05 0.000271553 -3.02483e-08
-6.83396e-08 -3.02483e-08 0.000310629

0.00038111 -3.766e-05 -5.60469e-09
-3.766e-05 0.000344482 -1.03685e-07
-5.60469e-09 -1.03685e-07 0.000378671

0.000402921 1.58482e-05 6.22074e-08
1.58482e-05 0.000323702 -5.02257e-08
6.22074e-08 -5.02257e-08 0.000352618

0.000314457 5.96812e-05 -2.6911e-08
5.96812e-05 0.000324167 -8.65401e-08
-2.6911e-08 -8.65401e-08 0.000302474

0.00035628 4.82787e-05 1.58756e-07
4.82787e-05 0.000329794 1.26878e-07
1.58756e-07 1.26878e-07 0.000338039

0.000347776 1.92096e-05 -1.0965e-07
1.92096e-05 0.000423453 4.98958e-08
-1.0965e-07 4.98958e-08 0.000388662

0.000285255 6.02463e-06 -6.15653e-08
6.02463e-06 0.000432288 -8.37544e-09
-6.15653e-08 -8.37544e-09 0.000371305

0.000321815 -3.66772e-05 -8.17655e-08
-3.66772e-05 0.000248041 -2.12583e-08
-8.17655e-08 -2.12583e-08 0.000267349

0.000334072 -6.62507e-05 9.06063e-09
-6.62507e-05 0.00038837 1.12343e-08
9.06063e-09 1.12343e-08 0.000393389

0.000352162 7.29316e-05 4.67289e-08
7.29316e-05 0.000421654 5.62839e-08
4.67289e-08 5.62839e-08 0.000390134

0.00033741 -5.3595e-05 -4.02725e-08
-5.3595e-05 0.000342618 -2.15594e-07
-4.02725e-08 -2.15594e-07 0.000313981

0.000298974 6.4993e-05 5.43612e-08
6.4993e-05 0.000331517 2.2382e-07
5.43612e-08 2.2382e-07 0.000301014

0.000389794 -2.99669e-05 -1.19862e-07
-2.99669e-05 0.000322711 2.39573e-09
-1.19862e-07 2.39573e-09 0.000356549

0.000448247 -7.72685e-06 -1.37444e-08
-7.72685e-06 0.000326399 -5.10206e-08
-1.37444e-08 -5.10206e-08 0.000405975

0.000461366 2.17527e-06 9.63592e-08
2.17527e-06 0.000320035 1.96546e-08
9.63592e-08 1.96546e-08 0.000404296

0.000340461 -5.04918e-05 1.1802e-07
-5.04918e-05 0.000348422 -3.93595e-08
1.1802e-07 -3.93595e-08 0.00034433

0.000247943 1.07577e-05 -1.02908e-07
1.07577e-05 0.000350275 -5.65214e-08
-1.02908e-07 -5.65214e-08 0.000276404

0.000219079 8.62487e-06 7.26196e-08
8.62487e-06 0.000340583 -3.45453e-08
7.26196e-08 -3.45453e-08 0.000267653

0.00033755 9.70537e-06 3.4435e-08
9.70537e-06 0.000230633 1.72791e-07
3.4435e-08 1.72791e-07 0.000270262

0.000300358 5.38231e-05 4.4901e-09
5.38231e-05 0.000288111 -1.45821e-07
4.4901e-09 -1.45821e-07 0.000270741

0.000351505 -5.3102e-05 -1.28513e-08
-5.3102e-05 0.000300445 3.68525e-09
-1.28513e-08 3.68525e-09 0.000311856

0.000442404 6.05461e-05 -1.19951e-07
6.05461e-05 0.000517722 -3.07625e-07
-1.19951e-07 -3.07625e-07 0.000475763

0.000547585 -1.50579e-05 1.32412e-07
-1.50579e-05 0.000551622 -1.55083e-07
1.32412e-07 -1.55083e-07 0.000442544

0.000377892 -1.79091e-05 2.06703e-09
-1.79091e-05 0.000273924 1.22346e-07
2.06703e-09 1.22346e-07 0.00031734

0.00031339 4.70623e-05 -1.18723e-07
4.70623e-05 0.000383963 -3.22214e-08
-1.18723e-07 -3.22214e-08 0.000368647

0.000392712 -5.39549e-05 -1.55057e-07
-5.39549e-05 0.000411034 5.40907e-08
-1.55057e-07 5.40907e-08 0.000398053

0.000417036 2.46448e-05 5.9599e-08
2.46448e-05 0.000302981 1.37347e-08
5.9599e-08 1.37347e-08 0.000378768

0.000296506 4.99899e-05 3.95024e-08
4.99899e-05 0.000379461 8.76247e-08
3.95024e-08 8.76247e-08 0.000316533

0.000257231 -2.23663e-05 -6.09672e-08
-2.23663e-05 0.000367286 7.44362e-08
-6.09672e-08 7.44362e-08 0.000308168

0.00031563 5.0601e-05 4.43904e-08
5.0601e-05 0.000438494 3.81978e-09
4.43904e-08 3.81978e-09 0.000407395

0.000432506 -2.0697e-05 -1.01033e-07
-2.0697e-05 0.000462907 3.28927e-08
-1.01033e-07 3.28927e-08 0.000456518

0.000339941 5.11409e-05 9.15579e-08
5.11409e-05 0.000382107 -4.08715e-08
9.15579e-08 -4.08715e-08 0.000397925

0.000434802 -5.15512e-05 4.54037e-08
-5.15512e-05 0.000440999 -1.18876e-07
4.54037e-08 -1.18876e-07 0.000445683

0.0004495 3.97032e-06 -4.63374e-09
3.97032e-06 0.000256405 8.6504e-08
-4.63374e-09 8.6504e-08 0.000407789

0.000326182 6.45136e-05 -3.94675e-09
6.45136e-05 0.000289904 -1.52012e-07
-3.94675e-09 -1.52012e-07 0.00029956

0.000352578 7.77344e-05 4.15409e-08
7.77344e-05 0.000444934 4.20124e-08
4.15409e-08 4.20124e-08 0.000397606

0.000329126 -5.76983e-05 4.00983e-08
-5.76983e-05 0.000381515 -8.17511e-08
4.00983e-08 -8.17511e-08 0.000399847

0.000324604 5.50854e-05 2.69691e-08
5.50854e-05 0.000317043 2.5756e-07
2.69691e-08 2.5756e-07 0.000312057

0.000272962 -3.3211e-05 -1.70235e-07
-3.3211e-05 0.000305209 9.90751e-09
-1.70235e-07 9.90751e-09 0.000265463

0.000331953 -5.02935e-05 3.45849e-08
-5.02935e-05 0.00036635 8.37212e-08
3.45849e-08 8.37212e-08 0.000365921

0.000296412 -1.07539e-05 9.4681e-08
-1.07539e-05 0.0003594 -1.62657e-07
9.4681e-08 -1.62657e-07 0.000295336

0.000255695 2.90746e-05 6.86674e-08
2.90746e-05 0.000351988 -3.66695e-08
6.86674e-08 -3.66695e-08 0.000284951

0.000347658 -1.09021e-05 7.05542e-08
-1.09021e-05 0.000272643 9.91715e-08
7.05542e-08 9.91715e-08 0.000287914

0.000350632 -4.73315e-05 -2.01403e-09
-4.73315e-05 0.000338271 -1.69019e-07
-2.01403e-09 -1.69019e-07 0.000324649

0.00028509 8.36565e-06 -6.27522e-08
8.36565e-06 0.000404773 1.55013e-08
-6.27522e-08 1.55013e-08 0.000340251

0.000347 1.09929e-05 -1.11418e-07
1.09929e-05 0.000406306 1.43149e-08
-1.11418e-07 1.43149e-08 0.000354178

0.000287454 -4.46459e-05 -3.24128e-08
-4.46459e-05 0.000300332 1.00824e-07
-3.24128e-08 1.00824e-07 0.000267736

0.000258569 5.5836e-05 -8.42175e-08
5.5836e-05 0.000296696 -1.01115e-07
-8.42175e-08 -1.01115e-07 0.00026089

0.000422219 1.05999e-05 7.25854e-08
1.05999e-05 0.000308513 -4.06181e-08
7.25854e-08 -4.06181e-08 0.000405067

0.000425155 -1.41778e-07 -9.38993e-08
-1.41778e-07 0.000302925 -5.28886e-08
-9.38993e-08 -5.28886e-08 0.000410508

0.00034199 5.64966e-05 2.35662e-08
5.64966e-05 0.000370235 -9.4469e-08
2.35662e-08 -9.4469e-08 0.000373935

0.000402579 -4.72589e-05 2.13074e-08
-4.72589e-05 0.000415004 1.31243e-07
2.13074e-08 1.31243e-07 0.000404818

0.000365263 7.69729e-05 -9.60171e-08
7.69729e-05 0.000452126 -4.53817e-08
-9.60171e-08 -4.53817e-08 0.000412532

0.000307594 -4.37681e-05 -7.98305e-08
-4.37681e-05 0.000434853 3.01383e-09
-7.98305e-08 3.01383e-09 0.00040695

0.000362839 5.05142e-05 1.446e-07
5.05142e-05 0.000382368 -1.09214e-07
1.446e-07 -1.09214e-07 0.000378601

0.00029469 3.15436e-05 5.68283e-08
3.15436e-05 0.000238075 -3.09834e-08
5.68283e-08 -3.09834e-08 0.00024314

0.000307833 -2.88608e-05 -4.75381e-08
-2.88608e-05 0.000378407 1.93874e-07
-4.75381e-08 1.93874e-07 0.000324144

0.000260827 3.85328e-05 4.79596e-08
3.85328e-05 0.000367155 -8.85874e-08
4.79596e-08 -8.85874e-08 0.000310503

0.000443907 4.60344e-05 1.54051e-07
4.60344e-05 0.0003673 6.23344e-08
1.54051e-07 6.23344e-08 0.000409482

0.000467344 -2.70589e-05 2.22912e-07
-2.70589e-05 0.000377465 2.66662e-08
2.22912e-07 2.66662e-08 0.00043253

0.000394205 -4.41819e-05 1.91308e-07
-4.41819e-05 0.000350976 -1.57046e-07
1.91308e-07 -1.57046e-07 0.000365362

0.000409576 5.49111e-05 1.57378e-08
5.49111e-05 0.000345214 7.67001e-08
1.57378e-08 7.67001e-08 0.000381404

0.000429103 -3.8513e-05 -1.0667e-07
-3.8513e-05 0.000367131 1.20792e-07
-1.0667e-07 1.20792e-07 0.000400772

0.000196258 -1.4666e-05 -7.98487e-09
-1.4666e-05 0.000129515 -8.19985e-09
-7.98487e-09 -8.19985e-09 0.000204418

0.000127643 -1.78753e-05 7.61195e-08
-1.78753e-05 0.000188613 3.88013e-08
7.61195e-08 3.88013e-08 0.000203571

0.000501616 6.17196e-05 -2.31343e-07
6.17196e-05 0.000444945 -1.22035e-07
-2.31343e-07 -1.22035e-07 0.000435892

0.000527123 -4.27149e-05 -2.31968e-07
-4.27149e-05 0.000411028 -2.64127e-08
-2.31968e-07 -2.64127e-08 0.000464169

0.000371927 6.05539e-05 -2.81104e-08
6.05539e-05 0.000330117 2.10721e-08
-2.81104e-08 2.10721e-08 0.000349268

0.000297773 2.86127e-05 8.4072e-09
2.86127e-05 0.000229724 1.07073e-07
8.4072e-09 1.07073e-07 0.00024189

0.000344378 5.36021e-05 1.28521e-07
5.36021e-05 0.000427418 -2.9159e-08
1.28521e-07 -2.9159e-08 0.000384851

0.000291907 -2.07878e-05 -1.1889e-08
-2.07878e-05 0.000430644 -8.21002e-09
-1.1889e-08 -8.21002e-09 0.000375088

0.000294684 -5.0929e-05 -7.01488e-08
-5.0929e-05 0.000319597 -6.63194e-08
-7.01488e-08 -6.63194e-08 0.000295253

0.000392336 3.28248e-05 -5.59222e-08
3.28248e-05 0.000440491 1.03794e-08
-5.59222e-08 1.03794e-08 0.000415703

0.000439915 -1.87357e-05 9.33277e-08
-1.87357e-05 0.000463132 4.56022e-08
9.33277e-08 4.56022e-08 0.000455893

0.000348708 3.98505e-05 -1.39854e-07
3.98505e-05 0.000278707 -1.46013e-07
-1.39854e-07 -1.46013e-07 0.000293569

0.000388095 2.18168e-05 -1.29156e-07
2.18168e-05 0.000285736 3.0342e-09
-1.29156e-07 3.0342e-09 0.000335345

0.000304146 7.57424e-05 1.70505e-08
7.57424e-05 0.000399846 8.36396e-08
1.70505e-08 8.36396e-08 0.000397463

0.000448548 -3.83771e-05 9.72469e-08
-3.83771e-05 0.000446641 -3.22408e-08
9.72469e-08 -3.22408e-08 0.000450883

0.000320657 6.23238e-05 -4.42656e-08
6.23238e-05 0.000408423 5.33912e-08
-4.42656e-08 5.33912e-08 0.00035623

0.000287181 -3.32033e-05 -1.46386e-09
-3.32033e-05 0.000390683 -4.70274e-08
-1.46386e-09 -4.70274e-08 0.00035069

0.00037271 6.79134e-05 3.34528e-08
6.79134e-05 0.000342221 7.41339e-08
3.34528e-08 7.41339e-08 0.000368047

0.00041242 -5.82817e-05 -1.26988e-07
-5.82817e-05 0.000361744 1.17841e-07
-1.26988e-07 1.17841e-07 0.000388486

0.000271798 1.88768e-05 2.15162e-08
1.88768e-05 0.000397821 -2.41797e-08
2.15162e-08 -2.41797e-08 0.000332416

0.000327035 -1.1963e-06 -1.23619e-07
-1.1963e-06 0.000399253 8.56908e-09
-1.23619e-07 8.56908e-09 0.000348231

0.000205828 -2.18067e-05 5.31272e-09
-2.18067e-05 0.000241676 -4.28961e-09
5.31272e-09 -4.28961e-09 0.000208273

0.000235436 -2.14373e-05 -3.57705e-08
-2.14373e-05 0.000211716 -4.61315e-08
-3.57705e-08 -4.61315e-08 0.000208034

0.000401277 3.56404e-05 -4.93241e-08
3.56404e-05 0.000297419 4.98705e-08
-4.93241e-08 4.98705e-08 0.000359744

0.000583285 8.72152e-06 -6.07809e-07
8.72152e-06 0.000497556 5.63639e-07
-6.07809e-07 5.63639e-07 0.000443977

0.000576536 -3.90257e-05 -5.86957e-07
-3.90257e-05 0.000437796 -5.32475e-07
-5.86957e-07 -5.32475e-07 0.000477677

0.00041201 -5.08121e-05 -4.70743e-08
-5.08121e-05 0.000466202 -1.43202e-07
-4.70743e-08 -1.43202e-07 0.000432101

0.000420666 1.59906e-05 2.00364e-07
1.59906e-05 0.000446023 -2.0767e-08
2.00364e-07 -2.0767e-08 0.000431539

0.000434907 -2.98218e-06 9.24539e-08
-2.98218e-06 0.000297751 5.04354e-08
9.24539e-08 5.04354e-08 0.000363195

0.000346716 8.3594e-05 5.83247e-08
8.3594e-05 0.000441754 1.38935e-08
5.83247e-08 1.38935e-08 0.00039698

0.000292119 -7.87822e-05 6.0826e-08
-7.87822e-05 0.000399373 -5.13199e-08
6.0826e-08 -5.13199e-08 0.000397913

0.000223372 4.15578e-05 1.12812e-07
4.15578e-05 0.000241414 -1.02327e-07
1.12812e-07 -1.02327e-07 0.00022098

0.00024599 4.38778e-05 1.24999e-07
4.38778e-05 0.000239334 -2.77987e-08
1.24999e-07 -2.77987e-08 0.000223005

0.000229127 -1.60186e-05 -4.94694e-08
-1.60186e-05 0.000294763 1.15698e-07
-4.94694e-08 1.15698e-07 0.000241395

0.000221926 3.28788e-05 1.27263e-07
3.28788e-05 0.000286507 1.02928e-07
1.27263e-07 1.02928e-07 0.000237369

0.000290448 -7.97519e-06 -1.41915e-07
-7.97519e-06 0.000221778 3.34056e-08
-1.41915e-07 3.34056e-08 0.00023899

0.000202634 1.95258e-05 -1.97987e-09
1.95258e-05 0.000282067 3.71952e-08
-1.97987e-09 3.71952e-08 0.000225691

0.000268195 2.26247e-05 2.2677e-08
2.26247e-05 0.000199699 2.68462e-08
2.2677e-08 2.68462e-08 0.000224206

0.000402251 5.44399e-06 1.28355e-07
5.44399e-06 0.000489937 -1.09994e-08
1.28355e-07 -1.09994e-08 0.000427267

0.000428772 4.39156e-05 9.33694e-08
4.39156e-05 0.000475995 9.04932e-08
9.33694e-08 9.04932e-08 0.000445037

0.000429296 7.39069e-06 3.36234e-08
7.39069e-06 0.000357749 9.28832e-08
3.36234e-08 9.28832e-08 0.000385708

0.000459526 -1.52044e-06 -1.25316e-08
-1.52044e-06 0.000297763 8.83476e-08
-1.25316e-08 8.83476e-08 0.000390694

0.000282656 -2.65651e-05 1.03553e-08
-2.65651e-05 0.000341268 -2.64278e-07
1.03553e-08 -2.64278e-07 0.000289149

0.000254607 4.07381e-05 -5.85346e-08
4.07381e-05 0.000325456 1.16623e-07
-5.85346e-08 1.16623e-07 0.000278666

0.000434608 -1.94167e-06 8.48407e-08
-1.94167e-06 0.000294986 8.97835e-08
8.48407e-08 8.97835e-08 0.000364962

0.000473825 3.4084e-05 -1.17251e-07
3.4084e-05 0.000418404 1.24158e-08
-1.17251e-07 1.24158e-08 0.000428721

0.000497425 -2.32587e-05 -2.86565e-07
-2.32587e-05 0.000406415 3.793e-08
-2.86565e-07 3.793e-08 0.000454738

0.000385596 3.32043e-05 -1.04579e-07
3.32043e-05 0.000394786 3.5124e-08
-1.04579e-07 3.5124e-08 0.000383507

0.0003296 -5.47603e-05 1.79859e-08
-5.47603e-05 0.000376192 5.87945e-09
1.79859e-08 5.87945e-09 0.000374441

0.000340741 7.02561e-05 -3.72727e-08
7.02561e-05 0.000421702 1.61879e-08
-3.72727e-08 1.61879e-08 0.000373047

0.000429752 7.27513e-06 1.70597e-08
7.27513e-06 0.000312069 -6.88456e-08
1.70597e-08 -6.88456e-08 0.000377163

0.000300118 5.02542e-05 8.06806e-09
5.02542e-05 0.000285724 -1.13163e-07
8.06806e-09 -1.13163e-07 0.000266808

0.000305292 -4.16904e-05 -3.71413e-08
-4.16904e-05 0.000392782 -1.88173e-08
-3.71413e-08 -1.88173e-08 0.000369943

0.000343076 7.53072e-05 -7.13037e-08
7.53072e-05 0.00041561 3.44467e-08
-7.13037e-08 3.44467e-08 0.000372369

0.00018014 8.77179e-05 3.88417e-08
8.77179e-05 0.000186861 -1.61454e-07
3.88417e-08 -1.61454e-07 0.000184414

0.000265805 -5.55925e-06 -8.73848e-08
-5.55925e-06 0.000396395 4.97668e-09
-8.73848e-08 4.97668e-09 0.000330681

0.000310306 2.85108e-05 1.03101e-07
2.85108e-05 0.000398035 -7.73377e-08
1.03101e-07 -7.73377e-08 0.000341136

0.000388078 -6.42818e-06 -3.97579e-08
-6.42818e-06 0.000517811 1.23522e-07
-3.97579e-08 1.23522e-07 0.000429102

0.000441471 3.45911e-05 -7.12628e-08
3.45911e-05 0.000470127 1.91691e-07
-7.12628e-08 1.91691e-07 0.000456382

0.000456884 2.82635e-05 1.11745e-07
2.82635e-05 0.000295217 1.07402e-08
1.11745e-07 1.07402e-08 0.000414139

0.000470591 -1.93874e-05 -1.26544e-07
-1.93874e-05 0.000276781 -1.07015e-08
-1.26544e-07 -1.07015e-08 0.000425114

0.00038961 3.841e-05 -2.22993e-07
3.841e-05 0.000398934 -2.30784e-08
-2.22993e-07 -2.30784e-08 0.000402416

0.000383915 -5.71004e-05 -8.38921e-09
-5.71004e-05 0.000395028 -5.36611e-08
-8.38921e-09 -5.36611e-08 0.000406185

0.000412277 3.23731e-05 1.78394e-07
3.23731e-05 0.000459958 7.35327e-08
1.78394e-07 7.35327e-08 0.000427639

0.000416668 -4.46446e-05 3.34683e-08
-4.46446e-05 0.000434423 1.99327e-07
3.34683e-08 1.99327e-07 0.000428905

0.000525356 5.88872e-05 1.29874e-07
5.88872e-05 0.000491885 5.20484e-07
1.29874e-07 5.20484e-07 0.000441308

0.000556009 -4.29809e-05 1.65728e-07
-4.29809e-05 0.000437403 -4.88443e-07
1.65728e-07 -4.88443e-07 0.000476799

0.00035617 8.30135e-05 -6.59749e-09
8.30135e-05 0.000395234 -6.22729e-08
-6.59749e-09 -6.22729e-08 0.000409242

0.00048588 -4.44984e-05 -4.70969e-08
-4.44984e-05 0.000435495 -9.87101e-08
-4.70969e-08 -9.87101e-08 0.000462532

0.000372854 6.12068e-05 -7.22848e-09
6.12068e-05 0.000309517 -6.3755e-08
-7.22848e-09 -6.3755e-08 0.000343905

0.000344934 5.2865e-05 1.31264e-07
5.2865e-05 0.000411247 -4.80616e-08
1.31264e-07 -4.80616e-08 0.000361729

0.000292278 -2.15008e-05 -1.91253e-08
-2.15008e-05 0.000403273 -5.8016e-08
-1.91253e-08 -5.8016e-08 0.000352952

0.000376331 -6.2247e-05 2.01822e-08
-6.2247e-05 0.000345038 -1.87925e-07
2.01822e-08 -1.87925e-07 0.000352258

0.000294178 -3.35836e-05 -3.0864e-08
-3.35836e-05 0.000281218 1.55684e-07
-3.0864e-08 1.55684e-07 0.00026197

0.000395434 -4.45818e-05 1.98524e-07
-4.45818e-05 0.000320298 -1.23263e-07
1.98524e-07 -1.23263e-07 0.000354754

0.000339616 6.82653e-05 -2.10341e-07
6.82653e-05 0.000328612 4.60032e-08
-2.10341e-07 4.60032e-08 0.000336197

0.000333945 -9.07899e-05 -1.12802e-07
-9.07899e-05 0.000402517 -3.20553e-08
-1.12802e-07 -3.20553e-08 0.000411327

0.000362115 7.23122e-05 -2.3812e-08
7.23122e-05 0.000440982 2.30434e-08
-2.3812e-08 2.30434e-08 0.000408558

0.000424425 -1.63249e-05 3.15788e-08
-1.63249e-05 0.000354139 -9.05846e-08
3.15788e-08 -9.05846e-08 0.000391238

0.000548017 -2.59324e-05 1.26778e-07
-2.59324e-05 0.000534527 -2.27006e-07
1.26778e-07 -2.27006e-07 0.00044179

0.000467426 2.32538e-05 1.92431e-07
2.32538e-05 0.000507685 1.56176e-08
1.92431e-07 1.56176e-08 0.000468928

0.000385996 2.79288e-05 -1.07994e-07
2.79288e-05 0.000349026 1.38342e-07
-1.07994e-07 1.38342e-07 0.00037463

0.000462946 -1.09342e-05 6.76319e-08
-1.09342e-05 0.000373142 8.75039e-08
6.76319e-08 8.75039e-08 0.000416882

0.000232821 -3.13049e-05 -3.9503e-08
-3.13049e-05 0.000252094 2.1096e-08
-3.9503e-08 2.1096e-08 0.000219486

0.000256853 -2.93536e-05 -2.55241e-08
-2.93536e-05 0.000219996 3.84262e-08
-2.55241e-08 3.84262e-08 0.000219564

0.000458988 9.21161e-06 7.30162e-08
9.21161e-06 0.000339288 5.88336e-08
7.30162e-08 5.88336e-08 0.000417174

0.000469804 2.81557e-06 -7.06747e-08
2.81557e-06 0.000328691 5.33114e-08
-7.06747e-08 5.33114e-08 0.000432478

0.00044794 9.00381e-07 1.44632e-08
9.00381e-07 0.000389245 4.58107e-08
1.44632e-08 4.58107e-08 0.000418247

0.000372268 -2.46344e-05 1.35377e-07
-2.46344e-05 0.000409064 -1.84466e-07
1.35377e-07 -1.84466e-07 0.000374696

0.000300145 3.18594e-05 1.29e-07
3.18594e-05 0.000401426 5.59305e-08
1.29e-07 5.59305e-08 0.00035359

0.000363986 4.86648e-05 -6.97458e-08
4.86648e-05 0.000295329 -1.12613e-07
-6.97458e-08 -1.12613e-07 0.000318337

0.000412049 5.6264e-05 2.566e-08
5.6264e-05 0.000371592 -8.91506e-08
2.566e-08 -8.91506e-08 0.000398702

0.000447136 -4.37717e-05 -4.31548e-08
-4.37717e-05 0.000404397 -2.32989e-07
-4.31548e-08 -2.32989e-07 0.000426863

0.000478263 6.92501e-06 3.47395e-08
6.92501e-06 0.000449324 -2.42193e-07
3.47395e-08 -2.42193e-07 0.000446695

0.000461492 -6.28035e-05 -1.80821e-07
-6.28035e-05 0.000547986 -1.04539e-07
-1.80821e-07 -1.04539e-07 0.000446375

0.000392356 2.47892e-05 -3.83219e-08
2.47892e-05 0.000341046 1.89226e-07
-3.83219e-08 1.89226e-07 0.000351861

0.000445342 3.97465e-05 5.10456e-08
3.97465e-05 0.000379167 1.73131e-07
5.10456e-08 1.73131e-07 0.000412202

0.000462662 -2.9869e-05 -2.24001e-08
-2.9869e-05 0.000376787 -2.34452e-07
-2.24001e-08 -2.34452e-07 0.000432218

0.000323625 -2.35454e-05 5.65808e-08
-2.35454e-05 0.000419145 -5.58188e-08
5.65808e-08 -5.58188e-08 0.000388375

0.00037207 6.8221e-05 1.48589e-07
6.8221e-05 0.000434359 -1.52062e-08
1.48589e-07 -1.52062e-08 0.000395674

0.000356185 8.67196e-05 -1.24019e-07
8.67196e-05 0.000442359 -7.56019e-09
-1.24019e-07 -7.56019e-09 0.000397686

0.00032119 -5.21911e-05 -1.0063e-07
-5.21911e-05 0.000389608 -2.41721e-08
-1.0063e-07 -2.41721e-08 0.000395976

0.000199907 0.00010012 -4.95091e-09
0.00010012 0.000202569 -6.14139e-08
-4.95091e-09 -6.14139e-08 0.000190843

0.00037638 5.40206e-05 -5.9211e-08
5.40206e-05 0.000456318 9.51368e-08
-5.9211e-08 9.51368e-08 0.000415598

0.00035546 -6.15733e-05 9.56222e-11
-6.15733e-05 0.000432472 1.97143e-07
9.56222e-11 1.97143e-07 0.000417858

0.00030312 -4.74769e-05 -4.83533e-08
-4.74769e-05 0.000405944 -8.93497e-08
-4.83533e-08 -8.93497e-08 0.000385492

0.000342628 7.46746e-05 -7.48909e-08
7.46746e-05 0.000433148 5.23811e-08
-7.48909e-08 5.23811e-08 0.000388692

0.000381017 -3.33443e-05 1.47893e-08
-3.33443e-05 0.00031155 1.4778e-08
1.47893e-08 1.4778e-08 0.000328856

0.000381302 -4.02012e-05 -8.4079e-09
-4.02012e-05 0.000373754 -5.36476e-08
-8.4079e-09 -5.36476e-08 0.000386613

0.000382357 4.41036e-05 -2.04713e-07
4.41036e-05 0.000424973 -7.49208e-08
-2.04713e-07 -7.49208e-08 0.000406452

0.000382972 -5.94355e-05 4.45292e-08
-5.94355e-05 0.000390828 1.45819e-07
4.45292e-08 1.45819e-07 0.000408966

0.000424424 -1.59667e-05 3.15845e-08
-1.59667e-05 0.000311512 -9.298e-08
3.15845e-08 -9.298e-08 0.000382203

0.000458705 1.61435e-05 5.44514e-08
1.61435e-05 0.0004152 -3.34427e-08
5.44514e-08 -3.34427e-08 0.00042625

0.00047551 -1.70993e-05 -7.22837e-08
-1.70993e-05 0.000385713 6.13048e-08
-7.22837e-08 6.13048e-08 0.000446084

0.000434978 1.77123e-05 6.49141e-08
1.77123e-05 0.000562485 -1.64169e-07
6.49141e-08 -1.64169e-07 0.000439045

0.000450595 2.43687e-05 -1.25123e-07
2.43687e-05 0.000527314 -3.06926e-07
-1.25123e-07 -3.06926e-07 0.00046685

0.000191126 1.88467e-05 -4.00959e-08
1.88467e-05 0.000141839 -9.19017e-08
-4.00959e-08 -9.19017e-08 0.00019958

0.00014294 1.8894e-05 1.63502e-07
1.8894e-05 0.000199564 2.85977e-08
1.63502e-07 2.85977e-08 0.0001994

0.000375945 5.53307e-05 -6.91326e-08
5.53307e-05 0.000376521 1.2549e-07
-6.91326e-08 1.2549e-07 0.000395895

0.000436806 -5.63042e-05 2.5532e-08
-5.63042e-05 0.000423006 2.35917e-07
2.5532e-08 2.35917e-07 0.000431283

0.000188345 3.73178e-05 4.09667e-10
3.73178e-05 0.000183358 -4.01151e-09
4.09667e-10 -4.01151e-09 0.000200694

0.000182945 4.12672e-05 3.2671e-08
4.12672e-05 0.000184662 -5.55594e-08
3.2671e-08 -5.55594e-08 0.000200779

0.000546754 -1.60864e-05 2.99514e-07
-1.60864e-05 0.000504057 2.72877e-07
2.99514e-07 2.72877e-07 0.00047668

0.000544151 -7.67619e-06 -1.10771e-08
-7.67619e-06 0.00055965 2.15123e-08
-1.10771e-08 2.15123e-08 0.000445172

0.000357362 -5.43712e-05 1.35453e-07
-5.43712e-05 0.000366999 6.9062e-08
1.35453e-07 6.9062e-08 0.000381474

0.000380741 6.97964e-05 -9.31017e-08
6.97964e-05 0.000365986 -2.7359e-08
-9.31017e-08 -2.7359e-08 0.000389227

0.000438198 -5.8289e-05 8.83403e-08
-5.8289e-05 0.000391718 -1.64627e-07
8.83403e-08 -1.64627e-07 0.000418463

0.000339922 6.14402e-05 -1.29203e-07
6.14402e-05 0.000351221 -9.37931e-08
-1.29203e-07 -9.37931e-08 0.000344103

0.000383336 -4.82451e-05 9.17036e-08
-4.82451e-05 0.000372498 -6.4561e-08
9.17036e-08 -6.4561e-08 0.000363955

0.000242472 -8.72931e-06 -7.16485e-08
-8.72931e-06 0.000297727 1.09708e-07
-7.16485e-08 1.09708e-07 0.000243877

0.000214392 2.47372e-05 3.80242e-08
2.47372e-05 0.000288733 1.14439e-07
3.80242e-08 1.14439e-07 0.000237848

0.000292005 -3.71841e-06 -1.15377e-07
-3.71841e-06 0.000228091 1.55034e-07
-1.15377e-07 1.55034e-07 0.000240841

0.00033942 6.43669e-05 -8.63667e-09
6.43669e-05 0.000360759 8.09437e-08
-8.63667e-09 8.09437e-08 0.000363601

0.000397521 -6.35824e-05 7.66469e-09
-6.35824e-05 0.000387194 5.69542e-08
7.66469e-09 5.69542e-08 0.000388482

0.000191936 4.00891e-06 -5.82034e-08
4.00891e-06 0.000271231 -3.1837e-10
-5.82034e-08 -3.1837e-10 0.00022008

0.000267674 -7.38647e-07 -3.57426e-08
-7.38647e-07 0.000202172 7.23431e-08
-3.57426e-08 7.23431e-08 0.000219205

0.000408256 6.68345e-05 1.4277e-07
6.68345e-05 0.00037976 1.66434e-07
1.4277e-07 1.66434e-07 0.000408462

0.000469753 -4.69705e-05 -1.44199e-07
-4.69705e-05 0.000418167 2.68729e-07
-1.44199e-07 2.68729e-07 0.000446209

0.000407488 6.53359e-05 1.67993e-07
6.53359e-05 0.00039939 7.89819e-08
1.67993e-07 7.89819e-08 0.000410799

0.000464466 -5.7076e-05 -2.26463e-07
-5.7076e-05 0.000411649 -1.64794e-08
-2.26463e-07 -1.64794e-08 0.000443407

0.000172715 3.81664e-05 4.84893e-08
3.81664e-05 0.00017506 -3.38596e-08
4.84893e-08 -3.38596e-08 0.000192197

0.000171519 3.53541e-05 4.56956e-08
3.53541e-05 0.000178565 -1.60909e-07
4.56956e-08 -1.60909e-07 0.000191711

0.000373941 6.16068e-05 3.4575e-08
6.16068e-05 0.000357735 6.42409e-08
3.4575e-08 6.42409e-08 0.000374474

0.000413601 -5.12661e-05 -1.40555e-07
-5.12661e-05 0.000394311 -3.09922e-10
-1.40555e-07 -3.09922e-10 0.000399908

0.000446912 3.99876e-05 -1.86433e-07
3.99876e-05 0.000475476 7.42014e-08
-1.86433e-07 7.42014e-08 0.000455907

0.000426748 -1.35328e-05 8.99139e-08
-1.35328e-05 0.000492064 -8.76101e-09
8.99139e-08 -8.76101e-09 0.000432049

0.000372414 5.28202e-05 -4.87244e-09
5.28202e-05 0.000425425 -6.76594e-08
-4.87244e-09 -6.76594e-08 0.000415359

0.000475877 -5.91634e-05 -1.75059e-09
-5.91634e-05 0.000441438 4.28715e-08
-1.75059e-09 4.28715e-08 0.000460839

0.000471555 4.66685e-05 -1.22963e-07
4.66685e-05 0.000377591 6.44754e-08
-1.22963e-07 6.44754e-08 0.000424771

0.000496333 -3.05235e-05 -2.97666e-07
-3.05235e-05 0.000364551 -6.30876e-08
-2.97666e-07 -6.30876e-08 0.000446984

0.000366309 6.29034e-05 1.5492e-07
6.29034e-05 0.00042438 -8.06275e-08
1.5492e-07 -8.06275e-08 0.000391939

0.000350037 -5.3059e-05 9.6673e-08
-5.3059e-05 0.000391024 1.46589e-07
9.6673e-08 1.46589e-07 0.000395977

0.000427206 3.8504e-05 8.27101e-08
3.8504e-05 0.000518314 -1.2865e-08
8.27101e-08 -1.2865e-08 0.000454825

0.000446677 4.41019e-05 -3.42003e-08
4.41019e-05 0.000460061 -7.04998e-08
-3.42003e-08 -7.04998e-08 0.000437441

0.000461758 -7.9443e-05 -4.20486e-08
-7.9443e-05 0.000460946 2.51125e-07
-4.20486e-08 2.51125e-07 0.000437974

0.000405137 -1.09414e-05 1.5129e-07
-1.09414e-05 0.000536372 -2.33368e-07
1.5129e-07 -2.33368e-07 0.000434508

0.00050171 4.64542e-05 -4.0078e-08
4.64542e-05 0.000436494 -1.03851e-07
-4.0078e-08 -1.03851e-07 0.000435816

0.000542505 9.89045e-06 6.25226e-08
9.89045e-06 0.000469232 -1.98798e-07
6.25226e-08 -1.98798e-07 0.000441509

0.000524214 -4.32872e-05 7.97551e-08
-4.32872e-05 0.000397704 -5.19362e-08
7.97551e-08 -5.19362e-08 0.000459747

0.000557249 -1.37328e-05 2.40783e-07
-1.37328e-05 0.000424113 9.7077e-08
2.40783e-07 9.7077e-08 0.000470077

0.000470612 4.95528e-05 -5.06478e-07
4.95528e-05 0.000515201 -7.58668e-07
-5.06478e-07 -7.58668e-07 0.000438294

0.000587118 3.10122e-06 -3.78683e-06
3.10122e-06 0.000549514 1.71415e-06
-3.78683e-06 1.71415e-06 0.000445587

0.00058515 -4.64548e-05 -3.09299e-06
-4.64548e-05 0.000438701 -1.54465e-06
-3.09299e-06 -1.54465e-06 0.000486806

0.000565742 -4.95295e-05 -8.69962e-07
-4.95295e-05 0.000459113 1.4851e-06
-8.69962e-07 1.4851e-06 0.000487539

0.000502215 5.30697e-05 -7.81177e-08
5.30697e-05 0.000453252 -1.09363e-07
-7.81177e-08 -1.09363e-07 0.00043532

0.000453712 2.24516e-05 -1.28708e-08
2.24516e-05 0.000433971 -6.61563e-08
-1.28708e-08 -6.61563e-08 0.000426535

0.000508784 2.79428e-05 -4.54515e-08
2.79428e-05 0.000545114 -2.60636e-07
-4.54515e-08 -2.60636e-07 0.000442842

0.00055861 -3.67902e-05 3.44759e-08
-3.67902e-05 0.00043688 1.14162e-07
3.44759e-08 1.14162e-07 0.000481691

0.000555314 -4.29272e-05 3.25129e-08
-4.29272e-05 0.000450738 1.05071e-07
3.25129e-08 1.05071e-07 0.000483063

0.000504946 -2.99758e-05 1.10312e-07
-2.99758e-05 0.000451386 6.39424e-08
1.10312e-07 6.39424e-08 0.000470604

0.000459784 5.96827e-05 -3.7431e-09
5.96827e-05 0.000434699 4.56887e-08
-3.7431e-09 4.56887e-08 0.000429636

0.000509081 2.9373e-05 -2.60112e-07
2.9373e-05 0.000448797 1.2553e-07
-2.60112e-07 1.2553e-07 0.000436887

0.000507803 -4.62998e-05 1.13086e-07
-4.62998e-05 0.000422457 2.99422e-08
1.13086e-07 2.99422e-08 0.00046507

0.000530404 -2.73738e-05 -2.38131e-07
-2.73738e-05 0.000432053 -7.94375e-08
-2.38131e-07 -7.94375e-08 0.000469893

0.000488351 5.04328e-06 5.23366e-08
5.04328e-06 0.000491062 -1.44481e-07
5.23366e-08 -1.44481e-07 0.000502663

0.000531339 -2.44534e-06 -3.44909e-08
-2.44534e-06 0.000512121 1.10629e-08
-3.44909e-08 1.10629e-08 0.000514625

0.000518793 9.5515e-06 4.48948e-08
9.5515e-06 0.000489393 -9.16047e-08
4.48948e-08 -9.16047e-08 0.000502366

0.000490488 -9.73727e-06 6.42231e-08
-9.73727e-06 0.000451676 -1.02691e-08
6.42231e-08 -1.02691e-08 0.000494959

0.000492415 1.78793e-06 -7.18465e-08
1.78793e-06 0.000463778 -8.51581e-08
-7.18465e-08 -8.51581e-08 0.000498155

0.000533319 -1.41655e-05 -3.06574e-08
-1.41655e-05 0.00051695 -3.35261e-08
-3.06574e-08 -3.35261e-08 0.000514086

0.000516135 2.51932e-05 3.7623e-08
2.51932e-05 0.000485114 -7.02543e-09
3.7623e-08 -7.02543e-09 0.000500407

0.000493638 -2.33972e-06 -9.10252e-08
-2.33972e-06 0.00046005 5.24153e-08
-9.10252e-08 5.24153e-08 0.000497929

0.000495996 1.13966e-05 -1.80217e-08
1.13966e-05 0.000426127 -9.94894e-08
-1.80217e-08 -9.94894e-08 0.000478719

0.000499872 2.53796e-06 4.75988e-08
2.53796e-06 0.0004919 1.41112e-07
4.75988e-08 1.41112e-07 0.000508246

0.000500675 -2.2252e-06 6.73024e-09
-2.2252e-06 0.000493143 3.86307e-08
6.73024e-09 3.86307e-08 0.000508484

0.000516451 1.25431e-06 1.43144e-08
1.25431e-06 0.000524666 -1.39027e-07
1.43144e-08 -1.39027e-07 0.000522634

0.000536129 -1.41914e-05 8.75654e-09
-1.41914e-05 0.00046973 -1.45202e-07
8.75654e-09 -1.45202e-07 0.000492557

0.000548267 1.03049e-06 1.68883e-08
1.03049e-06 0.000524348 6.95839e-08
1.68883e-08 6.95839e-08 0.00051576

0.000488521 1.86307e-05 5.41519e-08
1.86307e-05 0.000482364 1.45035e-07
5.41519e-08 1.45035e-07 0.000499866

0.000478075 2.60865e-05 -1.02118e-07
2.60865e-05 0.000479641 -6.95311e-08
-1.02118e-07 -6.95311e-08 0.000491019

0.000519041 -2.45966e-05 -1.07013e-07
-2.45966e-05 0.000488696 -7.48248e-08
-1.07013e-07 -7.48248e-08 0.000503568

0.000529652 1.32226e-05 6.95036e-08
1.32226e-05 0.000516398 3.7428e-08
6.95036e-08 3.7428e-08 0.000512652

0.000527993 1.12752e-06 8.75218e-08
1.12752e-06 0.000539799 -7.81949e-08
8.75218e-08 -7.81949e-08 0.000530894

0.000496786 2.43212e-06 7.63471e-08
2.43212e-06 0.000503939 8.53061e-08
7.63471e-08 8.53061e-08 0.000509894

0.000496724 -3.11519e-06 2.58099e-08
-3.11519e-06 0.000504287 7.52632e-08
2.58099e-08 7.52632e-08 0.000510092

0.000515374 -2.79898e-06 -7.67647e-08
-2.79898e-06 0.000530347 -8.02476e-08
-7.67647e-08 -8.02476e-08 0.000524791

0.000489218 8.09391e-06 -1.14786e-07
8.09391e-06 0.000483258 4.02357e-08
-1.14786e-07 4.02357e-08 0.000501115

0.000489528 6.64544e-06 9.0835e-08
6.64544e-06 0.000468748 1.32396e-07
9.0835e-08 1.32396e-07 0.000500862

0.00047882 6.30087e-06 4.8091e-08
6.30087e-06 0.000483099 4.87503e-08
4.8091e-08 4.87503e-08 0.000498384

0.000519949 -4.42395e-06 7.35848e-09
-4.42395e-06 0.000518369 1.23841e-07
7.35848e-09 1.23841e-07 0.000520103

0.000493648 8.30529e-06 -3.50137e-08
8.30529e-06 0.000451554 3.00677e-08
-3.50137e-08 3.00677e-08 0.000494254

0.000495514 1.22088e-06 -2.33391e-08
1.22088e-06 0.00050198 9.67966e-09
-2.33391e-08 9.67966e-09 0.000510007

0.000497028 -1.1376e-05 -9.15527e-08
-1.1376e-05 0.000424102 -8.87227e-08
-9.15527e-08 -8.87227e-08 0.000486256

0.000511527 -3.14522e-06 -2.27062e-08
-3.14522e-06 0.000521272 -1.59879e-07
-2.27062e-08 -1.59879e-07 0.000520911

0.000545446 -2.55627e-06 -3.80147e-08
-2.55627e-06 0.000506093 -3.0666e-08
-3.80147e-08 -3.0666e-08 0.00050841

0.000545831 3.58016e-06 1.42441e-08
3.58016e-06 0.000497429 2.06215e-09
1.42441e-08 2.06215e-09 0.00050723

0.000511415 -1.28435e-05 -1.10421e-08
-1.28435e-05 0.000492008 1.32922e-07
-1.10421e-08 1.32922e-07 0.00049015

0.00051086 1.24704e-05 1.22198e-07
1.24704e-05 0.000492897 -4.85212e-08
1.22198e-07 -4.85212e-08 0.000490235

0.00049449 -3.19846e-06 6.90648e-08
-3.19846e-06 0.000477719 1.43828e-07
6.90648e-08 1.43828e-07 0.00050304

0.000474982 2.63367e-06 5.00552e-08
2.63367e-06 0.000479793 5.1074e-08
5.00552e-08 5.1074e-08 0.000495297

0.000482037 -2.04537e-05 -1.3462e-08
-2.04537e-05 0.000482499 2.65915e-08
-1.3462e-08 2.65915e-08 0.000492603

0.000481562 2.12429e-05 -6.21046e-08
2.12429e-05 0.000483155 -2.94232e-08
-6.21046e-08 -2.94232e-08 0.000492415

0.000497934 -1.00089e-05 -3.25258e-08
-1.00089e-05 0.00042398 -9.13282e-08
-3.25258e-08 -9.13282e-08 0.000475758

0.000515655 -5.65114e-06 1.85033e-08
-5.65114e-06 0.00052927 1.08986e-07
1.85033e-08 1.08986e-07 0.000522218

0.000487409 3.70714e-07 5.87925e-08
3.70714e-07 0.000478983 -8.06536e-08
5.87925e-08 -8.06536e-08 0.000501001

0.000496303 8.89291e-06 -2.79727e-08
8.89291e-06 0.000421567 7.13405e-08
-2.79727e-08 7.13405e-08 0.000477007

0.000488976 -7.7279e-06 1.96432e-08
-7.7279e-06 0.000484475 -1.00298e-07
1.96432e-08 -1.00298e-07 0.000501428

0.000487567 -5.18853e-06 1.74686e-08
-5.18853e-06 0.000491553 -1.02633e-07
1.74686e-08 -1.02633e-07 0.000502609

0.000531307 -1.07015e-05 -1.67627e-08
-1.07015e-05 0.000524907 6.00039e-10
-1.67627e-08 6.00039e-10 0.000521163

0.000492161 7.19968e-07 4.3799e-08
7.19968e-07 0.000479007 -8.19468e-08
4.3799e-08 -8.19468e-08 0.000503011

0.0004996 4.18825e-06 8.32777e-08
4.18825e-06 0.000498625 -1.13769e-07
8.32777e-08 -1.13769e-07 0.000511433

0.000506257 5.16805e-06 -3.02754e-08
5.16805e-06 0.00051089 6.74957e-08
-3.02754e-08 6.74957e-08 0.000517241

0.000503096 -3.95741e-05 1.25282e-08
-3.95741e-05 0.000455246 -1.43774e-07
1.25282e-08 -1.43774e-07 0.000486639

0.000505345 -2.48595e-06 -3.89943e-08
-2.48595e-06 0.000512416 -7.97627e-08
-3.89943e-08 -7.97627e-08 0.000516466

0.000496241 2.49501e-06 -1.7549e-07
2.49501e-06 0.000498469 -1.26256e-07
-1.7549e-07 -1.26256e-07 0.000509325

0.000542482 6.75518e-06 5.95487e-08
6.75518e-06 0.000547857 -5.38809e-08
5.95487e-08 -5.38809e-08 0.000535646

0.000544979 -7.18693e-06 5.73899e-08
-7.18693e-06 0.000548262 5.18849e-08
5.73899e-08 5.18849e-08 0.000535642

0.000531313 -2.48007e-06 -1.10544e-07
-2.48007e-06 0.000542016 -4.8561e-09
-1.10544e-07 -4.8561e-09 0.000532446

0.000541607 3.86626e-06 5.41416e-08
3.86626e-06 0.000550565 -9.19345e-08
5.41416e-08 -9.19345e-08 0.00053612

0.000543501 -2.13395e-06 5.14221e-08
-2.13395e-06 0.000550366 9.38835e-08
5.14221e-08 9.38835e-08 0.000536116

0.00051923 -8.64001e-06 -1.60526e-08
-8.64001e-06 0.000525561 -1.69675e-07
-1.60526e-08 -1.69675e-07 0.000520572

0.000502574 -1.65931e-05 1.02027e-07
-1.65931e-05 0.000467202 3.08439e-08
1.02027e-07 3.08439e-08 0.000482834

0.000502291 1.69632e-05 1.20811e-07
1.69632e-05 0.000467202 4.27308e-10
1.20811e-07 4.27308e-10 0.000482868

0.000534112 4.08157e-06 -1.56113e-07
4.08157e-06 0.000545045 -7.15949e-08
-1.56113e-07 -7.15949e-08 0.000533088

0.000532467 -4.91101e-06 1.04795e-07
-4.91101e-06 0.000545184 7.88224e-08
1.04795e-07 7.88224e-08 0.000533048

0.000493891 2.50546e-06 -1.3117e-07
2.50546e-06 0.000483278 4.862e-08
-1.3117e-07 4.862e-08 0.00050536

0.000530863 2.3764e-05 7.92671e-08
2.3764e-05 0.000489926 2.8054e-08
7.92671e-08 2.8054e-08 0.000490789

0.000560605 -1.87416e-05 8.83383e-08
-1.87416e-05 0.000537092 1.81982e-07
8.83383e-08 1.81982e-07 0.000513497

0.000516448 5.15721e-06 1.10686e-08
5.15721e-06 0.000529469 -3.20894e-08
1.10686e-08 -3.20894e-08 0.000522305

0.00049575 -2.40874e-06 -2.6713e-08
-2.40874e-06 0.000503389 8.56402e-08
-2.6713e-08 8.56402e-08 0.000510517

0.00049648 -3.97797e-06 1.14974e-07
-3.97797e-06 0.000490732 -1.14448e-07
1.14974e-07 -1.14448e-07 0.000506996

0.000521256 -8.67858e-06 -1.91684e-08
-8.67858e-06 0.000526222 8.87019e-11
-1.91684e-08 8.87019e-11 0.000517818

0.000502179 2.39348e-05 -1.45443e-08
2.39348e-05 0.000477313 -4.90338e-08
-1.45443e-08 -4.90338e-08 0.000498579

0.00055413 3.84888e-06 -2.82685e-07
3.84888e-06 0.000567591 -2.37991e-07
-2.82685e-07 -2.37991e-07 0.000539557

0.000560742 -6.35549e-06 -2.83444e-07
-6.35549e-06 0.000567591 2.3744e-07
-2.83444e-07 2.3744e-07 0.000539555

0.000490318 3.19693e-05 -3.62029e-08
3.19693e-05 0.000459461 5.24989e-08
-3.62029e-08 5.24989e-08 0.000479826

0.000530168 2.56365e-06 -1.91774e-07
2.56365e-06 0.00054283 1.86512e-08
-1.91774e-07 1.86512e-08 0.000532159

0.000531381 -1.89988e-06 4.08862e-08
-1.89988e-06 0.000542944 -1.26471e-07
4.08862e-08 -1.26471e-07 0.000532184

0.000453759 1.51378e-05 7.40534e-08
1.51378e-05 0.000479757 -8.21924e-08
7.40534e-08 -8.21924e-08 0.000485977

0.000532575 1.05927e-05 -5.51487e-08
1.05927e-05 0.000534207 4.14574e-08
-5.51487e-08 4.14574e-08 0.000518398

0.00049265 3.21014e-06 8.1468e-08
3.21014e-06 0.000477267 5.78538e-08
8.1468e-08 5.78538e-08 0.000503076

0.000493071 -4.68293e-06 -1.22931e-07
-4.68293e-06 0.000467069 -7.19982e-08
-1.22931e-07 -7.19982e-08 0.000501124

0.000485085 -2.38866e-05 -1.46555e-08
-2.38866e-05 0.000453505 3.18548e-08
-1.46555e-08 3.18548e-08 0.000490728

0.000479195 2.64396e-05 3.56045e-08
2.64396e-05 0.000514754 -9.17763e-08
3.56045e-08 -9.17763e-08 0.000488693

0.000479844 -2.72126e-05 1.18858e-08
-2.72126e-05 0.000512136 1.22284e-07
1.18858e-08 1.22284e-07 0.000488591

0.000491746 4.5308e-06 6.83597e-08
4.5308e-06 0.000491663 1.39674e-07
6.83597e-08 1.39674e-07 0.000505539

0.000483322 6.3567e-06 -6.95617e-08
6.3567e-06 0.00047116 4.56359e-08
-6.95617e-08 4.56359e-08 0.000498985

0.000528765 -5.40006e-06 8.80096e-08
-5.40006e-06 0.000538887 -8.64796e-08
8.80096e-08 -8.64796e-08 0.000530622

0.000554583 -3.48383e-07 -2.46823e-07
-3.48383e-07 0.000546396 1.00454e-07
-2.46823e-07 1.00454e-07 0.000510002

0.000574335 1.9292e-05 -1.727e-07
1.9292e-05 0.000485178 -3.3237e-08
-1.727e-07 -3.3237e-08 0.000500104

0.000484664 2.51247e-05 -4.69833e-08
2.51247e-05 0.000455578 3.83981e-08
-4.69833e-08 3.83981e-08 0.000490549

0.000520953 -8.08868e-06 -1.00759e-07
-8.08868e-06 0.000494263 3.20956e-08
-1.00759e-07 3.20956e-08 0.000505582

0.000528045 2.38268e-06 6.86159e-08
2.38268e-06 0.000508951 2.57662e-08
6.86159e-08 2.57662e-08 0.000512952

0.00053187 -3.46603e-07 8.90405e-08
-3.46603e-07 0.00054533 -6.60642e-08
8.90405e-08 -6.60642e-08 0.000533786

0.000532766 4.41354e-07 -1.28692e-09
4.41354e-07 0.000545299 6.89512e-08
-1.28692e-09 6.89512e-08 0.000533851

0.000515582 5.44479e-06 -2.48709e-08
5.44479e-06 0.000524874 1.64665e-07
-2.48709e-08 1.64665e-07 0.000522523

0.000524053 -2.9277e-06 1.04376e-07
-2.9277e-06 0.000536725 -6.97516e-08
1.04376e-07 -6.97516e-08 0.000528964

0.000537317 2.38975e-06 -3.25069e-08
2.38975e-06 0.000547187 2.1282e-07
-3.25069e-08 2.1282e-07 0.000535129

0.000535908 -2.52058e-06 -1.66077e-08
-2.52058e-06 0.000547306 -1.84608e-07
-1.66077e-08 -1.84608e-07 0.00053513

0.000529853 5.11192e-06 1.74185e-08
5.11192e-06 0.000538892 -1.51561e-07
1.74185e-08 -1.51561e-07 0.000530601

0.00052058 3.70734e-06 -3.35479e-08
3.70734e-06 0.000518884 -8.95382e-08
-3.35479e-08 -8.95382e-08 0.000520117

0.000534242 5.70829e-06 1.13085e-07
5.70829e-06 0.000543608 6.00083e-08
1.13085e-07 6.00083e-08 0.000533794

0.000535009 -4.83976e-06 3.86992e-08
-4.83976e-06 0.000543415 -1.26287e-07
3.86992e-08 -1.26287e-07 0.000533861

0.000491668 1.06829e-05 -5.62847e-08
1.06829e-05 0.000450653 7.67295e-08
-5.62847e-08 7.67295e-08 0.000494314

0.000534922 -6.61453e-06 -4.61633e-08
-6.61453e-06 0.000535183 -1.72303e-07
-4.61633e-08 -1.72303e-07 0.000527902

0.000489269 2.06697e-06 -8.95243e-08
2.06697e-06 0.000480193 -4.26981e-08
-8.95243e-08 -4.26981e-08 0.000501245

0.000460708 2.51911e-05 6.2911e-08
2.51911e-05 0.000472414 -1.18084e-07
6.2911e-08 -1.18084e-07 0.000476324

0.000533078 -6.88007e-06 4.67217e-08
-6.88007e-06 0.000533024 1.20215e-07
4.67217e-08 1.20215e-07 0.000521994

0.000521595 1.38997e-06 3.20863e-08
1.38997e-06 0.000532849 -3.15642e-08
3.20863e-08 -3.15642e-08 0.000526899

0.000475871 1.55491e-05 1.2158e-07
1.55491e-05 0.000463207 -1.32727e-07
1.2158e-07 -1.32727e-07 0.000495483

0.000491034 -8.45165e-06 6.08602e-08
-8.45165e-06 0.000454675 -1.89323e-08
6.08602e-08 -1.89323e-08 0.00049519

0.000488269 -1.68105e-06 -1.18282e-07
-1.68105e-06 0.000483185 -3.17727e-08
-1.18282e-07 -3.17727e-08 0.00050337

0.000480774 -6.33001e-06 4.68893e-08
-6.33001e-06 0.000472234 6.47868e-08
4.68893e-08 6.47868e-08 0.000499225

0.000511749 1.66287e-05 1.70282e-07
1.66287e-05 0.000498545 -2.7066e-08
1.70282e-07 -2.7066e-08 0.00050949

0.000514571 -1.5227e-05 -4.74499e-08
-1.5227e-05 0.000503405 4.39252e-09
-4.74499e-08 4.39252e-09 0.000510965

0.000516106 -1.42366e-06 -1.08055e-08
-1.42366e-06 0.000525751 -2.03235e-07
-1.08055e-08 -2.03235e-07 0.000522914

0.00045246 -1.63831e-05 6.56146e-08
-1.63831e-05 0.000480332 -6.75028e-08
6.56146e-08 -6.75028e-08 0.000485653

0.000517856 1.23783e-06 1.7386e-08
1.23783e-06 0.000523089 -7.18009e-08
1.7386e-08 -7.18009e-08 0.000521775

0.000516604 -2.10738e-06 1.40243e-08
-2.10738e-06 0.000522438 7.16616e-08
1.40243e-08 7.16616e-08 0.000521623

0.000484301 7.2986e-06 -7.04812e-08
7.2986e-06 0.00047126 4.55855e-08
-7.04812e-08 4.55855e-08 0.000496792

0.000495602 2.10254e-05 -1.10519e-08
2.10254e-05 0.000407576 -1.0634e-07
-1.10519e-08 -1.0634e-07 0.000472836

0.000495642 -1.81093e-05 5.80595e-08
-1.81093e-05 0.000407417 2.09767e-08
5.80595e-08 2.09767e-08 0.0004728

0.000504557 9.29753e-06 -3.39365e-08
9.29753e-06 0.000491749 -1.81165e-07
-3.39365e-08 -1.81165e-07 0.000507869

0.000477551 -5.81132e-06 -9.72727e-08
-5.81132e-06 0.000484166 -8.45106e-08
-9.72727e-08 -8.45106e-08 0.000498542

0.000505792 6.97825e-06 -1.41885e-07
6.97825e-06 0.00050594 1.4527e-08
-1.41885e-07 1.4527e-08 0.000513311

0.000506438 -7.29692e-06 -1.13624e-07
-7.29692e-06 0.000505897 1.15803e-07
-1.13624e-07 1.15803e-07 0.000513446

0.000518755 6.46465e-07 1.15406e-08
6.46465e-07 0.000525636 1.47421e-07
1.15406e-08 1.47421e-07 0.000524251

0.000514492 -4.81364e-06 4.09762e-08
-4.81364e-06 0.000524762 2.63558e-08
4.09762e-08 2.63558e-08 0.000522264

0.000519232 1.00486e-06 -3.46852e-08
1.00486e-06 0.000530002 1.73926e-07
-3.46852e-08 1.73926e-07 0.000524649

0.000598876 8.37097e-06 3.99743e-07
8.37097e-06 0.000536412 -1.04581e-07
3.99743e-07 -1.04581e-07 0.000507117

0.000601591 -3.87335e-05 2.9093e-08
-3.87335e-05 0.000519239 -9.72285e-08
2.9093e-08 -9.72285e-08 0.000501349

0.000521361 -7.90501e-07 -9.46416e-08
-7.90501e-07 0.000532867 -2.07589e-08
-9.46416e-08 -2.07589e-08 0.000527115

0.000526334 -3.17787e-06 2.45418e-08
-3.17787e-06 0.000529744 -1.36474e-07
2.45418e-08 -1.36474e-07 0.000522772

0.000530981 2.26788e-06 -1.13681e-07
2.26788e-06 0.00054193 8.48852e-08
-1.13681e-07 8.48852e-08 0.000532383

0.000503664 -8.78726e-06 1.12719e-07
-8.78726e-06 0.000492285 -1.30337e-07
1.12719e-07 -1.30337e-07 0.0005077

0.000542774 -1.69095e-05 5.43259e-08
-1.69095e-05 0.000530931 1.03727e-07
5.43259e-08 1.03727e-07 0.000519713

0.000479076 4.48021e-05 -2.90953e-08
4.48021e-05 0.000456665 3.70884e-08
-2.90953e-08 3.70884e-08 0.000477832

0.000536064 6.94959e-06 -8.12587e-08
6.94959e-06 0.000535071 1.69523e-07
-8.12587e-08 1.69523e-07 0.000527974

0.000533689 -8.48906e-06 1.03814e-10
-8.48906e-06 0.000537626 -6.17915e-09
1.03814e-10 -6.17915e-09 0.000527694

0.000484115 1.51793e-05 -1.14822e-07
1.51793e-05 0.000479865 -2.37771e-08
-1.14822e-07 -2.37771e-08 0.00049249

0.000533181 -8.49673e-08 1.02791e-08
-8.49673e-08 0.000548829 -9.32357e-09
1.02791e-08 -9.32357e-09 0.000534577

0.000518339 -7.10582e-07 5.71952e-08
-7.10582e-07 0.000528682 3.80715e-08
5.71952e-08 3.80715e-08 0.000524421

0.000459246 -2.53051e-05 4.95727e-08
-2.53051e-05 0.000472885 -1.9444e-08
4.95727e-08 -1.9444e-08 0.000476117

0.000517305 -6.05708e-06 5.52575e-08
-6.05708e-06 0.000531602 1.75162e-08
5.52575e-08 1.75162e-08 0.000524336

0.000489066 -2.93398e-06 -1.57863e-07
-2.93398e-06 0.0004931 2.78456e-08
-1.57863e-07 2.78456e-08 0.000506063

0.000476305 -3.18103e-06 -1.31201e-07
-3.18103e-06 0.000479117 -3.44611e-08
-1.31201e-07 -3.44611e-08 0.000495197

0.000511289 2.21523e-06 4.07039e-08
2.21523e-06 0.000509582 -8.9457e-08
4.07039e-08 -8.9457e-08 0.000515728

0.000512305 -2.48779e-06 -4.72081e-08
-2.48779e-06 0.000509371 1.51478e-07
-4.72081e-08 1.51478e-07 0.000515703

0.000516217 2.16048e-06 1.2165e-07
2.16048e-06 0.000531425 -9.70591e-08
1.2165e-07 -9.70591e-08 0.000525103

0.0005189 5.6182e-06 -2.42332e-08
5.6182e-06 0.000531445 -1.17467e-07
-2.42332e-08 -1.17467e-07 0.000524351

0.000513384 -3.34962e-06 -4.31354e-08
-3.34962e-06 0.000505106 -8.22541e-08
-4.31354e-08 -8.22541e-08 0.000511647

0.000512977 4.16493e-06 1.70841e-07
4.16493e-06 0.000503886 -3.8297e-08
1.70841e-07 -3.8297e-08 0.000510741

0.000511872 -5.74824e-07 3.11385e-09
-5.74824e-07 0.000519067 1.81158e-07
3.11385e-09 1.81158e-07 0.000519366

0.00051228 8.24806e-07 1.3266e-08
8.24806e-07 0.000519922 3.94643e-08
1.3266e-08 3.94643e-08 0.000519316

0.000536099 1.39627e-06 -3.61784e-08
1.39627e-06 0.000545777 -8.59537e-08
-3.61784e-08 -8.59537e-08 0.000534637

0.000535993 -1.2092e-06 -4.64842e-08
-1.2092e-06 0.000545773 7.67498e-08
-4.64842e-08 7.67498e-08 0.000534641

0.000528353 -9.21554e-06 1.42198e-08
-9.21554e-06 0.00053464 -1.31959e-07
1.42198e-08 -1.31959e-07 0.000525548

0.000473579 -4.09102e-05 -2.98144e-08
-4.09102e-05 0.000459967 -1.28646e-07
-2.98144e-08 -1.28646e-07 0.000474849

0.000461026 8.05481e-07 4.08581e-08
8.05481e-07 0.000479597 5.03826e-08
4.08581e-08 5.03826e-08 0.000494067

0.000492193 1.13028e-06 1.74854e-07
1.13028e-06 0.00049098 4.17039e-08
1.74854e-07 4.17039e-08 0.000506061

0.000509557 -4.12782e-06 -5.94846e-08
-4.12782e-06 0.00051842 1.20703e-07
-5.94846e-08 1.20703e-07 0.000516451

0.000541399 5.82711e-06 3.68222e-08
5.82711e-06 0.000545142 -6.59088e-08
3.68222e-08 -6.59088e-08 0.000534897

0.000539923 -6.52146e-06 4.24325e-08
-6.52146e-06 0.000545259 8.03704e-08
4.24325e-08 8.03704e-08 0.000534895

0.0005311 7.78668e-06 -1.96065e-07
7.78668e-06 0.000540605 -3.0342e-08
-1.96065e-07 -3.0342e-08 0.000531669

0.000532296 -7.1738e-06 2.99972e-08
-7.1738e-06 0.000540679 1.34006e-09
2.99972e-08 1.34006e-09 0.00053159

0.000500133 -9.99299e-07 1.59135e-08
-9.99299e-07 0.000508467 -4.64045e-08
1.59135e-08 -4.64045e-08 0.000513346

0.000510058 -5.42637e-07 -7.28569e-08
-5.42637e-07 0.000518127 1.06166e-07
-7.28569e-08 1.06166e-07 0.000519364

0.000508644 4.56072e-06 4.44886e-08
4.56072e-06 0.000518883 -1.00663e-07
4.44886e-08 -1.00663e-07 0.000516398

0.00055274 7.37018e-07 -1.81877e-07
7.37018e-07 0.000555598 3.559e-07
-1.81877e-07 3.559e-07 0.000538367

0.000549669 -3.35807e-07 -1.84617e-07
-3.35807e-07 0.000555598 -3.56565e-07
-1.84617e-07 -3.56565e-07 0.000538364

0.000526833 -5.79695e-06 -1.05348e-07
-5.79695e-06 0.000535299 -7.28377e-08
-1.05348e-07 -7.28377e-08 0.000528082

0.000495797 -2.25986e-06 1.82878e-07
-2.25986e-06 0.000481011 1.88254e-08
1.82878e-07 1.88254e-08 0.000505295

0.000524001 3.36992e-06 1.03701e-07
3.36992e-06 0.000536823 9.49606e-08
1.03701e-07 9.49606e-08 0.000528968

0.000501657 -2.19053e-05 -6.87661e-08
-2.19053e-05 0.000485251 4.81651e-08
-6.87661e-08 4.81651e-08 0.000500904

0.000523175 1.12991e-05 -1.08095e-07
1.12991e-05 0.000518773 -6.01542e-08
-1.08095e-07 -6.01542e-08 0.000516688

0.000486676 1.50696e-06 2.05896e-08
1.50696e-06 0.000487722 -1.0806e-07
2.05896e-08 -1.0806e-07 0.000503882

0.000535234 7.7245e-06 -1.2225e-08
7.7245e-06 0.000537676 -3.31282e-08
-1.2225e-08 -3.31282e-08 0.00052776

0.000526344 6.72593e-06 2.55541e-07
6.72593e-06 0.000535432 4.51311e-08
2.55541e-07 4.51311e-08 0.000528061

0.000445838 3.99933e-05 -4.76588e-08
3.99933e-05 0.000461938 5.11622e-08
-4.76588e-08 5.11622e-08 0.000469946

0.000549099 -5.00972e-07 1.16503e-07
-5.00972e-07 0.000528759 9.96605e-08
1.16503e-07 9.96605e-08 0.000516554

0.000536706 2.04113e-05 7.85851e-08
2.04113e-05 0.000459608 3.00474e-08
7.85851e-08 3.00474e-08 0.000490018

0.00052631 1.00001e-05 6.89288e-08
1.00001e-05 0.000534881 8.05346e-08
6.89288e-08 8.05346e-08 0.00052563

0.000470187 1.9473e-05 6.95438e-08
1.9473e-05 0.00047855 -8.5089e-08
6.95438e-08 -8.5089e-08 0.000490624

0.000486882 -2.70155e-06 -1.05006e-07
-2.70155e-06 0.00048006 -1.04335e-07
-1.05006e-07 -1.04335e-07 0.000502045

0.000540608 -1.25658e-05 -6.92297e-08
-1.25658e-05 0.000531929 1.09686e-07
-6.92297e-08 1.09686e-07 0.000525027

0.000489637 -1.9138e-05 -6.37941e-09
-1.9138e-05 0.000482283 2.26495e-07
-6.37941e-09 2.26495e-07 0.000499486

0.000501181 1.30051e-05 -1.45098e-07
1.30051e-05 0.000497767 1.33069e-07
-1.45098e-07 1.33069e-07 0.000508025

0.000527204 -3.13382e-06 -1.21847e-08
-3.13382e-06 0.000539614 7.45793e-09
-1.21847e-08 7.45793e-09 0.000529419

0.00051544 -9.69169e-06 3.98952e-08
-9.69169e-06 0.000510623 -1.21353e-07
3.98952e-08 -1.21353e-07 0.000515131

0.000547052 1.42472e-05 6.05194e-08
1.42472e-05 0.000529868 9.23932e-10
6.05194e-08 9.23932e-10 0.00052034

0.000496545 1.81543e-06 -3.22406e-08
1.81543e-06 0.00049765 2.3383e-08
-3.22406e-08 2.3383e-08 0.000509986

0.000497014 -1.0627e-06 -1.9786e-07
-1.0627e-06 0.000491302 -1.45295e-07
-1.9786e-07 -1.45295e-07 0.000508717

0.00052704 3.99484e-06 2.65778e-07
3.99484e-06 0.000539594 3.63784e-08
2.65778e-07 3.63784e-08 0.000529499

0.000529387 -8.94329e-07 2.85437e-08
-8.94329e-07 0.000539868 1.3584e-07
2.85437e-08 1.3584e-07 0.000530834

0.000555965 3.29198e-06 -2.68106e-07
3.29198e-06 0.000559641 -2.73078e-07
-2.68106e-07 -2.73078e-07 0.000539417

0.000564454 -3.54036e-06 -2.68956e-07
-3.54036e-06 0.000559641 2.72309e-07
-2.68956e-07 2.72309e-07 0.000539415

0.000526316 4.45375e-06 8.85637e-09
4.45375e-06 0.000529463 5.12007e-08
8.85637e-09 5.12007e-08 0.000522777

0.000473749 -2.30907e-05 8.70528e-08
-2.30907e-05 0.000489301 1.55076e-07
8.70528e-08 1.55076e-07 0.000490992

0.000473548 2.34822e-05 -8.10424e-08
2.34822e-05 0.000489921 -5.94268e-09
-8.10424e-08 -5.94268e-09 0.00049101

0.000498619 -3.1235e-06 5.03418e-09
-3.1235e-06 0.000441222 2.41821e-08
5.03418e-09 2.41821e-08 0.000488916

0.000444351 -3.95292e-05 7.13771e-08
-3.95292e-05 0.000463224 1.25683e-08
7.13771e-08 1.25683e-08 0.000469579

0.000509516 2.15162e-06 -9.6245e-08
2.15162e-06 0.00051736 -1.30488e-07
-9.6245e-08 -1.30488e-07 0.000518591

0.000497732 -1.67628e-07 -3.0931e-08
-1.67628e-07 0.000490847 3.20923e-08
-3.0931e-08 3.20923e-08 0.000508598

0.000508291 4.17446e-06 -1.40111e-08
4.17446e-06 0.000513507 1.96092e-07
-1.40111e-08 1.96092e-07 0.000517168

0.000508625 -4.31833e-06 -9.13894e-08
-4.31833e-06 0.0005134 -6.15104e-08
-9.13894e-08 -6.15104e-08 0.000517366

0.000514738 1.99968e-06 -2.90373e-08
1.99968e-06 0.00052059 -1.86382e-07
-2.90373e-08 -1.86382e-07 0.000521231

0.000541924 1.14271e-05 -4.09477e-08
1.14271e-05 0.000531924 -8.00417e-08
-4.09477e-08 -8.00417e-08 0.000525017

0.000501506 3.8257e-06 2.52935e-08
3.8257e-06 0.00050301 2.44587e-08
2.52935e-08 2.44587e-08 0.000512646

0.000514529 1.51648e-06 6.59985e-08
1.51648e-06 0.000518825 1.37209e-07
6.59985e-08 1.37209e-07 0.000520909

0.00053262 -1.41793e-05 7.51636e-08
-1.41793e-05 0.000484478 -9.28584e-09
7.51636e-08 -9.28584e-09 0.000492501

0.000561606 1.48669e-05 -2.13853e-08
1.48669e-05 0.000525109 -8.75157e-09
-2.13853e-08 -8.75157e-09 0.000514062

0.000490479 -1.63446e-05 -8.78955e-08
-1.63446e-05 0.000462979 -3.78972e-08
-8.78955e-08 -3.78972e-08 0.000492292

0.00049651 -2.6761e-06 -7.0588e-08
-2.6761e-06 0.000393297 1.98307e-08
-7.0588e-08 1.98307e-08 0.000466988

0.000510877 -6.07773e-06 1.6805e-08
-6.07773e-06 0.000520098 7.43358e-08
1.6805e-08 7.43358e-08 0.000518759

0.000510061 6.05284e-06 3.97176e-08
6.05284e-06 0.000520513 -9.06365e-08
3.97176e-08 -9.06365e-08 0.000518917

0.000498453 -1.82506e-06 -1.07963e-09
-1.82506e-06 0.000431994 5.75501e-08
-1.07963e-09 5.75501e-08 0.000488437

0.000519778 9.30497e-06 -4.61657e-08
9.30497e-06 0.000525873 9.41433e-08
-4.61657e-08 9.41433e-08 0.00052043

0.000545373 6.57536e-06 1.63312e-07
6.57536e-06 0.00055207 -5.089e-08
1.63312e-07 -5.089e-08 0.000537421

0.000545393 -4.45114e-06 1.62364e-07
-4.45114e-06 0.000551836 5.23371e-08
1.62364e-07 5.23371e-08 0.000537418

0.00047802 -6.64421e-06 -7.95019e-08
-6.64421e-06 0.000479326 1.58055e-07
-7.95019e-08 1.58055e-07 0.000495284

0.000469252 -1.97961e-05 -1.15124e-07
-1.97961e-05 0.000478384 4.09277e-08
-1.15124e-07 4.09277e-08 0.000490476

0.000490463 -1.7205e-05 -9.27261e-08
-1.7205e-05 0.000446991 -8.73393e-08
-9.27261e-08 -8.73393e-08 0.000490911

0.000494616 2.01651e-07 1.1752e-07
2.01651e-07 0.000480968 -5.49221e-08
1.1752e-07 -5.49221e-08 0.000504763

0.000481949 -1.48333e-05 1.04096e-07
-1.48333e-05 0.000480282 1.39138e-07
1.04096e-07 1.39138e-07 0.000492248

0.000498582 -3.25312e-06 1.87889e-07
-3.25312e-06 0.000497882 5.43202e-08
1.87889e-07 5.43202e-08 0.000511294

0.000500187 -1.18434e-05 1.6479e-07
-1.18434e-05 0.000500257 6.58204e-09
1.6479e-07 6.58204e-09 0.000508319

0.000515473 9.56169e-06 5.40365e-08
9.56169e-06 0.000507379 -7.9442e-08
5.40365e-08 -7.9442e-08 0.000514673

0.000549349 -1.49553e-05 -9.41404e-08
-1.49553e-05 0.000517317 2.98417e-07
-9.41404e-08 2.98417e-07 0.000507383

0.000542918 1.05865e-05 -1.46794e-08
1.05865e-05 0.000515419 1.7165e-07
-1.46794e-08 1.7165e-07 0.000506156

0.000535885 1.08661e-07 -3.68787e-08
1.08661e-07 0.000549506 -8.50389e-08
-3.68787e-08 -8.50389e-08 0.000535778

0.000535358 -2.21675e-07 -3.21675e-08
-2.21675e-07 0.000549426 9.54114e-08
-3.21675e-08 9.54114e-08 0.000535782

0.000467534 -1.11898e-05 -2.02727e-07
-1.11898e-05 0.000477356 1.03772e-07
-2.02727e-07 1.03772e-07 0.000493486

0.000466194 1.10129e-05 -1.89129e-08
1.10129e-05 0.000478569 -1.71031e-08
-1.89129e-08 -1.71031e-08 0.000493129

0.000465372 -5.73922e-06 1.24333e-07
-5.73922e-06 0.00049469 -4.94862e-09
1.24333e-07 -4.94862e-09 0.000485485

0.000465422 6.69608e-06 -6.08784e-08
6.69608e-06 0.000494117 7.98087e-08
-6.08784e-08 7.98087e-08 0.000485416

0.000556115 3.66506e-07 1.65204e-07
3.66506e-07 0.000559298 -2.4773e-07
1.65204e-07 -2.4773e-07 0.000538869

0.000556115 -3.66506e-07 1.63274e-07
-3.66506e-07 0.000559298 2.47024e-07
1.63274e-07 2.47024e-07 0.000538866

0.00054329 7.40734e-06 -2.3044e-08
7.40734e-06 0.000537477 -3.09467e-08
-2.3044e-08 -3.09467e-08 0.000530873

0.000544195 -8.13688e-06 -6.30312e-09
-8.13688e-06 0.00053728 -7.57607e-09
-6.30312e-09 -7.57607e-09 0.000530879

0.000524678 -1.75291e-06 -1.09401e-07
-1.75291e-06 0.000537872 -5.64344e-08
-1.09401e-07 -5.64344e-08 0.000528692

0.000505482 -8.43838e-06 -4.64811e-08
-8.43838e-06 0.000489463 2.01545e-07
-4.64811e-08 2.01545e-07 0.000502958

0.000520098 2.23358e-06 -8.54475e-08
2.23358e-06 0.000517843 7.21201e-08
-8.54475e-08 7.21201e-08 0.000517158

0.000494761 -3.95558e-06 -1.31623e-07
-3.95558e-06 0.000484732 5.52919e-08
-1.31623e-07 5.52919e-08 0.000505192

0.000523981 1.31977e-06 2.21161e-07
1.31977e-06 0.000537845 -1.19544e-07
2.21161e-07 -1.19544e-07 0.000528673

0.000501543 7.2683e-06 -9.88492e-09
7.2683e-06 0.000492237 1.97279e-07
-9.88492e-09 1.97279e-07 0.000502987

0.00052179 -2.45046e-06 -5.44586e-08
-2.45046e-06 0.000534471 -7.98661e-08
-5.44586e-08 -7.98661e-08 0.000526204

0.00043351 -2.52143e-05 -9.86278e-08
-2.52143e-05 0.000475545 2.8725e-08
-9.86278e-08 2.8725e-08 0.000473082

0.000433579 2.53876e-05 -6.72572e-08
2.53876e-05 0.0004753 -1.59609e-07
-6.72572e-08 -1.59609e-07 0.000473143

0.000520343 3.28455e-06 -1.3312e-07
3.28455e-06 0.000534413 -2.27528e-08
-1.3312e-07 -2.27528e-08 0.000526142

0.000488989 1.87067e-05 1.31925e-07
1.87067e-05 0.000463803 -1.29082e-07
1.31925e-07 -1.29082e-07 0.000491855

0.000620485 4.643e-06 3.00269e-07
4.643e-06 0.000465167 -2.36657e-07
3.00269e-07 -2.36657e-07 0.000498866

0.000593526 -8.95098e-06 1.46811e-07
-8.95098e-06 0.000557206 -6.1863e-08
1.46811e-07 -6.1863e-08 0.000508082

0.000532887 4.42044e-06 -5.16867e-08
4.42044e-06 0.000523638 -9.8649e-08
-5.16867e-08 -9.8649e-08 0.000519026

0.000476972 -1.42924e-05 -9.39136e-08
-1.42924e-05 0.000463202 -3.57855e-08
-9.39136e-08 -3.57855e-08 0.000495965

0.000494863 -2.71749e-05 6.69024e-08
-2.71749e-05 0.000454583 9.38054e-11
6.69024e-08 9.38054e-11 0.000483047

0.000509464 -1.36825e-06 1.85962e-09
-1.36825e-06 0.000512941 4.53378e-08
1.85962e-09 4.53378e-08 0.000517755

0.000507411 3.90848e-07 -1.90568e-07
3.90848e-07 0.000520465 -1.93358e-07
-1.90568e-07 -1.93358e-07 0.000519414

0.000542473 3.25346e-06 2.00079e-07
3.25346e-06 0.000547159 2.09171e-07
2.00079e-07 2.09171e-07 0.000536261

0.000542442 -3.44774e-06 1.97997e-07
-3.44774e-06 0.000547214 -1.75329e-07
1.97997e-07 -1.75329e-07 0.000536262

0.000494953 2.68916e-05 4.0366e-08
2.68916e-05 0.000455502 7.0167e-08
4.0366e-08 7.0167e-08 0.00048302

0.000521367 -3.00322e-06 -2.07909e-08
-3.00322e-06 0.0005173 -1.66584e-07
-2.07909e-08 -1.66584e-07 0.00051764

0.000521099 -5.83466e-06 3.49242e-08
-5.83466e-06 0.000533774 5.12296e-08
3.49242e-08 5.12296e-08 0.000526898

0.000534962 7.3629e-06 -1.21271e-07
7.3629e-06 0.00054296 2.08229e-07
-1.21271e-07 2.08229e-07 0.000532461

0.000533266 -7.94484e-06 1.09072e-07
-7.94484e-06 0.000542855 4.47628e-08
1.09072e-07 4.47628e-08 0.00053242

0.000503148 -3.9602e-05 -1.59728e-08
-3.9602e-05 0.000482896 1.01866e-07
-1.59728e-08 1.01866e-07 0.000488621

0.000501556 4.02771e-05 2.25872e-08
4.02771e-05 0.000482896 5.28398e-07
2.25872e-08 5.28398e-07 0.000488667

0.000528902 1.20478e-05 -1.43486e-08
1.20478e-05 0.000530436 -8.35954e-08
-1.43486e-08 -8.35954e-08 0.000521843

0.000486662 -5.10298e-06 3.10729e-08
-5.10298e-06 0.000471764 6.70465e-08
3.10729e-08 6.70465e-08 0.000497286

0.000537455 5.49932e-06 -4.06141e-08
5.49932e-06 0.000548999 -1.49202e-07
-4.06141e-08 -1.49202e-07 0.000535534

0.000536088 -6.192e-06 -2.49063e-08
-6.192e-06 0.000548913 1.52136e-07
-2.49063e-08 1.52136e-07 0.000535533

0.000506087 -1.74134e-05 2.15512e-08
-1.74134e-05 0.000476863 -1.46343e-08
2.15512e-08 -1.46343e-08 0.000492971

0.000483856 -3.40773e-05 7.74487e-08
-3.40773e-05 0.000460273 1.15475e-08
7.74487e-08 1.15475e-08 0.000476697

0.000503632 -4.47011e-06 7.80675e-08
-4.47011e-06 0.000511192 -1.30675e-07
7.80675e-08 -1.30675e-07 0.000516533

0.000451886 2.47969e-06 -1.56722e-07
2.47969e-06 0.000493307 2.06073e-08
-1.56722e-07 2.06073e-08 0.00048293

0.000451914 -2.23188e-06 -7.3885e-08
-2.23188e-06 0.000493007 7.89583e-08
-7.3885e-08 7.89583e-08 0.000482865

0.000476367 -3.3226e-05 8.27612e-08
-3.3226e-05 0.000469792 4.92506e-09
8.27612e-08 4.92506e-09 0.000487788

0.000520552 5.45205e-06 -1.0537e-07
5.45205e-06 0.000533399 1.45203e-07
-1.0537e-07 1.45203e-07 0.000527053

0.000476804 6.75951e-06 1.20276e-07
6.75951e-06 0.000479543 -1.09453e-07
1.20276e-07 -1.09453e-07 0.000494891

0.000459057 2.16771e-06 -1.72814e-07
2.16771e-06 0.000483804 2.77106e-09
-1.72814e-07 2.77106e-09 0.00048932

0.000458555 -2.54745e-06 -1.22998e-08
-2.54745e-06 0.000484876 7.82505e-09
-1.22998e-08 7.82505e-09 0.000489172

0.000488977 2.11035e-05 1.31593e-07
2.11035e-05 0.000443067 4.78592e-09
1.31593e-07 4.78592e-09 0.000490209

0.000542299 3.07802e-06 2.79422e-07
3.07802e-06 0.000553191 -1.8519e-07
2.79422e-07 -1.8519e-07 0.000537347

0.000542299 -3.22275e-06 2.70125e-07
-3.22275e-06 0.000552975 1.83174e-07
2.70125e-07 1.83174e-07 0.000537344

0.000562598 -2.15824e-07 1.97093e-07
-2.15824e-07 0.000534758 -1.31861e-07
1.97093e-07 -1.31861e-07 0.000503412

0.000559791 1.88647e-05 1.63779e-07
1.88647e-05 0.000535504 -7.90978e-08
1.63779e-07 -7.90978e-08 0.000506935

0.000501286 1.04161e-06 9.66889e-08
1.04161e-06 0.000509524 -1.69629e-07
9.66889e-08 -1.69629e-07 0.000513919

0.000504146 -4.61505e-07 -2.9197e-07
-4.61505e-07 0.000489986 4.56012e-08
-2.9197e-07 4.56012e-08 0.000508388

0.0005337 8.2416e-06 -1.60955e-07
8.2416e-06 0.000541526 7.43791e-08
-1.60955e-07 7.43791e-08 0.000530303

0.000532202 -8.01424e-06 -1.46378e-07
-8.01424e-06 0.000541706 -6.03405e-08
-1.46378e-07 -6.03405e-08 0.000530305

0.000533475 7.96015e-06 -1.4202e-08
7.96015e-06 0.000533064 -8.37959e-08
-1.4202e-08 -8.37959e-08 0.000522677

0.000504871 2.10663e-06 8.93885e-08
2.10663e-06 0.000510386 -9.80944e-09
8.93885e-08 -9.80944e-09 0.000515589

0.000511469 -3.65346e-07 -2.02367e-07
-3.65346e-07 0.000512279 -1.74258e-07
-2.02367e-07 -1.74258e-07 0.000518729

0.000553042 -1.66841e-06 1.99895e-07
-1.66841e-06 0.000565658 -1.53639e-07
1.99895e-07 -1.53639e-07 0.000539651

0.000556503 6.84819e-06 2.00703e-07
6.84819e-06 0.000565659 1.52831e-07
2.00703e-07 1.52831e-07 0.000539653

0.000460221 -7.73679e-07 1.58782e-07
-7.73679e-07 0.000478757 -7.6608e-08
1.58782e-07 -7.6608e-08 0.000493714

0.000524855 5.60436e-06 -1.26632e-07
5.60436e-06 0.000529151 -1.16579e-08
-1.26632e-07 -1.16579e-08 0.000525113

0.000535022 4.63279e-06 -1.79298e-07
4.63279e-06 0.000540102 1.78029e-07
-1.79298e-07 1.78029e-07 0.000530427

0.000533158 -5.10406e-06 -1.11877e-07
-5.10406e-06 0.00053993 1.59649e-07
-1.11877e-07 1.59649e-07 0.000530389

0.000524375 3.75206e-06 2.37717e-08
3.75206e-06 0.000534912 -2.11238e-07
2.37717e-08 -2.11238e-07 0.000526416

0.000526997 -5.35615e-06 -1.47162e-07
-5.35615e-06 0.000529024 7.98603e-08
-1.47162e-07 7.98603e-08 0.000525102

0.000502718 -7.42763e-07 -1.12941e-07
-7.42763e-07 0.000511252 1.69297e-07
-1.12941e-07 1.69297e-07 0.000514302

0.00050274 -8.85695e-08 -7.18676e-08
-8.85695e-08 0.000512407 -6.40284e-08
-7.18676e-08 -6.40284e-08 0.000514553

0.000512983 -1.19577e-06 5.02614e-08
-1.19577e-06 0.000525281 1.51986e-07
5.02614e-08 1.51986e-07 0.000522092

0.000526358 -3.80207e-06 -5.04094e-08
-3.80207e-06 0.000534872 2.20084e-07
-5.04094e-08 2.20084e-07 0.000526406

0.000503306 -3.47475e-06 4.76357e-08
-3.47475e-06 0.000503525 7.84853e-08
4.76357e-08 7.84853e-08 0.000513231

0.000494876 2.53116e-06 1.05873e-07
2.53116e-06 0.000489118 -4.17455e-08
1.05873e-07 -4.17455e-08 0.000506895

0.000539023 7.91407e-06 1.11038e-07
7.91407e-06 0.000541425 1.67003e-08
1.11038e-07 1.67003e-08 0.000532486

0.000538082 -7.56835e-06 1.21281e-07
-7.56835e-06 0.000541659 -8.61213e-09
1.21281e-07 -8.61213e-09 0.000532484

0.000536587 4.60577e-06 9.2296e-08
4.60577e-06 0.000547231 -4.72863e-08
9.2296e-08 -4.72863e-08 0.000533796

0.000535802 -4.46477e-06 1.06695e-07
-4.46477e-06 0.000547538 4.19558e-08
1.06695e-07 4.19558e-08 0.000533793

0.000498465 -3.78095e-06 1.74828e-07
-3.78095e-06 0.000504415 -1.18431e-07
1.74828e-07 -1.18431e-07 0.000512065

0.00049726 -3.55762e-06 -3.11291e-07
-3.55762e-06 0.000497842 1.45202e-08
-3.11291e-07 1.45202e-08 0.000509349

0.000528371 -8.19124e-06 -3.56265e-08
-8.19124e-06 0.000537965 2.1437e-07
-3.56265e-08 2.1437e-07 0.000528845

0.000528021 8.55986e-06 2.48691e-07
8.55986e-06 0.000538052 -1.25359e-07
2.48691e-07 -1.25359e-07 0.000528884

0.000562408 -4.94448e-06 2.15497e-07
-4.94448e-06 0.000483302 -1.74576e-08
2.15497e-07 -1.74576e-08 0.000502484

0.000553755 -5.85831e-07 1.73272e-07
-5.85831e-07 0.000526936 -2.00862e-08
1.73272e-07 -2.00862e-08 0.00050988

0.000540651 5.14544e-06 3.75461e-08
5.14544e-06 0.000546133 1.42418e-07
3.75461e-08 1.42418e-07 0.000533269

0.000540795 -4.16566e-06 3.68863e-08
-4.16566e-06 0.000545628 -1.42424e-07
3.68863e-08 -1.42424e-07 0.000533266

0.000544317 1.70579e-06 1.40156e-07
1.70579e-06 0.000551061 -2.62054e-07
1.40156e-07 -2.62054e-07 0.000537058

0.000544855 -1.95128e-06 1.40036e-07
-1.95128e-06 0.000550793 2.54972e-07
1.40036e-07 2.54972e-07 0.000537055

0.000463987 -6.04222e-06 1.15598e-07
-6.04222e-06 0.000484771 9.71659e-09
1.15598e-07 9.71659e-09 0.000488925

0.000465079 6.04713e-06 1.57571e-08
6.04713e-06 0.000483562 -2.98811e-09
1.57571e-08 -2.98811e-09 0.000489186

0.000536493 -3.3262e-05 9.30662e-08
-3.3262e-05 0.000490507 -1.82867e-07
9.30662e-08 -1.82867e-07 0.000489877

0.00046911 1.84657e-06 -1.33109e-07
1.84657e-06 0.000499034 1.29351e-07
-1.33109e-07 1.29351e-07 0.000483447

0.000547603 8.83136e-07 -1.07923e-07
8.83136e-07 0.000556149 -9.84029e-08
-1.07923e-07 -9.84029e-08 0.000538573

0.000554631 -2.49888e-06 3.10932e-07
-2.49888e-06 0.00055639 -4.86011e-07
3.10932e-07 -4.86011e-07 0.00053923

0.000547603 -8.83136e-07 -1.03889e-07
-8.83136e-07 0.000556149 1.00307e-07
-1.03889e-07 1.00307e-07 0.000538575

0.000554631 2.49888e-06 3.11607e-07
2.49888e-06 0.00055639 4.84807e-07
3.11607e-07 4.84807e-07 0.000539233

0.000560334 2.00388e-05 -2.0384e-08
2.00388e-05 0.000544391 -1.84598e-08
-2.0384e-08 -1.84598e-08 0.000512738

0.000469967 -1.40713e-06 4.77499e-08
-1.40713e-06 0.000498451 -5.68332e-08
4.77499e-08 -5.68332e-08 0.000483407

0.000556613 1.14232e-06 -1.08394e-06
1.14232e-06 0.000556268 -1.88414e-06
-1.08394e-06 -1.88414e-06 0.000537913

0.000561152 6.4205e-07 -2.15203e-06
6.4205e-07 0.000556745 1.65412e-06
-2.15203e-06 1.65412e-06 0.000539598

0.000561152 3.58336e-06 -2.15126e-06
3.58336e-06 0.000563152 -1.65466e-06
-2.15126e-06 -1.65466e-06 0.0005396

0.000557799 4.27101e-07 -1.08245e-06
4.27101e-07 0.000551683 1.88475e-06
-1.08245e-06 1.88475e-06 0.000537916

0.000554834 -2.16375e-06 2.57313e-07
-2.16375e-06 0.000550333 1.48911e-07
2.57313e-07 1.48911e-07 0.000537367

0.000548081 -7.26615e-06 -1.34093e-07
-7.26615e-06 0.000546537 -1.10275e-07
-1.34093e-07 -1.10275e-07 0.000535749

0.000554695 -3.16254e-06 2.00403e-07
-3.16254e-06 0.00056256 4.12448e-07
2.00403e-07 4.12448e-07 0.000539064

0.000555206 2.69093e-06 2.59118e-07
2.69093e-06 0.000550777 -1.48783e-07
2.59118e-07 -1.48783e-07 0.00053737

0.000554695 2.9672e-06 2.02178e-07
2.9672e-06 0.0005643 -4.12462e-07
2.02178e-07 -4.12462e-07 0.000539066

0.000547911 7.99712e-06 -1.32385e-07
7.99712e-06 0.000546949 1.10467e-07
-1.32385e-07 1.10467e-07 0.000535753

0.000548934 1.53684e-06 -1.35841e-07
1.53684e-06 0.000551678 1.5282e-07
-1.35841e-07 1.5282e-07 0.000536819

0.000553679 4.63585e-06 -2.0809e-07
4.63585e-06 0.000553148 1.3032e-07
-2.0809e-07 1.3032e-07 0.000538239

0.000548653 -3.54445e-06 -1.37703e-07
-3.54445e-06 0.000551857 -1.54502e-07
-1.37703e-07 -1.54502e-07 0.000536816

0.000551015 -5.9852e-06 -2.10741e-07
-5.9852e-06 0.000553148 -1.31756e-07
-2.10741e-07 -1.31756e-07 0.000538236

0.000287903 3.73178e-05 4.04573e-09
3.73178e-05 0.000371331 -2.88881e-08
4.04573e-09 -2.88881e-08 0.000324255

0.000403933 6.00581e-06 1.32901e-07
6.00581e-06 0.000433645 -7.71979e-08
1.32901e-07 -7.71979e-08 0.000409791

0.000323209 9.98908e-06 6.42e-08
9.98908e-06 0.000434013 5.65514e-08
6.42e-08 5.65514e-08 0.000385155

0.000402621 1.91715e-05 1.46979e-07
1.91715e-05 0.000286608 6.93411e-08
1.46979e-07 6.93411e-08 0.000345101

0.00038905 5.54977e-06 3.15059e-08
5.54977e-06 0.000275724 5.78813e-09
3.15059e-08 5.78813e-09 0.000320616

0.000405524 -3.90875e-06 1.19965e-07
-3.90875e-06 0.000448978 7.33077e-08
1.19965e-07 7.33077e-08 0.000436891

0.000321994 1.56394e-05 7.33246e-08
1.56394e-05 0.00046694 -4.95601e-08
7.33246e-08 -4.95601e-08 0.000407594

0.000391849 -5.30173e-06 4.88167e-08
-5.30173e-06 0.000287379 -1.18385e-07
4.88167e-08 -1.18385e-07 0.000322895

0.000453117 4.34688e-06 1.36949e-08
4.34688e-06 0.000315568 1.93897e-08
1.36949e-08 1.93897e-08 0.000389767

0.000236055 3.33665e-05 -9.98468e-08
3.33665e-05 0.000309326 1.50866e-07
-9.98468e-08 1.50866e-07 0.000259262

0.000254147 -5.4041e-05 2.11659e-08
-5.4041e-05 0.00031268 6.41114e-08
2.11659e-08 6.41114e-08 0.000257567

0.000316242 3.38583e-05 -1.00521e-07
3.38583e-05 0.000246946 6.44518e-08
-1.00521e-07 6.44518e-08 0.000263531

0.000416166 -6.17253e-05 -9.62686e-08
-6.17253e-05 0.000454077 -6.43687e-08
-9.62686e-08 -6.43687e-08 0.000428323

0.000387106 -2.1308e-05 1.76031e-08
-2.1308e-05 0.000448061 7.90358e-08
1.76031e-08 7.90358e-08 0.000414717

0.000287836 3.20415e-05 3.65525e-09
3.20415e-05 0.00038913 -9.11697e-08
3.65525e-09 -9.11697e-08 0.000349469

0.000303818 3.73138e-05 4.17162e-08
3.73138e-05 0.000418998 6.66731e-08
4.17162e-08 6.66731e-08 0.000384405

0.000319777 -1.7608e-05 -5.96854e-08
-1.7608e-05 0.000468685 1.2627e-07
-5.96854e-08 1.2627e-07 0.000406146

0.000384123 -4.62989e-05 -1.80098e-07
-4.62989e-05 0.000447163 -1.3406e-08
-1.80098e-07 -1.3406e-08 0.000422916

0.000402698 -3.30421e-05 1.95825e-08
-3.30421e-05 0.000297522 1.28441e-07
1.95825e-08 1.28441e-07 0.000360426

0.000248643 1.05284e-05 -9.74459e-09
1.05284e-05 0.000350557 -2.40428e-08
-9.74459e-09 -2.40428e-08 0.000279862

0.000277546 -2.11559e-05 -1.75769e-08
-2.11559e-05 0.000352702 -1.02729e-08
-1.75769e-08 -1.02729e-08 0.000284962

0.000347845 8.05811e-06 -1.80975e-08
8.05811e-06 0.000267073 1.13529e-08
-1.80975e-08 1.13529e-08 0.000282576

0.000296888 4.31581e-05 -9.45948e-08
4.31581e-05 0.000347445 8.01371e-08
-9.45948e-08 8.01371e-08 0.0003223

0.000363012 -2.9767e-05 -1.26072e-08
-2.9767e-05 0.000271438 -1.45395e-07
-1.26072e-08 -1.45395e-07 0.000301879

0.000339704 4.74513e-05 9.21403e-08
4.74513e-05 0.000347776 8.9901e-08
9.21403e-08 8.9901e-08 0.00034528

0.000354962 3.35257e-05 -9.93474e-09
3.35257e-05 0.00037781 1.45948e-07
-9.93474e-09 1.45948e-07 0.000344496

0.000414259 -1.02915e-05 -4.79577e-09
-1.02915e-05 0.000287794 -9.69969e-08
-4.79577e-09 -9.69969e-08 0.000349079

0.000231923 2.27532e-05 -1.64707e-07
2.27532e-05 0.000284182 3.06833e-08
-1.64707e-07 3.06833e-08 0.000231386

0.000434698 1.10832e-05 -3.38795e-08
1.10832e-05 0.000308216 4.29802e-08
-3.38795e-08 4.29802e-08 0.000381399

0.000281886 2.14422e-05 -6.99823e-08
2.14422e-05 0.00024393 8.18034e-08
-6.99823e-08 8.18034e-08 0.000235882

0.000437754 -2.10888e-05 1.75763e-08
-2.10888e-05 0.000457464 1.13107e-07
1.75763e-08 1.13107e-07 0.000440009

0.00038591 2.5786e-06 -1.80352e-07
2.5786e-06 0.000467436 4.9045e-08
-1.80352e-07 4.9045e-08 0.000415834

0.00048432 -2.23555e-05 -1.25161e-07
-2.23555e-05 0.000445739 1.46412e-07
-1.25161e-07 1.46412e-07 0.00044054

0.000460257 5.45625e-05 -9.15022e-09
5.45625e-05 0.000466012 -7.53403e-08
-9.15022e-09 -7.53403e-08 0.000441094

0.000341052 -1.43796e-05 -1.80065e-08
-1.43796e-05 0.000261333 -1.42555e-07
-1.80065e-08 -1.42555e-07 0.000271035

0.000332748 5.05735e-05 5.11183e-08
5.05735e-05 0.000364898 4.13701e-08
5.11183e-08 4.13701e-08 0.000365335

0.000414367 2.88475e-05 1.23692e-07
2.88475e-05 0.000406073 -8.32133e-08
1.23692e-07 -8.32133e-08 0.000415982

0.000429293 -8.22303e-06 1.84482e-07
-8.22303e-06 0.000417956 2.33536e-08
1.84482e-07 2.33536e-08 0.000417614

0.000455265 4.30319e-06 -8.80761e-08
4.30319e-06 0.000308775 4.53738e-08
-8.80761e-08 4.53738e-08 0.00039108

0.000336849 4.73707e-05 1.17518e-07
4.73707e-05 0.000373085 -2.39464e-08
1.17518e-07 -2.39464e-08 0.00034061

0.000359762 -3.75952e-05 7.98255e-09
-3.75952e-05 0.00031101 -8.49611e-09
7.98255e-09 -8.49611e-09 0.000310761

0.000453739 -3.98391e-07 1.51776e-08
-3.98391e-07 0.000295152 -6.06608e-09
1.51776e-08 -6.06608e-09 0.000382704

0.000311326 -6.45058e-05 4.31435e-08
-6.45058e-05 0.000372795 1.10391e-07
4.31435e-08 1.10391e-07 0.000321676

0.000319411 -5.63547e-05 -4.17606e-08
-5.63547e-05 0.000380978 1.92245e-08
-4.17606e-08 1.92245e-08 0.000327796

0.000406376 2.8231e-05 6.57368e-08
2.8231e-05 0.000430038 6.86974e-08
6.57368e-08 6.86974e-08 0.000417837

0.000326277 -6.4661e-05 2.73373e-07
-6.4661e-05 0.000306591 1.43923e-08
2.73373e-07 1.43923e-08 0.000292954

0.000195576 -6.4626e-05 2.12886e-07
-6.4626e-05 0.000190897 -1.57019e-08
2.12886e-07 -1.57019e-08 0.000190705

0.000188408 -6.82343e-05 2.26635e-08
-6.82343e-05 0.000205229 1.18919e-07
2.26635e-08 1.18919e-07 0.00019343

0.000370154 -7.51687e-05 -1.69789e-08
-7.51687e-05 0.000450493 -3.4351e-08
-1.69789e-08 -3.4351e-08 0.000414637

0.000193517 -2.53145e-05 1.9367e-08
-2.53145e-05 0.000188824 6.29072e-08
1.9367e-08 6.29072e-08 0.000204122

0.000181015 -2.07878e-05 -9.58411e-08
-2.07878e-05 0.000195162 -3.0601e-08
-9.58411e-08 -3.0601e-08 0.000200651

0.000485509 3.29232e-05 4.17249e-08
3.29232e-05 0.000419196 -1.03064e-08
4.17249e-08 -1.03064e-08 0.00045274

0.000451725 -4.29945e-05 4.8754e-08
-4.29945e-05 0.000405266 -6.44321e-08
4.8754e-08 -6.44321e-08 0.000420814

0.000414366 -2.25525e-05 -8.2149e-08
-2.25525e-05 0.000303567 9.17888e-08
-8.2149e-08 9.17888e-08 0.000380136

0.000483005 4.33948e-05 1.40197e-08
4.33948e-05 0.00039583 1.84669e-07
1.40197e-08 1.84669e-07 0.000448092

0.000446634 -6.10991e-05 6.17264e-08
-6.10991e-05 0.000402567 2.68618e-08
6.17264e-08 2.68618e-08 0.000420892

0.000354734 3.31718e-05 -2.60795e-08
3.31718e-05 0.000404784 -5.64595e-08
-2.60795e-08 -5.64595e-08 0.00037313

0.000481119 -2.10617e-05 -2.45558e-07
-2.10617e-05 0.000416129 2.17722e-08
-2.45558e-07 2.17722e-08 0.000434241

0.000452936 2.84406e-05 -1.50859e-07
2.84406e-05 0.000435222 1.09386e-07
-1.50859e-07 1.09386e-07 0.000434713

0.000446565 5.12341e-05 4.86558e-08
5.12341e-05 0.000378001 -5.48312e-08
4.86558e-08 -5.48312e-08 0.000420753

0.000409887 -6.55523e-05 -6.20732e-08
-6.55523e-05 0.000365356 -3.55105e-08
-6.20732e-08 -3.55105e-08 0.000397379

0.000302748 -4.47463e-05 -1.36894e-08
-4.47463e-05 0.000241115 -1.405e-07
-1.36894e-08 -1.405e-07 0.000250419

0.000458401 -1.26734e-05 4.05003e-08
-1.26734e-05 0.000494121 -6.9388e-08
4.05003e-08 -6.9388e-08 0.000473457

0.000405368 -2.01067e-06 1.25293e-07
-2.01067e-06 0.00051947 1.80862e-08
1.25293e-07 1.80862e-08 0.000432125

0.000296676 -5.47305e-05 -5.85406e-09
-5.47305e-05 0.000350633 4.54695e-08
-5.85406e-09 4.54695e-08 0.000324659

0.000221727 -1.87204e-05 1.6402e-07
-1.87204e-05 0.000277441 -1.36694e-07
1.6402e-07 -1.36694e-07 0.000228752

0.000270906 -1.76376e-05 8.45005e-08
-1.76376e-05 0.000219172 -2.05546e-07
8.45005e-08 -2.05546e-07 0.000225004

0.000372191 2.09682e-05 -3.95556e-08
2.09682e-05 0.000428495 4.63166e-08
-3.95556e-08 4.63166e-08 0.000401853

0.000295485 3.18621e-05 4.80101e-08
3.18621e-05 0.000416903 6.81457e-08
4.80101e-08 6.81457e-08 0.0003753

0.00058022 4.22643e-05 -4.41606e-07
4.22643e-05 0.000457227 5.15021e-08
-4.41606e-07 5.15021e-08 0.000483169

0.000548876 1.24313e-05 3.25279e-07
1.24313e-05 0.000595047 -1.26102e-07
3.25279e-07 -1.26102e-07 0.000445311

0.000322615 4.82489e-05 2.90928e-08
4.82489e-05 0.00039506 4.3303e-08
2.90928e-08 4.3303e-08 0.000396461

0.0004297 3.80387e-05 3.72085e-09
3.80387e-05 0.00033169 -6.2103e-08
3.72085e-09 -6.2103e-08 0.000393544

0.000409043 -5.81632e-05 -1.29831e-07
-5.81632e-05 0.000327269 -2.27803e-08
-1.29831e-07 -2.27803e-08 0.000380377

0.000333837 6.59327e-05 -1.21647e-07
6.59327e-05 0.000388178 -1.41764e-07
-1.21647e-07 -1.41764e-07 0.000392485

0.000327594 -5.03861e-05 -2.61228e-08
-5.03861e-05 0.000434426 6.19624e-08
-2.61228e-08 6.19624e-08 0.000405546

0.000338638 -4.51129e-06 -5.30492e-08
-4.51129e-06 0.000240545 1.00347e-07
-5.30492e-08 1.00347e-07 0.000267922

0.00039181 -1.90962e-05 1.18871e-07
-1.90962e-05 0.000285695 7.51856e-08
1.18871e-07 7.51856e-08 0.000334961

0.000358212 2.36607e-05 -1.3456e-07
2.36607e-05 0.00026844 4.85686e-08
-1.3456e-07 4.85686e-08 0.000296488

0.000417559 2.62234e-05 1.14843e-07
2.62234e-05 0.000367149 -4.41938e-08
1.14843e-07 -4.41938e-08 0.00040786

0.000396857 1.848e-05 6.52875e-08
1.848e-05 0.000513137 -1.09875e-07
6.52875e-08 -1.09875e-07 0.000444361

0.000455661 -1.39864e-05 -1.3485e-07
-1.39864e-05 0.000461251 1.41573e-07
-1.3485e-07 1.41573e-07 0.000443944

0.000286562 3.79473e-05 1.00678e-07
3.79473e-05 0.000308449 1.36981e-07
1.00678e-07 1.36981e-07 0.000272371

0.000355977 -4.88274e-05 -1.00094e-07
-4.88274e-05 0.000336777 9.7842e-08
-1.00094e-07 9.7842e-08 0.00033861

0.000409941 2.63789e-05 5.46421e-08
2.63789e-05 0.000325724 -2.10965e-08
5.46421e-08 -2.10965e-08 0.000371414

0.000436776 2.8825e-05 -3.65419e-07
2.8825e-05 0.000532613 -1.0128e-07
-3.65419e-07 -1.0128e-07 0.000437173

0.000452905 -1.97515e-05 -3.94713e-08
-1.97515e-05 0.000491003 -8.88409e-08
-3.94713e-08 -8.88409e-08 0.000470744

0.000432174 -7.25109e-06 1.74024e-07
-7.25109e-06 0.000368714 -2.355e-08
1.74024e-07 -2.355e-08 0.000410874

0.000385171 -3.77617e-05 -1.7812e-07
-3.77617e-05 0.000432636 2.03358e-08
-1.7812e-07 2.03358e-08 0.000398461

0.000320825 -1.19101e-05 -7.64832e-08
-1.19101e-05 0.000437536 -9.44181e-08
-7.64832e-08 -9.44181e-08 0.000384172

0.000439248 8.47481e-06 -1.95682e-08
8.47481e-06 0.000301155 8.03249e-08
-1.95682e-08 8.03249e-08 0.000400916

0.000432308 -2.61444e-05 3.06771e-08
-2.61444e-05 0.000300985 2.08121e-08
3.06771e-08 2.08121e-08 0.000395531

0.000306646 -5.36369e-05 -8.02379e-08
-5.36369e-05 0.000283516 -8.28581e-08
-8.02379e-08 -8.28581e-08 0.000271964

0.000462948 3.35261e-05 -5.57464e-08
3.35261e-05 0.000332404 -1.29496e-07
-5.57464e-08 -1.29496e-07 0.000423601

0.000444295 -5.16212e-05 6.41479e-08
-5.16212e-05 0.000341801 -5.60398e-08
6.41479e-08 -5.60398e-08 0.000408023

0.000400506 -4.60968e-05 -1.79404e-09
-4.60968e-05 0.000312475 -1.37846e-07
-1.79404e-09 -1.37846e-07 0.000360971

0.000297477 -4.60928e-05 -1.57711e-08
-4.60928e-05 0.000371548 3.27003e-08
-1.57711e-08 3.27003e-08 0.000328391

0.000433438 2.00922e-05 8.05782e-09
2.00922e-05 0.000336614 -6.27075e-08
8.05782e-09 -6.27075e-08 0.000406499

0.000427416 -3.69492e-05 2.43557e-08
-3.69492e-05 0.000329661 -1.38656e-08
2.43557e-08 -1.38656e-08 0.000395226

0.000408732 -1.20362e-05 -1.22074e-07
-1.20362e-05 0.000322046 1.60274e-07
-1.22074e-07 1.60274e-07 0.000359088

0.000441064 5.7462e-05 2.16082e-08
5.7462e-05 0.000412695 1.35132e-07
2.16082e-08 1.35132e-07 0.000429405

0.000339338 3.81811e-05 -1.0199e-07
3.81811e-05 0.000313318 -4.76673e-08
-1.0199e-07 -4.76673e-08 0.000310782

0.000329157 5.7248e-05 -4.10792e-08
5.7248e-05 0.000380791 1.1778e-07
-4.10792e-08 1.1778e-07 0.000399391

0.00041644 4.23813e-05 1.86141e-08
4.23813e-05 0.000447633 -2.00903e-08
1.86141e-08 -2.00903e-08 0.00044104

0.000374745 2.12051e-05 7.32782e-08
2.12051e-05 0.00027348 5.36672e-08
7.32782e-08 5.36672e-08 0.000315322

0.000387694 -2.83668e-05 -4.80147e-08
-2.83668e-05 0.000353369 -1.36708e-09
-4.80147e-08 -1.36708e-09 0.000378298

0.000397215 1.74429e-05 8.56775e-08
1.74429e-05 0.000313579 -8.85827e-08
8.56775e-08 -8.85827e-08 0.000352948

0.000297214 4.56927e-05 -1.00819e-07
4.56927e-05 0.00031369 -4.8111e-08
-1.00819e-07 -4.8111e-08 0.000299318

0.000340499 4.31654e-05 9.10501e-08
4.31654e-05 0.000320451 1.04436e-07
9.10501e-08 1.04436e-07 0.000336097

0.000284049 4.75788e-07 -1.52427e-07
4.75788e-07 0.000434594 -5.49513e-08
-1.52427e-07 -5.49513e-08 0.000371422

0.000348647 -1.87826e-05 7.09366e-08
-1.87826e-05 0.000422774 -1.09089e-07
7.09366e-08 -1.09089e-07 0.000388455

0.00030671 -5.3643e-05 -7.84916e-08
-5.3643e-05 0.000245457 -1.25717e-07
-7.84916e-08 -1.25717e-07 0.000262291

0.000352138 -7.35075e-05 8.39881e-08
-7.35075e-05 0.000422465 4.19129e-08
8.39881e-08 4.19129e-08 0.000391711

0.000300386 -6.49947e-05 -3.68627e-08
-6.49947e-05 0.000333095 2.4039e-07
-3.68627e-08 2.4039e-07 0.0003018

0.000338462 5.21472e-05 1.20005e-07
5.21472e-05 0.000340655 -3.2017e-09
1.20005e-07 -3.2017e-09 0.00031422

0.000394305 -2.39082e-05 -1.51822e-07
-2.39082e-05 0.000339392 9.50108e-08
-1.51822e-07 9.50108e-08 0.000356359

0.000462182 -2.0571e-06 -3.17761e-08
-2.0571e-06 0.000319399 6.40913e-08
-3.17761e-08 6.40913e-08 0.00040575

0.000449003 7.78591e-06 -1.47078e-07
7.78591e-06 0.000327035 -2.77729e-08
-1.47078e-07 -2.77729e-08 0.00040449

0.000257307 2.4116e-05 -1.51229e-08
2.4116e-05 0.000365636 -3.70382e-08
-1.51229e-08 -3.70382e-08 0.000307568

0.000350445 -5.82402e-05 -9.34939e-08
-5.82402e-05 0.00037039 1.28844e-07
-9.34939e-08 1.28844e-07 0.000345032

0.000218925 -7.94858e-06 3.33726e-08
-7.94858e-06 0.000341697 -1.00583e-08
3.33726e-08 -1.00583e-08 0.000268449

0.000248747 -9.83613e-06 -8.12337e-08
-9.83613e-06 0.000348554 8.23514e-09
-8.12337e-08 8.23514e-09 0.000275583

0.000337466 -1.31595e-05 -1.08185e-08
-1.31595e-05 0.000230922 3.23041e-08
-1.08185e-08 3.23041e-08 0.000269927

0.000316312 3.80685e-05 -1.14595e-07
3.80685e-05 0.000299378 -2.82348e-08
-1.14595e-07 -2.82348e-08 0.000278583

0.000326103 -6.62722e-05 8.78727e-09
-6.62722e-05 0.000290074 -1.66587e-07
8.78727e-09 -1.66587e-07 0.000301692

0.000547068 -1.55702e-05 1.42599e-07
-1.55702e-05 0.000549679 -2.6238e-07
1.42599e-07 -2.6238e-07 0.000442684

0.000441935 -6.01402e-05 5.66198e-08
-6.01402e-05 0.000517722 -1.19313e-07
5.66198e-08 -1.19313e-07 0.000475649

0.000366012 -3.91581e-05 -4.60242e-08
-3.91581e-05 0.00027122 -1.85938e-08
-4.60242e-08 -1.85938e-08 0.000312545

0.000393233 5.28698e-05 7.78382e-08
5.28698e-05 0.000411252 2.85317e-08
7.78382e-08 2.85317e-08 0.000398277

0.000417466 3.47739e-06 -8.57187e-08
3.47739e-06 0.000305485 3.19771e-08
-8.57187e-08 3.19771e-08 0.00038205

0.000295933 -4.83117e-05 -2.84043e-08
-4.83117e-05 0.000378285 1.53397e-08
-2.84043e-08 1.53397e-08 0.000315002

0.000311129 5.04189e-05 4.54124e-08
5.04189e-05 0.000439649 7.9205e-09
4.54124e-08 7.9205e-09 0.00040772

0.000432888 2.11092e-05 1.62523e-08
2.11092e-05 0.000462554 -1.49692e-08
1.62523e-08 -1.49692e-08 0.000456579

0.00035102 -6.86055e-05 -5.27001e-08
-6.86055e-05 0.000381861 -2.97844e-09
-5.27001e-08 -2.97844e-09 0.000392057

0.000435525 5.15791e-05 -4.68013e-08
5.15791e-05 0.000441852 -1.10494e-07
-4.68013e-08 -1.10494e-07 0.000446099

0.000304209 4.06398e-05 6.77601e-08
4.06398e-05 0.000389969 -2.71284e-08
6.77601e-08 -2.71284e-08 0.000369345

0.000450116 -4.47437e-06 1.06042e-08
-4.47437e-06 0.000255769 1.19987e-07
1.06042e-08 1.19987e-07 0.000407938

0.00035195 4.98959e-05 8.56617e-08
4.98959e-05 0.000297561 1.18613e-07
8.56617e-08 1.18613e-07 0.00030971

0.000352401 -7.76047e-05 1.18041e-07
-7.76047e-05 0.000444651 -6.01052e-08
1.18041e-07 -6.01052e-08 0.00039708

0.000350953 4.48795e-05 8.01712e-08
4.48795e-05 0.000339609 4.586e-08
8.01712e-08 4.586e-08 0.00032537

0.000287136 -4.38856e-05 -2.45063e-07
-4.38856e-05 0.000313869 4.66674e-08
-2.45063e-07 4.66674e-08 0.00026795

0.000345902 -6.34993e-05 5.9316e-08
-6.34993e-05 0.000395791 -9.65702e-08
5.9316e-08 -9.65702e-08 0.00036591

0.000255581 -2.85937e-05 -2.8687e-09
-2.85937e-05 0.000353324 1.05812e-08
-2.8687e-09 1.05812e-08 0.000285912

0.000297163 1.10194e-05 -1.96772e-08
1.10194e-05 0.00035699 4.1301e-08
-1.96772e-08 4.1301e-08 0.000295312

0.000342507 -2.67901e-05 2.61267e-08
-2.67901e-05 0.000265542 -4.30035e-08
2.61267e-08 -4.30035e-08 0.000284674

0.000325401 -5.8481e-05 -9.54867e-09
-5.8481e-05 0.000317304 2.70342e-07
-9.54867e-09 2.70342e-07 0.000311477

0.000284434 -2.65679e-06 -1.53057e-07
-2.65679e-06 0.000405135 -4.2202e-08
-1.53057e-07 -4.2202e-08 0.000340311

0.000347869 -1.05458e-05 6.3656e-08
-1.05458e-05 0.000405692 3.70787e-08
6.3656e-08 3.70787e-08 0.000353972

0.000259162 -5.80319e-05 1.09259e-07
-5.80319e-05 0.000294843 2.88772e-08
1.09259e-07 2.88772e-08 0.000259545

0.000288444 4.24414e-05 5.58794e-08
4.24414e-05 0.000302048 -1.14146e-07
5.58794e-08 -1.14146e-07 0.000269274

0.000426591 1.46254e-07 4.08656e-08
1.46254e-07 0.000304312 7.01695e-08
4.08656e-08 7.01695e-08 0.000410624

0.000421501 -1.01863e-05 -6.5e-08
-1.01863e-05 0.000307706 1.92671e-09
-6.5e-08 1.92671e-09 0.000405318

0.000402895 4.64508e-05 -5.2558e-08
4.64508e-05 0.000415019 8.55764e-08
-5.2558e-08 8.55764e-08 0.000405112

0.000365832 -7.68049e-05 7.05378e-08
-7.68049e-05 0.000452213 -6.56153e-08
7.05378e-08 -6.56153e-08 0.000412244

0.000356701 5.28652e-05 -1.86474e-07
5.28652e-05 0.000365107 2.35112e-08
-1.86474e-07 2.35112e-08 0.000379684

0.000288996 2.41395e-05 7.65372e-08
2.41395e-05 0.000234478 -5.93451e-08
7.65372e-08 -5.93451e-08 0.000242001

0.000308223 2.89704e-05 2.26749e-08
2.89704e-05 0.000377485 1.47476e-07
2.26749e-08 1.47476e-07 0.000324167

0.00046776 2.64944e-05 -1.41615e-07
2.64944e-05 0.000379458 -4.91536e-08
-1.41615e-07 -4.91536e-08 0.000432637

0.000443426 -4.65966e-05 1.00765e-07
-4.65966e-05 0.000366182 -3.1892e-08
1.00765e-07 -3.1892e-08 0.00040957

0.000429485 3.76765e-05 6.85299e-09
3.76765e-05 0.000368212 -9.79898e-08
6.85299e-09 -9.79898e-08 0.000400946

0.000409392 -5.539e-05 -1.25249e-07
-5.539e-05 0.000344757 3.01828e-08
-1.25249e-07 3.01828e-08 0.000381447

0.000181482 -2.74645e-05 1.33453e-07
-2.74645e-05 0.000130668 6.37331e-08
1.33453e-07 6.37331e-08 0.000201158

0.000126279 -3.24052e-05 1.48484e-07
-3.24052e-05 0.000191365 4.73952e-09
1.48484e-07 4.73952e-09 0.000203902

0.00025935 -3.69425e-05 -1.00644e-08
-3.69425e-05 0.000369714 3.18862e-08
-1.00644e-08 3.18862e-08 0.000311847

0.000528207 4.36913e-05 3.21333e-08
4.36913e-05 0.00041143 -1.97136e-07
3.21333e-08 -1.97136e-07 0.000464514

0.000501616 -6.17196e-05 1.09477e-07
-6.17196e-05 0.000444945 -2.33794e-07
1.09477e-07 -2.33794e-07 0.000435941

0.000395053 4.42306e-05 -5.23432e-08
4.42306e-05 0.00035248 -1.38652e-07
-5.23432e-08 -1.38652e-07 0.000366071

0.000293903 1.79507e-05 3.20097e-08
1.79507e-05 0.000229882 6.76096e-08
3.20097e-08 6.76096e-08 0.000241541

0.000343978 -5.31346e-05 -1.10712e-07
-5.31346e-05 0.000427585 5.41929e-08
-1.10712e-07 5.41929e-08 0.000384526

0.000297193 -2.52233e-05 -5.26662e-10
-2.52233e-05 0.000430177 -5.74861e-08
-5.26662e-10 -5.74861e-08 0.000375576

0.000311619 -6.30267e-05 8.12074e-08
-6.30267e-05 0.000328824 -2.01818e-07
8.12074e-08 -2.01818e-07 0.000297447

0.000339552 -5.15826e-05 -6.72365e-08
-5.15826e-05 0.000380744 3.96926e-08
-6.72365e-08 3.96926e-08 0.000398435

0.000372134 -5.93978e-05 -1.20342e-08
-5.93978e-05 0.000328913 1.16301e-07
-1.20342e-08 1.16301e-07 0.000348819

0.000293302 7.7657e-05 9.10051e-09
7.7657e-05 0.000402319 4.09712e-08
9.10051e-09 4.09712e-08 0.000398022

0.000440149 1.93681e-05 2.20108e-08
1.93681e-05 0.00046275 -1.53458e-08
2.20108e-08 -1.53458e-08 0.000455888

0.0003907 3.27426e-05 1.30677e-07
3.27426e-05 0.000441621 2.34503e-09
1.30677e-07 2.34503e-09 0.00041592

0.000341807 -5.71561e-05 1.25944e-07
-5.71561e-05 0.000371528 -1.08826e-07
1.25944e-07 -1.08826e-07 0.000375077

0.000330927 5.60906e-05 6.05813e-08
5.60906e-05 0.000376738 -2.47411e-08
6.05813e-08 -2.47411e-08 0.000374493

0.000341284 3.72011e-05 -9.55097e-08
3.72011e-05 0.000274677 -2.18754e-08
-9.55097e-08 -2.18754e-08 0.00029356

0.000388143 -1.57278e-07 1.23533e-07
-1.57278e-07 0.00029285 2.61656e-08
1.23533e-07 2.61656e-08 0.000338124

0.000449324 3.86063e-05 -9.47395e-08
3.86063e-05 0.000446677 -3.03841e-08
-9.47395e-08 -3.03841e-08 0.000451225

0.000320043 -6.17051e-05 -4.76449e-08
-6.17051e-05 0.000408289 1.0042e-07
-4.76449e-08 1.0042e-07 0.000355025

0.000263817 9.11373e-06 1.98864e-08
9.11373e-06 0.000398432 -1.36006e-07
1.98864e-08 -1.36006e-07 0.000330599

0.000411976 5.75279e-05 -3.43317e-09
5.75279e-05 0.00036283 -9.64991e-08
-3.43317e-09 -9.64991e-08 0.000388769

0.000327032 1.69049e-06 6.90442e-08
1.69049e-06 0.000398788 3.4541e-08
6.90442e-08 3.4541e-08 0.000348213

0.000311426 -4.34961e-05 -1.48032e-08
-4.34961e-05 0.000431583 5.79957e-08
-1.48032e-08 5.79957e-08 0.000406335

0.000218933 -3.61621e-05 1.81881e-07
-3.61621e-05 0.00023898 6.45073e-08
1.81881e-07 6.45073e-08 0.000210509

0.000240334 -3.66865e-05 -1.01257e-07
-3.66865e-05 0.000215713 -2.23859e-07
-1.01257e-07 -2.23859e-07 0.000209416

0.000411529 1.27721e-05 5.42741e-08
1.27721e-05 0.000299971 -1.44671e-08
5.42741e-08 -1.44671e-08 0.000365502

0.000374454 -6.79554e-05 5.77058e-08
-6.79554e-05 0.000341851 5.66723e-08
5.77058e-08 5.66723e-08 0.000368008

0.000579693 3.75923e-05 -4.07153e-07
3.75923e-05 0.000437795 1.34415e-07
-4.07153e-07 1.34415e-07 0.000478121

0.000583285 -8.72152e-06 1.97407e-07
-8.72152e-06 0.000497556 1.81654e-07
1.97407e-07 1.81654e-07 0.000444068

0.000315255 -4.81231e-05 9.96785e-08
-4.81231e-05 0.00038668 -1.21651e-07
9.96785e-08 -1.21651e-07 0.000371061

0.00042167 -1.44798e-05 1.28014e-07
-1.44798e-05 0.000445189 9.33708e-08
1.28014e-07 9.33708e-08 0.000431453

0.000410812 5.02443e-05 1.59684e-07
5.02443e-05 0.000466583 -3.72094e-08
1.59684e-07 -3.72094e-08 0.00043199

0.000434281 4.37601e-06 4.12977e-08
4.37601e-06 0.000293105 1.30857e-07
4.12977e-08 1.30857e-07 0.000363208

0.000346124 -8.32678e-05 1.26258e-07
-8.32678e-05 0.000441552 -4.80417e-08
1.26258e-07 -4.80417e-08 0.000396287

0.000242664 2.80898e-05 6.27982e-09
2.80898e-05 0.000244885 5.13066e-08
6.27982e-09 5.13066e-08 0.000225382

0.000234839 2.68046e-05 -1.30929e-07
2.68046e-05 0.000234845 -6.90339e-08
-1.30929e-07 -6.90339e-08 0.000221041

0.000211111 -3.22953e-05 -4.61663e-08
-3.22953e-05 0.0002865 1.64426e-07
-4.61663e-08 1.64426e-07 0.000235324

0.000240713 1.60164e-05 -9.82905e-09
1.60164e-05 0.000295489 -1.77539e-07
-9.82905e-09 -1.77539e-07 0.000243722

0.000284389 -2.74166e-05 -1.87583e-07
-2.74166e-05 0.000216224 -2.6574e-08
-1.87583e-07 -2.6574e-08 0.000235804

0.000303235 -7.6251e-05 -9.99697e-09
-7.6251e-05 0.000397046 1.33183e-07
-9.99697e-09 1.33183e-07 0.000397522

0.000186645 1.62685e-06 1.41393e-07
1.62685e-06 0.000275523 1.23704e-07
1.41393e-07 1.23704e-07 0.00022145

0.00027463 2.47101e-06 -1.0887e-07
2.47101e-06 0.000199545 -5.28335e-08
-1.0887e-07 -5.28335e-08 0.000225094

0.000403608 5.67498e-06 -3.83032e-08
5.67498e-06 0.000489385 -3.53883e-08
-3.83032e-08 -3.53883e-08 0.000427304

0.000428349 -4.37296e-05 -1.32797e-07
-4.37296e-05 0.000476706 -1.3913e-07
-1.32797e-07 -1.3913e-07 0.000444895

0.000421512 1.77335e-05 8.13202e-08
1.77335e-05 0.000347392 -7.61165e-08
8.13202e-08 -7.61165e-08 0.000385559

0.000457485 2.94602e-06 -4.53932e-08
2.94602e-06 0.000297763 -7.92778e-08
-4.53932e-08 -7.92778e-08 0.000390686

0.000254023 -4.10739e-05 9.58109e-08
-4.10739e-05 0.000325713 1.28537e-07
9.58109e-08 1.28537e-07 0.000279596

0.00028403 2.59727e-05 6.25309e-08
2.59727e-05 0.000340022 -5.77692e-08
6.25309e-08 -5.77692e-08 0.00028925

0.000434576 3.26789e-06 7.16956e-08
3.26789e-06 0.000296431 -3.50491e-08
7.16956e-08 -3.50491e-08 0.000364906

0.000296863 -4.22086e-05 -1.11082e-08
-4.22086e-05 0.000388652 -3.51856e-08
-1.11082e-08 -3.51856e-08 0.000352847

0.000496545 2.3843e-05 2.73365e-07
2.3843e-05 0.00040862 8.71464e-08
2.73365e-07 8.71464e-08 0.000454981

0.000474465 -3.45231e-05 -6.9931e-08
-3.45231e-05 0.000418551 -2.23693e-08
-6.9931e-08 -2.23693e-08 0.000428734

0.000375637 3.98503e-05 -1.30045e-07
3.98503e-05 0.000373239 -2.69694e-08
-1.30045e-07 -2.69694e-08 0.00038307

0.000341851 -7.01846e-05 8.82957e-08
-7.01846e-05 0.000422181 3.93269e-08
8.82957e-08 3.93269e-08 0.000374141

0.000421955 1.81425e-05 7.98474e-08
1.81425e-05 0.000309294 -9.11824e-08
7.98474e-08 -9.11824e-08 0.000376888

0.000289103 3.68763e-05 1.28256e-07
3.68763e-05 0.000277106 2.78127e-08
1.28256e-07 2.78127e-08 0.000265455

0.000342088 -7.59239e-05 5.084e-08
-7.59239e-05 0.000416991 2.25469e-08
5.084e-08 2.25469e-08 0.000371708

0.000181729 6.67035e-05 3.80927e-08
6.67035e-05 0.000182776 5.15777e-08
3.80927e-08 5.15777e-08 0.000185674

0.000308552 -2.7977e-05 -3.63944e-08
-2.7977e-05 0.000397974 -5.66789e-09
-3.63944e-08 -5.66789e-09 0.000340237

0.000272283 -1.64489e-05 -2.27472e-08
-1.64489e-05 0.000396926 3.69946e-09
-2.27472e-08 3.69946e-09 0.000331802

0.000387886 -7.704e-06 -1.92872e-07
-7.704e-06 0.000520076 1.22438e-07
-1.92872e-07 1.22438e-07 0.000429208

0.000442009 -3.46836e-05 3.54515e-08
-3.46836e-05 0.000470599 8.30252e-09
3.54515e-08 8.30252e-09 0.000456294

0.000470334 1.88211e-05 -8.35992e-08
1.88211e-05 0.000278053 -9.30702e-08
-8.35992e-08 -9.30702e-08 0.000425227

0.00045784 -2.85908e-05 9.32911e-09
-2.85908e-05 0.000294581 -9.41374e-08
9.32911e-09 -9.41374e-08 0.000414315

0.000384149 5.78492e-05 -7.43732e-08
5.78492e-05 0.000387445 -2.44412e-09
-7.43732e-08 -2.44412e-09 0.000403616

0.000389157 -3.70446e-05 -1.56955e-07
-3.70446e-05 0.000404779 -7.40386e-08
-1.56955e-07 -7.40386e-08 0.000405256

0.000415178 4.45756e-05 1.19481e-07
4.45756e-05 0.000434808 1.35359e-07
1.19481e-07 1.35359e-07 0.000428804

0.000413089 -3.09529e-05 1.08737e-07
-3.09529e-05 0.000460284 1.13933e-08
1.08737e-07 1.13933e-08 0.000427693

0.000553505 4.07576e-05 2.88816e-07
4.07576e-05 0.000437515 9.37019e-08
2.88816e-07 9.37019e-08 0.000477194

0.000525356 -5.88872e-05 3.22731e-09
-5.88872e-05 0.000491885 1.70295e-07
3.22731e-09 1.70295e-07 0.000441364

0.000485039 4.40653e-05 -1.24026e-07
4.40653e-05 0.000436222 -1.27333e-07
-1.24026e-07 -1.27333e-07 0.000462825

0.000356174 -8.30355e-05 -9.62442e-08
-8.30355e-05 0.000392753 4.55422e-08
-9.62442e-08 4.55422e-08 0.00040918

0.000396111 4.60481e-05 -8.63695e-08
4.60481e-05 0.000320255 -4.25866e-10
-8.63695e-08 -4.25866e-10 0.000356118

0.000344722 -5.1774e-05 -1.09592e-07
-5.1774e-05 0.000411093 6.18792e-08
-1.09592e-07 6.18792e-08 0.000360785

0.000295969 -3.12786e-05 4.8203e-09
-3.12786e-05 0.000401188 -2.62555e-08
4.8203e-09 -2.62555e-08 0.000354317

0.000302705 -4.61621e-05 -4.08783e-08
-4.61621e-05 0.000292073 2.60236e-07
-4.08783e-08 2.60236e-07 0.000263457

0.000372586 -6.05685e-05 -6.94632e-08
-6.05685e-05 0.000308446 -1.49056e-07
-6.94632e-08 -1.49056e-07 0.000342852

0.000295074 2.08669e-05 4.43668e-08
2.08669e-05 0.000402546 -1.24383e-07
4.43668e-08 -1.24383e-07 0.000351854

0.000376334 6.10303e-05 -1.16889e-07
6.10303e-05 0.000348234 -1.2982e-07
-1.16889e-07 -1.2982e-07 0.000353018

0.000334414 9.04963e-05 7.53394e-08
9.04963e-05 0.000401469 1.5492e-07
7.53394e-08 1.5492e-07 0.000411429

0.00036085 -7.32364e-05 -1.8131e-07
-7.32364e-05 0.000440919 3.71912e-08
-1.8131e-07 3.71912e-08 0.000408254

0.00033804 -6.92618e-05 1.39373e-07
-6.92618e-05 0.0003265 1.42889e-07
1.39373e-07 1.42889e-07 0.000335642

0.000432581 -5.04659e-06 9.60842e-08
-5.04659e-06 0.00036423 4.94081e-08
9.60842e-08 4.94081e-08 0.000390886

0.000467804 -2.24272e-05 1.52367e-07
-2.24272e-05 0.000506672 -4.18554e-08
1.52367e-07 -4.18554e-08 0.000468767

0.000548399 -2.67235e-05 -2.79038e-07
-2.67235e-05 0.000535895 -8.95764e-08
-2.79038e-07 -8.95764e-08 0.000441922

0.00032644 -2.68434e-05 -2.35591e-08
-2.68434e-05 0.000418767 -4.17689e-08
-2.35591e-08 -4.17689e-08 0.00038838

0.000375435 3.72349e-05 -1.2823e-07
3.72349e-05 0.000339379 -2.57725e-09
-1.2823e-07 -2.57725e-09 0.000373135

0.000447405 -2.61621e-06 -1.9047e-07
-2.61621e-06 0.000385084 7.47033e-08
-1.9047e-07 7.47033e-08 0.000417093

0.000214607 -4.69101e-05 -2.49912e-08
-4.69101e-05 0.000248713 -3.67084e-08
-2.49912e-08 -3.67084e-08 0.000215276

0.000243858 -4.23657e-05 -1.06621e-08
-4.23657e-05 0.000215009 -1.89407e-08
-1.06621e-08 -1.89407e-08 0.000216371

0.00046908 -1.89359e-06 -5.42822e-08
-1.89359e-06 0.000331433 -1.29477e-07
-5.42822e-08 -1.29477e-07 0.000432622

0.0004608 -8.55325e-06 4.36461e-08
-8.55325e-06 0.000336611 -5.48189e-08
4.36461e-08 -5.48189e-08 0.000417325

0.000463918 9.24251e-06 -8.47212e-08
9.24251e-06 0.000376513 -1.17657e-07
-8.47212e-08 -1.17657e-07 0.00041795

0.000372268 2.48496e-05 -4.04637e-08
2.48496e-05 0.000408182 -4.70792e-08
-4.04637e-08 -4.70792e-08 0.000374758

0.000375098 3.1841e-05 7.45017e-08
3.1841e-05 0.000310883 1.25299e-07
7.45017e-08 1.25299e-07 0.000327405

0.000447898 4.42638e-05 1.30967e-08
4.42638e-05 0.000404418 2.28571e-07
1.30967e-08 2.28571e-07 0.000427111

0.000412066 -5.64925e-05 -5.23969e-08
-5.64925e-05 0.00037037 4.21625e-08
-5.23969e-08 4.21625e-08 0.000398692

0.000479124 -7.1445e-06 -2.99085e-08
-7.1445e-06 0.000443843 -4.05271e-07
-2.99085e-08 -4.05271e-07 0.000445892

0.000460755 6.2201e-05 8.32182e-09
6.2201e-05 0.000542505 3.47064e-08
8.32182e-09 3.47064e-08 0.000446597

0.000314614 -4.85666e-05 1.23649e-07
-4.85666e-05 0.000403173 1.75824e-08
1.23649e-07 1.75824e-08 0.000385334

0.000386277 3.16281e-05 1.50427e-08
3.16281e-05 0.000322814 1.15298e-07
1.50427e-08 1.15298e-07 0.00035085

0.000463082 3.00801e-05 -5.54666e-08
3.00801e-05 0.000377157 -1.41817e-07
-5.54666e-08 -1.41817e-07 0.000432327

0.000444815 -3.99078e-05 6.37976e-08
-3.99078e-05 0.000378847 -7.12419e-08
6.37976e-08 -7.12419e-08 0.000412282

0.000371215 -6.81052e-05 -1.54215e-08
-6.81052e-05 0.000435236 -1.20645e-08
-1.54215e-08 -1.20645e-08 0.000395294

0.000355881 -8.70104e-05 8.88005e-08
-8.70104e-05 0.000442535 -4.17436e-08
8.88005e-08 -4.17436e-08 0.000397259

0.000188331 8.09328e-05 -5.82905e-08
8.09328e-05 0.00019772 -1.76881e-07
-5.82905e-08 -1.76881e-07 0.000189216

0.000355649 6.14736e-05 8.34245e-08
6.14736e-05 0.000432228 1.38636e-07
8.34245e-08 1.38636e-07 0.000417687

0.000375627 -5.41758e-05 -2.04092e-07
-5.41758e-05 0.000457408 -9.05648e-09
-2.04092e-07 -9.05648e-09 0.000415907

0.000341992 -7.48842e-05 4.85905e-08
-7.48842e-05 0.000433887 8.39026e-09
4.85905e-08 8.39026e-09 0.000388236

0.00036837 -5.05852e-05 -2.68131e-08
-5.05852e-05 0.000295845 -1.81032e-07
-2.68131e-08 -1.81032e-07 0.000319889

0.000388113 -3.34259e-05 -3.95816e-08
-3.34259e-05 0.000400437 -1.5191e-07
-3.95816e-08 -1.5191e-07 0.000385928

0.000383836 5.80111e-05 -6.68288e-08
5.80111e-05 0.000389916 -2.79196e-08
-6.68288e-08 -2.79196e-08 0.000408507

0.000382319 -4.6491e-05 -1.54815e-07
-4.6491e-05 0.000430728 -6.59707e-08
-1.54815e-07 -6.59707e-08 0.000407309

0.00043258 -4.70114e-06 9.60156e-08
-4.70114e-06 0.000312932 7.67642e-08
9.60156e-08 7.67642e-08 0.000381979

0.000474352 1.6668e-05 1.3928e-08
1.6668e-05 0.000385712 2.09555e-07
1.3928e-08 2.09555e-07 0.000446363

0.000460748 -1.63302e-05 2.09455e-08
-1.63302e-05 0.0004152 5.80129e-08
2.09455e-08 5.80129e-08 0.00042625

0.000450739 -2.39216e-05 2.08496e-07
-2.39216e-05 0.000527314 -9.88666e-08
2.08496e-07 -9.88666e-08 0.000466728

0.000435053 1.85353e-05 -7.94757e-08
1.85353e-05 0.000560891 -2.92275e-07
-7.94757e-08 -2.92275e-07 0.000439141

0.000204652 6.40001e-06 -3.91306e-08
6.40001e-06 0.000141928 1.01652e-07
-3.91306e-08 1.01652e-07 0.000203026

0.00014307 5.87543e-06 -2.09734e-07
5.87543e-06 0.000199086 1.3744e-07
-2.09734e-07 1.3744e-07 0.000199309

0.000437573 5.50791e-05 1.06364e-07
5.50791e-05 0.000422376 4.04406e-08
1.06364e-07 4.04406e-08 0.000431585

0.000375155 -5.56969e-05 -8.71187e-08
-5.56969e-05 0.000378285 -4.40685e-08
-8.71187e-08 -4.40685e-08 0.000395881

0.000327667 -5.26534e-05 4.47352e-08
-5.26534e-05 0.00038994 1.255e-07
4.47352e-08 1.255e-07 0.000395431

0.000177132 2.01179e-05 -4.40757e-08
2.01179e-05 0.000179145 -2.46871e-08
-4.40757e-08 -2.46871e-08 0.000197572

0.000178424 2.14816e-05 7.43496e-08
2.14816e-05 0.000179476 -1.56263e-07
7.43496e-08 -1.56263e-07 0.00019947

0.000544151 7.67619e-06 -1.46916e-09
7.67619e-06 0.00055965 9.7707e-10
-1.46916e-09 9.7707e-10 0.000445301

0.000543939 1.5957e-05 3.8425e-07
1.5957e-05 0.000506616 -5.84568e-07
3.8425e-07 -5.84568e-07 0.000477103

0.000361899 -4.98528e-05 3.02483e-08
-4.98528e-05 0.000391486 -9.23467e-08
3.02483e-08 -9.23467e-08 0.000380597

0.000338345 -6.16155e-05 7.53613e-08
-6.16155e-05 0.000351758 3.342e-08
7.53613e-08 3.342e-08 0.00034445

0.000439444 5.86428e-05 1.26604e-07
5.86428e-05 0.000391744 1.69512e-07
1.26604e-07 1.69512e-07 0.000418722

0.000380307 -6.91501e-05 -9.81661e-08
-6.91501e-05 0.000365794 1.83615e-08
-9.81661e-08 1.83615e-08 0.000389282

0.000339321 -6.59581e-05 1.35589e-07
-6.59581e-05 0.000361566 -4.64991e-08
1.35589e-07 -4.64991e-08 0.000364149

0.000383574 4.79426e-05 -1.50945e-07
4.79426e-05 0.000371841 -7.11464e-08
-1.50945e-07 -7.11464e-08 0.000364286

0.000215616 -2.14376e-05 7.19882e-08
-2.14376e-05 0.000292051 1.96429e-07
7.19882e-08 1.96429e-07 0.000237913

0.000241048 1.28063e-05 -3.8968e-08
1.28063e-05 0.000296312 -1.7378e-07
-3.8968e-08 -1.7378e-07 0.00024397

0.000287078 -1.97444e-05 -1.79088e-07
-1.97444e-05 0.000230069 1.23639e-08
-1.79088e-07 1.23639e-08 0.000240094

0.000397681 6.3261e-05 -5.05089e-08
6.3261e-05 0.000386612 7.4418e-08
-5.05089e-08 7.4418e-08 0.000388757

0.000207885 -1.5117e-05 4.96445e-09
-1.5117e-05 0.000276876 -1.21386e-07
4.96445e-09 -1.21386e-07 0.000224534

0.000269426 -1.05411e-05 4.86656e-08
-1.05411e-05 0.000200204 8.07098e-08
4.86656e-08 8.07098e-08 0.000219238

0.000470398 4.5261e-05 -1.44695e-07
4.5261e-05 0.000417357 -8.06707e-09
-1.44695e-07 -8.06707e-09 0.000446496

0.000407689 -6.75768e-05 3.72836e-08
-6.75768e-05 0.000381861 -7.046e-08
3.72836e-08 -7.046e-08 0.000408388

0.000464424 5.66042e-05 -1.55504e-07
5.66042e-05 0.000410513 2.94113e-08
-1.55504e-07 2.94113e-08 0.000443643

0.000407588 -6.5379e-05 3.84414e-08
-6.5379e-05 0.000398041 -6.65081e-08
3.84414e-08 -6.65081e-08 0.000410804

0.000175272 2.37942e-05 4.61011e-08
2.37942e-05 0.000177335 1.57495e-07
4.61011e-08 1.57495e-07 0.000194579

0.000174373 2.38758e-05 -2.78814e-07
2.38758e-05 0.000175993 2.63107e-08
-2.78814e-07 2.63107e-08 0.000192409

0.000413112 5.07526e-05 -2.15454e-08
5.07526e-05 0.000393976 6.32226e-08
-2.15454e-08 6.32226e-08 0.000400188

0.000375405 -6.25546e-05 4.30827e-08
-6.25546e-05 0.000358905 -8.18185e-08
4.30827e-08 -8.18185e-08 0.000374531

0.000446912 -3.99293e-05 1.98909e-07
-3.99293e-05 0.0004762 -1.58447e-07
1.98909e-07 -1.58447e-07 0.000455773

0.00042656 -1.34402e-05 -3.81516e-08
-1.34402e-05 0.000491533 -3.53973e-08
-3.81516e-08 -3.53973e-08 0.000432107

0.000476001 5.73254e-05 -1.56321e-07
5.73254e-05 0.000441528 -2.64973e-08
-1.56321e-07 -2.64973e-08 0.000461042

0.000373611 -5.19247e-05 -7.16563e-08
-5.19247e-05 0.000428034 1.15897e-07
-7.16563e-08 1.15897e-07 0.00041531

0.000495712 3.0066e-05 2.75789e-07
3.0066e-05 0.000364417 6.50293e-08
2.75789e-07 6.50293e-08 0.000447222

0.000472144 -4.73358e-05 -6.63938e-08
-4.73358e-05 0.000377504 9.80882e-09
-6.63938e-08 9.80882e-09 0.000424777

0.000351459 5.32026e-05 -2.08628e-07
5.32026e-05 0.00039024 -2.35884e-08
-2.08628e-07 -2.35884e-08 0.000395344

0.00036409 -6.17458e-05 1.5791e-08
-6.17458e-05 0.00043028 -6.34466e-08
1.5791e-08 -6.34466e-08 0.000394286

0.000448726 -4.29518e-05 1.27611e-07
-4.29518e-05 0.000459979 -1.55131e-09
1.27611e-07 -1.55131e-09 0.000436881

0.000426694 -3.78043e-05 -1.50952e-07
-3.78043e-05 0.000517427 3.68853e-08
-1.50952e-07 3.68853e-08 0.000454694

0.000525068 4.31784e-05 -1.22464e-07
4.31784e-05 0.000397068 1.07971e-07
-1.22464e-07 1.07971e-07 0.000460084

0.00055372 1.50047e-05 2.76108e-07
1.50047e-05 0.000424676 -2.60867e-07
2.76108e-07 -2.60867e-07 0.000470477

0.000502398 -4.6136e-05 1.62201e-07
-4.6136e-05 0.000436494 -4.7196e-08
1.62201e-07 -4.7196e-08 0.000435861

0.000542505 -9.89045e-06 -9.80062e-08
-9.89045e-06 0.000469232 -2.87993e-07
-9.80062e-08 -2.87993e-07 0.000441595

0.000406371 -1.01705e-05 -2.59381e-08
-1.01705e-05 0.000536872 -1.55279e-07
-2.59381e-08 -1.55279e-07 0.000434582

0.000461438 7.81122e-05 3.21924e-10
7.81122e-05 0.000459017 5.46293e-08
3.21924e-10 5.46293e-08 0.000438142

0.000569895 4.60235e-05 6.25301e-08
4.60235e-05 0.000449943 -9.34227e-10
6.25301e-08 -9.34227e-10 0.000488073

0.000587904 4.31177e-05 -3.63496e-07
4.31177e-05 0.000451516 -7.71859e-09
-3.63496e-07 -7.71859e-09 0.000487431

0.000587118 -3.10122e-06 2.90088e-06
-3.10122e-06 0.000549514 1.82659e-06
2.90088e-06 1.82659e-06 0.000445643

0.000470019 -4.96757e-05 -4.67706e-07
-4.96757e-05 0.000515201 7.8513e-07
-4.67706e-07 7.8513e-07 0.000438323

0.000562224 3.56156e-05 1.16186e-07
3.56156e-05 0.000436017 8.03968e-08
1.16186e-07 8.03968e-08 0.000482031

0.00050701 2.87746e-05 -6.9805e-08
2.87746e-05 0.000451168 -4.27651e-08
-6.9805e-08 -4.27651e-08 0.000470777

0.000555927 4.81303e-05 1.99371e-07
4.81303e-05 0.000455134 -3.04813e-07
1.99371e-07 -3.04813e-07 0.000483563

0.000502029 -5.35009e-05 -5.05077e-08
-5.35009e-05 0.000453252 1.52744e-07
-5.05077e-08 1.52744e-07 0.000435351

0.000508784 -2.79428e-05 -2.22279e-08
-2.79428e-05 0.000545114 2.83704e-07
-2.22279e-08 2.83704e-07 0.00044286

0.000453797 -2.4217e-05 -1.18491e-08
-2.4217e-05 0.000435618 1.27144e-07
-1.18491e-08 1.27144e-07 0.000426569

0.00051024 4.73768e-05 -7.74443e-08
4.73768e-05 0.0004221 -1.36375e-07
-7.74443e-08 -1.36375e-07 0.000465328

0.000531737 2.72761e-05 2.89221e-08
2.72761e-05 0.000432535 -1.69502e-07
2.89221e-08 -1.69502e-07 0.000470213

0.000459784 -6.08306e-05 -4.63661e-10
-6.08306e-05 0.000433984 -1.23654e-08
-4.63661e-10 -1.23654e-08 0.000429657

0.000509081 -2.9373e-05 1.40302e-07
-2.9373e-05 0.000448797 3.14733e-08
1.40302e-07 3.14733e-08 0.000436942

SCALARS pressure float
LOOKUP_TABLE default
-2.12023
-0.0635232
0.0613574
-0.0422928
-1.76988
3.86987
3.92454
-1.99553
1.19737
-3.86968
-4.27452
-4.14758
2.34682
2.26559
-0.0202262
1.05651
4.03587
4.02229
-0.337602
-4.58636
-4.78904
-5.11604
-1.62246
-1.80343
-1.07939
-2.19932
-0.0276711
-8.61744
1.41683
-8.66972
2.65627
2.6899
9.17852
9.21796
-5.16347
0.45842
3.31893
3.62235
1.20131
-1.97034
-2.76141
1.04757
-1.71276
-2.18052
0.712418
-2.84145
-8.37895
-8.35664
2.59798
-11.3683
-10.9015
2.88259
2.90222
-0.139196
3.68755
3.69434
-0.308758
7.45893
7.49803
1.56091
1.58271
-4.33638
7.08609
7.05877
-1.93522
-9.04717
-8.942
0.767416
1.00681
12.2748
12.2688
1.12483
0.930953
0.893496
1.67173
2.36686
-4.09471
-2.81763
4.24
13.0751
12.9401
-4.90522
-0.182064
-1.02562
9.63443
9.61415
4.48044
0.1882
0.124841
0.908662
0.961967
-5.227
-2.12186
2.11647
2.13381
-1.12489
-2.25597
0.518948
0.584955
-0.154207
0.798512
-2.95696
1.23025
0.808086
-2.19462
2.10941
-0.619503
-1.89487
-0.0722369
1.83673
1.81211
-4.26808
1.69253
-3.06023
-3.04067
-0.546693
2.96995
2.71012
-1.80358
-1.14827
-3.39117
-3.55261
-3.92277
-5.39948
-2.25085
13.1186
13.0716
-2.10865
-0.448214
-0.197864
-1.85932
2.12665
2.44273
0.813361
0.65746
-0.0781186
1.00249
-2.3252
1.25215
-2.81631
-5.14994
0.396266
-4.68639
-4.6227
-5.04423
-2.90003
-2.16397
-2.12343
-4.6269
-4.3438
1.40687
1.41653
-0.257108
2.10446
1.51727
-6.32676
-2.19286
2.25461
2.22692
-0.134054
-0.0951501
-15.5982
-15.4885
-2.01864
5.86035
5.86256
-1.29141
-6.23507
-2.13272
1.26782
1.13868
-2.67728
0.669667
-1.37824
1.32932
2.4563
2.58509
-0.212082
0.0188344
-2.66263
0.783846
-0.0257701
-0.876624
0.291698
-1.03821
1.72006
-7.74353
-7.74278
0.27766
-0.358483
9.68364
9.68569
-0.336173
6.81718
6.90911
-0.242361
1.2725
-6.29822
-5.87194
-7.45234
-7.46001
-7.79594
0.718482
-6.3057
-6.62716
4.94849
4.94827
0.114057
1.48363
-3.49844
-3.4403
0.0048577
-0.237995
3.94871
3.96894
0.55346
0.0721313
1.33103
-3.91153
-0.0232771
-9.05962
-0.877844
-1.02277
6.36848
6.36839
1.7844
1.80208
3.67955
3.51628
4.88488
4.85896
8.26916
8.27054
1.50847
1.53146
-0.712839
-1.15673
-1.31278
-5.41306
-0.790965
-1.14884
-1.28166
2.6503
2.6871
-1.2783
0.543932
14.0111
13.9995
0.206103
1.87415
3.04673
-7.86234
-7.85423
2.38703
2.41182
3.15492
-1.31232
-3.09495
0.898062
0.915916
14.7696
14.4014
0.845287
-1.11786
1.89686
1.87319
0.455434
1.06425
-9.21684
2.97882
3.00393
1.1747
-3.10314
0.644191
2.67853
2.72722
1.82887
3.29227
3.2785
9.31993
9.3147
-15.2732
-14.5407
0.487288
0.496743
0.742696
-11.8936
-11.831
10.862
10.8605
1.62695
-1.26953
1.04065
1.05582
-0.255648
-1.23427
-7.46406
-6.8366
-7.72676
-0.277737
-6.73973
-6.66384
1.86076
1.86219
2.12944
2.14181
-12.1973
-12.0246
-0.308813
-0.346725
7.38318
7.35613
1.95177
1.97751
4.26564
4.26756
1.34432
1.31762
8.19185
5.92036
8.6325
5.92588
8.63349
8.16119
8.7557
8.77876
8.51428
7.69629
7.68846
8.52002
6.06955
3.12
10.0597
6.08003
10.0567
3.13068
4.86928
6.21923
4.87467
6.2322
0.41829
1.14841
0.59134
-1.12971
4.21445
3.572
-0.931631
2.5378
-4.50284
-5.29879
-5.33785
2.13889
2.68963
-0.500506
3.48974
4.31407
0.227652
-4.28234
-4.53337
-5.04709
-1.96281
-1.31802
0.879239
-8.88189
2.49291
3.07936
2.46105
5.81424
7.60231
-0.150759
-1.60941
-4.15482
2.92694
3.21214
3.4737
-0.800084
3.23569
-2.70502
-0.943098
-2.35078
-2.05747
-1.64834
1.99686
1.27122
-1.88052
-1.78969
-22.6375
-22.9934
3.49751
2.84638
0.00812751
-14.2901
-14.7089
4.52669
3.95128
0.250356
4.5469
4.99195
0.56129
5.42556
6.71696
2.65139
2.46061
5.28095
7.52692
-8.61404
-8.60424
1.11191
1.83409
9.91522
14.054
-2.08295
1.77724
1.79437
4.44788
-3.98325
8.33365
5.63311
0.24306
-0.714226
-4.84856
6.03437
9.97487
3.59021
0.58766
1.25795
1.70549
1.63811
-5.30601
-1.7401
2.97057
2.94442
-0.396741
1.07006
0.850084
0.411832
-2.64238
1.55755
2.85072
3.48107
1.16351
-2.07111
-7.87396
1.80836
-0.0259876
-7.63831
0.0731677
1.704
2.06684
-1.9618
-4.89701
2.56997
1.63193
-2.69197
-3.01331
0.0820368
4.38773
4.64925
-2.08651
-0.492269
-3.97774
-4.36573
-4.76775
-1.78071
13.2789
4.33104
-2.3089
-1.86206
-6.77715
1.59068
0.000368856
0.194158
-1.23908
3.95645
2.62251
-5.06388
-5.66137
-6.78504
1.15426
4.03998
1.51064
3.59858
1.36576
1.27355
-3.76577
-4.2067
-4.26942
-2.01161
-1.65305
-0.893353
-5.44737
-5.01802
1.28379
1.34388
1.78331
0.182121
3.89589
2.41377
1.79003
-1.48836
3.11633
3.66941
-0.35859
1.05244
0.335684
-11.4403
-2.71447
-12.2816
-1.96239
6.97692
7.4402
-0.983518
-1.58939
-2.34088
1.48315
1.5278
2.78212
2.40926
1.42836
4.50135
0.551179
-0.708124
1.45113
1.0247
-2.84194
0.156028
-0.639133
-12.1065
-12.0018
-5.15751
0.310316
10.437
11.1396
4.47312
7.01377
1.42876
1.48874
4.2129
-9.52617
-8.97793
-7.54128
-7.67567
-7.82275
-4.26017
-9.0131
-8.81622
3.39948
5.28507
1.25804
4.57455
-3.66172
-3.32729
1.08586
5.25236
5.19754
1.08179
1.1855
0.33603
2.18004
1.46369
0.27688
-23.667
-0.733109
-0.776922
3.88663
6.61447
2.51406
2.44924
2.95384
3.64289
2.98491
3.99141
10.2776
7.69973
2.45074
4.78805
-0.159268
0.183735
-0.175152
-0.755348
0.0943582
-0.862819
-0.881161
3.9147
2.60506
1.28406
5.04024
14.4156
1.87568
3.6781
-11.4191
-10.9686
3.0802
2.80078
2.37941
0.0596109
-2.8774
2.76914
1.56636
5.19398
12.9774
-0.208289
2.58471
2.53726
0.824315
1.84409
3.41937
1.28997
-24.4468
3.3949
3.02728
2.34162
1.39759
-2.35343
1.31076
2.45766
2.60402
2.36885
3.59495
3.92631
9.5439
6.53453
-13.0074
-12.3929
1.07398
2.83795
-15.7974
-15.3299
13.8043
12.4945
1.4504
1.88269
2.53266
-0.787849
-0.305936
-7.32383
-7.43622
-7.82409
0.304988
1.20613
-9.5904
-9.69615
3.94459
2.80054
3.43075
3.1607
-16.0552
-16.0551
0.173934
1.21847
5.2492
7.78646
3.99297
2.91073
5.89091
5.62391
2.46989
1.43617
7.85499
10.9503
8.20008
11.3828
6.20869
5.80253
8.68016
8.54209
11.674
10.3667
3.87522
7.90036
8.26559
4.3742
12.7065
6.88381
8.34637
4.68506
5.29967
8.08105
6.59332
7.91543
-1.55951
0.656126
1.43427
0.378278
-1.05363
4.03408
4.26022
-1.38296
2.47218
-4.57177
-5.10728
-5.12062
3.20473
2.39862
0.687145
2.25474
4.13499
4.22338
0.250933
-4.39429
-4.37313
-5.04825
-0.899537
-1.92088
-0.360365
-1.65248
0.782364
-9.14359
1.89054
-9.40049
3.19739
3.17752
5.79423
5.79617
-4.67595
1.27049
2.94375
2.76168
3.03243
-1.55406
-2.06274
2.93691
-0.914505
-1.53971
1.21323
-2.75017
-22.7244
-23.4526
3.88552
-15.3344
-14.0541
4.15934
4.17387
0.193579
5.24248
5.20904
0.0640419
5.36291
5.41042
2.62992
2.6421
-5.40618
6.65653
7.15166
-1.55703
-8.60939
-8.69623
1.28057
2.01475
15.0869
14.6428
3.63813
1.94284
1.90558
2.69826
2.90438
-4.22389
-1.81848
-2.74981
3.47487
5.65785
5.62007
-4.89286
0.0129219
-0.722862
7.44645
9.70681
3.4867
1.40283
0.957607
1.69365
1.74023
-5.55837
3.11342
3.08732
-0.740135
-1.62217
0.790141
0.829301
0.210173
1.68334
-2.26714
3.57933
1.40079
-2.06693
1.69087
-0.240292
-1.95524
-0.0117476
2.05265
2.02223
-4.97509
2.75156
-2.79236
-2.87589
0.275909
4.1977
3.8881
-1.37168
-0.497304
-4.04486
-4.11141
-4.82437
-5.63385
-1.95032
10.6859
8.7098
-1.94606
0.260618
0.115638
-1.32949
4.53937
2.55323
1.70215
1.44154
1.70873
1.50491
-2.23042
3.63652
-2.62766
-5.24868
1.31606
-3.98311
-3.96521
-4.43048
-2.59665
-1.17213
-1.17172
-5.07565
-5.20814
1.20994
1.21104
0.363003
4.74537
1.51268
-6.7553
-1.90656
3.24177
3.21785
-0.890337
0.390344
0.395698
-12.3946
-11.5933
-1.76845
7.71353
7.65268
-6.88377
1.90628
1.45739
-2.57076
1.43398
4.41684
2.66876
3.41719
0.416628
1.27588
-0.873668
-2.49306
-1.71671
1.50661
0.811224
-0.50511
1.1741
-0.723619
2.08806
-12.0634
-12.2534
0.307017
1.19789
11.6566
11.4342
0.350828
4.43699
4.41358
1.19643
4.54002
-9.64014
-9.09298
-7.83085
-7.69634
-7.88032
1.45292
-8.84913
-9.54488
4.89092
4.71424
1.03139
4.19994
-3.66236
-3.64045
0.918927
0.0941062
5.39683
5.39393
1.15793
1.34491
1.92446
-4.4574
1.65806
-23.7522
-0.529782
-0.744233
5.72108
5.68574
2.49653
2.50408
2.93608
2.94021
2.99011
2.98363
10.8697
10.6953
2.62082
2.63443
-0.0242386
0.138088
-0.633712
-0.48339
-5.49723
-0.0629093
-0.0437556
4.02755
4.04125
1.33566
7.82027
13.3042
0.724812
1.47956
2.46048
-0.706272
-11.6311
-11.1625
2.8452
2.8921
2.39057
-0.532847
-2.86558
1.73627
1.72949
5.17357
5.183
1.38501
-0.168021
2.72465
2.72721
2.35591
3.62448
-24.3507
3.39968
3.37269
2.67236
-2.79138
1.25356
2.51542
2.4451
2.23607
4.09416
4.07044
8.71864
8.25343
-12.5081
-12.8131
1.3267
1.31337
1.37909
-15.2881
-15.6916
12.5562
12.7571
1.57159
-0.727821
2.02928
2.03153
0.522155
-0.74839
-7.36168
-7.72722
-7.76102
0.496111
-9.6862
-9.47495
3.01238
2.98982
3.3823
3.40299
-16.1089
-16.2223
0.293851
0.277191
6.55741
7.41253
3.11135
3.18382
5.79149
5.77675
2.44572
2.43053
8.03475
11.2066
8.0276
11.301
8.3931
5.79809
5.79304
7.30647
12.3013
11.6897
12.2077
11.2668
8.61199
4.63966
13.5919
8.62035
4.67972
13.3065
6.92417
8.22886
6.88194
8.18579
-2.07814
1.17543
0.446417
0.494245
-1.0044
3.56875
4.21275
-1.02824
3.21771
-4.97338
-4.9106
-5.23009
2.63274
2.13207
0.0402475
0.0820767
1.32188
4.33069
3.49321
0.282285
-4.59867
-4.11224
-4.89437
-1.45599
-1.65569
0.967261
-9.07279
2.09437
2.4635
3.10035
7.57248
5.80689
0.0407954
-0.986019
-4.05904
3.41584
2.74635
3.09851
3.08549
-2.54322
-2.36335
-2.10674
2.01248
-1.49407
-0.885756
-23.1339
-22.5296
3.51998
0.5664
-14.0091
-14.8652
3.93835
4.52231
0.252471
5.02845
4.54363
6.66655
5.46685
2.45735
2.65319
5.2765
7.44061
-1.65126
-8.45818
-8.54066
1.85088
1.24321
14.4761
9.87426
-2.36118
1.36653
1.79974
1.76652
1.8893
2.70469
3.60431
-4.05953
5.64662
8.31745
0.0857376
-0.343524
-4.98805
9.9918
6.03417
4.56537
1.25254
0.569416
1.73901
1.6234
-5.54339
-1.57846
2.99161
2.92771
-0.778057
-1.76121
0.804297
1.10992
0.606826
-2.31899
2.84741
1.37798
3.47873
-2.03946
-7.77999
2.2111
-0.165126
-7.52615
0.0511311
2.08195
1.69016
-2.14086
-5.00098
2.25893
-2.91712
-2.85814
-0.0167277
4.86813
4.06456
-1.90139
-1.49145
-4.21751
-4.18005
-4.79819
-2.05636
13.4265
4.33055
-2.2444
-1.91852
-6.87476
1.56274
0.180558
2.71811
3.95908
-4.82537
-5.35621
1.59328
-6.81776
4.04643
0.139112
1.51626
3.59901
-0.604284
-4.20153
-3.77251
-4.46254
-2.743
-0.828432
-1.72329
-5.35484
-5.17691
1.34018
1.28847
1.74886
3.89626
1.60563
3.68424
3.09737
0.333539
1.05072
-11.5861
-2.36812
-12.322
0.643445
-1.95941
-1.34463
7.50175
6.96512
-0.404237
-1.774
-2.13585
1.46396
1.47843
1.13942
-0.933271
1.5587
2.41006
2.88887
0.265606
0.20358
4.50115
-0.550872
-0.702263
1.45636
-2.1876
0.559947
2.23124
-12.0283
-11.9481
-4.93832
1.03326
0.262555
10.4035
11.3488
0.200157
6.98064
4.44503
1.30382
4.21195
-9.24501
-9.28933
-7.70197
-7.51348
-7.93247
-4.60788
1.35158
-9.20226
-8.82687
3.40063
5.32066
1.07419
4.664
-3.24249
-3.69536
1.32227
0.0629689
5.19902
5.25822
1.23605
1.5028
1.95838
1.28293
-23.9859
-0.805172
-0.803685
3.88411
6.60973
2.42216
2.52588
3.83764
2.96853
4.03889
3.0128
10.4442
7.68512
2.43983
4.78922
0.0876392
0.199394
-0.828006
-0.178603
-0.835258
-0.0269785
-0.239725
2.76559
3.88022
-0.796275
1.53787
5.04165
14.2971
0.682875
1.54367
2.44271
-11.4887
-11.0563
2.76673
3.13488
3.68229
-2.4451
1.5765
2.76529
12.8687
5.16441
1.30875
-0.128597
2.54773
2.58642
1.82979
3.4044
-24.1547
3.17843
3.29224
2.35932
-2.76153
1.11053
2.4308
2.50946
2.52261
3.5985
3.95081
6.53525
9.54008
-12.8054
-12.4113
1.07306
2.8325
1.08647
-15.7941
-15.233
13.7433
12.6935
1.64125
-0.798632
1.8866
2.52898
0.374323
-0.270017
-6.95465
-7.69416
-7.82843
1.19402
-9.41676
-9.6927
2.82561
3.94148
3.14814
3.43097
-16.1105
-16.1863
1.20945
0.177734
5.24798
7.7612
2.84436
3.99568
5.64075
5.88122
1.74308
2.23158
8.60923
8.59245
5.81808
6.21101
8.1906
11.3483
7.85285
11.0419
11.7655
7.8965
3.87049
10.7603
8.25553
4.33631
6.88154
4.67638
8.32809
12.9811
6.63501
7.95535
5.30042
8.06656
1.19308
-0.205458
-0.14976
-1.95022
3.58315
2.91725
-1.83969
1.21775
-5.31089
-5.56836
-5.14112
1.53016
2.19957
-1.12844
2.8985
3.66302
0.485632
-5.03317
-4.33806
-4.88176
-2.12079
-1.55207
-2.6446
0.033576
-9.45484
1.37164
-9.34103
2.52129
2.0451
8.79379
8.80568
-5.24894
-0.293559
3.07595
4.28695
1.27771
-0.80709
-1.8768
-2.51643
1.2133
-2.40766
-0.950978
-2.36218
-1.48431
0.268665
1.80467
-2.86201
-23.3302
-23.4739
1.77668
3.81412
-14.6783
-14.6478
3.02462
2.48603
1.76463
3.6226
3.54054
0.435702
-0.525207
7.26057
7.68164
2.26595
1.74604
-5.79308
5.30028
5.47602
-9.06773
-9.35547
1.87293
0.641594
4.34672
8.32051
1.54893
1.37807
-4.95709
-1.30171
-3.0781
4.06557
12.8166
12.5023
-5.58093
0.203428
0.170421
7.57239
6.09991
4.39728
-0.121611
1.31903
2.64603
2.72256
-5.88328
2.84866
3.1863
0.0262958
1.94309
2.23238
0.0263214
2.59156
0.550514
-3.29825
1.23183
3.51467
-1.88459
2.2705
-0.924112
-2.4136
-0.292092
1.11807
1.72795
-5.30623
3.16506
1.22518
-3.67392
-2.8834
0.0205613
3.12151
2.6459
-0.523669
-4.78792
-4.29989
-4.64467
-5.30562
-2.50274
10.6442
4.30811
-1.90187
1.62629
-0.268891
1.37163
-2.58431
-1.41934
3.96688
1.59636
3.73116
1.06413
4.93404
-2.28372
0.757165
4.34466
-1.99845
-5.5329
1.49576
-4.91014
-3.94239
-4.52546
-2.8754
-0.880021
-2.27565
-5.97692
-5.12914
3.70798
4.11834
1.45923
-0.264884
1.49339
4.1958
1.62392
-7.39207
-2.47405
-1.43731
2.70326
2.38794
-0.939532
0.942553
0.527135
-12.2184
-12.1909
4.5751
5.19296
-0.429922
-7.36609
0.6437
1.68348
-2.61079
2.52066
2.35956
-3.18632
-0.986327
4.34262
0.400293
-0.539733
0.76728
1.21343
0.30629
-0.764892
-1.5671
-12.7796
-12.815
0.647647
5.19531
7.47749
5.53568
6.4851
-0.232466
0.93515
4.81186
-9.78744
-9.77996
-8.21378
-7.75783
-8.20145
-9.74398
-9.67882
3.51464
3.54556
0.14776
1.48353
-4.15597
-3.3644
0.109762
3.75639
3.8426
0.422168
1.75334
-0.368303
1.28707
-5.16439
1.64143
-0.29632
-24.6728
-0.623845
-1.28058
3.96448
4.84572
4.45077
5.1593
3.1796
3.63304
4.54545
5.23289
5.23878
6.2454
4.20058
0.857962
-0.0248437
-1.36792
0.16973
-1.13997
-5.87454
-0.633009
-0.248332
5.02129
2.3859
1.10717
5.03197
9.9925
1.69811
2.92372
-12.5897
-12.1154
3.36445
4.02601
2.99445
-1.45575
0.0296513
-2.17319
1.99115
1.0098
13.5759
9.08715
-1.21252
2.30259
2.59473
1.89779
0.0136839
0.441103
3.74835
-26.4849
2.56971
4.33909
2.81563
0.689225
-2.56268
1.63562
2.58968
3.82296
2.04732
2.52724
3.7637
6.60301
7.12919
-13.2687
-13.5794
2.41842
0.728747
-16.8678
-16.6238
6.29501
4.54024
2.22046
2.13753
0.903172
-0.620611
-1.53797
-8.40888
-7.26933
-8.26658
1.12654
-0.223502
-9.90613
-10.1551
2.96673
1.43156
2.97613
2.06299
-16.9716
-17.1613
0.871513
-0.153953
5.51965
5.30999
3.45687
1.62217
4.37987
4.42893
0.826519
2.91482
6.05136
8.41724
7.28173
6.32034
5.42303
5.63854
6.01128
6.67483
6.5736
3.40667
7.4966
5.61091
5.5436
2.98015
5.54947
4.5483
7.06583
2.40001
4.45764
4.86942
4.05809
4.96078
0.961175
0.0656404
0.307415
1.85877
1.36932
0.533231
1.43387
1.4896
1.79862
0.79771
0.738161
0.144069
0.522623
-0.240632
1.24414
1.31606
1.51452
0.542045
-0.0907723
0.662077
0.660813
0.147973
1.08501
1.5327
1.33981
0.170195
1.61564
0.654495
2.43793
0.315003
0.382796
0.657491
5.91486
5.91614
1.03422
1.57702
3.09363
3.25942
1.40258
0.0378781
1.17007
1.55406
1.03633
0.971596
-0.107784
1.19201
0.808096
0.606943
1.56732
0.476705
0.70766
0.00353418
0.00238184
-0.162672
-0.00937712
-0.00944173
0.0369444
5.53216
5.56921
-0.103642
-0.106308
1.1097
2.92477
0.586796
0.0436489
0.670218
0.762935
-0.0204717
1.09304
0.513802
0.518041
0.615469
-0.122256
-0.12723
2.00578
-0.356847
1.15504
1.45172
3.6247
8.33276
8.34858
0.882168
1.76168
-0.0735877
1.11198
2.98628
3.76749
0.401549
0.195175
-0.182505
-0.180398
0.208098
-0.0201296
-0.14352
-0.144934
-0.0631277
0.173727
-0.127462
-0.132816
1.9415
-0.299028
1.0902
1.07796
-0.430083
0.0311412
2.67602
1.80805
1.30921
1.82037
0.923103
0.704967
0.167438
2.02197
0.166191
0.18697
1.55
2.85195
2.77581
0.736299
1.41237
0.529696
0.51355
0.128619
0.24414
0.0570511
0.781209
1.87598
0.0131546
-0.194192
-0.146297
0.711182
-0.631108
1.72051
-0.299114
-0.348007
0.81636
-0.308906
0.0756998
1.09999
-0.00330593
1.00694
1.51741
0.385806
0.390542
0.123984
0.0135214
0.313022
0.283574
0.241335
0.222146
-0.291421
-0.294283
-0.219132
1.45542
2.41794
0.882344
0.254407
-0.0705941
-0.0730428
-0.0707892
-0.0696316
0.524421
0.269655
0.241412
0.160232
0.16196
-0.061627
1.07445
-0.0200963
1.06112
0.194618
1.17085
-0.349728
-0.0552423
1.71221
-0.417036
0.727596
-0.194691
1.46345
1.25512
-0.621036
1.1568
0.81639
-0.105946
0.358627
-0.756203
0.83519
0.91523
-0.10712
-0.0986613
0.470812
0.473936
-0.175229
5.05705
5.10549
1.4151
1.67962
0.316819
0.911466
0.433453
0.457386
0.244258
-0.637927
0.671164
0.285592
1.47873
0.0817918
1.56978
2.16997
0.254811
0.251229
1.87677
0.0181861
0.144368
0.14414
1.82174
1.49678
2.0535
1.15173
0.905009
0.917571
0.785982
0.432615
0.843279
1.14472
-0.229786
-0.223261
3.165
3.25394
3.82295
3.88345
0.345557
0.348466
-0.380633
-0.385636
-0.0411232
0.519719
0.103499
0.997744
-0.0492448
0.532058
0.0238926
2.58303
2.60903
0.0318528
1.76395
3.72111
0.105471
-0.205725
2.57212
2.6077
0.427665
0.344412
-0.226514
-0.228926
2.65839
0.146433
0.0292839
-0.0766791
-0.0792734
9.606
9.639
-0.277769
1.39097
-0.0404217
-0.0416146
0.39808
0.546474
0.639197
2.37168
2.41359
1.54054
0.0430639
1.87761
2.84496
2.8726
2.3802
-0.0504537
-0.0498878
1.65026
2.04193
0.498616
0.565857
-0.192359
-0.199653
-0.409668
0.488011
0.428129
0.591756
0.588769
2.47918
-0.036622
-0.18555
-0.187967
-0.105109
-0.0295183
0.454191
0.423555
0.206674
-0.107415
0.640032
0.902416
-0.148043
-0.150058
-0.144719
-0.147074
0.692519
0.620092
-0.105147
-0.0977928
2.27163
1.04873
-0.29106
-0.299325
-0.00623614
-0.00660787
1.68544
1.68388
3.32259
6.54052
0.287037
0.424901
0.284784
0.422355
0.758379
6.53842
0.499546
0.541706
0.539059
0.496543
0.307824
0.0386302
0.499296
0.305853
0.495892
0.0375744
0.0343747
0.361827
0.0348261
0.362883
-1.48774
-0.202109
1.22194
-0.0281971
-1.70975
2.90351
3.6712
-2.09533
1.1904
-4.71401
-6.14854
-5.4177
1.50667
2.22845
0.656793
2.1137
3.62807
2.88426
0.617773
-4.32916
-5.00934
-5.03801
-0.899199
-2.32585
-0.356465
-2.60678
-0.0670705
-9.17584
1.41322
-9.63758
2.03452
2.52192
8.8322
8.80833
-5.49983
1.46171
3.99512
3.39717
1.32826
-1.8831
-3.08014
1.08469
-2.3
-2.45128
0.285648
-3.51347
-23.4487
-24.2279
1.75162
-15.2798
-14.6872
2.46599
3.0194
1.63657
3.48808
3.63952
-0.524629
7.30329
7.63758
1.73013
2.26771
-6.02655
5.46814
5.34372
-0.7112
-9.3946
-9.50726
0.632069
1.97455
8.25056
4.352
3.65961
1.33317
1.55963
3.10019
3.56106
-4.82313
-1.23911
-2.9289
4.20618
12.898
12.6197
-5.14929
-0.573244
0.0157413
6.09796
7.56071
4.29033
-0.146549
1.28845
2.67326
2.71881
-5.35419
3.18617
2.8148
0.18033
-1.46707
2.09954
2.06611
-0.331371
0.575938
-2.57636
4.27367
1.22817
-2.03642
1.90211
-0.351351
-1.85065
0.227799
1.75986
1.09223
-5.04049
1.42191
-2.87967
-3.55689
-0.647604
2.89192
2.80844
-1.43325
-1.314
-4.1188
-4.97726
-4.65949
-5.75114
-1.97939
4.30678
10.6174
-1.72003
-0.257954
1.49768
-2.68262
4.12931
1.60302
2.58092
1.06635
1.77928
4.93623
-2.75235
0.737063
-2.83812
-6.01434
0.0511726
-3.95343
-4.87308
-4.30687
-2.12341
-0.896663
-2.2682
-5.3702
-5.81209
4.03546
3.78392
-0.253888
1.46092
2.14378
-7.22516
-2.4535
2.35147
2.73411
0.531077
0.948242
-11.793
-12.2267
-1.23702
5.16223
4.5742
-0.904648
-7.30955
0.621284
1.54503
-3.19829
3.77114
-0.44831
4.64019
2.3575
2.51272
1.51878
1.66412
-2.8674
-1.06064
0.439638
-0.614271
-0.603393
0.32168
-1.57112
4.1182
-13.0456
-13.0489
0.508232
1.19844
7.47041
5.20349
1.62469
6.55843
5.49623
0.00706327
0.915094
-10.3288
-9.31845
-7.73615
-8.22361
-8.00114
4.53565
-9.2409
-9.81344
3.47743
3.53595
0.718595
1.56307
-3.28077
-4.13946
0.042594
0.60213
3.80663
3.76576
1.44314
-0.284542
1.55969
-4.5508
-0.363734
-24.5128
-1.28661
-0.848674
3.99116
4.83297
5.1621
4.46205
3.61539
3.40857
5.2203
4.54442
6.139
5.2453
0.907402
4.22085
-0.548765
-1.47723
0.289298
-6.40409
-0.10471
-0.0518112
-1.15079
5.01409
2.39008
-0.219886
0.426196
9.97525
5.03186
1.91722
2.04373
2.96598
-11.9984
-11.6483
3.89808
3.49657
3.01975
-1.42742
-2.55584
1.00642
2.00474
13.94
9.12583
2.49368
-0.521307
2.54901
2.33199
-0.0367317
0.438563
-25.6386
4.28852
2.61766
0.656662
-2.2014
0.401485
3.75921
2.45491
1.77812
3.77634
2.50249
7.12207
6.59417
-13.6885
-13.5684
0.737124
2.45555
3.47702
-16.2978
-16.3015
4.54917
6.30921
1.42272
-0.644364
0.903765
2.13515
1.16416
-1.48616
-7.60678
-8.105
-8.086
-0.212518
-10.3728
-10.1489
1.41315
2.98362
2.04617
2.98219
-17.1098
-17.0594
-0.137116
0.848658
5.50483
5.31868
1.65405
3.39318
4.39913
4.38884
2.86972
0.943769
8.377
6.04641
6.00817
6.64998
5.42089
5.64758
6.28524
7.27504
5.36195
7.41319
3.40418
6.58935
4.38513
2.34463
6.91534
5.56409
5.55418
3.00287
3.95993
4.91159
4.46705
4.88283
