# vtk DataFile Version 3.0
vtk output at time 1
ASCII
DATASET UNSTRUCTURED_GRID
POINTS 2586 float
-1.84029e-05 0.000489375 0 1.84029e-05 0.000489375 0 -0.000414597 0.000260625 0 
-0.00041175 0.00025 0 -0.000433 0.00022875 0 -0.000433 -0.00022875 0 
-0.00041175 -0.00025 0 -0.000414597 -0.000260625 0 -1.84029e-05 -0.000489375 0 
1.84029e-05 -0.000489375 0 0.000414597 -0.000260625 0 0.000433 -0.00022875 0 
0.000433 0.00022875 0 0.000414597 0.000260625 0 4.25e-05 0 0 
2.125e-05 0.0005 0 5.90898e-17 0.00052125 0 5.90919e-17 0.00097875 0 
2.125e-05 0.001 0 1.84029e-05 0.00101063 0 0.000414597 0.00123937 0 
0.000451403 0.00123937 0 0.000847597 0.00101063 0 0.000866 0.00097875 0 
0.000866 0.00052125 0 0.000847597 0.000489375 0 0.000451403 0.000260625 0 
0.0004755 0.00075 0 0.00045425 0.00025 0 0.000884403 0.000489375 0 
0.0012806 0.000260625 0 0.001299 0.00022875 0 0.001299 -0.00022875 0 
0.0012806 -0.000260625 0 0.000884403 -0.000489375 0 0.000847597 -0.000489375 0 
0.000451403 -0.000260625 0 0.00045425 -0.00025 0 0.0009085 0 0 
0.000866 -0.00052125 0 0.000866 -0.00097875 0 0.000847597 -0.00101063 0 
0.000451403 -0.00123937 0 0.000414597 -0.00123937 0 1.84029e-05 -0.00101063 0 
2.125e-05 -0.001 0 5.90898e-17 -0.00097875 0 5.90919e-17 -0.00052125 0 
2.125e-05 -0.0005 0 0.0004755 -0.00075 0 -1.84029e-05 -0.00101063 0 
-0.000414597 -0.00123937 0 -0.000451403 -0.00123937 0 -0.000847597 -0.00101063 0 
-0.00084475 -0.001 0 -0.000866 -0.00097875 0 -0.000866 -0.00052125 0 
-0.00084475 -0.0005 0 -0.000847597 -0.000489375 0 -0.000451403 -0.000260625 0 
-0.0003905 -0.00075 0 -0.000884403 -0.000489375 0 -0.0012806 -0.000260625 0 
-0.00127775 -0.00025 0 -0.001299 -0.00022875 0 -0.001299 0.00022875 0 
-0.00127775 0.00025 0 -0.0012806 0.000260625 0 -0.000884403 0.000489375 0 
-0.000847597 0.000489375 0 -0.000451403 0.000260625 0 -0.0008235 0 0 
-0.00084475 0.0005 0 -0.000866 0.00052125 0 -0.000866 0.00097875 0 
-0.00084475 0.001 0 -0.000847597 0.00101063 0 -0.000451403 0.00123937 0 
-0.000414597 0.00123937 0 -1.84029e-05 0.00101063 0 -0.0003905 0.00075 0 
-1.84029e-05 0.000489375 -0.0005 1.84029e-05 0.000489375 -0.0005 -0.000414597 0.000260625 -0.0005 
-0.00041175 0.00025 -0.0005 -0.000433 0.00022875 -0.0005 -0.000433 -0.00022875 -0.0005 
-0.00041175 -0.00025 -0.0005 -0.000414597 -0.000260625 -0.0005 -1.84029e-05 -0.000489375 -0.0005 
1.84029e-05 -0.000489375 -0.0005 0.000414597 -0.000260625 -0.0005 0.000433 -0.00022875 -0.0005 
0.000433 0.00022875 -0.0005 0.000414597 0.000260625 -0.0005 4.25e-05 0 -0.0005 
2.125e-05 0.0005 -0.0005 5.90898e-17 0.00052125 -0.0005 5.90919e-17 0.00097875 -0.0005 
2.125e-05 0.001 -0.0005 1.84029e-05 0.00101063 -0.0005 0.000414597 0.00123937 -0.0005 
0.000451403 0.00123937 -0.0005 0.000847597 0.00101063 -0.0005 0.000866 0.00097875 -0.0005 
0.000866 0.00052125 -0.0005 0.000847597 0.000489375 -0.0005 0.000451403 0.000260625 -0.0005 
0.0004755 0.00075 -0.0005 0.00045425 0.00025 -0.0005 0.000884403 0.000489375 -0.0005 
0.0012806 0.000260625 -0.0005 0.001299 0.00022875 -0.0005 0.001299 -0.00022875 -0.0005 
0.0012806 -0.000260625 -0.0005 0.000884403 -0.000489375 -0.0005 0.000847597 -0.000489375 -0.0005 
0.000451403 -0.000260625 -0.0005 0.00045425 -0.00025 -0.0005 0.0009085 0 -0.0005 
0.000866 -0.00052125 -0.0005 0.000866 -0.00097875 -0.0005 0.000847597 -0.00101063 -0.0005 
0.000451403 -0.00123937 -0.0005 0.000414597 -0.00123937 -0.0005 1.84029e-05 -0.00101063 -0.0005 
2.125e-05 -0.001 -0.0005 5.90898e-17 -0.00097875 -0.0005 5.90919e-17 -0.00052125 -0.0005 
2.125e-05 -0.0005 -0.0005 0.0004755 -0.00075 -0.0005 -1.84029e-05 -0.00101063 -0.0005 
-0.000414597 -0.00123937 -0.0005 -0.000451403 -0.00123937 -0.0005 -0.000847597 -0.00101063 -0.0005 
-0.00084475 -0.001 -0.0005 -0.000866 -0.00097875 -0.0005 -0.000866 -0.00052125 -0.0005 
-0.00084475 -0.0005 -0.0005 -0.000847597 -0.000489375 -0.0005 -0.000451403 -0.000260625 -0.0005 
-0.0003905 -0.00075 -0.0005 -0.000884403 -0.000489375 -0.0005 -0.0012806 -0.000260625 -0.0005 
-0.00127775 -0.00025 -0.0005 -0.001299 -0.00022875 -0.0005 -0.001299 0.00022875 -0.0005 
-0.00127775 0.00025 -0.0005 -0.0012806 0.000260625 -0.0005 -0.000884403 0.000489375 -0.0005 
-0.000847597 0.000489375 -0.0005 -0.000451403 0.000260625 -0.0005 -0.0008235 0 -0.0005 
-0.00084475 0.0005 -0.0005 -0.000866 0.00052125 -0.0005 -0.000866 0.00097875 -0.0005 
-0.00084475 0.001 -0.0005 -0.000847597 0.00101063 -0.0005 -0.000451403 0.00123937 -0.0005 
-0.000414597 0.00123937 -0.0005 -1.84029e-05 0.00101063 -0.0005 -0.0003905 0.00075 -0.0005 
-9.82724e-20 0.00047875 0 -0.000335358 0.000306375 0 -0.000256119 0.000352125 0 
-0.000176881 0.000397875 0 -9.76417e-05 0.000443625 0 -0.000412474 0.0002555 0 
-0.000417974 0.000234974 0 -0.000433 -0.00013725 0 -0.000433 -4.575e-05 0 
-0.000433 4.575e-05 0 -0.000433 0.00013725 0 -0.000417974 -0.000234974 0 
-0.000412474 -0.0002555 0 -9.76417e-05 -0.000443625 0 -0.000176881 -0.000397875 0 
-0.000256119 -0.000352125 0 -0.000335358 -0.000306375 0 -1.07223e-19 -0.00047875 0 
0.000335358 -0.000306375 0 0.000256119 -0.000352125 0 0.000176881 -0.000397875 0 
9.76417e-05 -0.000443625 0 0.000414597 -0.000239375 0 0.000433 0.00013725 0 
0.000433 4.575e-05 0 0.000433 -4.575e-05 0 0.000433 -0.00013725 0 
0.000414597 0.000239375 0 9.76417e-05 0.000443625 0 0.000176881 0.000397875 0 
0.000256119 0.000352125 0 0.000335358 0.000306375 0 -1.29514e-19 4.25e-05 0 
-4.25e-05 -3.53397e-19 0 4.07417e-19 -4.25e-05 0 2.05259e-05 0.0004945 0 
1.5026e-05 0.000515026 0 0 0.00061275 0 0 0.00070425 0 
0 0.00079575 0 0 0.00088725 0 1.5026e-05 0.000984974 0 
2.05259e-05 0.0010055 0 9.76417e-05 0.00105638 0 0.000176881 0.00110213 0 
0.000256119 0.00114787 0 0.000335358 0.00119362 0 0.000433 0.00122875 0 
0.000530642 0.00119362 0 0.000609881 0.00114787 0 0.000689119 0.00110213 0 
0.000768358 0.00105638 0 0.000847597 0.000989375 0 0.000866 0.00088725 0 
0.000866 0.00079575 0 0.000866 0.00070425 0 0.000866 0.00061275 0 
0.000847597 0.000510625 0 0.000530642 0.000306375 0 0.000609881 0.000352125 0 
0.000689119 0.000397875 0 0.000768358 0.000443625 0 0.000433 0.00027125 0 
0.000433 0.0007925 0 0.0003905 0.00075 0 0.000433 0.0007075 0 
0.000448026 0.000234974 0 0.000453526 0.0002555 0 0.000866 0.00047875 0 
0.000963642 0.000443625 0 0.00104288 0.000397875 0 0.00112212 0.000352125 0 
0.00120136 0.000306375 0 0.0012806 0.000239375 0 0.001299 0.00013725 0 
0.001299 4.575e-05 0 0.001299 -4.575e-05 0 0.001299 -0.00013725 0 
0.0012806 -0.000239375 0 0.00120136 -0.000306375 0 0.00112212 -0.000352125 0 
0.00104288 -0.000397875 0 0.000963642 -0.000443625 0 0.000866 -0.00047875 0 
0.000530642 -0.000306375 0 0.000609881 -0.000352125 0 0.000689119 -0.000397875 0 
0.000768358 -0.000443625 0 0.000453526 -0.0002555 0 0.000448026 -0.000234974 0 
0.000866 4.25e-05 0 0.0008235 -3.53397e-19 0 0.000866 -4.25e-05 0 
0.000433 -0.00027125 0 0.000847597 -0.000510625 0 0.000866 -0.00061275 0 
0.000866 -0.00070425 0 0.000866 -0.00079575 0 0.000866 -0.00088725 0 
0.000847597 -0.000989375 0 0.000768358 -0.00105638 0 0.000689119 -0.00110213 0 
0.000609881 -0.00114787 0 0.000530642 -0.00119362 0 0.000433 -0.00122875 0 
0.000335358 -0.00119362 0 0.000256119 -0.00114787 0 0.000176881 -0.00110213 0 
9.76417e-05 -0.00105638 0 2.05259e-05 -0.0010055 0 1.5026e-05 -0.000984974 0 
0 -0.00061275 0 0 -0.00070425 0 0 -0.00079575 0 
0 -0.00088725 0 1.5026e-05 -0.000515026 0 2.05259e-05 -0.0004945 0 
0.000433 -0.0007075 0 0.0003905 -0.00075 0 0.000433 -0.0007925 0 
-1.84031e-05 -0.000510625 0 -1.84031e-05 -0.000989375 0 -9.76417e-05 -0.00105638 0 
-0.000176881 -0.00110213 0 -0.000256119 -0.00114787 0 -0.000335358 -0.00119362 0 
-0.000433 -0.00122875 0 -0.000530642 -0.00119362 0 -0.000609881 -0.00114787 0 
-0.000689119 -0.00110213 0 -0.000768358 -0.00105638 0 -0.000845474 -0.0010055 0 
-0.000850974 -0.000984974 0 -0.000866 -0.00088725 0 -0.000866 -0.00079575 0 
-0.000866 -0.00070425 0 -0.000866 -0.00061275 0 -0.000850974 -0.000515026 0 
-0.000845474 -0.0004945 0 -0.000530642 -0.000306375 0 -0.000609881 -0.000352125 0 
-0.000689119 -0.000397875 0 -0.000768358 -0.000443625 0 -0.000433 -0.00027125 0 
-0.000433 -0.0007075 0 -0.0004755 -0.00075 0 -0.000433 -0.0007925 0 
-0.000451403 -0.000239375 0 -0.000866 -0.00047875 0 -0.000963642 -0.000443625 0 
-0.00104288 -0.000397875 0 -0.00112212 -0.000352125 0 -0.00120136 -0.000306375 0 
-0.00127847 -0.0002555 0 -0.00128397 -0.000234974 0 -0.001299 -0.00013725 0 
-0.001299 -4.575e-05 0 -0.001299 4.575e-05 0 -0.001299 0.00013725 0 
-0.00128397 0.000234974 0 -0.00127847 0.0002555 0 -0.00120136 0.000306375 0 
-0.00112212 0.000352125 0 -0.00104288 0.000397875 0 -0.000963642 0.000443625 0 
-0.000866 0.00047875 0 -0.000530642 0.000306375 0 -0.000609881 0.000352125 0 
-0.000689119 0.000397875 0 -0.000768358 0.000443625 0 -0.000451403 0.000239375 0 
-0.000866 4.25e-05 0 -0.0009085 -3.53397e-19 0 -0.000866 -4.25e-05 0 
-0.000433 0.00027125 0 -0.000845474 0.0004945 0 -0.000850974 0.000515026 0 
-0.000866 0.00061275 0 -0.000866 0.00070425 0 -0.000866 0.00079575 0 
-0.000866 0.00088725 0 -0.000850974 0.000984974 0 -0.000845474 0.0010055 0 
-0.000768358 0.00105638 0 -0.000689119 0.00110213 0 -0.000609881 0.00114787 0 
-0.000530642 0.00119362 0 -0.000433 0.00122875 0 -0.000335358 0.00119362 0 
-0.000256119 0.00114787 0 -0.000176881 0.00110213 0 -9.76417e-05 0.00105638 0 
-1.84031e-05 0.000989375 0 -1.84031e-05 0.000510625 0 -0.000433 0.0007925 0 
-0.0004755 0.00075 0 -0.000433 0.0007075 0 -9.82724e-20 0.00047875 -0.0005 
-0.000335358 0.000306375 -0.0005 -0.000256119 0.000352125 -0.0005 -0.000176881 0.000397875 -0.0005 
-9.76417e-05 0.000443625 -0.0005 -0.000412474 0.0002555 -0.0005 -0.000417974 0.000234974 -0.0005 
-0.000433 -0.00013725 -0.0005 -0.000433 -4.575e-05 -0.0005 -0.000433 4.575e-05 -0.0005 
-0.000433 0.00013725 -0.0005 -0.000417974 -0.000234974 -0.0005 -0.000412474 -0.0002555 -0.0005 
-9.76417e-05 -0.000443625 -0.0005 -0.000176881 -0.000397875 -0.0005 -0.000256119 -0.000352125 -0.0005 
-0.000335358 -0.000306375 -0.0005 -1.07223e-19 -0.00047875 -0.0005 0.000335358 -0.000306375 -0.0005 
0.000256119 -0.000352125 -0.0005 0.000176881 -0.000397875 -0.0005 9.76417e-05 -0.000443625 -0.0005 
0.000414597 -0.000239375 -0.0005 0.000433 0.00013725 -0.0005 0.000433 4.575e-05 -0.0005 
0.000433 -4.575e-05 -0.0005 0.000433 -0.00013725 -0.0005 0.000414597 0.000239375 -0.0005 
9.76417e-05 0.000443625 -0.0005 0.000176881 0.000397875 -0.0005 0.000256119 0.000352125 -0.0005 
0.000335358 0.000306375 -0.0005 -1.29514e-19 4.25e-05 -0.0005 -4.25e-05 -3.53397e-19 -0.0005 
4.07417e-19 -4.25e-05 -0.0005 2.05259e-05 0.0004945 -0.0005 1.5026e-05 0.000515026 -0.0005 
0 0.00061275 -0.0005 0 0.00070425 -0.0005 0 0.00079575 -0.0005 
0 0.00088725 -0.0005 1.5026e-05 0.000984974 -0.0005 2.05259e-05 0.0010055 -0.0005 
9.76417e-05 0.00105638 -0.0005 0.000176881 0.00110213 -0.0005 0.000256119 0.00114787 -0.0005 
0.000335358 0.00119362 -0.0005 0.000433 0.00122875 -0.0005 0.000530642 0.00119362 -0.0005 
0.000609881 0.00114787 -0.0005 0.000689119 0.00110213 -0.0005 0.000768358 0.00105638 -0.0005 
0.000847597 0.000989375 -0.0005 0.000866 0.00088725 -0.0005 0.000866 0.00079575 -0.0005 
0.000866 0.00070425 -0.0005 0.000866 0.00061275 -0.0005 0.000847597 0.000510625 -0.0005 
0.000530642 0.000306375 -0.0005 0.000609881 0.000352125 -0.0005 0.000689119 0.000397875 -0.0005 
0.000768358 0.000443625 -0.0005 0.000433 0.00027125 -0.0005 0.000433 0.0007925 -0.0005 
0.0003905 0.00075 -0.0005 0.000433 0.0007075 -0.0005 0.000448026 0.000234974 -0.0005 
0.000453526 0.0002555 -0.0005 0.000866 0.00047875 -0.0005 0.000963642 0.000443625 -0.0005 
0.00104288 0.000397875 -0.0005 0.00112212 0.000352125 -0.0005 0.00120136 0.000306375 -0.0005 
0.0012806 0.000239375 -0.0005 0.001299 0.00013725 -0.0005 0.001299 4.575e-05 -0.0005 
0.001299 -4.575e-05 -0.0005 0.001299 -0.00013725 -0.0005 0.0012806 -0.000239375 -0.0005 
0.00120136 -0.000306375 -0.0005 0.00112212 -0.000352125 -0.0005 0.00104288 -0.000397875 -0.0005 
0.000963642 -0.000443625 -0.0005 0.000866 -0.00047875 -0.0005 0.000530642 -0.000306375 -0.0005 
0.000609881 -0.000352125 -0.0005 0.000689119 -0.000397875 -0.0005 0.000768358 -0.000443625 -0.0005 
0.000453526 -0.0002555 -0.0005 0.000448026 -0.000234974 -0.0005 0.000866 4.25e-05 -0.0005 
0.0008235 -3.53397e-19 -0.0005 0.000866 -4.25e-05 -0.0005 0.000433 -0.00027125 -0.0005 
0.000847597 -0.000510625 -0.0005 0.000866 -0.00061275 -0.0005 0.000866 -0.00070425 -0.0005 
0.000866 -0.00079575 -0.0005 0.000866 -0.00088725 -0.0005 0.000847597 -0.000989375 -0.0005 
0.000768358 -0.00105638 -0.0005 0.000689119 -0.00110213 -0.0005 0.000609881 -0.00114787 -0.0005 
0.000530642 -0.00119362 -0.0005 0.000433 -0.00122875 -0.0005 0.000335358 -0.00119362 -0.0005 
0.000256119 -0.00114787 -0.0005 0.000176881 -0.00110213 -0.0005 9.76417e-05 -0.00105638 -0.0005 
2.05259e-05 -0.0010055 -0.0005 1.5026e-05 -0.000984974 -0.0005 0 -0.00061275 -0.0005 
0 -0.00070425 -0.0005 0 -0.00079575 -0.0005 0 -0.00088725 -0.0005 
1.5026e-05 -0.000515026 -0.0005 2.05259e-05 -0.0004945 -0.0005 0.000433 -0.0007075 -0.0005 
0.0003905 -0.00075 -0.0005 0.000433 -0.0007925 -0.0005 -1.84031e-05 -0.000510625 -0.0005 
-1.84031e-05 -0.000989375 -0.0005 -9.76417e-05 -0.00105638 -0.0005 -0.000176881 -0.00110213 -0.0005 
-0.000256119 -0.00114787 -0.0005 -0.000335358 -0.00119362 -0.0005 -0.000433 -0.00122875 -0.0005 
-0.000530642 -0.00119362 -0.0005 -0.000609881 -0.00114787 -0.0005 -0.000689119 -0.00110213 -0.0005 
-0.000768358 -0.00105638 -0.0005 -0.000845474 -0.0010055 -0.0005 -0.000850974 -0.000984974 -0.0005 
-0.000866 -0.00088725 -0.0005 -0.000866 -0.00079575 -0.0005 -0.000866 -0.00070425 -0.0005 
-0.000866 -0.00061275 -0.0005 -0.000850974 -0.000515026 -0.0005 -0.000845474 -0.0004945 -0.0005 
-0.000530642 -0.000306375 -0.0005 -0.000609881 -0.000352125 -0.0005 -0.000689119 -0.000397875 -0.0005 
-0.000768358 -0.000443625 -0.0005 -0.000433 -0.00027125 -0.0005 -0.000433 -0.0007075 -0.0005 
-0.0004755 -0.00075 -0.0005 -0.000433 -0.0007925 -0.0005 -0.000451403 -0.000239375 -0.0005 
-0.000866 -0.00047875 -0.0005 -0.000963642 -0.000443625 -0.0005 -0.00104288 -0.000397875 -0.0005 
-0.00112212 -0.000352125 -0.0005 -0.00120136 -0.000306375 -0.0005 -0.00127847 -0.0002555 -0.0005 
-0.00128397 -0.000234974 -0.0005 -0.001299 -0.00013725 -0.0005 -0.001299 -4.575e-05 -0.0005 
-0.001299 4.575e-05 -0.0005 -0.001299 0.00013725 -0.0005 -0.00128397 0.000234974 -0.0005 
-0.00127847 0.0002555 -0.0005 -0.00120136 0.000306375 -0.0005 -0.00112212 0.000352125 -0.0005 
-0.00104288 0.000397875 -0.0005 -0.000963642 0.000443625 -0.0005 -0.000866 0.00047875 -0.0005 
-0.000530642 0.000306375 -0.0005 -0.000609881 0.000352125 -0.0005 -0.000689119 0.000397875 -0.0005 
-0.000768358 0.000443625 -0.0005 -0.000451403 0.000239375 -0.0005 -0.000866 4.25e-05 -0.0005 
-0.0009085 -3.53397e-19 -0.0005 -0.000866 -4.25e-05 -0.0005 -0.000433 0.00027125 -0.0005 
-0.000845474 0.0004945 -0.0005 -0.000850974 0.000515026 -0.0005 -0.000866 0.00061275 -0.0005 
-0.000866 0.00070425 -0.0005 -0.000866 0.00079575 -0.0005 -0.000866 0.00088725 -0.0005 
-0.000850974 0.000984974 -0.0005 -0.000845474 0.0010055 -0.0005 -0.000768358 0.00105638 -0.0005 
-0.000689119 0.00110213 -0.0005 -0.000609881 0.00114787 -0.0005 -0.000530642 0.00119362 -0.0005 
-0.000433 0.00122875 -0.0005 -0.000335358 0.00119362 -0.0005 -0.000256119 0.00114787 -0.0005 
-0.000176881 0.00110213 -0.0005 -9.76417e-05 0.00105638 -0.0005 -1.84031e-05 0.000989375 -0.0005 
-1.84031e-05 0.000510625 -0.0005 -0.000433 0.0007925 -0.0005 -0.0004755 0.00075 -0.0005 
-0.000433 0.0007075 -0.0005 0.000166833 -0.000159585 0 0.000165961 0.000165961 0 
-0.000162277 0.000168837 0 -0.000162539 -0.000168697 0 -0.000316174 -0.000207462 0 
-0.000316174 0.000207462 0 -1.7625e-06 0.00020878 0 -0.000200494 5.10348e-06 0 
0.000198022 -6.49099e-06 0 -3.82827e-06 -0.000208798 0 -0.0003642 0.000214286 0 
-0.0003642 -0.000214286 0 0.000301049 0.000166193 0 0.000312424 -0.000170987 0 
-7.30908e-06 -0.00035148 0 7.30908e-06 0.00035148 0 0.000109232 0.000285545 0 
-0.000107519 -0.000286192 0 -0.000304808 7.69979e-05 0 -0.000308572 -7.52569e-05 0 
0.000106639 -0.000294843 0 -0.00010493 0.000296588 0 8.50608e-05 -8.41794e-05 0 
8.82006e-05 9.78925e-05 0 -9.29688e-05 8.1944e-05 0 -9.5784e-05 -8.5049e-05 0 
-0.00037448 0.000247295 0 -0.00037448 -0.000247295 0 -0.000226807 0.000247375 0 
-0.00022696 -0.000246565 0 0.000318161 -5.24395e-05 0 0.00030573 6.09258e-05 0 
-0.000251653 -0.000142326 0 -0.000251653 0.000142326 0 3.07451e-05 -0.00041094 0 
-3.07451e-05 0.00041094 0 0.00022921 -0.000246251 0 0.000229478 0.000241816 0 
2.27436e-05 0.000133221 0 1.86722e-05 -0.000131409 0 -0.000131489 -2.16615e-05 0 
0.00013003 -1.62999e-05 0 -0.00037383 0.000149154 0 -0.00037383 -0.000149154 0 
0.000234918 -9.03863e-05 0 0.000328799 0.000234244 0 0.000330695 -0.000235043 0 
0.000223602 9.28059e-05 0 -8.24081e-05 0.000181543 0 -7.93229e-05 -0.000178683 0 
-0.000174487 7.88274e-05 0 9.06107e-05 -0.000168878 0 9.31592e-05 0.000169495 0 
-0.000165177 -7.38619e-05 0 -9.20929e-05 -0.000358769 0 9.20929e-05 0.000358769 0 
3.47644e-05 0.000422113 0 -3.47644e-05 -0.000422113 0 -0.00039524 0.000187946 0 
-0.00039524 -0.000187946 0 -0.00036071 1.92365e-06 0 0.000388959 -0.000188051 0 
0.000390003 0.000186364 0 6.43444e-05 -0.000355671 0 -6.37768e-05 0.000356891 0 
2.80563e-05 -0.000283426 0 -2.80563e-05 0.000283426 0 0.000158032 5.64575e-05 0 
4.0579e-05 0.000286843 0 -4.0579e-05 -0.000286843 0 0.000187449 0.000307262 0 
0.000159892 -7.91024e-05 0 -0.000184905 -0.00030951 0 0.000358611 0.000105752 0 
0.000363074 -0.00011688 0 -0.000325009 0.000251333 0 -0.000325009 -0.000251333 0 
-0.000240838 -7.12684e-05 0 -0.000314691 -0.000147697 0 -0.000314417 0.000147824 0 
-0.000404578 0.00024054 0 -0.000403308 0.000218831 0 -0.000404578 -0.00024054 0 
-0.000403308 -0.000218831 0 0.000191925 -0.0003084 0 -0.000260053 0.000200474 0 
-0.000260078 -0.000200417 0 -2.84262e-05 0.000450764 0 2.84262e-05 -0.000450764 0 
-0.000189066 0.000311072 0 -0.000240999 7.45278e-05 0 -0.000278935 4.78174e-06 0 
0.000354779 1.89656e-05 0 0.000162497 0.000232229 0 0.000376671 0.000245397 0 
0.000376841 -0.000245894 0 0.000157204 -0.000230896 0 0.000234792 0.000171119 0 
-0.000151291 -0.000232673 0 -2.32986e-05 8.92785e-05 0 -3.11926e-05 -8.95957e-05 0 
-9.03847e-05 2.2115e-05 0 9.12302e-05 3.30279e-05 0 -0.000152334 0.000235849 0 
0.000239556 -0.000175069 0 -0.000374753 9.03378e-05 0 -0.000376425 -8.91537e-05 0 
4.61669e-05 -4.59906e-05 0 6.62281e-05 0.000232832 0 3.85868e-05 8.10868e-05 0 
-7.69579e-05 -3.79434e-05 0 0.000127486 -0.000360083 0 7.07506e-05 -0.00023716 0 
0.000272535 3.89675e-06 0 -7.65081e-05 -0.000238638 0 0.00014561 0.000112396 0 
-0.000352537 0.000183264 0 -0.000352576 -0.000183245 0 -0.000270615 -0.000285639 0 
-0.000269954 0.000283517 0 -7.38981e-05 0.000241237 0 0.00028245 0.000113194 0 
-0.000128597 0.00035529 0 0.000277733 0.00021912 0 0.000279019 -0.000221334 0 
0.000293419 -0.000117053 0 -4.98304e-05 4.71675e-05 0 -3.82924e-05 0.000144636 0 
-3.82924e-05 -0.000144636 0 -0.000137965 3.32657e-05 0 -0.00012318 0.000133204 0 
-0.000120047 -0.000136339 0 -0.000206789 -0.00019438 0 0.000125599 -0.000122936 0 
-0.000206748 0.000194842 0 -0.000279599 0.000238032 0 -0.000279767 -0.000238283 0 
-0.000195529 0.000130609 0 -0.000197761 -0.000129013 0 2.37414e-05 -7.8735e-05 0 
7.89976e-05 -2.26884e-05 0 0.000279552 0.000278672 0 0.000279873 -0.000279044 0 
4.48012e-06 0.00044547 0 -4.48012e-06 -0.00044547 0 0.000598961 0.000584039 0 
0.000602744 0.00091226 0 0.000270474 0.000918651 0 0.000270149 0.000581615 0 
0.000116826 0.000957462 0 0.000116826 0.000542538 0 0.000429172 0.000958798 0 
0.000232505 0.000755103 0 0.000636012 0.000747201 0 0.000434763 0.00054122 0 
6.87997e-05 0.000964286 0 6.87997e-05 0.000535714 0 0.000745424 0.000920987 0 
0.000734049 0.000583807 0 0.000425691 0.00039852 0 0.000425691 0.00110148 0 
0.000325481 0.00103619 0 0.00032556 0.000464273 0 0.000128192 0.000826998 0 
0.000124428 0.000674743 0 0.000539639 0.00104484 0 0.000539618 0.000454793 0 
0.000520463 0.000653783 0 0.000521988 0.00084822 0 0.000340031 0.000831944 0 
0.00034624 0.000661734 0 5.85195e-05 0.000997295 0 5.85195e-05 0.000502705 0 
0.00020604 0.000996565 0 0.00020604 0.000503435 0 0.000751161 0.00080244 0 
0.00073873 0.000689074 0 0.000181347 0.000607674 0 0.000181347 0.000892326 0 
0.000463745 0.00033906 0 0.000463745 0.00116094 0 0.00066221 0.000996251 0 
0.000655871 0.000515061 0 0.000455531 0.000883279 0 0.0004137 0.000617913 0 
0.000302544 0.000731006 0 0.000569409 0.000742828 0 5.91695e-05 0.000899154 0 
5.91695e-05 0.000600846 0 0.000666622 0.000847886 0 0.000763695 0.000985043 0 
0.000761799 0.000515756 0 0.000662952 0.000664982 0 0.000353677 0.000928683 0 
0.000512323 0.000571317 0 0.000258513 0.000828827 0 0.000526529 0.000920143 0 
0.000348994 0.000575642 0 0.000269055 0.00067649 0 0.000340907 0.000391231 0 
0.000340907 0.00110877 0 0.000398236 0.00117211 0 0.000398236 0.000327887 0 
3.77595e-05 0.000937946 0 3.77595e-05 0.000562054 0 7.22902e-05 0.000751924 0 
0.000821959 0.000938051 0 0.000823003 0.000563636 0 0.000497344 0.00110567 0 
0.000497341 0.000394268 0 0.000595975 0.000808208 0 0.000461056 0.000466574 0 
0.000461056 0.00103343 0 0.000392421 0.00103684 0 0.000392458 0.000463164 0 
0.000248106 0.000440556 0 0.000248095 0.00105951 0 0.000791611 0.000644248 0 
0.000796074 0.00086688 0 0.000107991 0.00100133 0 0.000107991 0.000498667 0 
0.000192237 0.000678753 0 0.000118309 0.000602303 0 0.000118584 0.000897824 0 
2.84222e-05 0.00099054 0 2.96921e-05 0.000968831 0 2.84222e-05 0.00050946 0 
2.96921e-05 0.000531169 0 0.000584827 0.000674445 0 0.000624925 0.0010584 0 
0.000620086 0.000439056 0 0.000172934 0.000950423 0 0.000172922 0.000549583 0 
0.000461426 0.00120076 0 0.000461426 0.000299236 0 0.000192001 0.000824528 0 
0.000154074 0.000754784 0 0.000787779 0.000731034 0 0.000809841 0.000995894 0 
0.000809671 0.000504603 0 0.000589469 0.00097835 0 0.000571747 0.000512487 0 
0.000673596 0.000588147 0 0.000281249 0.000518091 0 0.00028171 0.000982668 0 
0.000409676 0.000839285 0 0.000465934 0.000658411 0 0.000524589 0.000782934 0 
0.000342119 0.000777068 0 0.000672682 0.000926159 0 5.82468e-05 0.000840338 0 
5.65752e-05 0.000660846 0 0.000386493 0.000703192 0 0.000361584 0.000514775 0 
0.000471587 0.000831087 0 0.000510532 0.000709986 0 0.000559513 0.000389323 0 
0.000560486 0.00111008 0 0.000503751 0.00098716 0 0.000707209 0.000747103 0 
0.000356492 0.000988637 0 8.04633e-05 0.000933264 0 8.04241e-05 0.000566755 0 
0.000162386 0.000464369 0 0.000162385 0.00103564 0 0.000578393 0.000862613 0 
0.000503901 0.000509278 0 0.000714127 0.000640342 0 0.000712044 0.000971552 0 
0.000710619 0.000533186 0 0.000726252 0.00086828 0 0.000383065 0.000798159 0 
0.000471292 0.000605364 0 0.000394708 0.000894636 0 0.000295143 0.00078479 0 
0.000311567 0.000884914 0 0.000544105 0.000613927 0 0.000226145 0.000555712 0 
0.000226234 0.0009443 0 0.000307419 0.000615421 0 0.000153235 0.000988284 0 
0.000153233 0.000511718 0 0.000237647 0.000880726 0 0.000238317 0.000620115 0 
0.000410377 0.000668704 0 0.000352297 0.000726325 0 0.000712874 0.00102905 0 
0.000708438 0.00047242 0 0.00042852 0.00030453 0 0.00042852 0.00119547 0 
0.00103283 -0.000159585 0 0.00103196 0.000165961 0 0.00070371 0.000168883 0 
0.000703474 -0.000168651 0 0.000549826 0.000207462 0 0.000549826 -0.000207462 0 
0.000864237 0.00020878 0 0.000665505 -1.75358e-06 0 0.00106402 -6.49099e-06 0 
0.000862172 -0.000208798 0 0.0005018 0.000214286 0 0.0005018 -0.000214286 0 
0.00117842 -0.000170987 0 0.00116705 0.000166193 0 0.000858691 -0.00035148 0 
0.000873309 0.00035148 0 0.000975232 0.000285545 0 0.000758481 -0.000286192 0 
0.000561503 7.6703e-05 0 0.000555269 -7.65899e-05 0 0.000972639 -0.000294843 0 
0.00076107 0.000296588 0 0.000951061 -8.41794e-05 0 0.000954201 9.78925e-05 0 
0.000770216 8.5049e-05 0 0.000773031 -8.1944e-05 0 0.00049152 0.000247295 0 
0.00049152 -0.000247295 0 0.000639193 0.000247375 0 0.00063904 -0.000246565 0 
0.00118416 -5.24395e-05 0 0.00117173 6.09258e-05 0 0.000614347 -0.000142326 0 
0.000614347 0.000142326 0 0.000896745 -0.00041094 0 0.000835255 0.00041094 0 
0.00109521 -0.000246251 0 0.00109548 0.000241816 0 0.000888744 0.000133221 0 
0.000884672 -0.000131409 0 0.000734511 2.22198e-05 0 0.00099603 -1.62999e-05 0 
0.00049217 0.000149154 0 0.00049217 -0.000149154 0 0.00110092 -9.03863e-05 0 
0.0011967 -0.000235043 0 0.0011948 0.000234244 0 0.0010896 9.28059e-05 0 
0.000783591 0.000181545 0 0.000786677 -0.000178683 0 0.000691513 -7.86239e-05 0 
0.000956611 -0.000168878 0 0.000959159 0.000169495 0 0.000700823 7.45132e-05 0 
0.000773907 -0.000358769 0 0.000958093 0.000358769 0 0.000900764 0.000422113 0 
0.000831236 -0.000422113 0 0.00047076 0.000187946 0 0.00047076 -0.000187946 0 
0.000506327 1.20793e-06 0 0.00125496 -0.000188051 0 0.001256 0.000186364 0 
0.000930344 -0.000355671 0 0.000802223 0.000356891 0 0.000894056 -0.000283426 0 
0.000837944 0.000283426 0 0.00102403 5.64575e-05 0 0.000906579 0.000286843 0 
0.000825421 -0.000286843 0 0.00105345 0.000307262 0 0.00102589 -7.91024e-05 0 
0.000681095 -0.00030951 0 0.00122461 0.000105752 0 0.00122907 -0.00011688 0 
0.000540991 0.000251333 0 0.000540991 -0.000251333 0 0.000624479 7.32103e-05 0 
0.000551152 -0.000147794 0 0.000551606 0.000147802 0 0.000461422 0.00024054 0 
0.000462692 0.000218831 0 0.000461422 -0.00024054 0 0.000462692 -0.000218831 0 
0.00105793 -0.0003084 0 0.000605948 0.000200473 0 0.000605915 -0.000200421 0 
0.000894426 -0.000450764 0 0.000837574 0.000450764 0 0.000676934 0.000311072 0 
0.000626182 -7.08972e-05 0 0.000584992 5.90258e-06 0 0.00122078 1.89656e-05 0 
0.0010285 0.000232229 0 0.00124284 -0.000245894 0 0.00124267 0.000245397 0 
0.0010232 -0.000230896 0 0.00110079 0.000171119 0 0.00071471 -0.000232668 0 
0.000834965 9.05283e-05 0 0.000842673 -8.85226e-05 0 0.00095723 3.30279e-05 0 
0.000775615 -2.20485e-05 0 0.000713665 0.000235853 0 0.00110556 -0.000175069 0 
0.000491363 9.025e-05 0 0.000488571 -8.87482e-05 0 0.000912167 -4.59906e-05 0 
0.000932228 0.000232832 0 0.000904587 8.10868e-05 0 0.000789049 3.8011e-05 0 
0.000993486 -0.000360083 0 0.000936751 -0.00023716 0 0.00113854 3.89675e-06 0 
0.000789492 -0.000238637 0 0.00101161 0.000112396 0 0.000513466 0.00018326 0 
0.000513402 -0.000183259 0 0.000596046 0.000283517 0 0.000595385 -0.000285639 0 
0.000792102 0.000241238 0 0.00114845 0.000113194 0 0.000737403 0.00035529 0 
0.00114502 -0.000221334 0 0.00114373 0.00021912 0 0.00115942 -0.000117053 0 
0.000816164 -4.7003e-05 0 0.000827708 0.000144636 0 0.000827708 -0.000144636 0 
0.000728035 -3.243e-05 0 0.00074578 0.000136564 0 0.000744567 -0.000134897 0 
0.000659232 -0.0001943 0 0.000991599 -0.000122936 0 0.00065923 0.000194923 0 
0.000586401 0.000238032 0 0.000586231 -0.000238284 0 0.000670788 -0.000130267 0 
0.000668203 0.000129229 0 0.000889614 -8.00602e-05 0 0.000944998 -2.26884e-05 0 
0.00114587 -0.000279044 0 0.00114555 0.000278672 0 0.00087048 0.00044547 0 
0.00086152 -0.00044547 0 0.000598961 -0.000915961 0 0.000603317 -0.000588209 0 
0.000270723 -0.000581163 0 0.000270149 -0.000918385 0 0.000116826 -0.000542538 0 
0.000116826 -0.000957462 0 0.000431238 -0.00054122 0 0.000232505 -0.000744897 0 
0.000636012 -0.000752799 0 0.000434763 -0.00095878 0 6.87997e-05 -0.000535714 0 
6.87997e-05 -0.000964286 0 0.000745424 -0.000579013 0 0.000734049 -0.000916193 0 
0.000425691 -0.00110148 0 0.000440309 -0.00039852 0 0.000542232 -0.000464455 0 
0.00032556 -0.00103573 0 0.000128192 -0.000673002 0 0.000124428 -0.000825257 0 
0.000539618 -0.00104521 0 0.00032807 -0.000453412 0 0.000520463 -0.000846217 0 
0.000521988 -0.00065178 0 0.000340031 -0.000668056 0 0.00034624 -0.000838266 0 
5.85195e-05 -0.000502705 0 5.85195e-05 -0.000997295 0 0.000206193 -0.000502625 0 
0.00020604 -0.000996565 0 0.000751161 -0.00069756 0 0.00073873 -0.000810926 0 
0.000181347 -0.000892326 0 0.000181347 -0.000607674 0 0.000463745 -0.00116094 0 
0.000402255 -0.00033906 0 0.000662471 -0.000504287 0 0.000655871 -0.000984939 0 
0.000455875 -0.000616724 0 0.0004137 -0.000882087 0 0.000302544 -0.000768994 0 
0.000569409 -0.000757172 0 5.91695e-05 -0.000600846 0 5.91695e-05 -0.000899154 0 
0.000666622 -0.000652114 0 0.000763695 -0.000514957 0 0.000761799 -0.000984244 0 
0.000662952 -0.000835018 0 0.000350592 -0.000568457 0 0.000512323 -0.000928683 0 
0.000258513 -0.000671173 0 0.000526882 -0.000581015 0 0.000348994 -0.000924358 0 
0.000269055 -0.00082351 0 0.000340907 -0.00110877 0 0.000525093 -0.000391231 0 
0.000398236 -0.00117211 0 0.000467764 -0.000327887 0 3.77595e-05 -0.000562054 0 
3.77595e-05 -0.000937946 0 7.22902e-05 -0.000748076 0 0.000821959 -0.000561949 0 
0.000823003 -0.000936364 0 0.000497341 -0.00110573 0 0.000369223 -0.000393109 0 
0.000595975 -0.000691792 0 0.000461056 -0.00103343 0 0.000404944 -0.000466574 0 
0.000473579 -0.000463157 0 0.000392458 -0.00103684 0 0.000620449 -0.000442181 0 
0.000248106 -0.00105944 0 0.000791611 -0.000855752 0 0.000796074 -0.00063312 0 
0.000107991 -0.000498667 0 0.000107991 -0.00100133 0 0.000192237 -0.000821247 0 
0.000118309 -0.000897697 0 0.000118584 -0.000602176 0 2.84222e-05 -0.00050946 0 
2.96921e-05 -0.000531169 0 2.84222e-05 -0.00099054 0 2.96921e-05 -0.000968831 0 
0.000584827 -0.000825555 0 0.000620086 -0.00106094 0 0.000172947 -0.000549526 0 
0.000172922 -0.000950417 0 0.000461426 -0.00120076 0 0.000404574 -0.000299236 0 
0.000243934 -0.000438928 0 0.000192001 -0.000675472 0 0.000154074 -0.000745216 0 
0.000787779 -0.000768966 0 0.000588723 -0.000523989 0 0.000809841 -0.000504106 0 
0.000809671 -0.000995397 0 0.000571747 -0.000987513 0 0.000673596 -0.000911853 0 
0.000281249 -0.000981909 0 0.000409717 -0.000660715 0 0.000465934 -0.000841589 0 
0.000524589 -0.000717066 0 0.000342119 -0.000722933 0 0.000280666 -0.000514151 0 
0.000672694 -0.000574319 0 5.82468e-05 -0.000659662 0 5.65752e-05 -0.000839154 0 
0.000386493 -0.000796808 0 0.000361584 -0.000985225 0 0.000499228 -0.000517168 0 
0.000471587 -0.000668913 0 0.000510532 -0.000790014 0 0.000559513 -0.00111068 0 
0.000707209 -0.000752897 0 8.04633e-05 -0.000566736 0 8.04241e-05 -0.000933245 0 
0.000163046 -0.000466483 0 0.000162386 -0.00103563 0 0.000578393 -0.000637387 0 
0.000503901 -0.000990722 0 0.000359102 -0.000508763 0 0.000714127 -0.000859658 0 
0.000304403 -0.00039471 0 0.000712099 -0.000528651 0 0.000710619 -0.000966814 0 
0.000726254 -0.000631789 0 0.000383073 -0.000701841 0 0.000471292 -0.000894636 0 
0.000394708 -0.000605364 0 0.000295143 -0.00071521 0 0.000544105 -0.000886073 0 
0.00030982 -0.000616796 0 0.000226145 -0.000944288 0 0.000307419 -0.000884579 0 
0.000226252 -0.000555158 0 0.000153401 -0.000511968 0 0.000153233 -0.000988282 0 
0.000237471 -0.000619391 0 0.000238317 -0.000879885 0 0.000410377 -0.000831296 0 
0.000352297 -0.000773675 0 0.00071621 -0.000470678 0 0.000708438 -0.00102758 0 
0.00043748 -0.00030453 0 0.00042852 -0.00119547 0 -0.000266167 -0.000909585 0 
-0.00026339 -0.000582669 0 -0.000595526 -0.000581349 0 -0.000595539 -0.000918697 0 
-0.000749174 -0.000957462 0 -0.000749174 -0.000542538 0 -0.000436828 -0.000541202 0 
-0.000633495 -0.000748246 0 -0.000234978 -0.000756491 0 -0.000436828 -0.000958798 0 
-0.0007972 -0.000964286 0 -0.0007972 -0.000535714 0 -0.000131951 -0.000583807 0 
-0.000120576 -0.000920987 0 -0.000440309 -0.00110148 0 -0.000440309 -0.00039852 0 
-0.000540519 -0.000463808 0 -0.000540519 -0.00103619 0 -0.000737497 -0.000826703 0 
-0.000743731 -0.00067341 0 -0.000326361 -0.000455157 0 -0.000326361 -0.00104484 0 
-0.000347939 -0.000834179 0 -0.000344799 -0.000652107 0 -0.000525969 -0.000668056 0 
-0.000528784 -0.000835049 0 -0.00080748 -0.000997295 0 -0.00080748 -0.000502705 0 
-0.00065996 -0.000996565 0 -0.00065996 -0.000503435 0 -0.000114839 -0.00080244 0 
-0.00012727 -0.000689074 0 -0.000684653 -0.000892326 0 -0.000684653 -0.000607674 0 
-0.000402255 -0.00033906 0 -0.000402255 -0.00116094 0 -0.00020379 -0.000996251 0 
-0.000209694 -0.000514898 0 -0.000410601 -0.000616776 0 -0.000414328 -0.000881409 0 
-0.000564489 -0.00077222 0 -0.00030297 -0.0007663 0 -0.000806831 -0.000899154 0 
-0.000806831 -0.000600846 0 -0.000198082 -0.000840386 0 -0.000104201 -0.000515756 0 
-0.000102305 -0.000985043 0 -0.000210482 -0.000662469 0 -0.000512323 -0.000571317 0 
-0.000512323 -0.000928683 0 -0.000607487 -0.000671376 0 -0.000342389 -0.000918878 0 
-0.000339591 -0.000579218 0 -0.000598177 -0.000824513 0 -0.000525093 -0.00110877 0 
-0.000525093 -0.000391231 0 -0.000467764 -0.00117211 0 -0.000467764 -0.000327887 0 
-0.00082824 -0.000937946 0 -0.00082824 -0.000562054 0 -0.000792673 -0.000751208 0 
-4.40406e-05 -0.000938051 0 -4.29968e-05 -0.000563636 0 -0.000368656 -0.000394329 0 
-0.000368656 -0.00110567 0 -0.000404944 -0.000466574 0 -0.000404944 -0.00103343 0 
-0.000274968 -0.000693542 0 -0.000473579 -0.000463157 0 -0.000473579 -0.00103684 0 
-0.000273108 -0.000829102 0 -0.000617905 -0.00105951 0 -0.000617905 -0.00044049 0 
-7.4389e-05 -0.000644248 0 -6.99258e-05 -0.00086688 0 -0.000758009 -0.00100133 0 
-0.000758009 -0.000498667 0 -0.000674521 -0.00082321 0 -0.000747394 -0.000897802 0 
-0.000747848 -0.000602206 0 -0.000837578 -0.00099054 0 -0.000836308 -0.000968831 0 
-0.000837578 -0.00050946 0 -0.000836308 -0.000531169 0 -0.00024589 -0.000439066 0 
-0.000241075 -0.0010584 0 -0.000693065 -0.000950422 0 -0.000693085 -0.000549579 0 
-0.000404574 -0.00120076 0 -0.000404574 -0.000299236 0 -0.000672818 -0.000679103 0 
-0.000714008 -0.000755903 0 -7.82213e-05 -0.000731034 0 -5.6329e-05 -0.000504603 0 
-5.61586e-05 -0.000995894 0 -0.000275796 -0.000980896 0 -0.000285676 -0.000513219 0 
-0.000186165 -0.000585602 0 -0.000584291 -0.000982673 0 -0.00058429 -0.000517332 0 
-0.00045634 -0.000660721 0 -0.000464193 -0.000839596 0 -0.00034177 -0.000716972 0 
-0.000523385 -0.000727952 0 -0.000193444 -0.000925069 0 -0.000807637 -0.00084025 0 
-0.000810429 -0.000661252 0 -0.000386833 -0.000795991 0 -0.000394413 -0.000668913 0 
-0.000509958 -0.000787971 0 -0.000305514 -0.00111008 0 -0.000306477 -0.00038941 0 
-0.000362249 -0.00098716 0 -0.00035868 -0.000511074 0 -0.000160645 -0.000746982 0 
-0.000509508 -0.000511363 0 -0.000509508 -0.000988638 0 -0.00028739 -0.000637604 0 
-0.000785534 -0.00093326 0 -0.000785598 -0.000566741 0 -0.000703615 -0.00103564 0 
-0.000703615 -0.000464361 0 -0.000148903 -0.000636616 0 -0.00015636 -0.000534148 0 
-0.000153981 -0.000971334 0 -0.000139581 -0.000867053 0 -0.000482839 -0.000702846 0 
-0.000471292 -0.000605364 0 -0.000471292 -0.000894636 0 -0.000570965 -0.00071757 0 
-0.000554433 -0.000615103 0 -0.000553903 -0.000884892 0 -0.000639788 -0.00094438 0 
-0.000639768 -0.0005557 0 -0.000307401 -0.000872936 0 -0.000712765 -0.000988284 0 
-0.000712769 -0.000511716 0 -0.000628213 -0.000619733 0 -0.000630855 -0.000879083 0 
-0.000409259 -0.000828735 0 -0.000354002 -0.000772688 0 -0.000155373 -0.000471972 0 
-0.000153127 -0.00102904 0 -0.00043748 -0.00030453 0 -0.00043748 -0.00119547 0 
-0.000699167 -0.000159585 0 -0.00102828 0.000168837 0 -0.000700039 0.000165961 0 
-0.00102854 -0.000168697 0 -0.00118217 0.000207462 0 -0.00118217 -0.000207462 0 
-0.000867762 0.00020878 0 -0.00106649 5.10348e-06 0 -0.000667978 -6.49099e-06 0 
-0.000869828 -0.000208798 0 -0.0012302 0.000214286 0 -0.0012302 -0.000214286 0 
-0.000564951 0.000166193 0 -0.000553576 -0.000170987 0 -0.000873309 -0.00035148 0 
-0.000858691 0.00035148 0 -0.000756768 0.000285545 0 -0.000973519 -0.000286192 0 
-0.00117081 7.69979e-05 0 -0.00117457 -7.52569e-05 0 -0.000759361 -0.000294843 0 
-0.00097093 0.000296588 0 -0.000780939 -8.41794e-05 0 -0.000958969 8.1944e-05 0 
-0.000777799 9.78925e-05 0 -0.000961784 -8.5049e-05 0 -0.00124048 0.000247295 0 
-0.00124048 -0.000247295 0 -0.00109281 0.000247375 0 -0.00109296 -0.000246565 0 
-0.000547839 -5.24395e-05 0 -0.00056027 6.09258e-05 0 -0.00111765 0.000142326 0 
-0.00111765 -0.000142326 0 -0.000835255 -0.00041094 0 -0.000896745 0.00041094 0 
-0.00063679 -0.000246251 0 -0.000636522 0.000241816 0 -0.000843256 0.000133221 0 
-0.000847328 -0.000131409 0 -0.000997489 -2.16615e-05 0 -0.00073597 -1.62999e-05 0 
-0.00123983 0.000149154 0 -0.00123983 -0.000149154 0 -0.000631082 -9.03863e-05 0 
-0.000535305 -0.000235043 0 -0.000537201 0.000234244 0 -0.000642398 9.28059e-05 0 
-0.000948408 0.000181543 0 -0.000945323 -0.000178683 0 -0.00104049 7.88274e-05 0 
-0.000775389 -0.000168878 0 -0.000772841 0.000169495 0 -0.00103118 -7.38619e-05 0 
-0.000958093 -0.000358769 0 -0.000773907 0.000358769 0 -0.000900764 -0.000422113 0 
-0.000831236 0.000422113 0 -0.00126124 0.000187946 0 -0.00126124 -0.000187946 0 
-0.00122671 1.92365e-06 0 -0.000477041 -0.000188051 0 -0.000475997 0.000186364 0 
-0.000801656 -0.000355671 0 -0.000929777 0.000356891 0 -0.000837944 -0.000283426 0 
-0.000894056 0.000283426 0 -0.000707968 5.64575e-05 0 -0.000825421 0.000286843 0 
-0.000906579 -0.000286843 0 -0.000678551 0.000307262 0 -0.000706108 -7.91024e-05 0 
-0.0010509 -0.00030951 0 -0.000507389 0.000105752 0 -0.000502926 -0.00011688 0 
-0.00119101 0.000251333 0 -0.00119101 -0.000251333 0 -0.00110684 -7.12684e-05 0 
-0.00118042 0.000147824 0 -0.00118069 -0.000147697 0 -0.00127058 0.00024054 0 
-0.00126931 0.000218831 0 -0.00127058 -0.00024054 0 -0.00126931 -0.000218831 0 
-0.000674075 -0.0003084 0 -0.00112605 0.000200474 0 -0.00112608 -0.000200417 0 
-0.000837574 -0.000450764 0 -0.000894426 0.000450764 0 -0.00105507 0.000311072 0 
-0.001107 7.45278e-05 0 -0.00114494 4.78174e-06 0 -0.000511221 1.89656e-05 0 
-0.000703503 0.000232229 0 -0.000489329 0.000245397 0 -0.000489159 -0.000245894 0 
-0.000708796 -0.000230896 0 -0.000631208 0.000171119 0 -0.00101729 -0.000232673 0 
-0.000889299 8.92785e-05 0 -0.000897193 -8.95957e-05 0 -0.00077477 3.30279e-05 0 
-0.000956385 2.2115e-05 0 -0.00101833 0.000235849 0 -0.000626444 -0.000175069 0 
-0.00124075 9.03378e-05 0 -0.00124242 -8.91537e-05 0 -0.000819833 -4.59906e-05 0 
-0.000799772 0.000232832 0 -0.000827413 8.10868e-05 0 -0.000942958 -3.79434e-05 0 
-0.000738514 -0.000360083 0 -0.000795249 -0.00023716 0 -0.000593465 3.89675e-06 0 
-0.000942508 -0.000238638 0 -0.00072039 0.000112396 0 -0.00121854 0.000183264 0 
-0.00121858 -0.000183245 0 -0.00113595 0.000283517 0 -0.00113662 -0.000285639 0 
-0.000939898 0.000241237 0 -0.00058355 0.000113194 0 -0.000994597 0.00035529 0 
-0.000586981 -0.000221334 0 -0.000588267 0.00021912 0 -0.000572581 -0.000117053 0 
-0.00091583 4.71675e-05 0 -0.000904292 -0.000144636 0 -0.000904292 0.000144636 0 
-0.00100396 3.32657e-05 0 -0.00098918 0.000133204 0 -0.000986047 -0.000136339 0 
-0.00107279 -0.00019438 0 -0.000740401 -0.000122936 0 -0.00107275 0.000194842 0 
-0.0011456 0.000238032 0 -0.00114577 -0.000238283 0 -0.00106153 0.000130609 0 
-0.00106376 -0.000129013 0 -0.000842259 -7.8735e-05 0 -0.000787002 -2.26884e-05 0 
-0.000586448 0.000278672 0 -0.000586127 -0.000279044 0 -0.00087048 -0.00044547 0 
-0.00086152 0.00044547 0 -0.000266167 0.000590415 0 -0.000267039 0.000915961 0 
-0.000595277 0.000918837 0 -0.000595539 0.000581303 0 -0.000749174 0.000542538 0 
-0.000749174 0.000957462 0 -0.000434763 0.00095878 0 -0.000633495 0.000751754 0 
-0.000234978 0.000743509 0 -0.000436828 0.000541202 0 -0.0007972 0.000535714 0 
-0.0007972 0.000964286 0 -0.000131951 0.000916193 0 -0.000120576 0.000579013 0 
-0.000440309 0.00039852 0 -0.000425691 0.00110148 0 -0.000323768 0.00103554 0 
-0.000540519 0.000463808 0 -0.000737497 0.000673297 0 -0.000743731 0.00082659 0 
-0.000326361 0.000455157 0 -0.00053793 0.00104659 0 -0.000347939 0.000665821 0 
-0.000344799 0.000847893 0 -0.000525969 0.000831944 0 -0.000528784 0.000664951 0 
-0.00080748 0.000502705 0 -0.00080748 0.000997295 0 -0.00065996 0.000503435 0 
-0.000659807 0.000997375 0 -0.000114839 0.00069756 0 -0.00012727 0.000810926 0 
-0.000684653 0.000607674 0 -0.000684653 0.000892326 0 -0.000402255 0.00033906 0 
-0.000463745 0.00116094 0 -0.00020379 0.000503749 0 -0.000203522 0.000991815 0 
-0.000410256 0.000883221 0 -0.000414328 0.000618591 0 -0.000564489 0.00072778 0 
-0.00030297 0.0007337 0 -0.000806831 0.000600846 0 -0.000806831 0.000899154 0 
-0.000198082 0.000659614 0 -0.000104201 0.000984244 0 -0.000102305 0.000514957 0 
-0.000209398 0.000842806 0 -0.000515408 0.000931543 0 -0.000512323 0.000571317 0 
-0.000607487 0.000828624 0 -0.000342389 0.000581122 0 -0.000339841 0.000919495 0 
-0.000598177 0.000675487 0 -0.000525093 0.000391231 0 -0.000340907 0.00110877 0 
-0.000398236 0.00117211 0 -0.000467764 0.000327887 0 -0.00082824 0.000562054 0 
-0.00082824 0.000937946 0 -0.000792673 0.000748792 0 -4.40406e-05 0.000561949 0 
-4.29968e-05 0.000936364 0 -0.000368656 0.000394329 0 -0.000496777 0.00110689 0 
-0.000404944 0.000466574 0 -0.000461056 0.00103343 0 -0.000274968 0.000806458 0 
-0.000392421 0.00103684 0 -0.000473579 0.000463157 0 -0.000245551 0.00105726 0 
-0.000273108 0.000670898 0 -0.000617905 0.00044049 0 -7.4389e-05 0.000855752 0 
-6.99258e-05 0.00063312 0 -0.000758009 0.000498667 0 -0.000758009 0.00100133 0 
-0.000674521 0.00067679 0 -0.000747394 0.000602198 0 -0.000747848 0.000897794 0 
-0.000837578 0.00050946 0 -0.000836308 0.000531169 0 -0.000837578 0.00099054 0 
-0.000836308 0.000968831 0 -0.000241075 0.0004416 0 -0.000693065 0.000549578 0 
-0.000693072 0.000950473 0 -0.000404574 0.000299236 0 -0.000461426 0.00120076 0 
-0.000622066 0.00106107 0 -0.000672818 0.000820897 0 -0.000714008 0.000744097 0 
-7.82213e-05 0.000768966 0 -0.000270503 0.000982229 0 -5.6329e-05 0.000995397 0 
-5.61586e-05 0.000504106 0 -0.000275796 0.000519104 0 -0.000198208 0.000921119 0 
-0.000584291 0.000517327 0 -0.000456299 0.000839279 0 -0.000464193 0.000660404 0 
-0.00034177 0.000783028 0 -0.000523385 0.000772048 0 -0.000585334 0.000985849 0 
-0.000193444 0.000574931 0 -0.000807637 0.00065975 0 -0.000810429 0.000838748 0 
-0.000386833 0.000704009 0 -0.000366772 0.000982832 0 -0.000394413 0.000831087 0 
-0.000509958 0.000712029 0 -0.000305514 0.000389917 0 -0.000362249 0.00051284 0 
-0.000160465 0.000753897 0 -0.000509508 0.000511362 0 -0.00028739 0.000862396 0 
-0.000785534 0.00056674 0 -0.000785598 0.000933259 0 -0.000703615 0.000464361 0 
-0.000702954 0.00103352 0 -0.000506898 0.000991237 0 -0.00015055 0.000863194 0 
-0.000561597 0.00110529 0 -0.000153981 0.000528666 0 -0.000155267 0.00096912 0 
-0.000139581 0.000632947 0 -0.00048283 0.000797154 0 -0.000471292 0.000894636 0 
-0.000471292 0.000605364 0 -0.000570965 0.00078243 0 -0.00055618 0.00088318 0 
-0.000553903 0.000615108 0 -0.000639788 0.00055562 0 -0.000307401 0.000627064 0 
-0.00063975 0.000944842 0 -0.000712765 0.000511716 0 -0.000712603 0.000988032 0 
-0.000628389 0.00088015 0 -0.000630855 0.000620917 0 -0.000409259 0.000671265 0 
-0.000354002 0.000727312 0 -0.000153448 0.00102867 0 -0.000153127 0.000470956 0 
-0.00042852 0.00119547 0 -0.00043748 0.00030453 0 0.000166833 -0.000159585 -0.0005 
0.000165961 0.000165961 -0.0005 -0.000162277 0.000168837 -0.0005 -0.000162539 -0.000168697 -0.0005 
-0.000316174 -0.000207462 -0.0005 -0.000316174 0.000207462 -0.0005 -1.7625e-06 0.00020878 -0.0005 
-0.000200494 5.10348e-06 -0.0005 0.000198022 -6.49099e-06 -0.0005 -3.82827e-06 -0.000208798 -0.0005 
-0.0003642 0.000214286 -0.0005 -0.0003642 -0.000214286 -0.0005 0.000301049 0.000166193 -0.0005 
0.000312424 -0.000170987 -0.0005 -7.30908e-06 -0.00035148 -0.0005 7.30908e-06 0.00035148 -0.0005 
0.000109232 0.000285545 -0.0005 -0.000107519 -0.000286192 -0.0005 -0.000304808 7.69979e-05 -0.0005 
-0.000308572 -7.52569e-05 -0.0005 0.000106639 -0.000294843 -0.0005 -0.00010493 0.000296588 -0.0005 
8.50608e-05 -8.41794e-05 -0.0005 8.82006e-05 9.78925e-05 -0.0005 -9.29688e-05 8.1944e-05 -0.0005 
-9.5784e-05 -8.5049e-05 -0.0005 -0.00037448 0.000247295 -0.0005 -0.00037448 -0.000247295 -0.0005 
-0.000226807 0.000247375 -0.0005 -0.00022696 -0.000246565 -0.0005 0.000318161 -5.24395e-05 -0.0005 
0.00030573 6.09258e-05 -0.0005 -0.000251653 -0.000142326 -0.0005 -0.000251653 0.000142326 -0.0005 
3.07451e-05 -0.00041094 -0.0005 -3.07451e-05 0.00041094 -0.0005 0.00022921 -0.000246251 -0.0005 
0.000229478 0.000241816 -0.0005 2.27436e-05 0.000133221 -0.0005 1.86722e-05 -0.000131409 -0.0005 
-0.000131489 -2.16615e-05 -0.0005 0.00013003 -1.62999e-05 -0.0005 -0.00037383 0.000149154 -0.0005 
-0.00037383 -0.000149154 -0.0005 0.000234918 -9.03863e-05 -0.0005 0.000328799 0.000234244 -0.0005 
0.000330695 -0.000235043 -0.0005 0.000223602 9.28059e-05 -0.0005 -8.24081e-05 0.000181543 -0.0005 
-7.93229e-05 -0.000178683 -0.0005 -0.000174487 7.88274e-05 -0.0005 9.06107e-05 -0.000168878 -0.0005 
9.31592e-05 0.000169495 -0.0005 -0.000165177 -7.38619e-05 -0.0005 -9.20929e-05 -0.000358769 -0.0005 
9.20929e-05 0.000358769 -0.0005 3.47644e-05 0.000422113 -0.0005 -3.47644e-05 -0.000422113 -0.0005 
-0.00039524 0.000187946 -0.0005 -0.00039524 -0.000187946 -0.0005 -0.00036071 1.92365e-06 -0.0005 
0.000388959 -0.000188051 -0.0005 0.000390003 0.000186364 -0.0005 6.43444e-05 -0.000355671 -0.0005 
-6.37768e-05 0.000356891 -0.0005 2.80563e-05 -0.000283426 -0.0005 -2.80563e-05 0.000283426 -0.0005 
0.000158032 5.64575e-05 -0.0005 4.0579e-05 0.000286843 -0.0005 -4.0579e-05 -0.000286843 -0.0005 
0.000187449 0.000307262 -0.0005 0.000159892 -7.91024e-05 -0.0005 -0.000184905 -0.00030951 -0.0005 
0.000358611 0.000105752 -0.0005 0.000363074 -0.00011688 -0.0005 -0.000325009 0.000251333 -0.0005 
-0.000325009 -0.000251333 -0.0005 -0.000240838 -7.12684e-05 -0.0005 -0.000314691 -0.000147697 -0.0005 
-0.000314417 0.000147824 -0.0005 -0.000404578 0.00024054 -0.0005 -0.000403308 0.000218831 -0.0005 
-0.000404578 -0.00024054 -0.0005 -0.000403308 -0.000218831 -0.0005 0.000191925 -0.0003084 -0.0005 
-0.000260053 0.000200474 -0.0005 -0.000260078 -0.000200417 -0.0005 -2.84262e-05 0.000450764 -0.0005 
2.84262e-05 -0.000450764 -0.0005 -0.000189066 0.000311072 -0.0005 -0.000240999 7.45278e-05 -0.0005 
-0.000278935 4.78174e-06 -0.0005 0.000354779 1.89656e-05 -0.0005 0.000162497 0.000232229 -0.0005 
0.000376671 0.000245397 -0.0005 0.000376841 -0.000245894 -0.0005 0.000157204 -0.000230896 -0.0005 
0.000234792 0.000171119 -0.0005 -0.000151291 -0.000232673 -0.0005 -2.32986e-05 8.92785e-05 -0.0005 
-3.11926e-05 -8.95957e-05 -0.0005 -9.03847e-05 2.2115e-05 -0.0005 9.12302e-05 3.30279e-05 -0.0005 
-0.000152334 0.000235849 -0.0005 0.000239556 -0.000175069 -0.0005 -0.000374753 9.03378e-05 -0.0005 
-0.000376425 -8.91537e-05 -0.0005 4.61669e-05 -4.59906e-05 -0.0005 6.62281e-05 0.000232832 -0.0005 
3.85868e-05 8.10868e-05 -0.0005 -7.69579e-05 -3.79434e-05 -0.0005 0.000127486 -0.000360083 -0.0005 
7.07506e-05 -0.00023716 -0.0005 0.000272535 3.89675e-06 -0.0005 -7.65081e-05 -0.000238638 -0.0005 
0.00014561 0.000112396 -0.0005 -0.000352537 0.000183264 -0.0005 -0.000352576 -0.000183245 -0.0005 
-0.000270615 -0.000285639 -0.0005 -0.000269954 0.000283517 -0.0005 -7.38981e-05 0.000241237 -0.0005 
0.00028245 0.000113194 -0.0005 -0.000128597 0.00035529 -0.0005 0.000277733 0.00021912 -0.0005 
0.000279019 -0.000221334 -0.0005 0.000293419 -0.000117053 -0.0005 -4.98304e-05 4.71675e-05 -0.0005 
-3.82924e-05 0.000144636 -0.0005 -3.82924e-05 -0.000144636 -0.0005 -0.000137965 3.32657e-05 -0.0005 
-0.00012318 0.000133204 -0.0005 -0.000120047 -0.000136339 -0.0005 -0.000206789 -0.00019438 -0.0005 
0.000125599 -0.000122936 -0.0005 -0.000206748 0.000194842 -0.0005 -0.000279599 0.000238032 -0.0005 
-0.000279767 -0.000238283 -0.0005 -0.000195529 0.000130609 -0.0005 -0.000197761 -0.000129013 -0.0005 
2.37414e-05 -7.8735e-05 -0.0005 7.89976e-05 -2.26884e-05 -0.0005 0.000279552 0.000278672 -0.0005 
0.000279873 -0.000279044 -0.0005 4.48012e-06 0.00044547 -0.0005 -4.48012e-06 -0.00044547 -0.0005 
0.000598961 0.000584039 -0.0005 0.000602744 0.00091226 -0.0005 0.000270474 0.000918651 -0.0005 
0.000270149 0.000581615 -0.0005 0.000116826 0.000957462 -0.0005 0.000116826 0.000542538 -0.0005 
0.000429172 0.000958798 -0.0005 0.000232505 0.000755103 -0.0005 0.000636012 0.000747201 -0.0005 
0.000434763 0.00054122 -0.0005 6.87997e-05 0.000964286 -0.0005 6.87997e-05 0.000535714 -0.0005 
0.000745424 0.000920987 -0.0005 0.000734049 0.000583807 -0.0005 0.000425691 0.00039852 -0.0005 
0.000425691 0.00110148 -0.0005 0.000325481 0.00103619 -0.0005 0.00032556 0.000464273 -0.0005 
0.000128192 0.000826998 -0.0005 0.000124428 0.000674743 -0.0005 0.000539639 0.00104484 -0.0005 
0.000539618 0.000454793 -0.0005 0.000520463 0.000653783 -0.0005 0.000521988 0.00084822 -0.0005 
0.000340031 0.000831944 -0.0005 0.00034624 0.000661734 -0.0005 5.85195e-05 0.000997295 -0.0005 
5.85195e-05 0.000502705 -0.0005 0.00020604 0.000996565 -0.0005 0.00020604 0.000503435 -0.0005 
0.000751161 0.00080244 -0.0005 0.00073873 0.000689074 -0.0005 0.000181347 0.000607674 -0.0005 
0.000181347 0.000892326 -0.0005 0.000463745 0.00033906 -0.0005 0.000463745 0.00116094 -0.0005 
0.00066221 0.000996251 -0.0005 0.000655871 0.000515061 -0.0005 0.000455531 0.000883279 -0.0005 
0.0004137 0.000617913 -0.0005 0.000302544 0.000731006 -0.0005 0.000569409 0.000742828 -0.0005 
5.91695e-05 0.000899154 -0.0005 5.91695e-05 0.000600846 -0.0005 0.000666622 0.000847886 -0.0005 
0.000763695 0.000985043 -0.0005 0.000761799 0.000515756 -0.0005 0.000662952 0.000664982 -0.0005 
0.000353677 0.000928683 -0.0005 0.000512323 0.000571317 -0.0005 0.000258513 0.000828827 -0.0005 
0.000526529 0.000920143 -0.0005 0.000348994 0.000575642 -0.0005 0.000269055 0.00067649 -0.0005 
0.000340907 0.000391231 -0.0005 0.000340907 0.00110877 -0.0005 0.000398236 0.00117211 -0.0005 
0.000398236 0.000327887 -0.0005 3.77595e-05 0.000937946 -0.0005 3.77595e-05 0.000562054 -0.0005 
7.22902e-05 0.000751924 -0.0005 0.000821959 0.000938051 -0.0005 0.000823003 0.000563636 -0.0005 
0.000497344 0.00110567 -0.0005 0.000497341 0.000394268 -0.0005 0.000595975 0.000808208 -0.0005 
0.000461056 0.000466574 -0.0005 0.000461056 0.00103343 -0.0005 0.000392421 0.00103684 -0.0005 
0.000392458 0.000463164 -0.0005 0.000248106 0.000440556 -0.0005 0.000248095 0.00105951 -0.0005 
0.000791611 0.000644248 -0.0005 0.000796074 0.00086688 -0.0005 0.000107991 0.00100133 -0.0005 
0.000107991 0.000498667 -0.0005 0.000192237 0.000678753 -0.0005 0.000118309 0.000602303 -0.0005 
0.000118584 0.000897824 -0.0005 2.84222e-05 0.00099054 -0.0005 2.96921e-05 0.000968831 -0.0005 
2.84222e-05 0.00050946 -0.0005 2.96921e-05 0.000531169 -0.0005 0.000584827 0.000674445 -0.0005 
0.000624925 0.0010584 -0.0005 0.000620086 0.000439056 -0.0005 0.000172934 0.000950423 -0.0005 
0.000172922 0.000549583 -0.0005 0.000461426 0.00120076 -0.0005 0.000461426 0.000299236 -0.0005 
0.000192001 0.000824528 -0.0005 0.000154074 0.000754784 -0.0005 0.000787779 0.000731034 -0.0005 
0.000809841 0.000995894 -0.0005 0.000809671 0.000504603 -0.0005 0.000589469 0.00097835 -0.0005 
0.000571747 0.000512487 -0.0005 0.000673596 0.000588147 -0.0005 0.000281249 0.000518091 -0.0005 
0.00028171 0.000982668 -0.0005 0.000409676 0.000839285 -0.0005 0.000465934 0.000658411 -0.0005 
0.000524589 0.000782934 -0.0005 0.000342119 0.000777068 -0.0005 0.000672682 0.000926159 -0.0005 
5.82468e-05 0.000840338 -0.0005 5.65752e-05 0.000660846 -0.0005 0.000386493 0.000703192 -0.0005 
0.000361584 0.000514775 -0.0005 0.000471587 0.000831087 -0.0005 0.000510532 0.000709986 -0.0005 
0.000559513 0.000389323 -0.0005 0.000560486 0.00111008 -0.0005 0.000503751 0.00098716 -0.0005 
0.000707209 0.000747103 -0.0005 0.000356492 0.000988637 -0.0005 8.04633e-05 0.000933264 -0.0005 
8.04241e-05 0.000566755 -0.0005 0.000162386 0.000464369 -0.0005 0.000162385 0.00103564 -0.0005 
0.000578393 0.000862613 -0.0005 0.000503901 0.000509278 -0.0005 0.000714127 0.000640342 -0.0005 
0.000712044 0.000971552 -0.0005 0.000710619 0.000533186 -0.0005 0.000726252 0.00086828 -0.0005 
0.000383065 0.000798159 -0.0005 0.000471292 0.000605364 -0.0005 0.000394708 0.000894636 -0.0005 
0.000295143 0.00078479 -0.0005 0.000311567 0.000884914 -0.0005 0.000544105 0.000613927 -0.0005 
0.000226145 0.000555712 -0.0005 0.000226234 0.0009443 -0.0005 0.000307419 0.000615421 -0.0005 
0.000153235 0.000988284 -0.0005 0.000153233 0.000511718 -0.0005 0.000237647 0.000880726 -0.0005 
0.000238317 0.000620115 -0.0005 0.000410377 0.000668704 -0.0005 0.000352297 0.000726325 -0.0005 
0.000712874 0.00102905 -0.0005 0.000708438 0.00047242 -0.0005 0.00042852 0.00030453 -0.0005 
0.00042852 0.00119547 -0.0005 0.00103283 -0.000159585 -0.0005 0.00103196 0.000165961 -0.0005 
0.00070371 0.000168883 -0.0005 0.000703474 -0.000168651 -0.0005 0.000549826 0.000207462 -0.0005 
0.000549826 -0.000207462 -0.0005 0.000864237 0.00020878 -0.0005 0.000665505 -1.75358e-06 -0.0005 
0.00106402 -6.49099e-06 -0.0005 0.000862172 -0.000208798 -0.0005 0.0005018 0.000214286 -0.0005 
0.0005018 -0.000214286 -0.0005 0.00117842 -0.000170987 -0.0005 0.00116705 0.000166193 -0.0005 
0.000858691 -0.00035148 -0.0005 0.000873309 0.00035148 -0.0005 0.000975232 0.000285545 -0.0005 
0.000758481 -0.000286192 -0.0005 0.000561503 7.6703e-05 -0.0005 0.000555269 -7.65899e-05 -0.0005 
0.000972639 -0.000294843 -0.0005 0.00076107 0.000296588 -0.0005 0.000951061 -8.41794e-05 -0.0005 
0.000954201 9.78925e-05 -0.0005 0.000770216 8.5049e-05 -0.0005 0.000773031 -8.1944e-05 -0.0005 
0.00049152 0.000247295 -0.0005 0.00049152 -0.000247295 -0.0005 0.000639193 0.000247375 -0.0005 
0.00063904 -0.000246565 -0.0005 0.00118416 -5.24395e-05 -0.0005 0.00117173 6.09258e-05 -0.0005 
0.000614347 -0.000142326 -0.0005 0.000614347 0.000142326 -0.0005 0.000896745 -0.00041094 -0.0005 
0.000835255 0.00041094 -0.0005 0.00109521 -0.000246251 -0.0005 0.00109548 0.000241816 -0.0005 
0.000888744 0.000133221 -0.0005 0.000884672 -0.000131409 -0.0005 0.000734511 2.22198e-05 -0.0005 
0.00099603 -1.62999e-05 -0.0005 0.00049217 0.000149154 -0.0005 0.00049217 -0.000149154 -0.0005 
0.00110092 -9.03863e-05 -0.0005 0.0011967 -0.000235043 -0.0005 0.0011948 0.000234244 -0.0005 
0.0010896 9.28059e-05 -0.0005 0.000783591 0.000181545 -0.0005 0.000786677 -0.000178683 -0.0005 
0.000691513 -7.86239e-05 -0.0005 0.000956611 -0.000168878 -0.0005 0.000959159 0.000169495 -0.0005 
0.000700823 7.45132e-05 -0.0005 0.000773907 -0.000358769 -0.0005 0.000958093 0.000358769 -0.0005 
0.000900764 0.000422113 -0.0005 0.000831236 -0.000422113 -0.0005 0.00047076 0.000187946 -0.0005 
0.00047076 -0.000187946 -0.0005 0.000506327 1.20793e-06 -0.0005 0.00125496 -0.000188051 -0.0005 
0.001256 0.000186364 -0.0005 0.000930344 -0.000355671 -0.0005 0.000802223 0.000356891 -0.0005 
0.000894056 -0.000283426 -0.0005 0.000837944 0.000283426 -0.0005 0.00102403 5.64575e-05 -0.0005 
0.000906579 0.000286843 -0.0005 0.000825421 -0.000286843 -0.0005 0.00105345 0.000307262 -0.0005 
0.00102589 -7.91024e-05 -0.0005 0.000681095 -0.00030951 -0.0005 0.00122461 0.000105752 -0.0005 
0.00122907 -0.00011688 -0.0005 0.000540991 0.000251333 -0.0005 0.000540991 -0.000251333 -0.0005 
0.000624479 7.32103e-05 -0.0005 0.000551152 -0.000147794 -0.0005 0.000551606 0.000147802 -0.0005 
0.000461422 0.00024054 -0.0005 0.000462692 0.000218831 -0.0005 0.000461422 -0.00024054 -0.0005 
0.000462692 -0.000218831 -0.0005 0.00105793 -0.0003084 -0.0005 0.000605948 0.000200473 -0.0005 
0.000605915 -0.000200421 -0.0005 0.000894426 -0.000450764 -0.0005 0.000837574 0.000450764 -0.0005 
0.000676934 0.000311072 -0.0005 0.000626182 -7.08972e-05 -0.0005 0.000584992 5.90258e-06 -0.0005 
0.00122078 1.89656e-05 -0.0005 0.0010285 0.000232229 -0.0005 0.00124284 -0.000245894 -0.0005 
0.00124267 0.000245397 -0.0005 0.0010232 -0.000230896 -0.0005 0.00110079 0.000171119 -0.0005 
0.00071471 -0.000232668 -0.0005 0.000834965 9.05283e-05 -0.0005 0.000842673 -8.85226e-05 -0.0005 
0.00095723 3.30279e-05 -0.0005 0.000775615 -2.20485e-05 -0.0005 0.000713665 0.000235853 -0.0005 
0.00110556 -0.000175069 -0.0005 0.000491363 9.025e-05 -0.0005 0.000488571 -8.87482e-05 -0.0005 
0.000912167 -4.59906e-05 -0.0005 0.000932228 0.000232832 -0.0005 0.000904587 8.10868e-05 -0.0005 
0.000789049 3.8011e-05 -0.0005 0.000993486 -0.000360083 -0.0005 0.000936751 -0.00023716 -0.0005 
0.00113854 3.89675e-06 -0.0005 0.000789492 -0.000238637 -0.0005 0.00101161 0.000112396 -0.0005 
0.000513466 0.00018326 -0.0005 0.000513402 -0.000183259 -0.0005 0.000596046 0.000283517 -0.0005 
0.000595385 -0.000285639 -0.0005 0.000792102 0.000241238 -0.0005 0.00114845 0.000113194 -0.0005 
0.000737403 0.00035529 -0.0005 0.00114502 -0.000221334 -0.0005 0.00114373 0.00021912 -0.0005 
0.00115942 -0.000117053 -0.0005 0.000816164 -4.7003e-05 -0.0005 0.000827708 0.000144636 -0.0005 
0.000827708 -0.000144636 -0.0005 0.000728035 -3.243e-05 -0.0005 0.00074578 0.000136564 -0.0005 
0.000744567 -0.000134897 -0.0005 0.000659232 -0.0001943 -0.0005 0.000991599 -0.000122936 -0.0005 
0.00065923 0.000194923 -0.0005 0.000586401 0.000238032 -0.0005 0.000586231 -0.000238284 -0.0005 
0.000670788 -0.000130267 -0.0005 0.000668203 0.000129229 -0.0005 0.000889614 -8.00602e-05 -0.0005 
0.000944998 -2.26884e-05 -0.0005 0.00114587 -0.000279044 -0.0005 0.00114555 0.000278672 -0.0005 
0.00087048 0.00044547 -0.0005 0.00086152 -0.00044547 -0.0005 0.000598961 -0.000915961 -0.0005 
0.000603317 -0.000588209 -0.0005 0.000270723 -0.000581163 -0.0005 0.000270149 -0.000918385 -0.0005 
0.000116826 -0.000542538 -0.0005 0.000116826 -0.000957462 -0.0005 0.000431238 -0.00054122 -0.0005 
0.000232505 -0.000744897 -0.0005 0.000636012 -0.000752799 -0.0005 0.000434763 -0.00095878 -0.0005 
6.87997e-05 -0.000535714 -0.0005 6.87997e-05 -0.000964286 -0.0005 0.000745424 -0.000579013 -0.0005 
0.000734049 -0.000916193 -0.0005 0.000425691 -0.00110148 -0.0005 0.000440309 -0.00039852 -0.0005 
0.000542232 -0.000464455 -0.0005 0.00032556 -0.00103573 -0.0005 0.000128192 -0.000673002 -0.0005 
0.000124428 -0.000825257 -0.0005 0.000539618 -0.00104521 -0.0005 0.00032807 -0.000453412 -0.0005 
0.000520463 -0.000846217 -0.0005 0.000521988 -0.00065178 -0.0005 0.000340031 -0.000668056 -0.0005 
0.00034624 -0.000838266 -0.0005 5.85195e-05 -0.000502705 -0.0005 5.85195e-05 -0.000997295 -0.0005 
0.000206193 -0.000502625 -0.0005 0.00020604 -0.000996565 -0.0005 0.000751161 -0.00069756 -0.0005 
0.00073873 -0.000810926 -0.0005 0.000181347 -0.000892326 -0.0005 0.000181347 -0.000607674 -0.0005 
0.000463745 -0.00116094 -0.0005 0.000402255 -0.00033906 -0.0005 0.000662471 -0.000504287 -0.0005 
0.000655871 -0.000984939 -0.0005 0.000455875 -0.000616724 -0.0005 0.0004137 -0.000882087 -0.0005 
0.000302544 -0.000768994 -0.0005 0.000569409 -0.000757172 -0.0005 5.91695e-05 -0.000600846 -0.0005 
5.91695e-05 -0.000899154 -0.0005 0.000666622 -0.000652114 -0.0005 0.000763695 -0.000514957 -0.0005 
0.000761799 -0.000984244 -0.0005 0.000662952 -0.000835018 -0.0005 0.000350592 -0.000568457 -0.0005 
0.000512323 -0.000928683 -0.0005 0.000258513 -0.000671173 -0.0005 0.000526882 -0.000581015 -0.0005 
0.000348994 -0.000924358 -0.0005 0.000269055 -0.00082351 -0.0005 0.000340907 -0.00110877 -0.0005 
0.000525093 -0.000391231 -0.0005 0.000398236 -0.00117211 -0.0005 0.000467764 -0.000327887 -0.0005 
3.77595e-05 -0.000562054 -0.0005 3.77595e-05 -0.000937946 -0.0005 7.22902e-05 -0.000748076 -0.0005 
0.000821959 -0.000561949 -0.0005 0.000823003 -0.000936364 -0.0005 0.000497341 -0.00110573 -0.0005 
0.000369223 -0.000393109 -0.0005 0.000595975 -0.000691792 -0.0005 0.000461056 -0.00103343 -0.0005 
0.000404944 -0.000466574 -0.0005 0.000473579 -0.000463157 -0.0005 0.000392458 -0.00103684 -0.0005 
0.000620449 -0.000442181 -0.0005 0.000248106 -0.00105944 -0.0005 0.000791611 -0.000855752 -0.0005 
0.000796074 -0.00063312 -0.0005 0.000107991 -0.000498667 -0.0005 0.000107991 -0.00100133 -0.0005 
0.000192237 -0.000821247 -0.0005 0.000118309 -0.000897697 -0.0005 0.000118584 -0.000602176 -0.0005 
2.84222e-05 -0.00050946 -0.0005 2.96921e-05 -0.000531169 -0.0005 2.84222e-05 -0.00099054 -0.0005 
2.96921e-05 -0.000968831 -0.0005 0.000584827 -0.000825555 -0.0005 0.000620086 -0.00106094 -0.0005 
0.000172947 -0.000549526 -0.0005 0.000172922 -0.000950417 -0.0005 0.000461426 -0.00120076 -0.0005 
0.000404574 -0.000299236 -0.0005 0.000243934 -0.000438928 -0.0005 0.000192001 -0.000675472 -0.0005 
0.000154074 -0.000745216 -0.0005 0.000787779 -0.000768966 -0.0005 0.000588723 -0.000523989 -0.0005 
0.000809841 -0.000504106 -0.0005 0.000809671 -0.000995397 -0.0005 0.000571747 -0.000987513 -0.0005 
0.000673596 -0.000911853 -0.0005 0.000281249 -0.000981909 -0.0005 0.000409717 -0.000660715 -0.0005 
0.000465934 -0.000841589 -0.0005 0.000524589 -0.000717066 -0.0005 0.000342119 -0.000722933 -0.0005 
0.000280666 -0.000514151 -0.0005 0.000672694 -0.000574319 -0.0005 5.82468e-05 -0.000659662 -0.0005 
5.65752e-05 -0.000839154 -0.0005 0.000386493 -0.000796808 -0.0005 0.000361584 -0.000985225 -0.0005 
0.000499228 -0.000517168 -0.0005 0.000471587 -0.000668913 -0.0005 0.000510532 -0.000790014 -0.0005 
0.000559513 -0.00111068 -0.0005 0.000707209 -0.000752897 -0.0005 8.04633e-05 -0.000566736 -0.0005 
8.04241e-05 -0.000933245 -0.0005 0.000163046 -0.000466483 -0.0005 0.000162386 -0.00103563 -0.0005 
0.000578393 -0.000637387 -0.0005 0.000503901 -0.000990722 -0.0005 0.000359102 -0.000508763 -0.0005 
0.000714127 -0.000859658 -0.0005 0.000304403 -0.00039471 -0.0005 0.000712099 -0.000528651 -0.0005 
0.000710619 -0.000966814 -0.0005 0.000726254 -0.000631789 -0.0005 0.000383073 -0.000701841 -0.0005 
0.000471292 -0.000894636 -0.0005 0.000394708 -0.000605364 -0.0005 0.000295143 -0.00071521 -0.0005 
0.000544105 -0.000886073 -0.0005 0.00030982 -0.000616796 -0.0005 0.000226145 -0.000944288 -0.0005 
0.000307419 -0.000884579 -0.0005 0.000226252 -0.000555158 -0.0005 0.000153401 -0.000511968 -0.0005 
0.000153233 -0.000988282 -0.0005 0.000237471 -0.000619391 -0.0005 0.000238317 -0.000879885 -0.0005 
0.000410377 -0.000831296 -0.0005 0.000352297 -0.000773675 -0.0005 0.00071621 -0.000470678 -0.0005 
0.000708438 -0.00102758 -0.0005 0.00043748 -0.00030453 -0.0005 0.00042852 -0.00119547 -0.0005 
-0.000266167 -0.000909585 -0.0005 -0.00026339 -0.000582669 -0.0005 -0.000595526 -0.000581349 -0.0005 
-0.000595539 -0.000918697 -0.0005 -0.000749174 -0.000957462 -0.0005 -0.000749174 -0.000542538 -0.0005 
-0.000436828 -0.000541202 -0.0005 -0.000633495 -0.000748246 -0.0005 -0.000234978 -0.000756491 -0.0005 
-0.000436828 -0.000958798 -0.0005 -0.0007972 -0.000964286 -0.0005 -0.0007972 -0.000535714 -0.0005 
-0.000131951 -0.000583807 -0.0005 -0.000120576 -0.000920987 -0.0005 -0.000440309 -0.00110148 -0.0005 
-0.000440309 -0.00039852 -0.0005 -0.000540519 -0.000463808 -0.0005 -0.000540519 -0.00103619 -0.0005 
-0.000737497 -0.000826703 -0.0005 -0.000743731 -0.00067341 -0.0005 -0.000326361 -0.000455157 -0.0005 
-0.000326361 -0.00104484 -0.0005 -0.000347939 -0.000834179 -0.0005 -0.000344799 -0.000652107 -0.0005 
-0.000525969 -0.000668056 -0.0005 -0.000528784 -0.000835049 -0.0005 -0.00080748 -0.000997295 -0.0005 
-0.00080748 -0.000502705 -0.0005 -0.00065996 -0.000996565 -0.0005 -0.00065996 -0.000503435 -0.0005 
-0.000114839 -0.00080244 -0.0005 -0.00012727 -0.000689074 -0.0005 -0.000684653 -0.000892326 -0.0005 
-0.000684653 -0.000607674 -0.0005 -0.000402255 -0.00033906 -0.0005 -0.000402255 -0.00116094 -0.0005 
-0.00020379 -0.000996251 -0.0005 -0.000209694 -0.000514898 -0.0005 -0.000410601 -0.000616776 -0.0005 
-0.000414328 -0.000881409 -0.0005 -0.000564489 -0.00077222 -0.0005 -0.00030297 -0.0007663 -0.0005 
-0.000806831 -0.000899154 -0.0005 -0.000806831 -0.000600846 -0.0005 -0.000198082 -0.000840386 -0.0005 
-0.000104201 -0.000515756 -0.0005 -0.000102305 -0.000985043 -0.0005 -0.000210482 -0.000662469 -0.0005 
-0.000512323 -0.000571317 -0.0005 -0.000512323 -0.000928683 -0.0005 -0.000607487 -0.000671376 -0.0005 
-0.000342389 -0.000918878 -0.0005 -0.000339591 -0.000579218 -0.0005 -0.000598177 -0.000824513 -0.0005 
-0.000525093 -0.00110877 -0.0005 -0.000525093 -0.000391231 -0.0005 -0.000467764 -0.00117211 -0.0005 
-0.000467764 -0.000327887 -0.0005 -0.00082824 -0.000937946 -0.0005 -0.00082824 -0.000562054 -0.0005 
-0.000792673 -0.000751208 -0.0005 -4.40406e-05 -0.000938051 -0.0005 -4.29968e-05 -0.000563636 -0.0005 
-0.000368656 -0.000394329 -0.0005 -0.000368656 -0.00110567 -0.0005 -0.000404944 -0.000466574 -0.0005 
-0.000404944 -0.00103343 -0.0005 -0.000274968 -0.000693542 -0.0005 -0.000473579 -0.000463157 -0.0005 
-0.000473579 -0.00103684 -0.0005 -0.000273108 -0.000829102 -0.0005 -0.000617905 -0.00105951 -0.0005 
-0.000617905 -0.00044049 -0.0005 -7.4389e-05 -0.000644248 -0.0005 -6.99258e-05 -0.00086688 -0.0005 
-0.000758009 -0.00100133 -0.0005 -0.000758009 -0.000498667 -0.0005 -0.000674521 -0.00082321 -0.0005 
-0.000747394 -0.000897802 -0.0005 -0.000747848 -0.000602206 -0.0005 -0.000837578 -0.00099054 -0.0005 
-0.000836308 -0.000968831 -0.0005 -0.000837578 -0.00050946 -0.0005 -0.000836308 -0.000531169 -0.0005 
-0.00024589 -0.000439066 -0.0005 -0.000241075 -0.0010584 -0.0005 -0.000693065 -0.000950422 -0.0005 
-0.000693085 -0.000549579 -0.0005 -0.000404574 -0.00120076 -0.0005 -0.000404574 -0.000299236 -0.0005 
-0.000672818 -0.000679103 -0.0005 -0.000714008 -0.000755903 -0.0005 -7.82213e-05 -0.000731034 -0.0005 
-5.6329e-05 -0.000504603 -0.0005 -5.61586e-05 -0.000995894 -0.0005 -0.000275796 -0.000980896 -0.0005 
-0.000285676 -0.000513219 -0.0005 -0.000186165 -0.000585602 -0.0005 -0.000584291 -0.000982673 -0.0005 
-0.00058429 -0.000517332 -0.0005 -0.00045634 -0.000660721 -0.0005 -0.000464193 -0.000839596 -0.0005 
-0.00034177 -0.000716972 -0.0005 -0.000523385 -0.000727952 -0.0005 -0.000193444 -0.000925069 -0.0005 
-0.000807637 -0.00084025 -0.0005 -0.000810429 -0.000661252 -0.0005 -0.000386833 -0.000795991 -0.0005 
-0.000394413 -0.000668913 -0.0005 -0.000509958 -0.000787971 -0.0005 -0.000305514 -0.00111008 -0.0005 
-0.000306477 -0.00038941 -0.0005 -0.000362249 -0.00098716 -0.0005 -0.00035868 -0.000511074 -0.0005 
-0.000160645 -0.000746982 -0.0005 -0.000509508 -0.000511363 -0.0005 -0.000509508 -0.000988638 -0.0005 
-0.00028739 -0.000637604 -0.0005 -0.000785534 -0.00093326 -0.0005 -0.000785598 -0.000566741 -0.0005 
-0.000703615 -0.00103564 -0.0005 -0.000703615 -0.000464361 -0.0005 -0.000148903 -0.000636616 -0.0005 
-0.00015636 -0.000534148 -0.0005 -0.000153981 -0.000971334 -0.0005 -0.000139581 -0.000867053 -0.0005 
-0.000482839 -0.000702846 -0.0005 -0.000471292 -0.000605364 -0.0005 -0.000471292 -0.000894636 -0.0005 
-0.000570965 -0.00071757 -0.0005 -0.000554433 -0.000615103 -0.0005 -0.000553903 -0.000884892 -0.0005 
-0.000639788 -0.00094438 -0.0005 -0.000639768 -0.0005557 -0.0005 -0.000307401 -0.000872936 -0.0005 
-0.000712765 -0.000988284 -0.0005 -0.000712769 -0.000511716 -0.0005 -0.000628213 -0.000619733 -0.0005 
-0.000630855 -0.000879083 -0.0005 -0.000409259 -0.000828735 -0.0005 -0.000354002 -0.000772688 -0.0005 
-0.000155373 -0.000471972 -0.0005 -0.000153127 -0.00102904 -0.0005 -0.00043748 -0.00030453 -0.0005 
-0.00043748 -0.00119547 -0.0005 -0.000699167 -0.000159585 -0.0005 -0.00102828 0.000168837 -0.0005 
-0.000700039 0.000165961 -0.0005 -0.00102854 -0.000168697 -0.0005 -0.00118217 0.000207462 -0.0005 
-0.00118217 -0.000207462 -0.0005 -0.000867762 0.00020878 -0.0005 -0.00106649 5.10348e-06 -0.0005 
-0.000667978 -6.49099e-06 -0.0005 -0.000869828 -0.000208798 -0.0005 -0.0012302 0.000214286 -0.0005 
-0.0012302 -0.000214286 -0.0005 -0.000564951 0.000166193 -0.0005 -0.000553576 -0.000170987 -0.0005 
-0.000873309 -0.00035148 -0.0005 -0.000858691 0.00035148 -0.0005 -0.000756768 0.000285545 -0.0005 
-0.000973519 -0.000286192 -0.0005 -0.00117081 7.69979e-05 -0.0005 -0.00117457 -7.52569e-05 -0.0005 
-0.000759361 -0.000294843 -0.0005 -0.00097093 0.000296588 -0.0005 -0.000780939 -8.41794e-05 -0.0005 
-0.000958969 8.1944e-05 -0.0005 -0.000777799 9.78925e-05 -0.0005 -0.000961784 -8.5049e-05 -0.0005 
-0.00124048 0.000247295 -0.0005 -0.00124048 -0.000247295 -0.0005 -0.00109281 0.000247375 -0.0005 
-0.00109296 -0.000246565 -0.0005 -0.000547839 -5.24395e-05 -0.0005 -0.00056027 6.09258e-05 -0.0005 
-0.00111765 0.000142326 -0.0005 -0.00111765 -0.000142326 -0.0005 -0.000835255 -0.00041094 -0.0005 
-0.000896745 0.00041094 -0.0005 -0.00063679 -0.000246251 -0.0005 -0.000636522 0.000241816 -0.0005 
-0.000843256 0.000133221 -0.0005 -0.000847328 -0.000131409 -0.0005 -0.000997489 -2.16615e-05 -0.0005 
-0.00073597 -1.62999e-05 -0.0005 -0.00123983 0.000149154 -0.0005 -0.00123983 -0.000149154 -0.0005 
-0.000631082 -9.03863e-05 -0.0005 -0.000535305 -0.000235043 -0.0005 -0.000537201 0.000234244 -0.0005 
-0.000642398 9.28059e-05 -0.0005 -0.000948408 0.000181543 -0.0005 -0.000945323 -0.000178683 -0.0005 
-0.00104049 7.88274e-05 -0.0005 -0.000775389 -0.000168878 -0.0005 -0.000772841 0.000169495 -0.0005 
-0.00103118 -7.38619e-05 -0.0005 -0.000958093 -0.000358769 -0.0005 -0.000773907 0.000358769 -0.0005 
-0.000900764 -0.000422113 -0.0005 -0.000831236 0.000422113 -0.0005 -0.00126124 0.000187946 -0.0005 
-0.00126124 -0.000187946 -0.0005 -0.00122671 1.92365e-06 -0.0005 -0.000477041 -0.000188051 -0.0005 
-0.000475997 0.000186364 -0.0005 -0.000801656 -0.000355671 -0.0005 -0.000929777 0.000356891 -0.0005 
-0.000837944 -0.000283426 -0.0005 -0.000894056 0.000283426 -0.0005 -0.000707968 5.64575e-05 -0.0005 
-0.000825421 0.000286843 -0.0005 -0.000906579 -0.000286843 -0.0005 -0.000678551 0.000307262 -0.0005 
-0.000706108 -7.91024e-05 -0.0005 -0.0010509 -0.00030951 -0.0005 -0.000507389 0.000105752 -0.0005 
-0.000502926 -0.00011688 -0.0005 -0.00119101 0.000251333 -0.0005 -0.00119101 -0.000251333 -0.0005 
-0.00110684 -7.12684e-05 -0.0005 -0.00118042 0.000147824 -0.0005 -0.00118069 -0.000147697 -0.0005 
-0.00127058 0.00024054 -0.0005 -0.00126931 0.000218831 -0.0005 -0.00127058 -0.00024054 -0.0005 
-0.00126931 -0.000218831 -0.0005 -0.000674075 -0.0003084 -0.0005 -0.00112605 0.000200474 -0.0005 
-0.00112608 -0.000200417 -0.0005 -0.000837574 -0.000450764 -0.0005 -0.000894426 0.000450764 -0.0005 
-0.00105507 0.000311072 -0.0005 -0.001107 7.45278e-05 -0.0005 -0.00114494 4.78174e-06 -0.0005 
-0.000511221 1.89656e-05 -0.0005 -0.000703503 0.000232229 -0.0005 -0.000489329 0.000245397 -0.0005 
-0.000489159 -0.000245894 -0.0005 -0.000708796 -0.000230896 -0.0005 -0.000631208 0.000171119 -0.0005 
-0.00101729 -0.000232673 -0.0005 -0.000889299 8.92785e-05 -0.0005 -0.000897193 -8.95957e-05 -0.0005 
-0.00077477 3.30279e-05 -0.0005 -0.000956385 2.2115e-05 -0.0005 -0.00101833 0.000235849 -0.0005 
-0.000626444 -0.000175069 -0.0005 -0.00124075 9.03378e-05 -0.0005 -0.00124242 -8.91537e-05 -0.0005 
-0.000819833 -4.59906e-05 -0.0005 -0.000799772 0.000232832 -0.0005 -0.000827413 8.10868e-05 -0.0005 
-0.000942958 -3.79434e-05 -0.0005 -0.000738514 -0.000360083 -0.0005 -0.000795249 -0.00023716 -0.0005 
-0.000593465 3.89675e-06 -0.0005 -0.000942508 -0.000238638 -0.0005 -0.00072039 0.000112396 -0.0005 
-0.00121854 0.000183264 -0.0005 -0.00121858 -0.000183245 -0.0005 -0.00113595 0.000283517 -0.0005 
-0.00113662 -0.000285639 -0.0005 -0.000939898 0.000241237 -0.0005 -0.00058355 0.000113194 -0.0005 
-0.000994597 0.00035529 -0.0005 -0.000586981 -0.000221334 -0.0005 -0.000588267 0.00021912 -0.0005 
-0.000572581 -0.000117053 -0.0005 -0.00091583 4.71675e-05 -0.0005 -0.000904292 -0.000144636 -0.0005 
-0.000904292 0.000144636 -0.0005 -0.00100396 3.32657e-05 -0.0005 -0.00098918 0.000133204 -0.0005 
-0.000986047 -0.000136339 -0.0005 -0.00107279 -0.00019438 -0.0005 -0.000740401 -0.000122936 -0.0005 
-0.00107275 0.000194842 -0.0005 -0.0011456 0.000238032 -0.0005 -0.00114577 -0.000238283 -0.0005 
-0.00106153 0.000130609 -0.0005 -0.00106376 -0.000129013 -0.0005 -0.000842259 -7.8735e-05 -0.0005 
-0.000787002 -2.26884e-05 -0.0005 -0.000586448 0.000278672 -0.0005 -0.000586127 -0.000279044 -0.0005 
-0.00087048 -0.00044547 -0.0005 -0.00086152 0.00044547 -0.0005 -0.000266167 0.000590415 -0.0005 
-0.000267039 0.000915961 -0.0005 -0.000595277 0.000918837 -0.0005 -0.000595539 0.000581303 -0.0005 
-0.000749174 0.000542538 -0.0005 -0.000749174 0.000957462 -0.0005 -0.000434763 0.00095878 -0.0005 
-0.000633495 0.000751754 -0.0005 -0.000234978 0.000743509 -0.0005 -0.000436828 0.000541202 -0.0005 
-0.0007972 0.000535714 -0.0005 -0.0007972 0.000964286 -0.0005 -0.000131951 0.000916193 -0.0005 
-0.000120576 0.000579013 -0.0005 -0.000440309 0.00039852 -0.0005 -0.000425691 0.00110148 -0.0005 
-0.000323768 0.00103554 -0.0005 -0.000540519 0.000463808 -0.0005 -0.000737497 0.000673297 -0.0005 
-0.000743731 0.00082659 -0.0005 -0.000326361 0.000455157 -0.0005 -0.00053793 0.00104659 -0.0005 
-0.000347939 0.000665821 -0.0005 -0.000344799 0.000847893 -0.0005 -0.000525969 0.000831944 -0.0005 
-0.000528784 0.000664951 -0.0005 -0.00080748 0.000502705 -0.0005 -0.00080748 0.000997295 -0.0005 
-0.00065996 0.000503435 -0.0005 -0.000659807 0.000997375 -0.0005 -0.000114839 0.00069756 -0.0005 
-0.00012727 0.000810926 -0.0005 -0.000684653 0.000607674 -0.0005 -0.000684653 0.000892326 -0.0005 
-0.000402255 0.00033906 -0.0005 -0.000463745 0.00116094 -0.0005 -0.00020379 0.000503749 -0.0005 
-0.000203522 0.000991815 -0.0005 -0.000410256 0.000883221 -0.0005 -0.000414328 0.000618591 -0.0005 
-0.000564489 0.00072778 -0.0005 -0.00030297 0.0007337 -0.0005 -0.000806831 0.000600846 -0.0005 
-0.000806831 0.000899154 -0.0005 -0.000198082 0.000659614 -0.0005 -0.000104201 0.000984244 -0.0005 
-0.000102305 0.000514957 -0.0005 -0.000209398 0.000842806 -0.0005 -0.000515408 0.000931543 -0.0005 
-0.000512323 0.000571317 -0.0005 -0.000607487 0.000828624 -0.0005 -0.000342389 0.000581122 -0.0005 
-0.000339841 0.000919495 -0.0005 -0.000598177 0.000675487 -0.0005 -0.000525093 0.000391231 -0.0005 
-0.000340907 0.00110877 -0.0005 -0.000398236 0.00117211 -0.0005 -0.000467764 0.000327887 -0.0005 
-0.00082824 0.000562054 -0.0005 -0.00082824 0.000937946 -0.0005 -0.000792673 0.000748792 -0.0005 
-4.40406e-05 0.000561949 -0.0005 -4.29968e-05 0.000936364 -0.0005 -0.000368656 0.000394329 -0.0005 
-0.000496777 0.00110689 -0.0005 -0.000404944 0.000466574 -0.0005 -0.000461056 0.00103343 -0.0005 
-0.000274968 0.000806458 -0.0005 -0.000392421 0.00103684 -0.0005 -0.000473579 0.000463157 -0.0005 
-0.000245551 0.00105726 -0.0005 -0.000273108 0.000670898 -0.0005 -0.000617905 0.00044049 -0.0005 
-7.4389e-05 0.000855752 -0.0005 -6.99258e-05 0.00063312 -0.0005 -0.000758009 0.000498667 -0.0005 
-0.000758009 0.00100133 -0.0005 -0.000674521 0.00067679 -0.0005 -0.000747394 0.000602198 -0.0005 
-0.000747848 0.000897794 -0.0005 -0.000837578 0.00050946 -0.0005 -0.000836308 0.000531169 -0.0005 
-0.000837578 0.00099054 -0.0005 -0.000836308 0.000968831 -0.0005 -0.000241075 0.0004416 -0.0005 
-0.000693065 0.000549578 -0.0005 -0.000693072 0.000950473 -0.0005 -0.000404574 0.000299236 -0.0005 
-0.000461426 0.00120076 -0.0005 -0.000622066 0.00106107 -0.0005 -0.000672818 0.000820897 -0.0005 
-0.000714008 0.000744097 -0.0005 -7.82213e-05 0.000768966 -0.0005 -0.000270503 0.000982229 -0.0005 
-5.6329e-05 0.000995397 -0.0005 -5.61586e-05 0.000504106 -0.0005 -0.000275796 0.000519104 -0.0005 
-0.000198208 0.000921119 -0.0005 -0.000584291 0.000517327 -0.0005 -0.000456299 0.000839279 -0.0005 
-0.000464193 0.000660404 -0.0005 -0.00034177 0.000783028 -0.0005 -0.000523385 0.000772048 -0.0005 
-0.000585334 0.000985849 -0.0005 -0.000193444 0.000574931 -0.0005 -0.000807637 0.00065975 -0.0005 
-0.000810429 0.000838748 -0.0005 -0.000386833 0.000704009 -0.0005 -0.000366772 0.000982832 -0.0005 
-0.000394413 0.000831087 -0.0005 -0.000509958 0.000712029 -0.0005 -0.000305514 0.000389917 -0.0005 
-0.000362249 0.00051284 -0.0005 -0.000160465 0.000753897 -0.0005 -0.000509508 0.000511362 -0.0005 
-0.00028739 0.000862396 -0.0005 -0.000785534 0.00056674 -0.0005 -0.000785598 0.000933259 -0.0005 
-0.000703615 0.000464361 -0.0005 -0.000702954 0.00103352 -0.0005 -0.000506898 0.000991237 -0.0005 
-0.00015055 0.000863194 -0.0005 -0.000561597 0.00110529 -0.0005 -0.000153981 0.000528666 -0.0005 
-0.000155267 0.00096912 -0.0005 -0.000139581 0.000632947 -0.0005 -0.00048283 0.000797154 -0.0005 
-0.000471292 0.000894636 -0.0005 -0.000471292 0.000605364 -0.0005 -0.000570965 0.00078243 -0.0005 
-0.00055618 0.00088318 -0.0005 -0.000553903 0.000615108 -0.0005 -0.000639788 0.00055562 -0.0005 
-0.000307401 0.000627064 -0.0005 -0.00063975 0.000944842 -0.0005 -0.000712765 0.000511716 -0.0005 
-0.000712603 0.000988032 -0.0005 -0.000628389 0.00088015 -0.0005 -0.000630855 0.000620917 -0.0005 
-0.000409259 0.000671265 -0.0005 -0.000354002 0.000727312 -0.0005 -0.000153448 0.00102867 -0.0005 
-0.000153127 0.000470956 -0.0005 -0.00042852 0.00119547 -0.0005 -0.00043748 0.00030453 -0.0005 

CELLS 2380 16660
6 649 608 664 1664 1623 1679 
6 570 610 625 1585 1625 1640 
6 571 611 624 1586 1626 1639 
6 603 587 669 1618 1602 1684 
6 564 603 669 1579 1618 1684 
6 610 570 613 1625 1585 1628 
6 611 571 612 1626 1586 1627 
6 600 564 669 1615 1579 1684 
6 586 187 630 1601 384 1645 
6 579 594 608 1594 1609 1623 
6 595 578 607 1610 1593 1622 
6 596 581 609 1611 1596 1624 
6 183 590 619 380 1605 1634 
6 166 591 620 363 1606 1635 
6 572 649 664 1587 1664 1679 
6 572 611 626 1587 1626 1641 
6 590 570 619 1605 1585 1634 
6 591 571 620 1606 1586 1635 
6 633 575 647 1648 1590 1662 
6 594 562 608 1609 1577 1623 
6 565 595 607 1580 1610 1622 
6 563 596 609 1578 1611 1624 
6 557 608 649 1572 1623 1664 
6 564 600 627 1579 1615 1642 
6 557 649 653 1572 1664 1668 
6 654 605 670 1669 1620 1685 
6 586 600 669 1601 1615 1684 
6 594 579 665 1609 1594 1680 
6 587 629 648 1602 1644 1663 
6 581 596 666 1596 1611 1681 
6 570 590 613 1585 1605 1628 
6 571 591 612 1586 1606 1627 
6 189 618 650 386 1633 1665 
6 617 184 651 1632 381 1666 
6 597 564 627 1612 1579 1642 
6 649 593 653 1664 1608 1668 
6 568 601 618 1583 1616 1633 
6 602 569 617 1617 1584 1632 
6 629 186 648 1644 383 1663 
6 559 605 654 1574 1620 1669 
6 600 556 627 1615 1571 1642 
6 187 586 648 384 1601 1663 
6 607 556 652 1622 1571 1667 
6 607 652 668 1622 1667 1683 
6 573 610 628 1588 1625 1643 
6 627 556 689 1642 1571 1704 
6 14 194 665 95 391 1680 
6 195 196 666 392 393 1681 
6 183 619 667 380 1634 1682 
6 196 656 666 393 1671 1681 
6 658 14 665 1673 95 1680 
6 561 566 631 1576 1581 1646 
6 567 560 632 1582 1575 1647 
6 575 616 647 1590 1631 1662 
6 566 561 672 1581 1576 1687 
6 560 567 673 1575 1582 1688 
6 573 654 670 1588 1669 1685 
6 12 185 618 93 382 1633 
6 188 11 617 385 92 1632 
6 635 561 641 1650 1576 1656 
6 560 634 642 1575 1649 1657 
6 578 597 627 1593 1612 1642 
6 8 175 613 89 372 1628 
6 1 190 612 82 387 1627 
6 604 558 659 1619 1573 1674 
6 578 595 695 1593 1610 1710 
6 597 578 696 1612 1593 1711 
6 610 573 625 1625 1588 1640 
6 611 572 624 1626 1587 1639 
6 168 3 636 365 84 1651 
6 6 173 638 87 370 1653 
6 611 191 626 1626 388 1641 
6 575 588 634 1590 1603 1649 
6 589 574 635 1604 1589 1650 
6 593 626 697 1608 1641 1712 
6 166 620 678 363 1635 1693 
6 564 597 623 1579 1612 1638 
6 603 564 623 1618 1579 1638 
6 568 618 629 1583 1633 1644 
6 11 184 617 92 381 1632 
6 189 12 618 386 93 1633 
6 579 608 671 1594 1623 1686 
6 556 600 660 1571 1615 1675 
6 588 575 633 1603 1590 1648 
6 8 613 700 89 1628 1715 
6 1 612 699 82 1627 1714 
6 617 569 630 1632 1584 1645 
6 619 570 621 1634 1585 1636 
6 620 571 622 1635 1586 1637 
6 574 616 661 1589 1631 1676 
6 616 575 662 1631 1590 1677 
6 580 606 686 1595 1621 1701 
6 563 633 647 1578 1648 1662 
6 598 635 661 1613 1650 1676 
6 634 599 662 1649 1614 1677 
6 574 589 646 1589 1604 1661 
6 604 659 676 1619 1674 1691 
6 635 574 661 1650 1589 1676 
6 575 634 662 1590 1649 1677 
6 600 586 681 1615 1601 1696 
6 585 628 674 1600 1643 1689 
6 557 603 671 1572 1618 1686 
6 626 192 697 1641 389 1712 
6 610 176 628 1625 373 1643 
6 563 609 633 1578 1624 1648 
6 569 660 681 1584 1675 1696 
6 587 603 677 1602 1618 1692 
6 608 557 671 1623 1572 1686 
6 603 557 653 1618 1572 1668 
6 622 571 624 1637 1586 1639 
6 621 570 625 1636 1585 1640 
6 606 580 685 1621 1595 1700 
6 640 592 698 1655 1607 1713 
6 558 604 686 1573 1619 1701 
6 605 559 687 1620 1574 1702 
6 660 600 681 1675 1615 1696 
6 187 188 630 384 385 1645 
6 185 186 629 382 383 1644 
6 608 562 664 1623 1577 1679 
6 652 556 660 1667 1571 1675 
6 562 594 683 1577 1609 1698 
6 595 565 684 1610 1580 1699 
6 596 563 685 1611 1578 1700 
6 609 581 687 1624 1596 1702 
6 686 606 693 1701 1621 1708 
6 162 1 699 359 82 1714 
6 179 8 700 376 89 1715 
6 606 563 646 1621 1578 1661 
6 573 628 654 1588 1643 1669 
6 616 574 647 1631 1589 1662 
6 565 607 668 1580 1622 1683 
6 175 176 610 372 373 1625 
6 190 191 611 387 388 1626 
6 645 584 675 1660 1599 1690 
6 628 177 674 1643 374 1689 
6 572 626 649 1587 1641 1664 
6 170 171 616 367 368 1631 
6 609 687 694 1624 1702 1709 
6 181 640 698 378 1655 1713 
6 687 559 694 1702 1574 1709 
6 607 578 689 1622 1593 1704 
6 592 652 660 1607 1667 1675 
6 604 562 683 1619 1577 1698 
6 565 605 684 1580 1620 1699 
6 563 606 685 1578 1621 1700 
6 558 686 693 1573 1701 1708 
6 565 621 625 1580 1636 1640 
6 562 622 624 1577 1637 1639 
6 683 580 686 1698 1595 1701 
6 581 684 687 1596 1699 1702 
6 616 171 661 1631 368 1676 
6 170 616 662 367 1631 1677 
6 628 585 654 1643 1600 1669 
6 182 183 667 379 380 1682 
6 653 593 679 1668 1608 1694 
6 579 623 658 1594 1638 1673 
6 605 565 670 1620 1580 1685 
6 634 560 673 1649 1575 1688 
6 561 635 672 1576 1650 1687 
6 589 635 641 1604 1650 1656 
6 634 588 642 1649 1603 1657 
6 194 655 665 391 1670 1680 
6 657 195 666 1672 392 1681 
6 562 604 676 1577 1619 1691 
6 566 614 637 1581 1629 1652 
6 615 567 639 1630 1582 1654 
6 688 588 694 1703 1603 1709 
6 623 597 658 1638 1612 1673 
6 646 563 647 1661 1578 1662 
6 576 619 621 1591 1634 1636 
6 577 620 622 1592 1635 1637 
6 556 607 689 1571 1622 1704 
6 164 645 675 361 1660 1690 
6 589 690 693 1604 1705 1708 
6 191 192 626 388 389 1641 
6 175 610 613 372 1625 1628 
6 190 611 612 387 1626 1627 
6 584 645 659 1599 1660 1674 
6 626 593 649 1641 1608 1664 
6 603 623 671 1618 1638 1686 
6 176 177 628 373 374 1643 
6 652 576 668 1667 1591 1683 
6 562 624 664 1577 1639 1679 
6 642 588 688 1657 1603 1703 
6 565 625 670 1580 1640 1685 
6 165 166 678 362 363 1693 
6 663 578 695 1678 1593 1710 
6 578 663 696 1593 1678 1711 
6 589 641 690 1604 1656 1705 
6 574 646 647 1589 1661 1662 
6 638 173 639 1653 370 1654 
6 168 636 637 365 1651 1652 
6 645 577 659 1660 1592 1674 
6 618 601 650 1633 1616 1665 
6 602 617 651 1617 1632 1666 
6 587 648 669 1602 1663 1684 
6 181 182 640 378 379 1655 
6 656 581 666 1671 1596 1681 
6 579 658 665 1594 1673 1680 
6 655 580 683 1670 1595 1698 
6 581 656 684 1596 1671 1699 
6 580 657 685 1595 1672 1700 
6 164 165 645 361 362 1660 
6 655 594 665 1670 1609 1680 
6 596 657 666 1611 1672 1681 
6 590 183 644 1605 380 1659 
6 591 166 643 1606 363 1658 
6 568 629 677 1583 1644 1692 
6 186 187 648 383 384 1663 
6 604 683 686 1619 1698 1701 
6 684 605 687 1699 1620 1702 
6 648 586 669 1663 1601 1684 
6 659 577 676 1674 1592 1691 
6 614 566 672 1629 1581 1687 
6 567 615 673 1582 1630 1688 
6 568 653 679 1583 1668 1694 
6 592 640 652 1607 1655 1667 
6 629 587 677 1644 1602 1692 
6 623 579 671 1638 1594 1686 
6 640 576 652 1655 1591 1667 
6 196 14 663 393 95 1678 
6 621 565 668 1636 1580 1683 
6 622 562 676 1637 1577 1691 
6 612 591 699 1627 1606 1714 
6 613 590 700 1628 1605 1715 
6 171 172 661 368 369 1676 
6 169 170 662 366 367 1677 
6 569 602 680 1584 1617 1695 
6 601 568 679 1616 1583 1694 
6 180 602 651 377 1617 1666 
6 601 193 650 1616 390 1665 
6 583 638 639 1598 1653 1654 
6 636 582 637 1651 1597 1652 
6 163 164 675 360 361 1690 
6 177 178 674 374 375 1689 
6 588 633 694 1603 1648 1709 
6 576 621 668 1591 1636 1683 
6 577 622 676 1592 1637 1691 
6 578 627 689 1593 1642 1704 
6 646 589 693 1661 1604 1708 
6 624 572 664 1639 1587 1679 
6 559 688 694 1574 1703 1709 
6 180 181 698 377 378 1713 
6 192 193 697 389 390 1712 
6 690 558 693 1705 1573 1708 
6 630 569 681 1645 1584 1696 
6 9 179 644 90 376 1659 
6 0 162 643 81 359 1658 
6 620 577 678 1635 1592 1693 
6 653 568 677 1668 1583 1692 
6 618 185 629 1633 382 1644 
6 580 655 682 1595 1670 1697 
6 657 580 682 1672 1595 1697 
6 172 598 661 369 1613 1676 
6 599 169 662 1614 366 1677 
6 188 617 630 385 1632 1645 
6 625 573 670 1640 1588 1685 
6 633 609 694 1648 1624 1709 
6 641 561 691 1656 1576 1706 
6 560 642 692 1575 1657 1707 
6 184 10 651 381 91 1666 
6 13 189 650 94 386 1665 
6 577 645 678 1592 1660 1693 
6 603 653 677 1618 1668 1692 
6 599 634 673 1614 1649 1688 
6 635 598 672 1650 1613 1687 
6 619 576 667 1634 1591 1682 
6 640 182 667 1655 379 1682 
6 194 195 682 391 392 1697 
6 193 601 697 390 1616 1712 
6 602 180 698 1617 377 1713 
6 576 640 667 1591 1655 1682 
6 606 646 693 1621 1661 1708 
6 660 569 680 1675 1584 1695 
6 601 679 697 1616 1694 1712 
6 680 602 698 1695 1617 1713 
6 586 630 681 1601 1645 1696 
6 169 599 615 366 1614 1630 
6 598 172 614 1613 369 1629 
6 644 179 700 1659 376 1715 
6 643 162 699 1658 359 1714 
6 656 196 695 1671 393 1710 
6 14 658 696 95 1673 1711 
6 675 584 691 1690 1599 1706 
6 585 674 692 1600 1689 1707 
6 645 165 678 1660 362 1693 
6 655 194 682 1670 391 1697 
6 195 657 682 392 1672 1697 
6 4 168 637 85 365 1652 
6 173 5 639 370 86 1654 
6 592 660 680 1607 1675 1695 
6 659 558 690 1674 1573 1705 
6 584 641 691 1599 1656 1706 
6 642 585 692 1657 1600 1707 
6 584 659 690 1599 1674 1705 
6 559 654 688 1574 1669 1703 
6 594 655 683 1609 1670 1698 
6 656 595 684 1671 1610 1699 
6 657 596 685 1672 1611 1700 
6 654 585 688 1669 1600 1703 
6 595 656 695 1610 1671 1710 
6 658 597 696 1673 1612 1711 
6 631 675 691 1646 1690 1706 
6 674 632 692 1689 1647 1707 
6 561 631 691 1576 1646 1706 
6 632 560 692 1647 1575 1707 
6 196 663 695 393 1678 1710 
6 663 14 696 1678 95 1711 
6 585 642 688 1600 1657 1703 
6 641 584 690 1656 1599 1705 
6 590 644 700 1605 1659 1715 
6 591 643 699 1606 1658 1714 
6 631 163 675 1646 360 1690 
6 178 632 674 375 1647 1689 
6 598 614 672 1613 1629 1687 
6 615 599 673 1630 1614 1688 
6 679 593 697 1694 1608 1712 
6 592 680 698 1607 1695 1713 
6 166 0 643 363 81 1658 
6 172 4 614 369 85 1629 
6 614 4 637 1629 85 1652 
6 5 169 615 86 366 1630 
6 5 615 639 86 1630 1654 
6 183 9 644 380 90 1659 
6 10 180 651 91 377 1666 
6 193 13 650 390 94 1665 
6 2 163 167 83 360 364 
6 3 167 636 84 364 1651 
6 174 6 638 371 87 1653 
6 174 178 7 371 375 88 
6 167 163 582 364 360 1597 
6 582 163 631 1597 360 1646 
6 167 582 636 364 1597 1651 
6 178 174 583 375 371 1598 
6 583 174 638 1598 371 1653 
6 178 583 632 375 1598 1647 
6 566 582 631 1581 1597 1646 
6 582 566 637 1597 1581 1652 
6 583 567 632 1598 1582 1647 
6 567 583 639 1582 1598 1654 
6 715 755 770 1730 1770 1785 
6 756 716 769 1771 1731 1784 
6 732 748 815 1747 1763 1830 
6 748 709 815 1763 1724 1830 
6 755 715 758 1770 1730 1773 
6 716 756 757 1731 1771 1772 
6 709 745 815 1724 1760 1830 
6 216 731 774 413 1746 1789 
6 724 739 752 1739 1754 1767 
6 726 740 753 1741 1755 1768 
6 741 726 754 1756 1741 1769 
6 736 210 764 1751 407 1779 
6 220 735 765 417 1750 1780 
6 738 701 798 1753 1716 1813 
6 716 736 764 1731 1751 1779 
6 735 715 765 1750 1730 1780 
6 777 720 792 1792 1735 1807 
6 739 707 752 1754 1722 1767 
6 740 710 753 1755 1725 1768 
6 708 741 754 1723 1756 1769 
6 799 753 809 1814 1768 1824 
6 749 800 816 1764 1815 1831 
6 745 731 815 1760 1746 1830 
6 739 724 810 1754 1739 1825 
6 773 732 793 1788 1747 1808 
6 715 735 758 1730 1750 1773 
6 736 716 757 1751 1731 1772 
6 214 762 794 411 1777 1809 
6 763 219 795 1778 416 1810 
6 701 738 797 1716 1753 1812 
6 750 701 797 1765 1716 1812 
6 742 709 784 1757 1724 1799 
6 713 746 762 1728 1761 1777 
6 747 714 763 1762 1729 1778 
6 217 773 793 414 1788 1808 
6 749 703 800 1764 1718 1815 
6 731 216 793 1746 413 1808 
6 748 701 784 1763 1716 1799 
6 702 752 796 1717 1767 1811 
6 745 709 766 1760 1724 1781 
6 709 748 784 1724 1763 1799 
6 796 752 814 1811 1767 1829 
6 756 717 772 1771 1732 1787 
6 718 755 771 1733 1770 1786 
6 750 797 822 1765 1812 1837 
6 704 753 799 1719 1768 1814 
6 27 225 810 108 422 1825 
6 227 27 811 424 108 1826 
6 764 210 813 1779 407 1828 
6 220 765 812 417 1780 1827 
6 718 799 809 1733 1814 1824 
6 802 227 811 1817 424 1826 
6 803 27 810 1818 108 1825 
6 705 711 775 1720 1726 1790 
6 712 706 776 1727 1721 1791 
6 720 761 792 1735 1776 1807 
6 711 705 817 1726 1720 1832 
6 706 712 818 1721 1727 1833 
6 800 717 816 1815 1732 1831 
6 23 215 762 104 412 1777 
6 218 24 763 415 105 1778 
6 779 705 787 1794 1720 1802 
6 706 778 788 1721 1793 1803 
6 208 20 757 405 101 1772 
6 13 193 758 94 390 1773 
6 740 726 840 1755 1741 1855 
6 726 741 841 1741 1756 1856 
6 755 718 770 1770 1733 1785 
6 717 756 769 1732 1771 1784 
6 203 18 780 400 99 1795 
6 15 198 782 96 395 1797 
6 702 745 821 1717 1760 1836 
6 720 733 778 1735 1748 1793 
6 734 719 779 1749 1734 1794 
6 763 714 773 1778 1729 1788 
6 709 742 766 1724 1757 1781 
6 24 219 763 105 416 1778 
6 214 23 762 411 104 1777 
6 745 702 805 1760 1717 1820 
6 733 720 777 1748 1735 1792 
6 724 752 821 1739 1767 1836 
6 757 20 845 1772 101 1860 
6 13 758 844 94 1773 1859 
6 713 762 774 1728 1777 1789 
6 765 715 767 1780 1730 1782 
6 716 764 768 1731 1779 1783 
6 719 761 806 1734 1776 1821 
6 761 720 807 1776 1735 1822 
6 725 751 831 1740 1766 1846 
6 708 777 792 1723 1792 1807 
6 778 744 807 1793 1759 1822 
6 743 779 806 1758 1794 1821 
6 719 734 791 1734 1749 1806 
6 779 719 806 1794 1734 1821 
6 720 778 807 1735 1793 1822 
6 731 745 826 1746 1760 1841 
6 784 701 832 1799 1716 1847 
6 730 771 819 1745 1786 1834 
6 772 729 820 1787 1744 1835 
6 207 756 772 404 1771 1787 
6 755 192 771 1770 389 1786 
6 708 754 777 1723 1769 1792 
6 784 723 811 1799 1738 1826 
6 805 713 826 1820 1728 1841 
6 748 732 823 1763 1747 1838 
6 742 784 811 1757 1799 1826 
6 701 748 798 1716 1763 1813 
6 716 768 769 1731 1783 1784 
6 767 715 770 1782 1730 1785 
6 752 702 821 1767 1717 1836 
6 751 725 830 1766 1740 1845 
6 737 785 842 1752 1800 1857 
6 786 738 843 1801 1753 1858 
6 703 749 831 1718 1764 1846 
6 701 750 832 1716 1765 1847 
6 745 805 826 1760 1820 1841 
6 215 216 774 412 413 1789 
6 217 218 773 414 415 1788 
6 753 710 809 1768 1725 1824 
6 702 796 805 1717 1811 1820 
6 707 739 829 1722 1754 1844 
6 710 740 828 1725 1755 1843 
6 741 708 830 1756 1723 1845 
6 831 751 838 1846 1766 1853 
6 224 13 844 421 94 1859 
6 20 209 845 101 406 1860 
6 745 766 821 1760 1781 1836 
6 751 708 791 1766 1723 1806 
6 724 766 803 1739 1781 1818 
6 772 717 800 1787 1732 1815 
6 718 771 799 1733 1786 1814 
6 761 719 792 1776 1734 1807 
6 752 707 814 1767 1722 1829 
6 207 208 756 404 405 1771 
6 193 192 755 390 389 1770 
6 726 753 835 1741 1768 1850 
6 754 726 835 1769 1741 1850 
6 766 742 803 1781 1757 1818 
6 771 191 819 1786 388 1834 
6 206 772 820 403 1787 1835 
6 200 201 761 397 398 1776 
6 785 212 842 1800 409 1857 
6 222 786 843 419 1801 1858 
6 796 737 805 1811 1752 1820 
6 749 707 829 1764 1722 1844 
6 750 710 828 1765 1725 1843 
6 708 751 830 1723 1766 1845 
6 703 831 838 1718 1846 1853 
6 710 767 770 1725 1782 1785 
6 768 707 769 1783 1722 1784 
6 828 723 832 1843 1738 1847 
6 829 725 831 1844 1740 1846 
6 200 761 807 397 1776 1822 
6 761 201 806 1776 398 1821 
6 729 772 800 1744 1787 1815 
6 771 730 799 1786 1745 1814 
6 210 211 813 407 408 1828 
6 221 220 812 418 417 1827 
6 738 798 825 1753 1813 1840 
6 707 749 816 1722 1764 1831 
6 778 706 818 1793 1721 1833 
6 705 779 817 1720 1794 1832 
6 734 834 838 1749 1849 1853 
6 734 779 787 1749 1794 1802 
6 778 733 788 1793 1748 1803 
6 225 801 810 422 1816 1825 
6 753 704 835 1768 1719 1850 
6 27 803 811 108 1818 1826 
6 710 750 822 1725 1765 1837 
6 711 759 781 1726 1774 1796 
6 760 712 783 1775 1727 1798 
6 833 733 839 1848 1748 1854 
6 791 708 792 1806 1723 1807 
6 754 835 839 1769 1850 1854 
6 764 721 768 1779 1736 1783 
6 722 765 767 1737 1780 1782 
6 193 755 758 390 1770 1773 
6 756 208 757 1771 405 1772 
6 192 191 771 389 388 1786 
6 206 207 772 403 404 1787 
6 721 796 814 1736 1811 1829 
6 710 770 809 1725 1785 1824 
6 734 787 834 1749 1802 1849 
6 788 733 833 1803 1748 1848 
6 835 704 839 1850 1719 1854 
6 797 722 822 1812 1737 1837 
6 769 707 816 1784 1722 1831 
6 726 808 840 1741 1823 1855 
6 808 726 841 1823 1741 1856 
6 723 784 832 1738 1799 1847 
6 719 791 792 1734 1806 1807 
6 203 780 781 400 1795 1796 
6 782 198 783 1797 395 1798 
6 762 746 794 1777 1761 1809 
6 747 763 795 1762 1778 1810 
6 793 732 815 1808 1747 1830 
6 222 221 786 419 418 1801 
6 211 212 785 408 409 1800 
6 723 802 811 1738 1817 1826 
6 724 803 810 1739 1818 1825 
6 801 725 829 1816 1740 1844 
6 802 723 828 1817 1738 1843 
6 725 804 830 1740 1819 1845 
6 766 724 821 1781 1739 1836 
6 801 739 810 1816 1754 1825 
6 803 742 811 1818 1757 1826 
6 210 736 789 407 1751 1804 
6 735 220 790 1750 417 1805 
6 773 714 823 1788 1729 1838 
6 216 217 793 413 414 1808 
6 750 828 832 1765 1843 1847 
6 749 829 831 1764 1844 1846 
6 731 793 815 1746 1808 1830 
6 759 711 817 1774 1726 1832 
6 712 760 818 1727 1775 1833 
6 798 714 825 1813 1729 1840 
6 785 737 796 1800 1752 1811 
6 738 786 797 1753 1801 1812 
6 732 773 823 1747 1788 1838 
6 721 785 796 1736 1800 1811 
6 786 722 797 1801 1737 1812 
6 226 227 808 423 424 1823 
6 707 768 814 1722 1783 1829 
6 767 710 822 1782 1725 1837 
6 736 757 845 1751 1772 1860 
6 758 735 844 1773 1750 1859 
6 201 202 806 398 399 1821 
6 199 200 807 396 397 1822 
6 746 713 824 1761 1728 1839 
6 714 747 825 1729 1762 1840 
6 746 213 794 1761 410 1809 
6 223 747 795 420 1762 1810 
6 728 782 783 1743 1797 1798 
6 780 727 781 1795 1742 1796 
6 191 190 819 388 387 1834 
6 205 206 820 402 403 1835 
6 733 777 839 1748 1792 1854 
6 768 721 814 1783 1736 1829 
6 834 703 838 1849 1718 1853 
6 722 767 822 1737 1782 1837 
6 791 734 838 1806 1749 1853 
6 770 718 809 1785 1733 1824 
6 704 833 839 1719 1848 1854 
6 212 213 842 409 410 1857 
6 223 222 843 420 419 1858 
6 713 774 826 1728 1789 1841 
6 209 21 789 406 102 1804 
6 26 224 790 107 421 1805 
6 714 798 823 1729 1813 1838 
6 218 763 773 415 1778 1788 
6 725 801 827 1740 1816 1842 
6 804 725 827 1819 1740 1842 
6 202 743 806 399 1758 1821 
6 744 199 807 1759 396 1822 
6 762 215 774 1777 412 1789 
6 717 769 816 1732 1784 1831 
6 777 754 839 1792 1769 1854 
6 787 705 836 1802 1720 1851 
6 706 788 837 1721 1803 1852 
6 22 214 794 103 411 1809 
6 219 25 795 416 106 1810 
6 798 748 823 1813 1763 1838 
6 744 778 818 1759 1793 1833 
6 779 743 817 1794 1758 1832 
6 765 722 812 1780 1737 1827 
6 721 764 813 1736 1779 1828 
6 211 785 813 408 1800 1828 
6 786 221 812 1801 418 1827 
6 225 226 827 422 423 1842 
6 213 746 842 410 1761 1857 
6 747 223 843 1762 420 1858 
6 785 721 813 1800 1736 1828 
6 722 786 812 1737 1801 1827 
6 751 791 838 1766 1806 1853 
6 713 805 824 1728 1820 1839 
6 746 824 842 1761 1839 1857 
6 825 747 843 1840 1762 1858 
6 774 731 826 1789 1746 1841 
6 743 202 759 1758 399 1774 
6 199 744 760 396 1759 1775 
6 790 224 844 1805 421 1859 
6 209 789 845 406 1804 1860 
6 227 802 840 424 1817 1855 
6 804 226 841 1819 423 1856 
6 730 819 837 1745 1834 1852 
6 820 729 836 1835 1744 1851 
6 801 225 827 1816 422 1842 
6 226 804 827 423 1819 1842 
6 17 203 781 98 400 1796 
6 198 16 783 395 97 1798 
6 805 737 824 1820 1752 1839 
6 788 730 837 1803 1745 1852 
6 729 787 836 1744 1802 1851 
6 704 799 833 1719 1814 1848 
6 800 703 834 1815 1718 1849 
6 739 801 829 1754 1816 1844 
6 740 802 828 1755 1817 1843 
6 804 741 830 1819 1756 1845 
6 799 730 833 1814 1745 1848 
6 729 800 834 1744 1815 1849 
6 802 740 840 1817 1755 1855 
6 741 804 841 1756 1819 1856 
6 775 820 836 1790 1835 1851 
6 819 776 837 1834 1791 1852 
6 705 775 836 1720 1790 1851 
6 776 706 837 1791 1721 1852 
6 808 227 840 1823 424 1855 
6 226 808 841 423 1823 1856 
6 730 788 833 1745 1803 1848 
6 787 729 834 1802 1744 1849 
6 789 736 845 1804 1751 1860 
6 735 790 844 1750 1805 1859 
6 775 205 820 1790 402 1835 
6 190 776 819 387 1791 1834 
6 743 759 817 1758 1774 1832 
6 760 744 818 1775 1759 1833 
6 824 737 842 1839 1752 1857 
6 738 825 843 1753 1840 1858 
6 16 199 760 97 396 1775 
6 16 760 783 97 1775 1798 
6 202 17 759 399 98 1774 
6 759 17 781 1774 98 1796 
6 21 210 789 102 407 1804 
6 213 22 794 410 103 1809 
6 25 223 795 106 420 1810 
6 220 26 790 417 107 1805 
6 1 197 190 82 394 387 
6 197 15 782 394 96 1797 
6 18 204 780 99 401 1795 
6 19 205 204 100 402 401 
6 190 197 728 387 394 1743 
6 190 728 776 387 1743 1791 
6 728 197 782 1743 394 1797 
6 204 205 727 401 402 1742 
6 204 727 780 401 1742 1795 
6 727 205 775 1742 402 1790 
6 711 727 775 1726 1742 1790 
6 727 711 781 1742 1726 1796 
6 728 712 776 1743 1727 1791 
6 712 728 783 1727 1743 1798 
6 939 898 954 1954 1913 1969 
6 860 900 915 1875 1915 1930 
6 861 901 914 1876 1916 1929 
6 893 877 959 1908 1892 1974 
6 854 893 959 1869 1908 1974 
6 900 860 903 1915 1875 1918 
6 901 861 902 1916 1876 1917 
6 890 854 959 1905 1869 1974 
6 876 238 920 1891 435 1935 
6 869 884 898 1884 1899 1913 
6 885 868 897 1900 1883 1912 
6 870 886 899 1885 1901 1914 
6 244 880 909 441 1895 1924 
6 223 881 910 420 1896 1925 
6 862 939 954 1877 1954 1969 
6 862 901 916 1877 1916 1931 
6 880 860 909 1895 1875 1924 
6 881 861 910 1896 1876 1925 
6 936 865 937 1951 1880 1952 
6 884 852 898 1899 1867 1913 
6 855 885 897 1870 1900 1912 
6 886 853 899 1901 1868 1914 
6 847 898 939 1862 1913 1954 
6 854 890 917 1869 1905 1932 
6 847 939 943 1862 1954 1958 
6 944 895 960 1959 1910 1975 
6 876 890 959 1891 1905 1974 
6 884 869 955 1899 1884 1970 
6 877 919 938 1892 1934 1953 
6 886 870 956 1901 1885 1971 
6 860 880 903 1875 1895 1918 
6 861 881 902 1876 1896 1917 
6 907 240 940 1922 437 1955 
6 235 908 941 432 1923 1956 
6 887 854 917 1902 1869 1932 
6 939 883 943 1954 1898 1958 
6 891 858 907 1906 1873 1922 
6 859 892 908 1874 1907 1923 
6 919 237 938 1934 434 1953 
6 849 895 944 1864 1910 1959 
6 890 846 917 1905 1861 1932 
6 238 876 938 435 1891 1953 
6 897 846 942 1912 1861 1957 
6 897 942 958 1912 1957 1973 
6 863 900 918 1878 1915 1933 
6 917 846 979 1932 1861 1994 
6 38 252 955 119 449 1970 
6 252 253 956 449 450 1971 
6 244 909 957 441 1924 1972 
6 945 252 956 1960 449 1971 
6 947 38 955 1962 119 1970 
6 850 856 921 1865 1871 1936 
6 857 851 922 1872 1866 1937 
6 865 906 937 1880 1921 1952 
6 856 850 962 1871 1865 1977 
6 851 857 963 1866 1872 1978 
6 863 944 960 1878 1959 1975 
6 239 32 907 436 113 1922 
6 31 236 908 112 433 1923 
6 925 850 931 1940 1865 1946 
6 851 924 932 1866 1939 1947 
6 868 887 917 1883 1902 1932 
6 29 231 902 110 428 1917 
6 35 249 903 116 446 1918 
6 894 848 949 1909 1863 1964 
6 868 885 985 1883 1900 2000 
6 887 868 986 1902 1883 2001 
6 900 863 915 1915 1878 1930 
6 901 862 914 1916 1877 1929 
6 228 28 926 425 109 1941 
6 37 251 928 118 448 1943 
6 901 232 916 1916 429 1931 
6 865 878 924 1880 1893 1939 
6 879 864 925 1894 1879 1940 
6 883 916 988 1898 1931 2003 
6 223 910 968 420 1925 1983 
6 854 887 913 1869 1902 1928 
6 853 936 937 1868 1951 1952 
6 893 854 913 1908 1869 1928 
6 859 908 919 1874 1923 1934 
6 235 31 908 432 112 1923 
6 32 240 907 113 437 1922 
6 869 898 961 1884 1913 1976 
6 846 890 950 1861 1905 1965 
6 864 879 923 1879 1894 1938 
6 29 902 989 110 1917 2004 
6 35 903 990 116 1918 2005 
6 907 858 920 1922 1873 1935 
6 909 860 911 1924 1875 1926 
6 910 861 912 1925 1876 1927 
6 864 906 951 1879 1921 1966 
6 906 865 952 1921 1880 1967 
6 896 871 977 1911 1886 1992 
6 888 925 951 1903 1940 1966 
6 924 889 952 1939 1904 1967 
6 878 865 936 1893 1880 1951 
6 894 949 966 1909 1964 1981 
6 925 864 951 1940 1879 1966 
6 865 924 952 1880 1939 1967 
6 890 876 971 1905 1891 1986 
6 875 918 965 1890 1933 1980 
6 847 893 961 1862 1908 1976 
6 916 233 988 1931 430 2003 
6 900 248 918 1915 445 1933 
6 899 853 923 1914 1868 1938 
6 858 950 971 1873 1965 1986 
6 877 893 967 1892 1908 1982 
6 898 847 961 1913 1862 1976 
6 893 847 943 1908 1862 1958 
6 912 861 914 1927 1876 1929 
6 911 860 915 1926 1875 1930 
6 871 896 975 1886 1911 1990 
6 930 882 987 1945 1897 2002 
6 848 894 976 1863 1909 1991 
6 895 849 977 1910 1864 1992 
6 950 890 971 1965 1905 1986 
6 238 239 920 435 436 1935 
6 236 237 919 433 434 1934 
6 898 852 954 1913 1867 1969 
6 942 846 950 1957 1861 1965 
6 852 884 973 1867 1899 1988 
6 885 855 974 1900 1870 1989 
6 853 886 975 1868 1901 1990 
6 870 899 976 1885 1914 1991 
6 896 977 983 1911 1992 1998 
6 245 35 990 442 116 2005 
6 230 29 989 427 110 2004 
6 853 896 936 1868 1911 1951 
6 863 918 944 1878 1933 1959 
6 906 864 937 1921 1879 1952 
6 855 897 958 1870 1912 1973 
6 231 232 901 428 429 1916 
6 249 248 900 446 445 1915 
6 935 874 964 1950 1889 1979 
6 918 247 965 1933 444 1980 
6 862 916 939 1877 1931 1954 
6 187 186 906 384 383 1921 
6 976 899 984 1991 1914 1999 
6 242 930 987 439 1945 2002 
6 848 976 984 1863 1991 1999 
6 897 868 979 1912 1883 1994 
6 882 942 950 1897 1957 1965 
6 894 852 973 1909 1867 1988 
6 855 895 974 1870 1910 1989 
6 896 853 975 1911 1868 1990 
6 977 849 983 1992 1864 1998 
6 855 911 915 1870 1926 1930 
6 852 912 914 1867 1927 1929 
6 973 870 976 1988 1885 1991 
6 871 974 977 1886 1989 1992 
6 906 186 951 1921 383 1966 
6 187 906 952 384 1921 1967 
6 918 875 944 1933 1890 1959 
6 243 244 957 440 441 1972 
6 943 883 970 1958 1898 1985 
6 869 913 947 1884 1928 1962 
6 895 855 960 1910 1870 1975 
6 924 851 963 1939 1866 1978 
6 850 925 962 1865 1940 1977 
6 978 878 983 1993 1893 1998 
6 879 925 931 1894 1940 1946 
6 924 878 932 1939 1893 1947 
6 252 945 955 449 1960 1970 
6 253 948 956 450 1963 1971 
6 852 894 966 1867 1909 1981 
6 856 904 927 1871 1919 1942 
6 905 857 929 1920 1872 1944 
6 913 887 947 1928 1902 1962 
6 866 909 911 1881 1924 1926 
6 867 910 912 1882 1925 1927 
6 846 897 979 1861 1912 1994 
6 221 935 964 418 1950 1979 
6 232 233 916 429 430 1931 
6 249 900 903 446 1915 1918 
6 231 901 902 428 1916 1917 
6 874 935 949 1889 1950 1964 
6 916 883 939 1931 1898 1954 
6 879 980 984 1894 1995 1999 
6 893 913 961 1908 1928 1976 
6 923 853 937 1938 1868 1952 
6 248 247 918 445 444 1933 
6 942 866 958 1957 1881 1973 
6 852 914 954 1867 1929 1969 
6 932 878 978 1947 1893 1993 
6 855 915 960 1870 1930 1975 
6 222 223 968 419 420 1983 
6 953 868 985 1968 1883 2000 
6 868 953 986 1883 1968 2001 
6 864 923 937 1879 1938 1952 
6 879 931 980 1894 1946 1995 
6 228 926 927 425 1941 1942 
6 928 251 929 1943 448 1944 
6 935 867 949 1950 1882 1964 
6 891 907 940 1906 1922 1955 
6 908 892 941 1923 1907 1956 
6 877 938 959 1892 1953 1974 
6 242 243 930 439 440 1945 
6 870 945 956 1885 1960 1971 
6 869 947 955 1884 1962 1970 
6 945 870 973 1960 1885 1988 
6 871 946 974 1886 1961 1989 
6 948 871 975 1963 1886 1990 
6 221 222 935 418 419 1950 
6 945 884 955 1960 1899 1970 
6 948 886 956 1963 1901 1971 
6 880 244 933 1895 441 1948 
6 881 223 934 1896 420 1949 
6 859 919 967 1874 1934 1982 
6 237 238 938 434 435 1953 
6 974 895 977 1989 1910 1992 
6 894 973 976 1909 1988 1991 
6 938 876 959 1953 1891 1974 
6 949 867 966 1964 1882 1981 
6 904 856 962 1919 1871 1977 
6 857 905 963 1872 1920 1978 
6 859 943 970 1874 1958 1985 
6 882 930 942 1897 1945 1957 
6 919 877 967 1934 1892 1982 
6 913 869 961 1928 1884 1976 
6 930 866 942 1945 1881 1957 
6 254 38 953 451 119 1968 
6 911 855 958 1926 1870 1973 
6 912 852 966 1927 1867 1981 
6 902 881 989 1917 1896 2004 
6 903 880 990 1918 1895 2005 
6 186 185 951 383 382 1966 
6 188 187 952 385 384 1967 
6 858 891 969 1873 1906 1984 
6 892 859 970 1907 1874 1985 
6 241 891 940 438 1906 1955 
6 892 234 941 1907 431 1956 
6 926 872 927 1941 1887 1942 
6 873 928 929 1888 1943 1944 
6 220 221 964 417 418 1979 
6 247 246 965 444 443 1980 
6 923 879 984 1938 1894 1999 
6 866 911 958 1881 1926 1973 
6 849 978 983 1864 1993 1998 
6 867 912 966 1882 1927 1981 
6 868 917 979 1883 1932 1994 
6 878 936 983 1893 1951 1998 
6 914 862 954 1929 1877 1969 
6 241 242 987 438 439 2002 
6 233 234 988 430 431 2003 
6 920 858 971 1935 1873 1986 
6 34 245 933 115 442 1948 
6 25 230 934 106 427 1949 
6 910 867 968 1925 1882 1983 
6 943 859 967 1958 1874 1982 
6 908 236 919 1923 433 1934 
6 980 848 984 1995 1863 1999 
6 946 871 972 1961 1886 1987 
6 871 948 972 1886 1963 1987 
6 185 888 951 382 1903 1966 
6 889 188 952 1904 385 1967 
6 239 907 920 436 1922 1935 
6 915 863 960 1930 1878 1975 
6 899 923 984 1914 1938 1999 
6 931 850 981 1946 1865 1996 
6 851 932 982 1866 1947 1997 
6 240 33 940 437 114 1955 
6 30 235 941 111 432 1956 
6 867 935 968 1882 1950 1983 
6 893 943 967 1908 1958 1982 
6 889 924 963 1904 1939 1978 
6 925 888 962 1940 1903 1977 
6 909 866 957 1924 1881 1972 
6 930 243 957 1945 440 1972 
6 253 254 972 450 451 1987 
6 891 241 987 1906 438 2002 
6 234 892 988 431 1907 2003 
6 866 930 957 1881 1945 1972 
6 936 896 983 1951 1911 1998 
6 950 858 969 1965 1873 1984 
6 969 891 987 1984 1906 2002 
6 892 970 988 1907 1985 2003 
6 876 920 971 1891 1935 1986 
6 888 185 904 1903 382 1919 
6 188 889 905 385 1904 1920 
6 933 245 990 1948 442 2005 
6 934 230 989 1949 427 2004 
6 946 254 985 1961 451 2000 
6 38 947 986 119 1962 2001 
6 875 965 982 1890 1980 1997 
6 964 874 981 1979 1889 1996 
6 935 222 968 1950 419 1983 
6 254 946 972 451 1961 1987 
6 948 253 972 1963 450 1987 
6 251 11 929 448 92 1944 
6 12 228 927 93 425 1942 
6 882 950 969 1897 1965 1984 
6 949 848 980 1964 1863 1995 
6 932 875 982 1947 1890 1997 
6 874 931 981 1889 1946 1996 
6 874 949 980 1889 1964 1995 
6 849 944 978 1864 1959 1993 
6 884 945 973 1899 1960 1988 
6 946 885 974 1961 1900 1989 
6 886 948 975 1901 1963 1990 
6 944 875 978 1959 1890 1993 
6 885 946 985 1900 1961 2000 
6 947 887 986 1962 1902 2001 
6 921 964 981 1936 1979 1996 
6 965 922 982 1980 1937 1997 
6 850 921 981 1865 1936 1996 
6 922 851 982 1937 1866 1997 
6 254 953 985 451 1968 2000 
6 953 38 986 1968 119 2001 
6 875 932 978 1890 1947 1993 
6 931 874 980 1946 1889 1995 
6 880 933 990 1895 1948 2005 
6 881 934 989 1896 1949 2004 
6 921 220 964 1936 417 1979 
6 246 922 965 443 1937 1980 
6 888 904 962 1903 1919 1977 
6 905 889 963 1920 1904 1978 
6 882 969 987 1897 1984 2002 
6 970 883 988 1985 1898 2003 
6 11 188 905 92 385 1920 
6 11 905 929 92 1920 1944 
6 185 12 904 382 93 1919 
6 904 12 927 1919 93 1942 
6 223 25 934 420 106 1949 
6 234 30 941 431 111 1956 
6 33 241 940 114 438 1955 
6 244 34 933 441 115 1948 
6 26 220 229 107 417 426 
6 28 229 926 109 426 1941 
6 36 250 246 117 447 443 
6 250 37 928 447 118 1943 
6 229 220 872 426 417 1887 
6 872 220 921 1887 417 1936 
6 229 872 926 426 1887 1941 
6 246 250 873 443 447 1888 
6 246 873 922 443 1888 1937 
6 873 250 928 1888 447 1943 
6 856 872 921 1871 1887 1936 
6 872 856 927 1887 1871 1942 
6 873 857 922 1888 1872 1937 
6 857 873 929 1872 1888 1944 
6 1084 1042 1100 2099 2057 2115 
6 1005 1045 1060 2020 2060 2075 
6 1006 1046 1059 2021 2061 2074 
6 1022 1038 1104 2037 2053 2119 
6 1038 999 1104 2053 2014 2119 
6 1045 1005 1047 2060 2020 2062 
6 1046 1006 1048 2061 2021 2063 
6 999 1035 1104 2014 2050 2119 
6 258 1021 1064 455 2036 2079 
6 1014 1029 1042 2029 2044 2057 
6 1016 1030 1043 2031 2045 2058 
6 1031 1016 1044 2046 2031 2059 
6 180 1026 1055 377 2041 2070 
6 265 1025 1054 462 2040 2069 
6 1028 991 1088 2043 2006 2103 
6 1007 1084 1100 2022 2099 2115 
6 1007 1046 1061 2022 2061 2076 
6 1026 1006 1055 2041 2021 2070 
6 1025 1005 1054 2040 2020 2069 
6 1067 1010 1082 2082 2025 2097 
6 1029 997 1042 2044 2012 2057 
6 1030 1000 1043 2045 2015 2058 
6 998 1031 1044 2013 2046 2059 
6 1089 1043 1099 2104 2058 2114 
6 992 1042 1084 2007 2057 2099 
6 1035 1021 1104 2050 2036 2119 
6 1029 1014 1101 2044 2029 2116 
6 1063 1022 1083 2078 2037 2098 
6 1005 1025 1047 2020 2040 2062 
6 1006 1026 1048 2021 2041 2063 
6 256 1052 1085 453 2067 2100 
6 1053 261 1086 2068 458 2101 
6 991 1028 1087 2006 2043 2102 
6 1040 991 1087 2055 2006 2102 
6 1032 999 1074 2047 2014 2089 
6 1003 1036 1052 2018 2051 2067 
6 1037 1004 1053 2052 2019 2068 
6 259 1063 1083 456 2078 2098 
6 1021 258 1083 2036 455 2098 
6 1038 991 1074 2053 2006 2089 
6 1035 999 1056 2050 2014 2071 
6 999 1038 1074 2014 2053 2089 
6 1008 1045 1062 2023 2060 2077 
6 1040 1087 1110 2055 2102 2125 
6 994 1043 1089 2009 2058 2104 
6 49 279 1101 130 476 2116 
6 281 49 1102 478 130 2117 
6 265 1054 1103 462 2069 2118 
6 1008 1089 1099 2023 2104 2114 
6 1091 281 1102 2106 478 2117 
6 1092 49 1101 2107 130 2116 
6 995 1001 1065 2010 2016 2080 
6 1002 996 1066 2017 2011 2081 
6 1010 1051 1082 2025 2066 2097 
6 1001 995 1105 2016 2010 2120 
6 996 1002 1106 2011 2017 2121 
6 39 257 1052 120 454 2067 
6 260 40 1053 457 121 2068 
6 1069 995 1076 2084 2010 2091 
6 996 1068 1077 2011 2083 2092 
6 43 267 1047 124 464 2062 
6 36 246 1048 117 443 2063 
6 1039 993 1094 2054 2008 2109 
6 1030 1016 1130 2045 2031 2145 
6 1016 1031 1131 2031 2046 2146 
6 1045 1008 1060 2060 2023 2075 
6 1046 1007 1059 2061 2022 2074 
6 277 48 1070 474 129 2085 
6 45 272 1072 126 469 2087 
6 992 1035 1109 2007 2050 2124 
6 1046 247 1061 2061 444 2076 
6 1010 1023 1068 2025 2038 2083 
6 1024 1009 1069 2039 2024 2084 
6 1027 1061 1132 2042 2076 2147 
6 180 1055 1113 377 2070 2128 
6 1053 1004 1063 2068 2019 2078 
6 999 1032 1056 2014 2047 2071 
6 40 261 1053 121 458 2068 
6 256 39 1052 453 120 2067 
6 1035 992 1095 2050 2007 2110 
6 1023 1010 1067 2038 2025 2082 
6 1014 1042 1109 2029 2057 2124 
6 36 1048 1134 117 2063 2149 
6 43 1047 1135 124 2062 2150 
6 1003 1052 1064 2018 2067 2079 
6 1054 1005 1057 2069 2020 2072 
6 1055 1006 1058 2070 2021 2073 
6 1051 1010 1097 2066 2025 2112 
6 1009 1051 1096 2024 2066 2111 
6 1015 1041 1122 2030 2056 2137 
6 998 1067 1082 2013 2082 2097 
6 1033 1069 1096 2048 2084 2111 
6 1068 1034 1097 2083 2049 2112 
6 1009 1024 1081 2024 2039 2096 
6 1039 1094 1111 2054 2109 2126 
6 1069 1009 1096 2084 2024 2111 
6 1010 1068 1097 2025 2083 2112 
6 1021 1035 1116 2036 2050 2131 
6 1074 991 1121 2089 2006 2136 
6 1020 1062 1108 2035 2077 2123 
6 1061 248 1132 2076 445 2147 
6 1045 268 1062 2060 465 2077 
6 998 1044 1067 2013 2059 2082 
6 1074 1013 1102 2089 2028 2117 
6 1095 1003 1116 2110 2018 2131 
6 1038 1022 1112 2053 2037 2127 
6 1032 1074 1102 2047 2089 2117 
6 991 1038 1088 2006 2053 2103 
6 1058 1006 1059 2073 2021 2074 
6 1057 1005 1060 2072 2020 2075 
6 1042 992 1109 2057 2007 2124 
6 1041 1015 1120 2056 2030 2135 
6 1075 1028 1133 2090 2043 2148 
6 993 1039 1122 2008 2054 2137 
6 991 1040 1121 2006 2055 2136 
6 1035 1095 1116 2050 2110 2131 
6 257 258 1064 454 455 2079 
6 259 260 1063 456 457 2078 
6 1042 997 1100 2057 2012 2115 
6 1043 1000 1099 2058 2015 2114 
6 997 1029 1119 2012 2044 2134 
6 1000 1030 1118 2015 2045 2133 
6 1031 998 1120 2046 2013 2135 
6 1122 1041 1128 2137 2056 2143 
6 255 36 1134 452 117 2149 
6 266 43 1135 463 124 2150 
6 1035 1056 1109 2050 2071 2124 
6 1041 998 1081 2056 2013 2096 
6 1014 1056 1092 2029 2071 2107 
6 1008 1062 1089 2023 2077 2104 
6 1051 1009 1082 2066 2024 2097 
6 246 247 1046 443 444 2061 
6 267 268 1045 464 465 2060 
6 1016 1043 1124 2031 2058 2139 
6 1044 1016 1124 2059 2031 2139 
6 1080 1019 1107 2095 2034 2122 
6 1056 1032 1092 2071 2047 2107 
6 1062 269 1108 2077 466 2123 
6 1007 1061 1084 2022 2076 2099 
6 275 274 1051 472 471 2066 
6 263 1075 1133 460 2090 2148 
6 992 1084 1095 2007 2099 2110 
6 1039 997 1119 2054 2012 2134 
6 1040 1000 1118 2055 2015 2133 
6 998 1041 1120 2013 2056 2135 
6 993 1122 1128 2008 2137 2143 
6 1000 1057 1060 2015 2072 2075 
6 997 1058 1059 2012 2073 2074 
6 1119 1015 1122 2134 2030 2137 
6 1118 1013 1121 2133 2028 2136 
6 275 1051 1097 472 2066 2112 
6 1051 274 1096 2066 471 2111 
6 1062 1020 1089 2077 2035 2104 
6 264 265 1103 461 462 2118 
6 1028 1088 1115 2043 2103 2130 
6 1068 996 1106 2083 2011 2121 
6 995 1069 1105 2010 2084 2120 
6 1024 1069 1076 2039 2084 2091 
6 1068 1023 1077 2083 2038 2092 
6 279 1090 1101 476 2105 2116 
6 1043 994 1124 2058 2009 2139 
6 49 1092 1102 130 2107 2117 
6 1084 1027 1095 2099 2042 2110 
6 997 1039 1111 2012 2054 2126 
6 1000 1040 1110 2015 2055 2125 
6 1001 1049 1071 2016 2064 2086 
6 1050 1002 1073 2065 2017 2088 
6 1123 1023 1129 2138 2038 2144 
6 1081 998 1082 2096 2013 2097 
6 1044 1124 1129 2059 2139 2144 
6 1011 1054 1057 2026 2069 2072 
6 1012 1055 1058 2027 2070 2073 
6 182 1080 1107 379 2095 2122 
6 1024 1125 1128 2039 2140 2143 
6 247 248 1061 444 445 2076 
6 267 1045 1047 464 2060 2062 
6 246 1046 1048 443 2061 2063 
6 1019 1080 1094 2034 2095 2109 
6 1061 1027 1084 2076 2042 2099 
6 268 269 1062 465 466 2077 
6 1000 1060 1099 2015 2075 2114 
6 997 1059 1100 2012 2074 2115 
6 1077 1023 1123 2092 2038 2138 
6 1124 994 1129 2139 2009 2144 
6 1087 1011 1110 2102 2026 2125 
6 181 180 1113 378 377 2128 
6 1016 1098 1130 2031 2113 2145 
6 1098 1016 1131 2113 2031 2146 
6 1013 1074 1121 2028 2089 2136 
6 1024 1076 1125 2039 2091 2140 
6 1009 1081 1082 2024 2096 2097 
6 1072 272 1073 2087 469 2088 
6 277 1070 1071 474 2085 2086 
6 1080 1012 1094 2095 2027 2109 
6 1052 1036 1085 2067 2051 2100 
6 1037 1053 1086 2052 2068 2101 
6 1083 1022 1104 2098 2037 2119 
6 263 264 1075 460 461 2090 
6 1013 1091 1102 2028 2106 2117 
6 1014 1092 1101 2029 2107 2116 
6 1090 1015 1119 2105 2030 2134 
6 1091 1013 1118 2106 2028 2133 
6 1015 1093 1120 2030 2108 2135 
6 1056 1014 1109 2071 2029 2124 
6 182 181 1080 379 378 2095 
6 1090 1029 1101 2105 2044 2116 
6 1092 1032 1102 2107 2047 2117 
6 1025 265 1078 2040 462 2093 
6 1026 180 1079 2041 377 2094 
6 1063 1004 1112 2078 2019 2127 
6 258 259 1083 455 456 2098 
6 1040 1118 1121 2055 2133 2136 
6 1039 1119 1122 2054 2134 2137 
6 1021 1083 1104 2036 2098 2119 
6 1094 1012 1111 2109 2027 2126 
6 1049 1001 1105 2064 2016 2120 
6 1002 1050 1106 2017 2065 2121 
6 1088 1004 1115 2103 2019 2130 
6 1028 1075 1087 2043 2090 2102 
6 1022 1063 1112 2037 2078 2127 
6 1075 1011 1087 2090 2026 2102 
6 280 281 1098 477 478 2113 
6 1058 997 1111 2073 2012 2126 
6 1057 1000 1110 2072 2015 2125 
6 1047 1025 1135 2062 2040 2150 
6 1048 1026 1134 2063 2041 2149 
6 274 273 1096 471 470 2111 
6 276 275 1097 473 472 2112 
6 1036 1003 1114 2051 2018 2129 
6 1004 1037 1115 2019 2052 2130 
6 1036 249 1085 2051 446 2100 
6 262 1037 1086 459 2052 2101 
6 1070 1017 1071 2085 2032 2086 
6 1018 1072 1073 2033 2087 2088 
6 183 182 1107 380 379 2122 
6 269 270 1108 466 467 2123 
6 1023 1067 1129 2038 2082 2144 
6 1011 1057 1110 2026 2072 2125 
6 1012 1058 1111 2027 2073 2126 
6 1081 1024 1128 2096 2039 2143 
6 1059 1007 1100 2074 2022 2115 
6 1060 1008 1099 2075 2023 2114 
6 994 1123 1129 2009 2138 2144 
6 248 249 1132 445 446 2147 
6 262 263 1133 459 460 2148 
6 1125 993 1128 2140 2008 2143 
6 1003 1064 1116 2018 2079 2131 
6 42 266 1078 123 463 2093 
6 10 255 1079 91 452 2094 
6 1055 1012 1113 2070 2027 2128 
6 1004 1088 1112 2019 2103 2127 
6 260 1053 1063 457 2068 2078 
6 1015 1090 1117 2030 2105 2132 
6 1093 1015 1117 2108 2030 2132 
6 273 1033 1096 470 2048 2111 
6 1034 276 1097 2049 473 2112 
6 1052 257 1064 2067 454 2079 
6 1067 1044 1129 2082 2059 2144 
6 1076 995 1126 2091 2010 2141 
6 996 1077 1127 2011 2092 2142 
6 35 256 1085 116 453 2100 
6 261 41 1086 458 122 2101 
6 1012 1080 1113 2027 2095 2128 
6 1088 1038 1112 2103 2053 2127 
6 1034 1068 1106 2049 2083 2121 
6 1069 1033 1105 2084 2048 2120 
6 1054 1011 1103 2069 2026 2118 
6 1075 264 1103 2090 461 2118 
6 279 280 1117 476 477 2132 
6 249 1036 1132 446 2051 2147 
6 1037 262 1133 2052 459 2148 
6 1011 1075 1103 2026 2090 2118 
6 1041 1081 1128 2056 2096 2143 
6 1003 1095 1114 2018 2110 2129 
6 1036 1114 1132 2051 2129 2147 
6 1115 1037 1133 2130 2052 2148 
6 1064 1021 1116 2079 2036 2131 
6 276 1034 1050 473 2049 2065 
6 1033 273 1049 2048 470 2064 
6 1078 266 1135 2093 463 2150 
6 1079 255 1134 2094 452 2149 
6 281 1091 1130 478 2106 2145 
6 1093 280 1131 2108 477 2146 
6 1107 1019 1126 2122 2034 2141 
6 1020 1108 1127 2035 2123 2142 
6 1080 181 1113 2095 378 2128 
6 1090 279 1117 2105 476 2132 
6 280 1093 1117 477 2108 2132 
6 272 46 1073 469 127 2088 
6 47 277 1071 128 474 2086 
6 1095 1027 1114 2110 2042 2129 
6 1094 993 1125 2109 2008 2140 
6 1019 1076 1126 2034 2091 2141 
6 1077 1020 1127 2092 2035 2142 
6 1019 1094 1125 2034 2109 2140 
6 994 1089 1123 2009 2104 2138 
6 1030 1091 1118 2045 2106 2133 
6 1029 1090 1119 2044 2105 2134 
6 1093 1031 1120 2108 2046 2135 
6 1089 1020 1123 2104 2035 2138 
6 1091 1030 1130 2106 2045 2145 
6 1031 1093 1131 2046 2108 2146 
6 1065 1107 1126 2080 2122 2141 
6 1108 1066 1127 2123 2081 2142 
6 995 1065 1126 2010 2080 2141 
6 1066 996 1127 2081 2011 2142 
6 1098 281 1130 2113 478 2145 
6 280 1098 1131 477 2113 2146 
6 1020 1077 1123 2035 2092 2138 
6 1076 1019 1125 2091 2034 2140 
6 1025 1078 1135 2040 2093 2150 
6 1026 1079 1134 2041 2094 2149 
6 1065 183 1107 2080 380 2122 
6 270 1066 1108 467 2081 2123 
6 1033 1049 1105 2048 2064 2120 
6 1050 1034 1106 2065 2049 2121 
6 1114 1027 1132 2129 2042 2147 
6 1028 1115 1133 2043 2130 2148 
6 180 10 1079 377 91 2094 
6 249 35 1085 446 116 2100 
6 41 262 1086 122 459 2101 
6 265 42 1078 462 123 2093 
6 46 276 1050 127 473 2065 
6 46 1050 1073 127 2065 2088 
6 273 47 1049 470 128 2064 
6 1049 47 1071 2064 128 2086 
6 9 183 278 90 380 475 
6 44 271 270 125 468 467 
6 271 45 1072 468 126 2087 
6 48 278 1070 129 475 2085 
6 278 183 1017 475 380 2032 
6 1017 183 1065 2032 380 2080 
6 270 271 1018 467 468 2033 
6 270 1018 1066 467 2033 2081 
6 1018 271 1072 2033 468 2087 
6 278 1017 1070 475 2032 2085 
6 1001 1017 1065 2016 2032 2080 
6 1017 1001 1071 2032 2016 2086 
6 1018 1002 1066 2033 2017 2081 
6 1002 1018 1073 2017 2033 2088 
6 1150 1190 1205 2165 2205 2220 
6 1191 1151 1204 2206 2166 2219 
6 1183 1167 1250 2198 2182 2265 
6 1144 1183 1250 2159 2198 2265 
6 1190 1150 1192 2205 2165 2207 
6 1151 1191 1193 2166 2206 2208 
6 1180 1144 1250 2195 2159 2265 
6 1166 275 1210 2181 472 2225 
6 1175 1158 1187 2190 2173 2202 
6 1159 1174 1188 2174 2189 2203 
6 1176 1161 1189 2191 2176 2204 
6 1170 178 1199 2185 375 2214 
6 287 1171 1200 484 2186 2215 
6 1137 1173 1233 2152 2188 2248 
6 1151 1170 1199 2166 2185 2214 
6 1171 1150 1200 2186 2165 2215 
6 1155 1226 1227 2170 2241 2242 
6 1174 1142 1188 2189 2157 2203 
6 1145 1175 1187 2160 2190 2202 
6 1143 1176 1189 2158 2191 2204 
6 1144 1180 1206 2159 2195 2221 
6 1234 1185 1252 2249 2200 2267 
6 1184 1235 1251 2199 2250 2266 
6 1166 1180 1250 2181 2195 2265 
6 1174 1159 1244 2189 2174 2259 
6 1167 1209 1228 2182 2224 2243 
6 1161 1176 1245 2176 2191 2260 
6 1150 1171 1192 2165 2186 2207 
6 1170 1151 1193 2185 2166 2208 
6 1197 283 1230 2212 480 2245 
6 282 1198 1229 479 2213 2244 
6 1177 1144 1206 2192 2159 2221 
6 1173 1137 1232 2188 2152 2247 
6 1148 1181 1198 2163 2196 2213 
6 1182 1149 1197 2197 2164 2212 
6 1209 274 1228 2224 471 2243 
6 1139 1185 1234 2154 2200 2249 
6 1184 1138 1235 2199 2153 2250 
6 1180 1136 1206 2195 2151 2221 
6 275 1166 1228 472 2181 2243 
6 1137 1188 1232 2152 2203 2247 
6 1187 1136 1231 2202 2151 2246 
6 1232 1188 1249 2247 2203 2264 
6 1187 1231 1248 2202 2246 2263 
6 1191 1152 1208 2206 2167 2223 
6 1153 1190 1207 2168 2205 2222 
6 1206 1136 1270 2221 2151 2285 
6 60 306 1244 141 503 2259 
6 307 308 1245 504 505 2260 
6 1199 178 1247 2214 375 2262 
6 287 1200 1246 484 2215 2261 
6 308 1237 1245 505 2252 2260 
6 1238 60 1244 2253 141 2259 
6 1146 1140 1211 2161 2155 2226 
6 1141 1147 1212 2156 2162 2227 
6 1196 1155 1227 2211 2170 2242 
6 1140 1146 1254 2155 2161 2269 
6 1147 1141 1255 2162 2156 2270 
6 1153 1234 1252 2168 2249 2267 
6 1235 1152 1251 2250 2167 2266 
6 47 273 1198 128 470 2213 
6 276 46 1197 473 127 2212 
6 1140 1214 1222 2155 2229 2237 
6 1215 1141 1223 2230 2156 2238 
6 1158 1177 1206 2173 2192 2221 
6 52 289 1192 133 486 2207 
6 301 59 1193 498 140 2208 
6 1158 1175 1275 2173 2190 2290 
6 1177 1158 1276 2192 2173 2291 
6 1190 1153 1205 2205 2168 2220 
6 1152 1191 1204 2167 2206 2219 
6 54 294 1216 135 491 2231 
6 299 57 1218 496 138 2233 
6 1154 1168 1214 2169 2183 2229 
6 1169 1155 1215 2184 2170 2230 
6 1144 1177 1203 2159 2192 2218 
6 1226 1143 1227 2241 2158 2242 
6 1183 1144 1203 2198 2159 2218 
6 1148 1198 1209 2163 2213 2224 
6 46 283 1197 127 480 2212 
6 282 47 1198 479 128 2213 
6 1159 1188 1253 2174 2203 2268 
6 1136 1180 1240 2151 2195 2255 
6 1168 1154 1213 2183 2169 2228 
6 1193 59 1279 2208 140 2294 
6 52 1192 1280 133 2207 2295 
6 1197 1149 1210 2212 2164 2225 
6 1151 1199 1201 2166 2214 2216 
6 1200 1150 1202 2215 2165 2217 
6 1196 1154 1241 2211 2169 2256 
6 1155 1196 1242 2170 2211 2257 
6 1160 1186 1266 2175 2201 2281 
6 1214 1178 1241 2229 2193 2256 
6 1179 1215 1242 2194 2230 2257 
6 1155 1169 1226 2170 2184 2241 
6 1154 1214 1241 2169 2229 2256 
6 1215 1155 1242 2230 2170 2257 
6 1180 1166 1261 2195 2181 2276 
6 1164 1207 1256 2179 2222 2271 
6 1208 1165 1257 2223 2180 2272 
6 1137 1183 1253 2152 2198 2268 
6 302 1191 1208 499 2206 2223 
6 1190 290 1207 2205 487 2222 
6 1143 1189 1213 2158 2204 2228 
6 1149 1240 1261 2164 2255 2276 
6 1167 1183 1258 2182 2198 2273 
6 1188 1137 1253 2203 2152 2268 
6 1183 1137 1233 2198 2152 2248 
6 1151 1201 1204 2166 2216 2219 
6 1202 1150 1205 2217 2165 2220 
6 1186 1160 1265 2201 2175 2280 
6 1221 1172 1278 2236 2187 2293 
6 1173 1220 1277 2188 2235 2292 
6 1138 1184 1266 2153 2199 2281 
6 1185 1139 1267 2200 2154 2282 
6 1240 1180 1261 2255 2195 2276 
6 275 276 1210 472 473 2225 
6 273 274 1209 470 471 2224 
6 1231 1136 1240 2246 2151 2255 
6 1142 1174 1263 2157 2189 2278 
6 1175 1145 1264 2190 2160 2279 
6 1176 1143 1265 2191 2158 2280 
6 1189 1161 1267 2204 2176 2282 
6 1266 1186 1273 2281 2201 2288 
6 59 305 1279 140 502 2294 
6 288 52 1280 485 133 2295 
6 1186 1143 1226 2201 2158 2241 
6 1153 1207 1234 2168 2222 2249 
6 1208 1152 1235 2223 2167 2250 
6 1154 1196 1227 2169 2211 2242 
6 1188 1142 1249 2203 2157 2264 
6 1145 1187 1248 2160 2202 2263 
6 289 290 1190 486 487 2205 
6 302 301 1191 499 498 2206 
6 1207 291 1256 2222 488 2271 
6 303 1208 1257 500 2223 2272 
6 296 297 1196 493 494 2211 
6 1189 1267 1274 2204 2282 2289 
6 1220 176 1277 2235 373 2292 
6 285 1221 1278 482 2236 2293 
6 1267 1139 1274 2282 2154 2289 
6 1187 1158 1270 2202 2173 2285 
6 1172 1231 1240 2187 2246 2255 
6 1184 1142 1263 2199 2157 2278 
6 1145 1185 1264 2160 2200 2279 
6 1143 1186 1265 2158 2201 2280 
6 1138 1266 1273 2153 2281 2288 
6 1145 1202 1205 2160 2217 2220 
6 1201 1142 1204 2216 2157 2219 
6 1263 1160 1266 2278 2175 2281 
6 1161 1264 1267 2176 2279 2282 
6 296 1196 1241 493 2211 2256 
6 1196 297 1242 2211 494 2257 
6 1207 1164 1234 2222 2179 2249 
6 1165 1208 1235 2180 2223 2250 
6 178 177 1247 375 374 2262 
6 286 287 1246 483 484 2261 
6 1233 1173 1259 2248 2188 2274 
6 1159 1203 1238 2174 2218 2253 
6 1142 1184 1251 2157 2199 2266 
6 1185 1145 1252 2200 2160 2267 
6 1214 1140 1254 2229 2155 2269 
6 1141 1215 1255 2156 2230 2270 
6 1169 1269 1273 2184 2284 2288 
6 1214 1168 1222 2229 2183 2237 
6 1169 1215 1223 2184 2230 2238 
6 306 1236 1244 503 2251 2259 
6 1239 307 1245 2254 504 2260 
6 1194 1146 1217 2209 2161 2232 
6 1147 1195 1219 2162 2210 2234 
6 1268 1168 1274 2283 2183 2289 
6 1203 1177 1238 2218 2192 2253 
6 1199 1156 1201 2214 2171 2216 
6 1157 1200 1202 2172 2215 2217 
6 1136 1187 1270 2151 2202 2285 
6 289 1190 1192 486 2205 2207 
6 1191 301 1193 2206 498 2208 
6 1183 1203 1253 2198 2218 2268 
6 1143 1213 1227 2158 2228 2242 
6 290 291 1207 487 488 2222 
6 303 302 1208 500 499 2223 
6 1156 1232 1249 2171 2247 2264 
6 1231 1157 1248 2246 2172 2263 
6 1222 1168 1268 2237 2183 2283 
6 1169 1223 1269 2184 2238 2284 
6 1145 1205 1252 2160 2220 2267 
6 1204 1142 1251 2219 2157 2266 
6 1243 1158 1275 2258 2173 2290 
6 1158 1243 1276 2173 2258 2291 
6 1213 1154 1227 2228 2169 2242 
6 1216 294 1217 2231 491 2232 
6 299 1218 1219 496 2233 2234 
6 1182 1197 1230 2197 2212 2245 
6 1198 1181 1229 2213 2196 2244 
6 1167 1228 1250 2182 2243 2265 
6 177 176 1220 374 373 2235 
6 285 286 1221 482 483 2236 
6 1237 1161 1245 2252 2176 2260 
6 1159 1238 1244 2174 2253 2259 
6 1236 1160 1263 2251 2175 2278 
6 1161 1237 1264 2176 2252 2279 
6 1160 1239 1265 2175 2254 2280 
6 1236 1174 1244 2251 2189 2259 
6 1176 1239 1245 2191 2254 2260 
6 1171 287 1224 2186 484 2239 
6 178 1170 1225 375 2185 2240 
6 1148 1209 1258 2163 2224 2273 
6 274 275 1228 471 472 2243 
6 1184 1263 1266 2199 2278 2281 
6 1264 1185 1267 2279 2200 2282 
6 1228 1166 1250 2243 2181 2265 
6 1146 1194 1254 2161 2209 2269 
6 1195 1147 1255 2210 2162 2270 
6 1148 1233 1259 2163 2248 2274 
6 1172 1221 1231 2187 2236 2246 
6 1220 1173 1232 2235 2188 2247 
6 1209 1167 1258 2224 2182 2273 
6 1203 1159 1253 2218 2174 2268 
6 1221 1157 1231 2236 2172 2246 
6 1156 1220 1232 2171 2235 2247 
6 308 60 1243 505 141 2258 
6 1202 1145 1248 2217 2160 2263 
6 1142 1201 1249 2157 2216 2264 
6 1192 1171 1280 2207 2186 2295 
6 1170 1193 1279 2185 2208 2294 
6 295 296 1241 492 493 2256 
6 297 298 1242 494 495 2257 
6 1181 1148 1259 2196 2163 2274 
6 1149 1182 1260 2164 2197 2275 
6 1181 175 1229 2196 372 2244 
6 284 1182 1230 481 2197 2245 
6 1162 1216 1217 2177 2231 2232 
6 1218 1163 1219 2233 2178 2234 
6 291 292 1256 488 489 2271 
6 304 303 1257 501 500 2272 
6 1168 1213 1274 2183 2228 2289 
6 1201 1156 1249 2216 2171 2264 
6 1157 1202 1248 2172 2217 2263 
6 1269 1138 1273 2284 2153 2288 
6 1158 1206 1270 2173 2221 2285 
6 1226 1169 1273 2241 2184 2288 
6 1139 1268 1274 2154 2283 2289 
6 284 285 1278 481 482 2293 
6 176 175 1277 373 372 2292 
6 1210 1149 1261 2225 2164 2276 
6 51 288 1224 132 485 2239 
6 305 7 1225 502 88 2240 
6 1233 1148 1258 2248 2163 2273 
6 1198 273 1209 2213 470 2224 
6 1160 1236 1262 2175 2251 2277 
6 1239 1160 1262 2254 2175 2277 
6 1178 295 1241 2193 492 2256 
6 298 1179 1242 495 2194 2257 
6 276 1197 1210 473 2212 2225 
6 1152 1204 1251 2167 2219 2266 
6 1205 1153 1252 2220 2168 2267 
6 1213 1189 1274 2228 2204 2289 
6 1140 1222 1271 2155 2237 2286 
6 1223 1141 1272 2238 2156 2287 
6 8 282 1229 89 479 2244 
6 283 50 1230 480 131 2245 
6 1183 1233 1258 2198 2248 2273 
6 1178 1214 1254 2193 2229 2269 
6 1215 1179 1255 2230 2194 2270 
6 1200 1157 1246 2215 2172 2261 
6 1156 1199 1247 2171 2214 2262 
6 177 1220 1247 374 2235 2262 
6 1221 286 1246 2236 483 2261 
6 306 307 1262 503 504 2277 
6 175 1181 1277 372 2196 2292 
6 1182 284 1278 2197 481 2293 
6 1157 1221 1246 2172 2236 2261 
6 1220 1156 1247 2235 2171 2262 
6 1186 1226 1273 2201 2241 2288 
6 1240 1149 1260 2255 2164 2275 
6 1181 1259 1277 2196 2274 2292 
6 1260 1182 1278 2275 2197 2293 
6 1166 1210 1261 2181 2225 2276 
6 295 1178 1194 492 2193 2209 
6 1179 298 1195 2194 495 2210 
6 1224 288 1280 2239 485 2295 
6 305 1225 1279 502 2240 2294 
6 1237 308 1275 2252 505 2290 
6 60 1238 1276 141 2253 2291 
6 1164 1256 1271 2179 2271 2286 
6 1257 1165 1272 2272 2180 2287 
6 1236 306 1262 2251 503 2277 
6 307 1239 1262 504 2254 2277 
6 56 299 1219 137 496 2234 
6 294 55 1217 491 136 2232 
6 1172 1240 1260 2187 2255 2275 
6 1222 1164 1271 2237 2179 2286 
6 1165 1223 1272 2180 2238 2287 
6 1139 1234 1268 2154 2249 2283 
6 1235 1138 1269 2250 2153 2284 
6 1174 1236 1263 2189 2251 2278 
6 1237 1175 1264 2252 2190 2279 
6 1239 1176 1265 2254 2191 2280 
6 1234 1164 1268 2249 2179 2283 
6 1165 1235 1269 2180 2250 2284 
6 1175 1237 1275 2190 2252 2290 
6 1238 1177 1276 2253 2192 2291 
6 1256 1211 1271 2271 2226 2286 
6 1212 1257 1272 2227 2272 2287 
6 1211 1140 1271 2226 2155 2286 
6 1141 1212 1272 2156 2227 2287 
6 308 1243 1275 505 2258 2290 
6 1243 60 1276 2258 141 2291 
6 1164 1222 1268 2179 2237 2283 
6 1223 1165 1269 2238 2180 2284 
6 1225 1170 1279 2240 2185 2294 
6 1171 1224 1280 2186 2239 2295 
6 292 1211 1256 489 2226 2271 
6 1212 304 1257 2227 501 2272 
6 1194 1178 1254 2209 2193 2269 
6 1179 1195 1255 2194 2210 2270 
6 1259 1173 1277 2274 2188 2292 
6 1172 1260 1278 2187 2275 2293 
6 7 178 1225 88 375 2240 
6 175 8 1229 372 89 2244 
6 50 284 1230 131 481 2245 
6 287 51 1224 484 132 2239 
6 55 295 1194 136 492 2209 
6 55 1194 1217 136 2209 2232 
6 298 56 1195 495 137 2210 
6 1195 56 1219 2210 137 2234 
6 53 293 292 134 490 489 
6 293 54 1216 490 135 2231 
6 57 300 1218 138 497 2233 
6 58 304 300 139 501 497 
6 292 293 1162 489 490 2177 
6 292 1162 1211 489 2177 2226 
6 1162 293 1216 2177 490 2231 
6 300 304 1163 497 501 2178 
6 300 1163 1218 497 2178 2233 
6 1163 304 1212 2178 501 2227 
6 1162 1146 1211 2177 2161 2226 
6 1146 1162 1217 2161 2177 2232 
6 1147 1163 1212 2162 2178 2227 
6 1163 1147 1219 2178 2162 2234 
6 1374 1333 1389 2389 2348 2404 
6 1295 1335 1350 2310 2350 2365 
6 1296 1336 1349 2311 2351 2364 
6 1328 1312 1394 2343 2327 2409 
6 1289 1328 1394 2304 2343 2409 
6 1335 1295 1337 2350 2310 2352 
6 1336 1296 1338 2351 2311 2353 
6 1325 1289 1394 2340 2304 2409 
6 1311 170 1355 2326 367 2370 
6 1305 1319 1333 2320 2334 2348 
6 1320 1303 1332 2335 2318 2347 
6 1321 1306 1334 2336 2321 2349 
6 304 1315 1344 501 2330 2359 
6 326 1316 1345 523 2331 2360 
6 1297 1374 1389 2312 2389 2404 
6 1297 1336 1351 2312 2351 2366 
6 1315 1295 1344 2330 2310 2359 
6 1316 1296 1345 2331 2311 2360 
6 1358 1300 1372 2373 2315 2387 
6 1319 1287 1333 2334 2302 2348 
6 1290 1320 1332 2305 2335 2347 
6 1288 1321 1334 2303 2336 2349 
6 1283 1333 1374 2298 2348 2389 
6 1289 1325 1352 2304 2340 2367 
6 1283 1374 1378 2298 2389 2393 
6 1379 1330 1395 2394 2345 2410 
6 1311 1325 1394 2326 2340 2409 
6 1319 1305 1390 2334 2320 2405 
6 1312 1354 1373 2327 2369 2388 
6 1306 1321 1391 2321 2336 2406 
6 1295 1315 1337 2310 2330 2352 
6 1296 1316 1338 2311 2331 2353 
6 332 1343 1375 529 2358 2390 
6 1342 309 1376 2357 506 2391 
6 1322 1289 1352 2337 2304 2367 
6 1374 1318 1378 2389 2333 2393 
6 1293 1327 1343 2308 2342 2358 
6 1326 1294 1342 2341 2309 2357 
6 1354 171 1373 2369 368 2388 
6 1284 1330 1379 2299 2345 2394 
6 1325 1281 1352 2340 2296 2367 
6 170 1311 1373 367 2326 2388 
6 1332 1281 1377 2347 2296 2392 
6 1332 1377 1393 2347 2392 2408 
6 1298 1335 1353 2313 2350 2368 
6 1352 1281 1414 2367 2296 2429 
6 71 333 1390 152 530 2405 
6 334 335 1391 531 532 2406 
6 304 1344 1392 501 2359 2407 
6 335 1381 1391 532 2396 2406 
6 1382 71 1390 2397 152 2405 
6 1285 1291 1356 2300 2306 2371 
6 1292 1286 1357 2307 2301 2372 
6 1300 1341 1372 2315 2356 2387 
6 1291 1285 1397 2306 2300 2412 
6 1286 1292 1398 2301 2307 2413 
6 1298 1379 1395 2313 2394 2410 
6 4 172 1343 85 369 2358 
6 169 5 1342 366 86 2357 
6 1359 1285 1366 2374 2300 2381 
6 1286 1360 1367 2301 2375 2382 
6 1303 1322 1352 2318 2337 2367 
6 69 331 1338 150 528 2353 
6 61 311 1337 142 508 2352 
6 1329 1282 1384 2344 2297 2399 
6 1303 1320 1420 2318 2335 2435 
6 1322 1303 1421 2337 2318 2436 
6 1335 1298 1350 2350 2313 2365 
6 1336 1297 1349 2351 2312 2364 
6 321 66 1361 518 147 2376 
6 63 316 1363 144 513 2378 
6 1336 330 1351 2351 527 2366 
6 1313 1299 1359 2328 2314 2374 
6 1300 1314 1360 2315 2329 2375 
6 1318 1351 1422 2333 2366 2437 
6 326 1345 1403 523 2360 2418 
6 1289 1322 1348 2304 2337 2363 
6 1328 1289 1348 2343 2304 2363 
6 1293 1343 1354 2308 2358 2369 
6 5 309 1342 86 506 2357 
6 332 4 1343 529 85 2358 
6 1305 1333 1396 2320 2348 2411 
6 1281 1325 1385 2296 2340 2400 
6 1314 1300 1358 2329 2315 2373 
6 61 1337 1424 142 2352 2439 
6 69 1338 1425 150 2353 2440 
6 1342 1294 1355 2357 2309 2370 
6 1344 1295 1346 2359 2310 2361 
6 1345 1296 1347 2360 2311 2362 
6 1299 1341 1386 2314 2356 2401 
6 1341 1300 1387 2356 2315 2402 
6 1304 1331 1411 2319 2346 2426 
6 1288 1358 1372 2303 2373 2387 
6 1323 1359 1386 2338 2374 2401 
6 1360 1324 1387 2375 2339 2402 
6 1299 1313 1371 2314 2328 2386 
6 1329 1384 1401 2344 2399 2416 
6 1359 1299 1386 2374 2314 2401 
6 1300 1360 1387 2315 2375 2402 
6 1325 1311 1406 2340 2326 2421 
6 1310 1353 1400 2325 2368 2415 
6 1283 1328 1396 2298 2343 2411 
6 1351 329 1422 2366 526 2437 
6 1335 312 1353 2350 509 2368 
6 1288 1334 1358 2303 2349 2373 
6 1294 1385 1406 2309 2400 2421 
6 1312 1328 1402 2327 2343 2417 
6 1333 1283 1396 2348 2298 2411 
6 1328 1283 1378 2343 2298 2393 
6 1347 1296 1349 2362 2311 2364 
6 1346 1295 1350 2361 2310 2365 
6 1331 1304 1410 2346 2319 2425 
6 1365 1317 1423 2380 2332 2438 
6 1282 1329 1411 2297 2344 2426 
6 1330 1284 1412 2345 2299 2427 
6 1385 1325 1406 2400 2340 2421 
6 170 169 1355 367 366 2370 
6 172 171 1354 369 368 2369 
6 1333 1287 1389 2348 2302 2404 
6 1377 1281 1385 2392 2296 2400 
6 1287 1319 1409 2302 2334 2424 
6 1320 1290 1408 2335 2305 2423 
6 1321 1288 1410 2336 2303 2425 
6 1334 1306 1412 2349 2321 2427 
6 1411 1331 1418 2426 2346 2433 
6 310 61 1424 507 142 2439 
6 327 69 1425 524 150 2440 
6 1331 1288 1371 2346 2303 2386 
6 1298 1353 1379 2313 2368 2394 
6 1341 1299 1372 2356 2314 2387 
6 1290 1332 1393 2305 2347 2408 
6 311 312 1335 508 509 2350 
6 331 330 1336 528 527 2351 
6 1370 1309 1399 2385 2324 2414 
6 1353 313 1400 2368 510 2415 
6 1297 1351 1374 2312 2366 2389 
6 318 319 1341 515 516 2356 
6 1334 1412 1419 2349 2427 2434 
6 302 1365 1423 499 2380 2438 
6 1412 1284 1419 2427 2299 2434 
6 1332 1303 1414 2347 2318 2429 
6 1317 1377 1385 2332 2392 2400 
6 1329 1287 1409 2344 2302 2424 
6 1290 1330 1408 2305 2345 2423 
6 1288 1331 1410 2303 2346 2425 
6 1282 1411 1418 2297 2426 2433 
6 1290 1346 1350 2305 2361 2365 
6 1287 1347 1349 2302 2362 2364 
6 1409 1304 1411 2424 2319 2426 
6 1306 1408 1412 2321 2423 2427 
6 1341 319 1386 2356 516 2401 
6 318 1341 1387 515 2356 2402 
6 1353 1310 1379 2368 2325 2394 
6 303 304 1392 500 501 2407 
6 1378 1318 1405 2393 2333 2420 
6 1305 1348 1382 2320 2363 2397 
6 1330 1290 1395 2345 2305 2410 
6 1285 1359 1397 2300 2374 2412 
6 1360 1286 1398 2375 2301 2413 
6 1313 1359 1366 2328 2374 2381 
6 1360 1314 1367 2375 2329 2382 
6 333 1380 1390 530 2395 2405 
6 1383 334 1391 2398 531 2406 
6 1287 1329 1401 2302 2344 2416 
6 1291 1339 1362 2306 2354 2377 
6 1340 1292 1364 2355 2307 2379 
6 1413 1314 1419 2428 2329 2434 
6 1348 1322 1382 2363 2337 2397 
6 1371 1288 1372 2386 2303 2387 
6 1301 1344 1346 2316 2359 2361 
6 1302 1345 1347 2317 2360 2362 
6 1281 1332 1414 2296 2347 2429 
6 324 1370 1399 521 2385 2414 
6 1313 1415 1418 2328 2430 2433 
6 330 329 1351 527 526 2366 
6 311 1335 1337 508 2350 2352 
6 331 1336 1338 528 2351 2353 
6 1309 1370 1384 2324 2385 2399 
6 1351 1318 1374 2366 2333 2389 
6 1328 1348 1396 2343 2363 2411 
6 312 313 1353 509 510 2368 
6 1377 1301 1393 2392 2316 2408 
6 1287 1349 1389 2302 2364 2404 
6 1367 1314 1413 2382 2329 2428 
6 1290 1350 1395 2305 2365 2410 
6 325 326 1403 522 523 2418 
6 1388 1303 1420 2403 2318 2435 
6 1303 1388 1421 2318 2403 2436 
6 1313 1366 1415 2328 2381 2430 
6 1299 1371 1372 2314 2386 2387 
6 321 1361 1362 518 2376 2377 
6 1363 316 1364 2378 513 2379 
6 1370 1302 1384 2385 2317 2399 
6 1343 1327 1375 2358 2342 2390 
6 1326 1342 1376 2341 2357 2391 
6 1312 1373 1394 2327 2388 2409 
6 302 303 1365 499 500 2380 
6 1381 1306 1391 2396 2321 2406 
6 1305 1382 1390 2320 2397 2405 
6 1380 1304 1409 2395 2319 2424 
6 1306 1381 1408 2321 2396 2423 
6 1304 1383 1410 2319 2398 2425 
6 324 325 1370 521 522 2385 
6 1380 1319 1390 2395 2334 2405 
6 1321 1383 1391 2336 2398 2406 
6 1315 304 1368 2330 501 2383 
6 1316 326 1369 2331 523 2384 
6 1293 1354 1402 2308 2369 2417 
6 171 170 1373 368 367 2388 
6 1408 1330 1412 2423 2345 2427 
6 1329 1409 1411 2344 2424 2426 
6 1373 1311 1394 2388 2326 2409 
6 1384 1302 1401 2399 2317 2416 
6 1339 1291 1397 2354 2306 2412 
6 1292 1340 1398 2307 2355 2413 
6 1293 1378 1405 2308 2393 2420 
6 1317 1365 1377 2332 2380 2392 
6 1354 1312 1402 2369 2327 2417 
6 1348 1305 1396 2363 2320 2411 
6 1365 1301 1377 2380 2316 2392 
6 335 71 1388 532 152 2403 
6 1346 1290 1393 2361 2305 2408 
6 1347 1287 1401 2362 2302 2416 
6 1337 1315 1424 2352 2330 2439 
6 1338 1316 1425 2353 2331 2440 
6 319 320 1386 516 517 2401 
6 317 318 1387 514 515 2402 
6 1327 1293 1405 2342 2308 2420 
6 1294 1326 1404 2309 2341 2419 
6 1327 328 1375 2342 525 2390 
6 301 1326 1376 498 2341 2391 
6 1361 1307 1362 2376 2322 2377 
6 1308 1363 1364 2323 2378 2379 
6 323 324 1399 520 521 2414 
6 313 314 1400 510 511 2415 
6 1314 1358 1419 2329 2373 2434 
6 1301 1346 1393 2316 2361 2408 
6 1302 1347 1401 2317 2362 2416 
6 1303 1352 1414 2318 2367 2429 
6 1371 1313 1418 2386 2328 2433 
6 1349 1297 1389 2364 2312 2404 
6 1284 1413 1419 2299 2428 2434 
6 301 302 1423 498 499 2438 
6 329 328 1422 526 525 2437 
6 1415 1282 1418 2430 2297 2433 
6 1355 1294 1406 2370 2309 2421 
6 58 310 1368 139 507 2383 
6 68 327 1369 149 524 2384 
6 1345 1302 1403 2360 2317 2418 
6 1378 1293 1402 2393 2308 2417 
6 1343 172 1354 2358 369 2369 
6 1304 1380 1407 2319 2395 2422 
6 1383 1304 1407 2398 2319 2422 
6 320 1323 1386 517 2338 2401 
6 1324 317 1387 2339 514 2402 
6 169 1342 1355 366 2357 2370 
6 1350 1298 1395 2365 2313 2410 
6 1358 1334 1419 2373 2349 2434 
6 1366 1285 1416 2381 2300 2431 
6 1286 1367 1417 2301 2382 2432 
6 70 332 1375 151 529 2390 
6 309 59 1376 506 140 2391 
6 1302 1370 1403 2317 2385 2418 
6 1328 1378 1402 2343 2393 2417 
6 1359 1323 1397 2374 2338 2412 
6 1324 1360 1398 2339 2375 2413 
6 1344 1301 1392 2359 2316 2407 
6 1365 303 1392 2380 500 2407 
6 333 334 1407 530 531 2422 
6 328 1327 1422 525 2342 2437 
6 1326 301 1423 2341 498 2438 
6 1301 1365 1392 2316 2380 2407 
6 1331 1371 1418 2346 2386 2433 
6 1385 1294 1404 2400 2309 2419 
6 1327 1405 1422 2342 2420 2437 
6 1404 1326 1423 2419 2341 2438 
6 1311 1355 1406 2326 2370 2421 
6 1323 320 1339 2338 517 2354 
6 317 1324 1340 514 2339 2355 
6 1368 310 1424 2383 507 2439 
6 1369 327 1425 2384 524 2440 
6 1381 335 1420 2396 532 2435 
6 71 1382 1421 152 2397 2436 
6 1399 1309 1416 2414 2324 2431 
6 1310 1400 1417 2325 2415 2432 
6 1370 325 1403 2385 522 2418 
6 1380 333 1407 2395 530 2422 
6 334 1383 1407 531 2398 2422 
6 316 64 1364 513 145 2379 
6 65 321 1362 146 518 2377 
6 1317 1385 1404 2332 2400 2419 
6 1384 1282 1415 2399 2297 2430 
6 1309 1366 1416 2324 2381 2431 
6 1367 1310 1417 2382 2325 2432 
6 1309 1384 1415 2324 2399 2430 
6 1284 1379 1413 2299 2394 2428 
6 1319 1380 1409 2334 2395 2424 
6 1381 1320 1408 2396 2335 2423 
6 1383 1321 1410 2398 2336 2425 
6 1379 1310 1413 2394 2325 2428 
6 1320 1381 1420 2335 2396 2435 
6 1382 1322 1421 2397 2337 2436 
6 1356 1399 1416 2371 2414 2431 
6 1400 1357 1417 2415 2372 2432 
6 1285 1356 1416 2300 2371 2431 
6 1357 1286 1417 2372 2301 2432 
6 335 1388 1420 532 2403 2435 
6 1388 71 1421 2403 152 2436 
6 1310 1367 1413 2325 2382 2428 
6 1366 1309 1415 2381 2324 2430 
6 1315 1368 1424 2330 2383 2439 
6 1316 1369 1425 2331 2384 2440 
6 1356 323 1399 2371 520 2414 
6 314 1357 1400 511 2372 2415 
6 1323 1339 1397 2338 2354 2412 
6 1340 1324 1398 2355 2339 2413 
6 1317 1404 1423 2332 2419 2438 
6 1405 1318 1422 2420 2333 2437 
6 304 58 1368 501 139 2383 
6 59 301 1376 140 498 2391 
6 64 317 1340 145 514 2355 
6 64 1340 1364 145 2355 2379 
6 320 65 1339 517 146 2354 
6 1339 65 1362 2354 146 2377 
6 326 68 1369 523 149 2384 
6 328 70 1375 525 151 2390 
6 62 315 314 143 512 511 
6 315 63 1363 512 144 2378 
6 66 322 1361 147 519 2376 
6 67 323 322 148 520 519 
6 314 315 1308 511 512 2323 
6 314 1308 1357 511 2323 2372 
6 1308 315 1363 2323 512 2378 
6 322 323 1307 519 520 2322 
6 322 1307 1361 519 2322 2376 
6 1307 323 1356 2322 520 2371 
6 1291 1307 1356 2306 2322 2371 
6 1307 1291 1362 2322 2306 2377 
6 1308 1292 1357 2323 2307 2372 
6 1292 1308 1364 2307 2323 2379 
6 1519 1478 1534 2534 2493 2549 
6 1440 1480 1495 2455 2495 2510 
6 1441 1481 1494 2456 2496 2509 
6 1473 1457 1539 2488 2472 2554 
6 1434 1473 1539 2449 2488 2554 
6 1480 1440 1483 2495 2455 2498 
6 1481 1441 1482 2496 2456 2497 
6 1470 1434 1539 2485 2449 2554 
6 1456 200 1500 2471 397 2515 
6 1449 1464 1478 2464 2479 2493 
6 1465 1448 1477 2480 2463 2492 
6 1466 1451 1479 2481 2466 2494 
6 163 1460 1489 360 2475 2504 
6 348 1461 1490 545 2476 2505 
6 1442 1519 1534 2457 2534 2549 
6 1442 1481 1496 2457 2496 2511 
6 1461 1441 1490 2476 2456 2505 
6 1460 1440 1489 2475 2455 2504 
6 1445 1516 1517 2460 2531 2532 
6 1464 1432 1478 2479 2447 2493 
6 1435 1465 1477 2450 2480 2492 
6 1433 1466 1479 2448 2481 2494 
6 1427 1478 1519 2442 2493 2534 
6 1434 1470 1497 2449 2485 2512 
6 1427 1519 1523 2442 2534 2538 
6 1524 1475 1540 2539 2490 2555 
6 1456 1470 1539 2471 2485 2554 
6 1464 1449 1535 2479 2464 2550 
6 1457 1499 1518 2472 2514 2533 
6 1451 1466 1536 2466 2481 2551 
6 1440 1460 1483 2455 2475 2498 
6 1441 1461 1482 2456 2476 2497 
6 1487 355 1521 2502 552 2536 
6 354 1488 1520 551 2503 2535 
6 1467 1434 1497 2482 2449 2512 
6 1519 1463 1523 2534 2478 2538 
6 1438 1471 1488 2453 2486 2503 
6 1472 1439 1487 2487 2454 2502 
6 1499 201 1518 2514 398 2533 
6 1429 1475 1524 2444 2490 2539 
6 1470 1426 1497 2485 2441 2512 
6 200 1456 1518 397 2471 2533 
6 1477 1426 1522 2492 2441 2537 
6 1477 1522 1538 2492 2537 2553 
6 1443 1480 1498 2458 2495 2513 
6 1497 1426 1559 2512 2441 2574 
6 80 356 1535 161 553 2550 
6 357 358 1536 554 555 2551 
6 163 1489 1537 360 2504 2552 
6 358 1526 1536 555 2541 2551 
6 1527 80 1535 2542 161 2550 
6 1436 1430 1501 2451 2445 2516 
6 1431 1437 1502 2446 2452 2517 
6 1486 1445 1517 2501 2460 2532 
6 1430 1436 1542 2445 2451 2557 
6 1437 1431 1543 2452 2446 2558 
6 1443 1524 1540 2458 2539 2555 
6 199 16 1487 396 97 2502 
6 17 202 1488 98 399 2503 
6 1430 1504 1511 2445 2519 2526 
6 1505 1431 1512 2520 2446 2527 
6 1448 1467 1497 2463 2482 2512 
6 70 328 1483 151 525 2498 
6 78 350 1482 159 547 2497 
6 1474 1428 1529 2489 2443 2544 
6 1448 1465 1565 2463 2480 2580 
6 1467 1448 1566 2482 2463 2581 
6 1480 1443 1495 2495 2458 2510 
6 1481 1442 1494 2496 2457 2509 
6 72 338 1506 153 535 2521 
6 343 75 1508 540 156 2523 
6 1481 351 1496 2496 548 2511 
6 1444 1458 1504 2459 2473 2519 
6 1459 1445 1505 2474 2460 2520 
6 1463 1496 1567 2478 2511 2582 
6 348 1490 1548 545 2505 2563 
6 1434 1467 1493 2449 2482 2508 
6 1516 1433 1517 2531 2448 2532 
6 1473 1434 1493 2488 2449 2508 
6 1438 1488 1499 2453 2503 2514 
6 354 17 1488 551 98 2503 
6 16 355 1487 97 552 2502 
6 1449 1478 1541 2464 2493 2556 
6 1426 1470 1530 2441 2485 2545 
6 1458 1444 1503 2473 2459 2518 
6 78 1482 1569 159 2497 2584 
6 70 1483 1570 151 2498 2585 
6 1487 1439 1500 2502 2454 2515 
6 1489 1440 1491 2504 2455 2506 
6 1490 1441 1492 2505 2456 2507 
6 1486 1444 1531 2501 2459 2546 
6 1445 1486 1532 2460 2501 2547 
6 1450 1476 1556 2465 2491 2571 
6 1504 1468 1531 2519 2483 2546 
6 1469 1505 1532 2484 2520 2547 
6 1445 1459 1516 2460 2474 2531 
6 1474 1529 1546 2489 2544 2561 
6 1444 1504 1531 2459 2519 2546 
6 1505 1445 1532 2520 2460 2547 
6 1470 1456 1551 2485 2471 2566 
6 1454 1498 1544 2469 2513 2559 
6 1427 1473 1541 2442 2488 2556 
6 1496 352 1567 2511 549 2582 
6 1480 329 1498 2495 526 2513 
6 1433 1479 1503 2448 2494 2518 
6 1439 1530 1551 2454 2545 2566 
6 1457 1473 1547 2472 2488 2562 
6 1478 1427 1541 2493 2442 2556 
6 1473 1427 1523 2488 2442 2538 
6 1492 1441 1494 2507 2456 2509 
6 1491 1440 1495 2506 2455 2510 
6 1476 1450 1555 2491 2465 2570 
6 1510 1462 1568 2525 2477 2583 
6 1428 1474 1556 2443 2489 2571 
6 1475 1429 1557 2490 2444 2572 
6 1530 1470 1551 2545 2485 2566 
6 200 199 1500 397 396 2515 
6 202 201 1499 399 398 2514 
6 1478 1432 1534 2493 2447 2549 
6 1522 1426 1530 2537 2441 2545 
6 1432 1464 1553 2447 2479 2568 
6 1465 1435 1554 2480 2450 2569 
6 1466 1433 1555 2481 2448 2570 
6 1479 1451 1557 2494 2466 2572 
6 1556 1476 1563 2571 2491 2578 
6 349 78 1569 546 159 2584 
6 336 70 1570 533 151 2585 
6 1476 1433 1516 2491 2448 2531 
6 1443 1498 1524 2458 2513 2539 
6 1444 1486 1517 2459 2501 2532 
6 1435 1477 1538 2450 2492 2553 
6 350 351 1481 547 548 2496 
6 328 329 1480 525 526 2495 
6 1515 1455 1545 2530 2470 2560 
6 1498 330 1544 2513 527 2559 
6 1442 1496 1519 2457 2511 2534 
6 340 341 1486 537 538 2501 
6 1479 1557 1564 2494 2572 2579 
6 165 1510 1568 362 2525 2583 
6 1557 1429 1564 2572 2444 2579 
6 1477 1448 1559 2492 2463 2574 
6 1462 1522 1530 2477 2537 2545 
6 1474 1432 1553 2489 2447 2568 
6 1435 1475 1554 2450 2490 2569 
6 1433 1476 1555 2448 2491 2570 
6 1428 1556 1563 2443 2571 2578 
6 1432 1492 1494 2447 2507 2509 
6 1435 1491 1495 2450 2506 2510 
6 1553 1450 1556 2568 2465 2571 
6 1451 1554 1557 2466 2569 2572 
6 340 1486 1531 537 2501 2546 
6 1486 341 1532 2501 538 2547 
6 1498 1454 1524 2513 2469 2539 
6 164 163 1537 361 360 2552 
6 1523 1463 1550 2538 2478 2565 
6 1449 1493 1527 2464 2508 2542 
6 1475 1435 1540 2490 2450 2555 
6 1504 1430 1542 2519 2445 2557 
6 1431 1505 1543 2446 2520 2558 
6 1504 1458 1511 2519 2473 2526 
6 1459 1505 1512 2474 2520 2527 
6 356 1525 1535 553 2540 2550 
6 1528 357 1536 2543 554 2551 
6 1432 1474 1546 2447 2489 2561 
6 1484 1436 1507 2499 2451 2522 
6 1437 1485 1509 2452 2500 2524 
6 1558 1458 1564 2573 2473 2579 
6 1493 1467 1527 2508 2482 2542 
6 1446 1489 1491 2461 2504 2506 
6 1447 1490 1492 2462 2505 2507 
6 1426 1477 1559 2441 2492 2574 
6 346 1515 1545 543 2530 2560 
6 1459 1560 1563 2474 2575 2578 
6 351 352 1496 548 549 2511 
6 328 1480 1483 525 2495 2498 
6 350 1481 1482 547 2496 2497 
6 1455 1515 1529 2470 2530 2544 
6 1496 1463 1519 2511 2478 2534 
6 1473 1493 1541 2488 2508 2556 
6 1433 1503 1517 2448 2518 2532 
6 329 330 1498 526 527 2513 
6 1522 1446 1538 2537 2461 2553 
6 1432 1494 1534 2447 2509 2549 
6 1511 1458 1558 2526 2473 2573 
6 1435 1495 1540 2450 2510 2555 
6 347 348 1548 544 545 2563 
6 1533 1448 1565 2548 2463 2580 
6 1448 1533 1566 2463 2548 2581 
6 1503 1444 1517 2518 2459 2532 
6 1459 1512 1560 2474 2527 2575 
6 1506 338 1507 2521 535 2522 
6 343 1508 1509 540 2523 2524 
6 1515 1447 1529 2530 2462 2544 
6 1472 1487 1521 2487 2502 2536 
6 1488 1471 1520 2503 2486 2535 
6 1457 1518 1539 2472 2533 2554 
6 165 164 1510 362 361 2525 
6 1526 1451 1536 2541 2466 2551 
6 1449 1527 1535 2464 2542 2550 
6 1525 1450 1553 2540 2465 2568 
6 1451 1526 1554 2466 2541 2569 
6 1450 1528 1555 2465 2543 2570 
6 346 347 1515 543 544 2530 
6 1525 1464 1535 2540 2479 2550 
6 1466 1528 1536 2481 2543 2551 
6 1461 348 1514 2476 545 2529 
6 1460 163 1513 2475 360 2528 
6 1438 1499 1547 2453 2514 2562 
6 201 200 1518 398 397 2533 
6 1474 1553 1556 2489 2568 2571 
6 1554 1475 1557 2569 2490 2572 
6 1518 1456 1539 2533 2471 2554 
6 1529 1447 1546 2544 2462 2561 
6 1436 1484 1542 2451 2499 2557 
6 1485 1437 1543 2500 2452 2558 
6 1438 1523 1550 2453 2538 2565 
6 1462 1510 1522 2477 2525 2537 
6 1499 1457 1547 2514 2472 2562 
6 1493 1449 1541 2508 2464 2556 
6 1510 1446 1522 2525 2461 2537 
6 358 80 1533 555 161 2548 
6 1491 1435 1538 2506 2450 2553 
6 1492 1432 1546 2507 2447 2561 
6 1482 1461 1569 2497 2476 2584 
6 1483 1460 1570 2498 2475 2585 
6 339 340 1531 536 537 2546 
6 341 342 1532 538 539 2547 
6 1471 1438 1550 2486 2453 2565 
6 1439 1472 1549 2454 2487 2564 
6 1471 353 1520 2486 550 2535 
6 166 1472 1521 363 2487 2536 
6 1452 1506 1507 2467 2521 2522 
6 1508 1453 1509 2523 2468 2524 
6 330 331 1544 527 528 2559 
6 345 346 1545 542 543 2560 
6 1458 1503 1564 2473 2518 2579 
6 1446 1491 1538 2461 2506 2553 
6 1447 1492 1546 2462 2507 2561 
6 1448 1497 1559 2463 2512 2574 
6 1516 1459 1563 2531 2474 2578 
6 1494 1442 1534 2509 2457 2549 
6 1429 1558 1564 2444 2573 2579 
6 352 353 1567 549 550 2582 
6 166 165 1568 363 362 2583 
6 1560 1428 1563 2575 2443 2578 
6 1500 1439 1551 2515 2454 2566 
6 2 336 1513 83 533 2528 
6 77 349 1514 158 546 2529 
6 1490 1447 1548 2505 2462 2563 
6 1523 1438 1547 2538 2453 2562 
6 1488 202 1499 2503 399 2514 
6 1450 1525 1552 2465 2540 2567 
6 1528 1450 1552 2543 2465 2567 
6 1468 339 1531 2483 536 2546 
6 342 1469 1532 539 2484 2547 
6 199 1487 1500 396 2502 2515 
6 1495 1443 1540 2510 2458 2555 
6 1503 1479 1564 2518 2494 2579 
6 1430 1511 1561 2445 2526 2576 
6 1512 1431 1562 2527 2446 2577 
6 355 0 1521 552 81 2536 
6 79 354 1520 160 551 2535 
6 1447 1515 1548 2462 2530 2563 
6 1473 1523 1547 2488 2538 2562 
6 1468 1504 1542 2483 2519 2557 
6 1505 1469 1543 2520 2484 2558 
6 1489 1446 1537 2504 2461 2552 
6 1510 164 1537 2525 361 2552 
6 356 357 1552 553 554 2567 
6 353 1471 1567 550 2486 2582 
6 1472 166 1568 2487 363 2583 
6 1446 1510 1537 2461 2525 2552 
6 1476 1516 1563 2491 2531 2578 
6 1530 1439 1549 2545 2454 2564 
6 1471 1550 1567 2486 2565 2582 
6 1549 1472 1568 2564 2487 2583 
6 1456 1500 1551 2471 2515 2566 
6 339 1468 1484 536 2483 2499 
6 1469 342 1485 2484 539 2500 
6 1513 336 1570 2528 533 2585 
6 1514 349 1569 2529 546 2584 
6 1526 358 1565 2541 555 2580 
6 80 1527 1566 161 2542 2581 
6 1454 1544 1561 2469 2559 2576 
6 1545 1455 1562 2560 2470 2577 
6 1515 347 1548 2530 544 2563 
6 1525 356 1552 2540 553 2567 
6 357 1528 1552 554 2543 2567 
6 74 343 1509 155 540 2524 
6 338 73 1507 535 154 2522 
6 1462 1530 1549 2477 2545 2564 
6 1529 1428 1560 2544 2443 2575 
6 1511 1454 1561 2526 2469 2576 
6 1455 1512 1562 2470 2527 2577 
6 1455 1529 1560 2470 2544 2575 
6 1429 1524 1558 2444 2539 2573 
6 1464 1525 1553 2479 2540 2568 
6 1526 1465 1554 2541 2480 2569 
6 1528 1466 1555 2543 2481 2570 
6 1524 1454 1558 2539 2469 2573 
6 1465 1526 1565 2480 2541 2580 
6 1527 1467 1566 2542 2482 2581 
6 1544 1501 1561 2559 2516 2576 
6 1502 1545 1562 2517 2560 2577 
6 1501 1430 1561 2516 2445 2576 
6 1431 1502 1562 2446 2517 2577 
6 358 1533 1565 555 2548 2580 
6 1533 80 1566 2548 161 2581 
6 1454 1511 1558 2469 2526 2573 
6 1512 1455 1560 2527 2470 2575 
6 1460 1513 1570 2475 2528 2585 
6 1461 1514 1569 2476 2529 2584 
6 331 1501 1544 528 2516 2559 
6 1502 345 1545 2517 542 2560 
6 1484 1468 1542 2499 2483 2557 
6 1469 1485 1543 2484 2500 2558 
6 1550 1463 1567 2565 2478 2582 
6 1462 1549 1568 2477 2564 2583 
6 0 166 1521 81 363 2536 
6 163 2 1513 360 83 2528 
6 73 339 1484 154 536 2499 
6 73 1484 1507 154 2499 2522 
6 342 74 1485 539 155 2500 
6 1485 74 1509 2500 155 2524 
6 348 77 1514 545 158 2529 
6 353 79 1520 550 160 2535 
6 69 337 331 150 534 528 
6 337 72 1506 534 153 2521 
6 75 344 1508 156 541 2523 
6 76 345 344 157 542 541 
6 331 337 1452 528 534 2467 
6 331 1452 1501 528 2467 2516 
6 1452 337 1506 2467 534 2521 
6 344 345 1453 541 542 2468 
6 344 1453 1508 541 2468 2523 
6 1453 345 1502 2468 542 2517 
6 1452 1436 1501 2467 2451 2516 
6 1436 1452 1507 2451 2467 2522 
6 1437 1453 1502 2452 2468 2517 
6 1453 1437 1509 2468 2452 2524 

CELL_TYPES 2380
13
13
13
13
13
13
13
13
13
13
13
13
13
13
13
13
13
13
13
13
13
13
13
13
13
13
13
13
13
13
13
13
13
13
13
13
13
13
13
13
13
13
13
13
13
13
13
13
13
13
13
13
13
13
13
13
13
13
13
13
13
13
13
13
13
13
13
13
13
13
13
13
13
13
13
13
13
13
13
13
13
13
13
13
13
13
13
13
13
13
13
13
13
13
13
13
13
13
13
13
13
13
13
13
13
13
13
13
13
13
13
13
13
13
13
13
13
13
13
13
13
13
13
13
13
13
13
13
13
13
13
13
13
13
13
13
13
13
13
13
13
13
13
13
13
13
13
13
13
13
13
13
13
13
13
13
13
13
13
13
13
13
13
13
13
13
13
13
13
13
13
13
13
13
13
13
13
13
13
13
13
13
13
13
13
13
13
13
13
13
13
13
13
13
13
13
13
13
13
13
13
13
13
13
13
13
13
13
13
13
13
13
13
13
13
13
13
13
13
13
13
13
13
13
13
13
13
13
13
13
13
13
13
13
13
13
13
13
13
13
13
13
13
13
13
13
13
13
13
13
13
13
13
13
13
13
13
13
13
13
13
13
13
13
13
13
13
13
13
13
13
13
13
13
13
13
13
13
13
13
13
13
13
13
13
13
13
13
13
13
13
13
13
13
13
13
13
13
13
13
13
13
13
13
13
13
13
13
13
13
13
13
13
13
13
13
13
13
13
13
13
13
13
13
13
13
13
13
13
13
13
13
13
13
13
13
13
13
13
13
13
13
13
13
13
13
13
13
13
13
13
13
13
13
13
13
13
13
13
13
13
13
13
13
13
13
13
13
13
13
13
13
13
13
13
13
13
13
13
13
13
13
13
13
13
13
13
13
13
13
13
13
13
13
13
13
13
13
13
13
13
13
13
13
13
13
13
13
13
13
13
13
13
13
13
13
13
13
13
13
13
13
13
13
13
13
13
13
13
13
13
13
13
13
13
13
13
13
13
13
13
13
13
13
13
13
13
13
13
13
13
13
13
13
13
13
13
13
13
13
13
13
13
13
13
13
13
13
13
13
13
13
13
13
13
13
13
13
13
13
13
13
13
13
13
13
13
13
13
13
13
13
13
13
13
13
13
13
13
13
13
13
13
13
13
13
13
13
13
13
13
13
13
13
13
13
13
13
13
13
13
13
13
13
13
13
13
13
13
13
13
13
13
13
13
13
13
13
13
13
13
13
13
13
13
13
13
13
13
13
13
13
13
13
13
13
13
13
13
13
13
13
13
13
13
13
13
13
13
13
13
13
13
13
13
13
13
13
13
13
13
13
13
13
13
13
13
13
13
13
13
13
13
13
13
13
13
13
13
13
13
13
13
13
13
13
13
13
13
13
13
13
13
13
13
13
13
13
13
13
13
13
13
13
13
13
13
13
13
13
13
13
13
13
13
13
13
13
13
13
13
13
13
13
13
13
13
13
13
13
13
13
13
13
13
13
13
13
13
13
13
13
13
13
13
13
13
13
13
13
13
13
13
13
13
13
13
13
13
13
13
13
13
13
13
13
13
13
13
13
13
13
13
13
13
13
13
13
13
13
13
13
13
13
13
13
13
13
13
13
13
13
13
13
13
13
13
13
13
13
13
13
13
13
13
13
13
13
13
13
13
13
13
13
13
13
13
13
13
13
13
13
13
13
13
13
13
13
13
13
13
13
13
13
13
13
13
13
13
13
13
13
13
13
13
13
13
13
13
13
13
13
13
13
13
13
13
13
13
13
13
13
13
13
13
13
13
13
13
13
13
13
13
13
13
13
13
13
13
13
13
13
13
13
13
13
13
13
13
13
13
13
13
13
13
13
13
13
13
13
13
13
13
13
13
13
13
13
13
13
13
13
13
13
13
13
13
13
13
13
13
13
13
13
13
13
13
13
13
13
13
13
13
13
13
13
13
13
13
13
13
13
13
13
13
13
13
13
13
13
13
13
13
13
13
13
13
13
13
13
13
13
13
13
13
13
13
13
13
13
13
13
13
13
13
13
13
13
13
13
13
13
13
13
13
13
13
13
13
13
13
13
13
13
13
13
13
13
13
13
13
13
13
13
13
13
13
13
13
13
13
13
13
13
13
13
13
13
13
13
13
13
13
13
13
13
13
13
13
13
13
13
13
13
13
13
13
13
13
13
13
13
13
13
13
13
13
13
13
13
13
13
13
13
13
13
13
13
13
13
13
13
13
13
13
13
13
13
13
13
13
13
13
13
13
13
13
13
13
13
13
13
13
13
13
13
13
13
13
13
13
13
13
13
13
13
13
13
13
13
13
13
13
13
13
13
13
13
13
13
13
13
13
13
13
13
13
13
13
13
13
13
13
13
13
13
13
13
13
13
13
13
13
13
13
13
13
13
13
13
13
13
13
13
13
13
13
13
13
13
13
13
13
13
13
13
13
13
13
13
13
13
13
13
13
13
13
13
13
13
13
13
13
13
13
13
13
13
13
13
13
13
13
13
13
13
13
13
13
13
13
13
13
13
13
13
13
13
13
13
13
13
13
13
13
13
13
13
13
13
13
13
13
13
13
13
13
13
13
13
13
13
13
13
13
13
13
13
13
13
13
13
13
13
13
13
13
13
13
13
13
13
13
13
13
13
13
13
13
13
13
13
13
13
13
13
13
13
13
13
13
13
13
13
13
13
13
13
13
13
13
13
13
13
13
13
13
13
13
13
13
13
13
13
13
13
13
13
13
13
13
13
13
13
13
13
13
13
13
13
13
13
13
13
13
13
13
13
13
13
13
13
13
13
13
13
13
13
13
13
13
13
13
13
13
13
13
13
13
13
13
13
13
13
13
13
13
13
13
13
13
13
13
13
13
13
13
13
13
13
13
13
13
13
13
13
13
13
13
13
13
13
13
13
13
13
13
13
13
13
13
13
13
13
13
13
13
13
13
13
13
13
13
13
13
13
13
13
13
13
13
13
13
13
13
13
13
13
13
13
13
13
13
13
13
13
13
13
13
13
13
13
13
13
13
13
13
13
13
13
13
13
13
13
13
13
13
13
13
13
13
13
13
13
13
13
13
13
13
13
13
13
13
13
13
13
13
13
13
13
13
13
13
13
13
13
13
13
13
13
13
13
13
13
13
13
13
13
13
13
13
13
13
13
13
13
13
13
13
13
13
13
13
13
13
13
13
13
13
13
13
13
13
13
13
13
13
13
13
13
13
13
13
13
13
13
13
13
13
13
13
13
13
13
13
13
13
13
13
13
13
13
13
13
13
13
13
13
13
13
13
13
13
13
13
13
13
13
13
13
13
13
13
13
13
13
13
13
13
13
13
13
13
13
13
13
13
13
13
13
13
13
13
13
13
13
13
13
13
13
13
13
13
13
13
13
13
13
13
13
13
13
13
13
13
13
13
13
13
13
13
13
13
13
13
13
13
13
13
13
13
13
13
13
13
13
13
13
13
13
13
13
13
13
13
13
13
13
13
13
13
13
13
13
13
13
13
13
13
13
13
13
13
13
13
13
13
13
13
13
13
13
13
13
13
13
13
13
13
13
13
13
13
13
13
13
13
13
13
13
13
13
13
13
13
13
13
13
13
13
13
13
13
13
13
13
13
13
13
13
13
13
13
13
13
13
13
13
13
13
13
13
13
13
13
13
13
13
13
13
13
13
13
13
13
13
13
13
13
13
13
13
13
13
13
13
13
13
13
13
13
13
13
13
13
13
13
13
13
13
13
13
13
13
13
13
13
13
13
13
13
13
13
13
13
13
13
13
13
13
13
13
13
13
13
13
13
13
13
13
13
13
13
13
13
13
13
13
13
13
13
13
13
13
13
13
13
13
13
13
13
13
13
13
13
13
13
13
13
13
13
13
13
13
13
13
13
13
13
13
13
13
13
13
13
13
13
13
13
13
13
13
13
13
13
13
13
13
13
13
13
13
13
13
13
13
13
13
13
13
13
13
13
13
13
13
13
13
13
13
13
13
13
13
13
13
13
13
13
13
13
13
13
13
13
13
13
13
13
13
13
13
13
13
13
13
13
13
13
13
13
13
13
13
13
13
13
13
13
13
13
13
13
13
13
13
13
13
13
13
13
13
13
13
13
13
13
13
13
13
13
13
13
13
13
13
13
13
13
13
13
13
13
13
13
13
13
13
13
13
13
13
13
13
13
13
13
13
13
13
13
13
13
13
13
13
13
13
13
13
13
13
13
13
13
13
13
13
13
13
13
13
13
13
13
13
13
13
13
13
13
13
13
13
13
13
13
13
13
13
13
13
13
13
13
13
13
13
13
13
13
13
13
13
13
13
13
13
13
13
13
13
13
13
13
13
13
13
13
13
13
13
13
13
13
13
13
13
13
13
13
13
13
13
13
13
13
13
13
13
13
13
13
13
13
13
13
13
13
13
13
13
13
13
13
13
13
13
13
13
13
13
13
13
13
13
13
13
13
13
13
13
13
13
13
13
13
13
13
13
13
13
13
13
13
13
13
13
13
13
13
13
13
13
13
13
13
13
13
13
13
13
13
13
13
13
13
13
13
13
13
13
13
13
13
13
13
13
13
13
13
13
13
13
13
13
13
13
13
13
13
13
13
13
13
13
13
13
13
13
13
13
13
13
13
13
13
13
13
13
13
13
13
13
13
13
13
13
13
13
13
13
13
13
13
13
13
13
13
13
13
13
13
13
13
13
13
13
13
13
13
13
13
13
13
13
13
13
13
13
13
13
13
13
13
13
13
13
13
13
13
13
13
13
13
13
13
13
13
13
13
13
13
13
13
13
13
13
13
13
13
13
13
13
13
13
13
13
13
13
13
13
13
13
13
13
13
13
13
13
13
13
13
13
13
13
13
13
13
13
13
13
13
13
13
13
13
13
13
13
13
13
13
13
13
13
13
13
13
13
13
13
13
13
13
13
13
13
13
13
13
13
13
13
13
13
13
13
13
13
13
13
13
13
13
13
13
13
13
13
13
13
13
13
13
13
13
13
13
13
13
13
13
13
13
13
13
13
13
13
13
13
13
13
13
13
13
13
13
13
13
13
13
13
13
13
13
13
13
13
13
13
13
13
13
13
13
13
13
13
13
13
13
13
13
13
13
13
13
13
13
13
13
13
13
13
13
13
13
13
13
13
13
13
13
13
13
13
13
13
13
13
13
13
13
13
13
13
13
13
13
13
13
13
13
13
13
13
13
13
13
13
13
13
13
13
13
13
13
13
13
13
13
13
13
13
13
13
13
13
13
13
13
13
13
13
13
13
13
13
13
13
13
13
13
13
13
13
13
13
13
13
13
13
13
13
13
13
13
13
13
13
13
13
13
13
13
13
13
13
13
13
13
13
13
13
13
13
13
13
13
13
13
13
13
13
13
13
13
13

POINT_DATA 2586
VECTORS displacement float
-3.28706e-09 2.56642e-07 1.60452e-07
1.99223e-08 2.54933e-07 1.60601e-07
-2.14133e-07 1.59615e-07 1.68631e-07
-2.12096e-07 1.52122e-07 1.6871e-07
-2.24836e-07 1.40064e-07 1.73592e-07
-2.25069e-07 -1.402e-07 1.7361e-07
-2.12332e-07 -1.52265e-07 1.68738e-07
-2.14367e-07 -1.59759e-07 1.68661e-07
-3.30618e-09 -2.56136e-07 1.6093e-07
1.98612e-08 -2.55184e-07 1.60176e-07
2.1203e-07 -1.32504e-07 1.60023e-07
2.23576e-07 -1.12643e-07 1.60434e-07
2.23864e-07 1.12783e-07 1.60506e-07
2.12245e-07 1.3297e-07 1.60499e-07
0 0 0
2.17949e-08 2.61513e-07 1.6022e-07
9.94964e-09 2.76476e-07 1.60812e-07
3.31592e-08 5.11199e-07 1.60941e-07
4.30825e-08 5.27623e-07 1.59856e-07
4.16368e-08 5.36467e-07 1.60087e-07
2.36627e-07 6.37729e-07 1.59012e-07
2.67469e-07 6.3682e-07 1.58274e-07
4.59456e-07 5.12261e-07 1.58403e-07
4.73888e-07 4.85122e-07 1.58614e-07
4.59709e-07 2.65193e-07 1.60347e-07
4.42295e-07 2.45026e-07 1.60152e-07
2.35687e-07 1.32315e-07 1.60046e-07
2.5007e-07 3.75389e-07 6.38979e-08
2.37031e-07 1.26011e-07 1.59798e-07
4.68794e-07 2.4918e-07 1.60677e-07
6.61016e-07 1.41324e-07 1.58548e-07
6.76446e-07 1.14796e-07 1.58755e-07
6.76275e-07 -1.15028e-07 1.5864e-07
6.60839e-07 -1.41601e-07 1.58456e-07
4.6862e-07 -2.49716e-07 1.59693e-07
4.42275e-07 -2.44902e-07 1.60417e-07
2.35507e-07 -1.32649e-07 1.60475e-07
2.36793e-07 -1.26227e-07 1.60083e-07
4.57127e-07 9.91816e-11 6.3718e-08
4.59621e-07 -2.65204e-07 1.60354e-07
4.73811e-07 -4.85301e-07 1.58804e-07
4.59331e-07 -5.12396e-07 1.58576e-07
2.67301e-07 -6.36785e-07 1.58254e-07
2.36457e-07 -6.37702e-07 1.58997e-07
4.14371e-08 -5.36369e-07 1.60046e-07
4.28767e-08 -5.27524e-07 1.59812e-07
3.29007e-08 -5.11074e-07 1.60871e-07
1.00141e-08 -2.76297e-07 1.60892e-07
2.17904e-08 -2.61652e-07 1.5994e-07
2.49805e-07 -3.77259e-07 6.39033e-08
2.63382e-08 -5.37195e-07 1.60682e-07
-1.3754e-07 -6.83929e-07 1.58963e-07
-1.68315e-07 -6.87793e-07 1.5968e-07
-3.90319e-07 -6.18745e-07 1.59542e-07
-3.90551e-07 -6.09639e-07 1.59302e-07
-4.10118e-07 -5.92861e-07 1.60054e-07
-4.758e-07 -3.75489e-07 1.71013e-07
-4.65931e-07 -3.5516e-07 1.74198e-07
-4.71488e-07 -3.48864e-07 1.76465e-07
-2.38552e-07 -1.64776e-07 1.7363e-07
-1.83019e-07 -4.17131e-07 6.44591e-08
-5.0454e-07 -3.58989e-07 1.82049e-07
-8.36094e-07 -2.06023e-07 1.9287e-07
-8.3428e-07 -1.97426e-07 1.92845e-07
-8.51988e-07 -1.80567e-07 1.93019e-07
-8.5195e-07 1.80489e-07 1.93021e-07
-8.34234e-07 1.97345e-07 1.92847e-07
-8.36045e-07 2.05943e-07 1.92872e-07
-5.03946e-07 3.58771e-07 1.81829e-07
-4.71905e-07 3.487e-07 1.76762e-07
-2.38346e-07 1.64608e-07 1.7361e-07
-5.01422e-07 -5.64685e-11 1.82168e-07
-4.66262e-07 3.54999e-07 1.74428e-07
-4.75996e-07 3.75367e-07 1.71144e-07
-4.09862e-07 5.9269e-07 1.60062e-07
-3.90301e-07 6.09461e-07 1.59314e-07
-3.90069e-07 6.18568e-07 1.59554e-07
-1.69311e-07 6.8764e-07 1.59002e-07
-1.3854e-07 6.83978e-07 1.59725e-07
2.65456e-08 5.3729e-07 1.60766e-07
-1.82877e-07 4.17603e-07 6.44248e-08
-3.28706e-09 2.56642e-07 -1.60452e-07
1.99223e-08 2.54933e-07 -1.60601e-07
-2.14133e-07 1.59615e-07 -1.68631e-07
-2.12096e-07 1.52122e-07 -1.6871e-07
-2.24836e-07 1.40064e-07 -1.73592e-07
-2.25069e-07 -1.402e-07 -1.7361e-07
-2.12332e-07 -1.52265e-07 -1.68738e-07
-2.14367e-07 -1.59759e-07 -1.68661e-07
-3.30618e-09 -2.56136e-07 -1.6093e-07
1.98612e-08 -2.55184e-07 -1.60176e-07
2.1203e-07 -1.32504e-07 -1.60023e-07
2.23576e-07 -1.12643e-07 -1.60434e-07
2.23864e-07 1.12783e-07 -1.60506e-07
2.12245e-07 1.3297e-07 -1.60499e-07
0 0 0
2.17949e-08 2.61513e-07 -1.6022e-07
9.94964e-09 2.76476e-07 -1.60812e-07
3.31592e-08 5.11199e-07 -1.60941e-07
4.30825e-08 5.27623e-07 -1.59856e-07
4.16368e-08 5.36467e-07 -1.60087e-07
2.36627e-07 6.37729e-07 -1.59012e-07
2.67469e-07 6.3682e-07 -1.58274e-07
4.59456e-07 5.12261e-07 -1.58403e-07
4.73888e-07 4.85122e-07 -1.58614e-07
4.59709e-07 2.65193e-07 -1.60347e-07
4.42295e-07 2.45026e-07 -1.60152e-07
2.35687e-07 1.32315e-07 -1.60046e-07
2.5007e-07 3.75389e-07 -6.38979e-08
2.37031e-07 1.26011e-07 -1.59798e-07
4.68794e-07 2.4918e-07 -1.60677e-07
6.61016e-07 1.41324e-07 -1.58548e-07
6.76446e-07 1.14796e-07 -1.58755e-07
6.76275e-07 -1.15028e-07 -1.5864e-07
6.60839e-07 -1.41601e-07 -1.58456e-07
4.6862e-07 -2.49716e-07 -1.59693e-07
4.42275e-07 -2.44902e-07 -1.60417e-07
2.35507e-07 -1.32649e-07 -1.60475e-07
2.36793e-07 -1.26227e-07 -1.60083e-07
4.57127e-07 9.91816e-11 -6.3718e-08
4.59621e-07 -2.65204e-07 -1.60354e-07
4.73811e-07 -4.85301e-07 -1.58804e-07
4.59331e-07 -5.12396e-07 -1.58576e-07
2.67301e-07 -6.36785e-07 -1.58254e-07
2.36457e-07 -6.37702e-07 -1.58997e-07
4.14371e-08 -5.36369e-07 -1.60046e-07
4.28767e-08 -5.27524e-07 -1.59812e-07
3.29007e-08 -5.11074e-07 -1.60871e-07
1.00141e-08 -2.76297e-07 -1.60892e-07
2.17904e-08 -2.61652e-07 -1.5994e-07
2.49805e-07 -3.77259e-07 -6.39033e-08
2.63382e-08 -5.37195e-07 -1.60682e-07
-1.3754e-07 -6.83929e-07 -1.58963e-07
-1.68315e-07 -6.87793e-07 -1.5968e-07
-3.90319e-07 -6.18745e-07 -1.59542e-07
-3.90551e-07 -6.09639e-07 -1.59302e-07
-4.10118e-07 -5.92861e-07 -1.60054e-07
-4.758e-07 -3.75489e-07 -1.71013e-07
-4.65931e-07 -3.5516e-07 -1.74198e-07
-4.71488e-07 -3.48864e-07 -1.76465e-07
-2.38552e-07 -1.64776e-07 -1.7363e-07
-1.83019e-07 -4.17131e-07 -6.44591e-08
-5.0454e-07 -3.58989e-07 -1.82049e-07
-8.36094e-07 -2.06023e-07 -1.9287e-07
-8.3428e-07 -1.97426e-07 -1.92845e-07
-8.51988e-07 -1.80567e-07 -1.93019e-07
-8.5195e-07 1.80489e-07 -1.93021e-07
-8.34234e-07 1.97345e-07 -1.92847e-07
-8.36045e-07 2.05943e-07 -1.92872e-07
-5.03946e-07 3.58771e-07 -1.81829e-07
-4.71905e-07 3.487e-07 -1.76762e-07
-2.38346e-07 1.64608e-07 -1.7361e-07
-5.01422e-07 -5.64685e-11 -1.82168e-07
-4.66262e-07 3.54999e-07 -1.74428e-07
-4.75996e-07 3.75367e-07 -1.71144e-07
-4.09862e-07 5.9269e-07 -1.60062e-07
-3.90301e-07 6.09461e-07 -1.59314e-07
-3.90069e-07 6.18568e-07 -1.59554e-07
-1.69311e-07 6.8764e-07 -1.59002e-07
-1.3854e-07 6.83978e-07 -1.59725e-07
2.65456e-08 5.3729e-07 -1.60766e-07
-1.82877e-07 4.17603e-07 -6.44248e-08
8.08128e-09 2.49823e-07 1.59828e-07
-1.64624e-07 1.82825e-07 1.54761e-07
-1.25744e-07 1.99393e-07 1.43709e-07
-8.97945e-08 2.15082e-07 1.42421e-07
-5.17839e-08 2.3225e-07 1.50665e-07
-2.1246e-07 1.55773e-07 1.68733e-07
-2.15776e-07 1.43207e-07 1.70503e-07
-2.25345e-07 -7.90926e-08 1.68709e-07
-2.24503e-07 -2.57776e-08 1.64416e-07
-2.24394e-07 2.56711e-08 1.6426e-07
-2.25201e-07 7.89632e-08 1.68758e-07
-2.16011e-07 -1.43347e-07 1.70525e-07
-2.12696e-07 -1.55917e-07 1.68763e-07
-5.17116e-08 -2.32275e-07 1.50615e-07
-8.99438e-08 -2.15011e-07 1.42898e-07
-1.25967e-07 -1.99439e-07 1.43793e-07
-1.6486e-07 -1.82939e-07 1.54807e-07
7.84685e-09 -2.49675e-07 1.59856e-07
1.6613e-07 -1.60308e-07 1.49562e-07
1.31349e-07 -1.81503e-07 1.40367e-07
9.93421e-08 -2.02117e-07 1.40391e-07
6.5057e-08 -2.24571e-07 1.49686e-07
2.12075e-07 -1.19562e-07 1.59812e-07
2.21965e-07 5.93491e-08 1.49441e-07
2.21618e-07 1.87608e-08 1.40521e-07
2.21471e-07 -1.87367e-08 1.40863e-07
2.21928e-07 -5.92598e-08 1.49308e-07
2.12364e-07 1.19845e-07 1.60029e-07
6.50684e-08 2.24863e-07 1.49558e-07
9.9461e-08 2.02337e-07 1.40828e-07
1.31572e-07 1.81788e-07 1.40823e-07
1.66458e-07 1.60323e-07 1.49491e-07
0 0 0
0 0 0
0 0 0
2.16611e-08 2.58392e-07 1.60625e-07
1.79383e-08 2.70684e-07 1.59939e-07
1.32805e-08 3.30895e-07 1.49927e-07
1.77808e-08 3.72623e-07 1.41643e-07
2.26423e-08 4.11601e-07 1.41351e-07
2.73373e-08 4.54326e-07 1.50154e-07
3.98166e-08 5.16485e-07 1.59904e-07
4.27112e-08 5.32124e-07 1.60147e-07
9.54718e-08 5.48868e-07 1.50593e-07
1.3308e-07 5.55851e-07 1.43054e-07
1.62774e-07 5.71781e-07 1.43116e-07
1.92811e-07 5.991e-07 1.49806e-07
2.51185e-07 6.30464e-07 1.58001e-07
3.08298e-07 5.94548e-07 1.50022e-07
3.36808e-07 5.633e-07 1.42297e-07
3.65833e-07 5.43898e-07 1.42446e-07
4.04271e-07 5.31469e-07 1.49445e-07
4.60748e-07 4.95126e-07 1.58121e-07
4.57757e-07 4.27839e-07 1.49603e-07
4.43661e-07 3.88769e-07 1.43375e-07
4.40932e-07 3.54809e-07 1.43104e-07
4.48581e-07 3.17446e-07 1.50905e-07
4.45256e-07 2.57797e-07 1.59867e-07
2.83399e-07 1.59203e-07 1.4978e-07
3.20019e-07 1.7861e-07 1.40628e-07
3.54441e-07 1.97062e-07 1.40747e-07
3.9223e-07 2.17299e-07 1.49872e-07
2.24083e-07 1.38272e-07 1.59597e-07
2.38912e-07 3.92658e-07 6.48339e-08
2.2045e-07 3.77778e-07 6.41026e-08
2.34275e-07 3.61677e-07 6.32593e-08
2.32284e-07 1.17707e-07 1.59645e-07
2.37219e-07 1.28926e-07 1.60128e-07
4.5472e-07 2.40917e-07 1.59705e-07
5.07137e-07 2.11432e-07 1.50872e-07
5.34914e-07 1.84306e-07 1.43569e-07
5.64687e-07 1.67774e-07 1.42872e-07
6.04432e-07 1.58071e-07 1.4965e-07
6.62946e-07 1.24218e-07 1.58275e-07
6.63096e-07 5.74251e-08 1.49729e-07
6.52596e-07 1.72632e-08 1.42424e-07
6.52119e-07 -1.79456e-08 1.43041e-07
6.63114e-07 -5.75833e-08 1.49512e-07
6.62795e-07 -1.24462e-07 1.58163e-07
6.04202e-07 -1.58361e-07 1.49634e-07
5.6442e-07 -1.6799e-07 1.42847e-07
5.34613e-07 -1.84164e-07 1.43014e-07
5.06892e-07 -2.11467e-07 1.51162e-07
4.53965e-07 -2.41407e-07 1.59419e-07
2.83121e-07 -1.59056e-07 1.49671e-07
3.19812e-07 -1.7863e-07 1.41094e-07
3.54294e-07 -1.97095e-07 1.41165e-07
3.92105e-07 -2.17334e-07 1.49669e-07
2.37e-07 -1.29208e-07 1.60502e-07
2.31989e-07 -1.17715e-07 1.59695e-07
4.42912e-07 1.41513e-08 6.42554e-08
4.25232e-07 9.95212e-10 6.47219e-08
4.41376e-07 -1.4967e-08 6.4351e-08
2.24149e-07 -1.38177e-07 1.59577e-07
4.45186e-07 -2.57753e-07 1.59918e-07
4.48567e-07 -3.17543e-07 1.50687e-07
4.40382e-07 -3.54541e-07 1.43764e-07
4.44022e-07 -3.88359e-07 1.42783e-07
4.57564e-07 -4.28035e-07 1.49883e-07
4.60635e-07 -4.9528e-07 1.58312e-07
4.04059e-07 -5.31412e-07 1.496e-07
3.65582e-07 -5.43907e-07 1.42515e-07
3.36571e-07 -5.63241e-07 1.42195e-07
3.08114e-07 -5.94501e-07 1.4997e-07
2.51014e-07 -6.30433e-07 1.57983e-07
1.92615e-07 -5.99083e-07 1.49816e-07
1.62565e-07 -5.71704e-07 1.43138e-07
1.32902e-07 -5.55732e-07 1.43063e-07
9.53058e-08 -5.48759e-07 1.50581e-07
4.25096e-08 -5.32026e-07 1.60106e-07
3.95883e-08 -5.16375e-07 1.59848e-07
1.31552e-08 -3.30787e-07 1.50061e-07
1.77937e-08 -3.72624e-07 1.41317e-07
2.23807e-08 -4.11563e-07 1.41686e-07
2.72586e-08 -4.54234e-07 1.50031e-07
1.79967e-08 -2.70635e-07 1.59896e-07
2.16376e-08 -2.58593e-07 1.60256e-07
2.35344e-07 -3.60884e-07 6.4583e-08
2.2029e-07 -3.7691e-07 6.40991e-08
2.37526e-07 -3.91947e-07 6.35238e-08
-1.93265e-09 -2.69764e-07 1.60543e-07
2.40831e-08 -5.20624e-07 1.60419e-07
-2.11436e-08 -5.57708e-07 1.51402e-07
-5.30715e-08 -5.73634e-07 1.43974e-07
-7.68003e-08 -5.9814e-07 1.4346e-07
-1.00786e-07 -6.35431e-07 1.50901e-07
-1.54648e-07 -6.79049e-07 1.58686e-07
-2.15626e-07 -6.5563e-07 1.50543e-07
-2.49521e-07 -6.35114e-07 1.43868e-07
-2.8397e-07 -6.26067e-07 1.43633e-07
-3.28002e-07 -6.25479e-07 1.50692e-07
-3.89849e-07 -6.14199e-07 1.59597e-07
-3.98272e-07 -5.9795e-07 1.59221e-07
-4.06485e-07 -5.35804e-07 1.51848e-07
-4.06493e-07 -4.97168e-07 1.4653e-07
-4.18286e-07 -4.63643e-07 1.48491e-07
-4.42795e-07 -4.27424e-07 1.57807e-07
-4.66327e-07 -3.66179e-07 1.71134e-07
-4.68161e-07 -3.51783e-07 1.75578e-07
-2.88985e-07 -2.02458e-07 1.69339e-07
-3.3313e-07 -2.36489e-07 1.65305e-07
-3.765e-07 -2.699e-07 1.65521e-07
-4.21835e-07 -3.05102e-07 1.7064e-07
-2.26553e-07 -1.68863e-07 1.6989e-07
-2.00195e-07 -4.05441e-07 6.66328e-08
-2.14346e-07 -4.27933e-07 6.66484e-08
-1.95314e-07 -4.3777e-07 6.47381e-08
-2.37258e-07 -1.50117e-07 1.74945e-07
-4.907e-07 -3.47054e-07 1.80253e-07
-5.7538e-07 -3.32321e-07 1.85068e-07
-6.41986e-07 -3.02604e-07 1.86745e-07
-7.06973e-07 -2.71381e-07 1.88639e-07
-7.71298e-07 -2.39191e-07 1.90966e-07
-8.34613e-07 -2.01866e-07 1.92885e-07
-8.39864e-07 -1.8541e-07 1.92876e-07
-8.533e-07 -1.07831e-07 1.91978e-07
-8.54008e-07 -3.59461e-08 1.91202e-07
-8.54007e-07 3.58537e-08 1.91197e-07
-8.5328e-07 1.07743e-07 1.91979e-07
-8.39823e-07 1.85329e-07 1.92878e-07
-8.34566e-07 2.01785e-07 1.92887e-07
-7.71226e-07 2.39093e-07 1.90968e-07
-7.06883e-07 2.71235e-07 1.88624e-07
-6.41947e-07 3.02489e-07 1.86667e-07
-5.75369e-07 3.32349e-07 1.85104e-07
-4.90073e-07 3.46827e-07 1.80099e-07
-2.88798e-07 2.02236e-07 1.69339e-07
-3.32971e-07 2.36228e-07 1.6534e-07
-3.7636e-07 2.69624e-07 1.65709e-07
-4.21696e-07 3.0492e-07 1.70638e-07
-2.37078e-07 1.4996e-07 1.74931e-07
-5.31063e-07 3.04524e-08 1.8362e-07
-5.61644e-07 -3.15117e-11 1.85217e-07
-5.31024e-07 -3.05725e-08 1.83693e-07
-2.26331e-07 1.68706e-07 1.69862e-07
-4.6855e-07 3.51605e-07 1.75846e-07
-4.66545e-07 3.66036e-07 1.71282e-07
-4.42872e-07 4.27282e-07 1.57884e-07
-4.18262e-07 4.6363e-07 1.48514e-07
-4.06337e-07 4.97137e-07 1.46578e-07
-4.06268e-07 5.35658e-07 1.51852e-07
-3.98019e-07 5.97774e-07 1.5923e-07
-3.896e-07 6.14021e-07 1.59609e-07
-3.27776e-07 6.2524e-07 1.50729e-07
-2.83748e-07 6.25822e-07 1.43625e-07
-2.49423e-07 6.344e-07 1.43323e-07
-2.15526e-07 6.55334e-07 1.50902e-07
-1.54379e-07 6.78996e-07 1.58728e-07
-1.00714e-07 6.35561e-07 1.50627e-07
-7.67147e-08 5.98761e-07 1.44072e-07
-5.288e-08 5.73854e-07 1.44066e-07
-2.09037e-08 5.57827e-07 1.51463e-07
2.42613e-08 5.20733e-07 1.60512e-07
-2.00335e-09 2.7008e-07 1.60319e-07
-1.93473e-07 4.38297e-07 6.57835e-08
-2.1419e-07 4.25792e-07 6.66737e-08
-2.01643e-07 4.06078e-07 6.5569e-08
8.08128e-09 2.49823e-07 -1.59828e-07
-1.64624e-07 1.82825e-07 -1.54761e-07
-1.25744e-07 1.99393e-07 -1.43709e-07
-8.97945e-08 2.15082e-07 -1.42421e-07
-5.17839e-08 2.3225e-07 -1.50665e-07
-2.1246e-07 1.55773e-07 -1.68733e-07
-2.15776e-07 1.43207e-07 -1.70503e-07
-2.25345e-07 -7.90926e-08 -1.68709e-07
-2.24503e-07 -2.57776e-08 -1.64416e-07
-2.24394e-07 2.56711e-08 -1.6426e-07
-2.25201e-07 7.89632e-08 -1.68758e-07
-2.16011e-07 -1.43347e-07 -1.70525e-07
-2.12696e-07 -1.55917e-07 -1.68763e-07
-5.17116e-08 -2.32275e-07 -1.50615e-07
-8.99438e-08 -2.15011e-07 -1.42898e-07
-1.25967e-07 -1.99439e-07 -1.43793e-07
-1.6486e-07 -1.82939e-07 -1.54807e-07
7.84685e-09 -2.49675e-07 -1.59856e-07
1.6613e-07 -1.60308e-07 -1.49562e-07
1.31349e-07 -1.81503e-07 -1.40367e-07
9.93421e-08 -2.02117e-07 -1.40391e-07
6.5057e-08 -2.24571e-07 -1.49686e-07
2.12075e-07 -1.19562e-07 -1.59812e-07
2.21965e-07 5.93491e-08 -1.49441e-07
2.21618e-07 1.87608e-08 -1.40521e-07
2.21471e-07 -1.87367e-08 -1.40863e-07
2.21928e-07 -5.92598e-08 -1.49308e-07
2.12364e-07 1.19845e-07 -1.60029e-07
6.50684e-08 2.24863e-07 -1.49558e-07
9.9461e-08 2.02337e-07 -1.40828e-07
1.31572e-07 1.81788e-07 -1.40823e-07
1.66458e-07 1.60323e-07 -1.49491e-07
0 0 0
0 0 0
0 0 0
2.16611e-08 2.58392e-07 -1.60625e-07
1.79383e-08 2.70684e-07 -1.59939e-07
1.32805e-08 3.30895e-07 -1.49927e-07
1.77808e-08 3.72623e-07 -1.41643e-07
2.26423e-08 4.11601e-07 -1.41351e-07
2.73373e-08 4.54326e-07 -1.50154e-07
3.98166e-08 5.16485e-07 -1.59904e-07
4.27112e-08 5.32124e-07 -1.60147e-07
9.54718e-08 5.48868e-07 -1.50593e-07
1.3308e-07 5.55851e-07 -1.43054e-07
1.62774e-07 5.71781e-07 -1.43116e-07
1.92811e-07 5.991e-07 -1.49806e-07
2.51185e-07 6.30464e-07 -1.58001e-07
3.08298e-07 5.94548e-07 -1.50022e-07
3.36808e-07 5.633e-07 -1.42297e-07
3.65833e-07 5.43898e-07 -1.42446e-07
4.04271e-07 5.31469e-07 -1.49445e-07
4.60748e-07 4.95126e-07 -1.58121e-07
4.57757e-07 4.27839e-07 -1.49603e-07
4.43661e-07 3.88769e-07 -1.43375e-07
4.40932e-07 3.54809e-07 -1.43104e-07
4.48581e-07 3.17446e-07 -1.50905e-07
4.45256e-07 2.57797e-07 -1.59867e-07
2.83399e-07 1.59203e-07 -1.4978e-07
3.20019e-07 1.7861e-07 -1.40628e-07
3.54441e-07 1.97062e-07 -1.40747e-07
3.9223e-07 2.17299e-07 -1.49872e-07
2.24083e-07 1.38272e-07 -1.59597e-07
2.38912e-07 3.92658e-07 -6.48339e-08
2.2045e-07 3.77778e-07 -6.41026e-08
2.34275e-07 3.61677e-07 -6.32593e-08
2.32284e-07 1.17707e-07 -1.59645e-07
2.37219e-07 1.28926e-07 -1.60128e-07
4.5472e-07 2.40917e-07 -1.59705e-07
5.07137e-07 2.11432e-07 -1.50872e-07
5.34914e-07 1.84306e-07 -1.43569e-07
5.64687e-07 1.67774e-07 -1.42872e-07
6.04432e-07 1.58071e-07 -1.4965e-07
6.62946e-07 1.24218e-07 -1.58275e-07
6.63096e-07 5.74251e-08 -1.49729e-07
6.52596e-07 1.72632e-08 -1.42424e-07
6.52119e-07 -1.79456e-08 -1.43041e-07
6.63114e-07 -5.75833e-08 -1.49512e-07
6.62795e-07 -1.24462e-07 -1.58163e-07
6.04202e-07 -1.58361e-07 -1.49634e-07
5.6442e-07 -1.6799e-07 -1.42847e-07
5.34613e-07 -1.84164e-07 -1.43014e-07
5.06892e-07 -2.11467e-07 -1.51162e-07
4.53965e-07 -2.41407e-07 -1.59419e-07
2.83121e-07 -1.59056e-07 -1.49671e-07
3.19812e-07 -1.7863e-07 -1.41094e-07
3.54294e-07 -1.97095e-07 -1.41165e-07
3.92105e-07 -2.17334e-07 -1.49669e-07
2.37e-07 -1.29208e-07 -1.60502e-07
2.31989e-07 -1.17715e-07 -1.59695e-07
4.42912e-07 1.41513e-08 -6.42554e-08
4.25232e-07 9.95212e-10 -6.47219e-08
4.41376e-07 -1.4967e-08 -6.4351e-08
2.24149e-07 -1.38177e-07 -1.59577e-07
4.45186e-07 -2.57753e-07 -1.59918e-07
4.48567e-07 -3.17543e-07 -1.50687e-07
4.40382e-07 -3.54541e-07 -1.43764e-07
4.44022e-07 -3.88359e-07 -1.42783e-07
4.57564e-07 -4.28035e-07 -1.49883e-07
4.60635e-07 -4.9528e-07 -1.58312e-07
4.04059e-07 -5.31412e-07 -1.496e-07
3.65582e-07 -5.43907e-07 -1.42515e-07
3.36571e-07 -5.63241e-07 -1.42195e-07
3.08114e-07 -5.94501e-07 -1.4997e-07
2.51014e-07 -6.30433e-07 -1.57983e-07
1.92615e-07 -5.99083e-07 -1.49816e-07
1.62565e-07 -5.71704e-07 -1.43138e-07
1.32902e-07 -5.55732e-07 -1.43063e-07
9.53058e-08 -5.48759e-07 -1.50581e-07
4.25096e-08 -5.32026e-07 -1.60106e-07
3.95883e-08 -5.16375e-07 -1.59848e-07
1.31552e-08 -3.30787e-07 -1.50061e-07
1.77937e-08 -3.72624e-07 -1.41317e-07
2.23807e-08 -4.11563e-07 -1.41686e-07
2.72586e-08 -4.54234e-07 -1.50031e-07
1.79967e-08 -2.70635e-07 -1.59896e-07
2.16376e-08 -2.58593e-07 -1.60256e-07
2.35344e-07 -3.60884e-07 -6.4583e-08
2.2029e-07 -3.7691e-07 -6.40991e-08
2.37526e-07 -3.91947e-07 -6.35238e-08
-1.93265e-09 -2.69764e-07 -1.60543e-07
2.40831e-08 -5.20624e-07 -1.60419e-07
-2.11436e-08 -5.57708e-07 -1.51402e-07
-5.30715e-08 -5.73634e-07 -1.43974e-07
-7.68003e-08 -5.9814e-07 -1.4346e-07
-1.00786e-07 -6.35431e-07 -1.50901e-07
-1.54648e-07 -6.79049e-07 -1.58686e-07
-2.15626e-07 -6.5563e-07 -1.50543e-07
-2.49521e-07 -6.35114e-07 -1.43868e-07
-2.8397e-07 -6.26067e-07 -1.43633e-07
-3.28002e-07 -6.25479e-07 -1.50692e-07
-3.89849e-07 -6.14199e-07 -1.59597e-07
-3.98272e-07 -5.9795e-07 -1.59221e-07
-4.06485e-07 -5.35804e-07 -1.51848e-07
-4.06493e-07 -4.97168e-07 -1.4653e-07
-4.18286e-07 -4.63643e-07 -1.48491e-07
-4.42795e-07 -4.27424e-07 -1.57807e-07
-4.66327e-07 -3.66179e-07 -1.71134e-07
-4.68161e-07 -3.51783e-07 -1.75578e-07
-2.88985e-07 -2.02458e-07 -1.69339e-07
-3.3313e-07 -2.36489e-07 -1.65305e-07
-3.765e-07 -2.699e-07 -1.65521e-07
-4.21835e-07 -3.05102e-07 -1.7064e-07
-2.26553e-07 -1.68863e-07 -1.6989e-07
-2.00195e-07 -4.05441e-07 -6.66328e-08
-2.14346e-07 -4.27933e-07 -6.66484e-08
-1.95314e-07 -4.3777e-07 -6.47381e-08
-2.37258e-07 -1.50117e-07 -1.74945e-07
-4.907e-07 -3.47054e-07 -1.80253e-07
-5.7538e-07 -3.32321e-07 -1.85068e-07
-6.41986e-07 -3.02604e-07 -1.86745e-07
-7.06973e-07 -2.71381e-07 -1.88639e-07
-7.71298e-07 -2.39191e-07 -1.90966e-07
-8.34613e-07 -2.01866e-07 -1.92885e-07
-8.39864e-07 -1.8541e-07 -1.92876e-07
-8.533e-07 -1.07831e-07 -1.91978e-07
-8.54008e-07 -3.59461e-08 -1.91202e-07
-8.54007e-07 3.58537e-08 -1.91197e-07
-8.5328e-07 1.07743e-07 -1.91979e-07
-8.39823e-07 1.85329e-07 -1.92878e-07
-8.34566e-07 2.01785e-07 -1.92887e-07
-7.71226e-07 2.39093e-07 -1.90968e-07
-7.06883e-07 2.71235e-07 -1.88624e-07
-6.41947e-07 3.02489e-07 -1.86667e-07
-5.75369e-07 3.32349e-07 -1.85104e-07
-4.90073e-07 3.46827e-07 -1.80099e-07
-2.88798e-07 2.02236e-07 -1.69339e-07
-3.32971e-07 2.36228e-07 -1.6534e-07
-3.7636e-07 2.69624e-07 -1.65709e-07
-4.21696e-07 3.0492e-07 -1.70638e-07
-2.37078e-07 1.4996e-07 -1.74931e-07
-5.31063e-07 3.04524e-08 -1.8362e-07
-5.61644e-07 -3.15117e-11 -1.85217e-07
-5.31024e-07 -3.05725e-08 -1.83693e-07
-2.26331e-07 1.68706e-07 -1.69862e-07
-4.6855e-07 3.51605e-07 -1.75846e-07
-4.66545e-07 3.66036e-07 -1.71282e-07
-4.42872e-07 4.27282e-07 -1.57884e-07
-4.18262e-07 4.6363e-07 -1.48514e-07
-4.06337e-07 4.97137e-07 -1.46578e-07
-4.06268e-07 5.35658e-07 -1.51852e-07
-3.98019e-07 5.97774e-07 -1.5923e-07
-3.896e-07 6.14021e-07 -1.59609e-07
-3.27776e-07 6.2524e-07 -1.50729e-07
-2.83748e-07 6.25822e-07 -1.43625e-07
-2.49423e-07 6.344e-07 -1.43323e-07
-2.15526e-07 6.55334e-07 -1.50902e-07
-1.54379e-07 6.78996e-07 -1.58728e-07
-1.00714e-07 6.35561e-07 -1.50627e-07
-7.67147e-08 5.98761e-07 -1.44072e-07
-5.288e-08 5.73854e-07 -1.44066e-07
-2.09037e-08 5.57827e-07 -1.51463e-07
2.42613e-08 5.20733e-07 -1.60512e-07
-2.00335e-09 2.7008e-07 -1.60319e-07
-1.93473e-07 4.38297e-07 -6.57835e-08
-2.1419e-07 4.25792e-07 -6.66737e-08
-2.01643e-07 4.06078e-07 -6.5569e-08
6.6468e-08 -6.41265e-08 1.08347e-07
6.71094e-08 6.77504e-08 1.09863e-07
-6.44806e-08 7.49807e-08 1.12993e-07
-6.48947e-08 -7.51451e-08 1.13217e-07
-1.4929e-07 -1.14906e-07 1.52153e-07
-1.4904e-07 1.14742e-07 1.52098e-07
6.22312e-10 8.21942e-08 1.02409e-07
-7.55274e-08 2.12753e-09 1.0454e-07
7.37842e-08 -2.3367e-09 9.75096e-08
-2.1931e-10 -8.20897e-08 1.02389e-07
-1.78351e-07 1.23238e-07 1.6201e-07
-1.78592e-07 -1.23389e-07 1.62046e-07
1.37752e-07 7.46506e-08 1.38116e-07
1.44493e-07 -7.73042e-08 1.40565e-07
3.00736e-10 -1.65909e-07 1.40475e-07
7.83109e-09 1.65604e-07 1.40399e-07
5.32419e-08 1.29277e-07 1.27867e-07
-4.77957e-08 -1.3547e-07 1.29288e-07
-1.38498e-07 3.90803e-08 1.40313e-07
-1.41042e-07 -3.84614e-08 1.41283e-07
5.29231e-08 -1.34247e-07 1.29037e-07
-4.71541e-08 1.41458e-07 1.30786e-07
2.41268e-08 -2.42134e-08 6.35766e-08
2.74661e-08 3.05358e-08 7.07746e-08
-2.69256e-08 2.64073e-08 6.85442e-08
-2.85586e-08 -2.8176e-08 7.10673e-08
-1.8608e-07 1.46712e-07 1.63893e-07
-1.86319e-07 -1.46852e-07 1.63927e-07
-1.026e-07 1.28429e-07 1.37427e-07
-1.02855e-07 -1.28112e-07 1.37423e-07
1.45604e-07 -2.15963e-08 1.30748e-07
1.37878e-07 2.5156e-08 1.28644e-07
-1.09308e-07 -7.0567e-08 1.31949e-07
-1.08987e-07 7.03789e-08 1.31817e-07
2.38438e-08 -2.02058e-07 1.5089e-07
-1.23176e-08 2.04367e-07 1.51264e-07
1.05502e-07 -1.15306e-07 1.33835e-07
1.0539e-07 1.1302e-07 1.33537e-07
7.69329e-09 4.27369e-08 7.305e-08
5.89106e-09 -4.14513e-08 7.13864e-08
-4.0319e-08 -7.58639e-09 7.48001e-08
3.90028e-08 -4.68268e-09 6.93506e-08
-1.84385e-07 8.29322e-08 1.60231e-07
-1.84604e-07 -8.30743e-08 1.60263e-07
9.66482e-08 -3.62814e-08 1.14636e-07
1.57295e-07 1.1394e-07 1.49049e-07
1.58111e-07 -1.14485e-07 1.49273e-07
9.04048e-08 3.69087e-08 1.11759e-07
-3.00769e-08 7.27875e-08 1.00278e-07
-2.88394e-08 -7.11086e-08 9.89605e-08
-6.38095e-08 3.2501e-08 1.00247e-07
3.40982e-08 -6.31927e-08 9.59972e-08
3.53301e-08 6.40641e-08 9.66968e-08
-5.93164e-08 -2.98616e-08 9.63325e-08
-4.42641e-08 -1.77763e-07 1.4131e-07
5.2444e-08 1.71834e-07 1.40174e-07
2.69695e-08 2.09227e-07 1.5265e-07
-1.47968e-08 -2.11589e-07 1.53059e-07
-1.98684e-07 1.0832e-07 1.66536e-07
-1.98904e-07 -1.08466e-07 1.6655e-07
-1.74307e-07 9.73378e-10 1.51226e-07
1.92338e-07 -8.66184e-08 1.53926e-07
1.93246e-07 8.58998e-08 1.54009e-07
3.77127e-08 -1.68601e-07 1.40416e-07
-2.92391e-08 1.73608e-07 1.415e-07
1.52428e-08 -1.24735e-07 1.24737e-07
-1.02434e-08 1.26354e-07 1.25122e-07
5.41641e-08 1.95218e-08 8.66504e-08
2.12451e-08 1.27254e-07 1.25908e-07
-1.61607e-08 -1.29308e-07 1.26421e-07
9.26184e-08 1.48064e-07 1.35055e-07
5.67576e-08 -2.84541e-08 9.1009e-08
-8.69302e-08 -1.60657e-07 1.37773e-07
1.72039e-07 4.47238e-08 1.40653e-07
1.7499e-07 -4.98019e-08 1.42083e-07
-1.56128e-07 1.44339e-07 1.54935e-07
-1.56365e-07 -1.44477e-07 1.54976e-07
-1.00182e-07 -3.34574e-08 1.22232e-07
-1.46491e-07 -7.8476e-08 1.47842e-07
-1.46055e-07 7.83569e-08 1.47691e-07
-2.06364e-07 1.44822e-07 1.68451e-07
-2.04285e-07 1.2993e-07 1.68773e-07
-2.066e-07 -1.44964e-07 1.68478e-07
-2.04518e-07 -1.30073e-07 1.68795e-07
9.46936e-08 -1.48829e-07 1.35553e-07
-1.16826e-07 1.04387e-07 1.39542e-07
-1.17112e-07 -1.04535e-07 1.39629e-07
-1.07536e-08 2.30167e-07 1.56716e-07
2.47911e-08 -2.2793e-07 1.56391e-07
-8.89023e-08 1.62166e-07 1.38435e-07
-1.00103e-07 3.48161e-08 1.22289e-07
-1.21473e-07 2.28521e-09 1.30976e-07
1.68967e-07 7.76903e-09 1.34226e-07
7.19408e-08 1.02219e-07 1.22364e-07
1.86317e-07 1.2224e-07 1.56563e-07
1.86138e-07 -1.22358e-07 1.56394e-07
6.91313e-08 -1.00758e-07 1.21205e-07
1.01802e-07 7.4513e-08 1.25388e-07
-6.44682e-08 -1.09396e-07 1.2404e-07
-4.59296e-09 2.18562e-08 4.82111e-08
-7.31379e-09 -2.26163e-08 5.07063e-08
-2.08161e-08 5.44305e-09 4.97707e-08
2.17792e-08 8.28278e-09 5.12795e-08
-6.5001e-08 1.11249e-07 1.24581e-07
1.04253e-07 -7.66886e-08 1.267e-07
-1.84341e-07 4.90257e-08 1.56664e-07
-1.85631e-07 -4.85448e-08 1.56969e-07
8.42804e-09 -8.73348e-09 2.99985e-08
2.96414e-08 9.70853e-08 1.12665e-07
9.50603e-09 1.94868e-08 4.63162e-08
-1.70906e-08 -9.78745e-09 4.49142e-08
7.01979e-08 -1.74853e-07 1.39156e-07
3.16958e-08 -9.94264e-08 1.14052e-07
1.16528e-07 1.59082e-09 1.19167e-07
-3.11021e-08 -1.04269e-07 1.15887e-07
5.29935e-08 4.14503e-08 9.32054e-08
-1.70586e-07 1.02272e-07 1.58279e-07
-1.70856e-07 -1.02422e-07 1.58332e-07
-1.28477e-07 -1.59154e-07 1.46018e-07
-1.27764e-07 1.57563e-07 1.45895e-07
-2.99088e-08 1.05572e-07 1.16359e-07
1.24972e-07 4.80089e-08 1.28237e-07
-6.24444e-08 1.80778e-07 1.40257e-07
1.28047e-07 1.03052e-07 1.39115e-07
1.28737e-07 -1.04089e-07 1.39376e-07
1.31471e-07 -4.99521e-08 1.30882e-07
-9.50457e-09 1.00244e-08 3.28879e-08
-1.17618e-08 4.95083e-08 7.97521e-08
-1.21075e-08 -4.95657e-08 7.97783e-08
-4.33969e-08 1.15845e-08 7.85845e-08
-4.37576e-08 5.23811e-08 9.46457e-08
-4.28519e-08 -5.39039e-08 9.49842e-08
-8.86422e-08 -9.46332e-08 1.27497e-07
4.42043e-08 -4.39316e-08 8.95006e-08
-8.8363e-08 9.46961e-08 1.27407e-07
-1.2991e-07 1.29878e-07 1.4611e-07
-1.30252e-07 -1.30225e-07 1.4619e-07
-7.81287e-08 5.89456e-08 1.15178e-07
-7.95419e-08 -5.85489e-08 1.15771e-07
4.62149e-09 -1.73079e-08 4.12702e-08
1.65677e-08 -4.37554e-09 4.06508e-08
1.34601e-07 1.38733e-07 1.42759e-07
1.34538e-07 -1.38772e-07 1.42705e-07
9.37811e-09 2.25286e-07 1.56624e-07
4.34845e-09 -2.25462e-07 1.56694e-07
2.95979e-07 3.09207e-07 1.13638e-07
3.07201e-07 4.38186e-07 1.1441e-07
1.8083e-07 4.46572e-07 1.14328e-07
1.66791e-07 3.13667e-07 1.13417e-07
1.02146e-07 4.85158e-07 1.46163e-07
8.43075e-08 2.87598e-07 1.45557e-07
2.42419e-07 4.55253e-07 1.07484e-07
1.62363e-07 3.83768e-07 1.04769e-07
3.09402e-07 3.73403e-07 1.05763e-07
2.30594e-07 2.98936e-07 1.06793e-07
7.4598e-08 4.95604e-07 1.53882e-07
5.59041e-08 2.84348e-07 1.53674e-07
3.84401e-07 4.50901e-07 1.41524e-07
3.66048e-07 2.99681e-07 1.39718e-07
2.23008e-07 2.20047e-07 1.40583e-07
2.44981e-07 5.39639e-07 1.40839e-07
2.01442e-07 5.03845e-07 1.30162e-07
1.78634e-07 2.54224e-07 1.289e-07
1.05598e-07 4.18633e-07 1.31531e-07
9.67014e-08 3.54481e-07 1.31907e-07
2.92127e-07 5.0407e-07 1.31245e-07
2.78011e-07 2.46072e-07 1.30145e-07
2.59804e-07 3.45809e-07 8.47306e-08
2.66541e-07 4.05843e-07 8.56575e-08
2.12032e-07 4.03221e-07 8.31644e-08
2.07208e-07 3.52133e-07 8.22984e-08
6.83389e-08 5.18959e-07 1.56604e-07
4.73332e-08 2.63291e-07 1.56538e-07
1.4871e-07 4.93717e-07 1.35857e-07
1.27204e-07 2.68389e-07 1.34405e-07
3.75905e-07 3.9611e-07 1.33438e-07
3.64944e-07 3.48154e-07 1.31481e-07
1.25016e-07 3.22993e-07 1.2731e-07
1.37027e-07 4.43859e-07 1.27884e-07
2.43627e-07 1.83604e-07 1.50902e-07
2.66834e-07 5.78368e-07 1.504e-07
3.45173e-07 4.84132e-07 1.35735e-07
3.284e-07 2.68595e-07 1.32984e-07
2.47718e-07 4.18321e-07 8.66995e-08
2.25878e-07 3.35609e-07 8.55164e-08
1.94738e-07 3.73916e-07 8.54035e-08
2.77822e-07 3.72638e-07 8.70015e-08
6.57469e-08 4.58274e-07 1.48194e-07
5.19843e-08 3.21499e-07 1.47994e-07
3.31897e-07 4.13417e-07 1.18914e-07
4.0176e-07 4.87277e-07 1.49187e-07
3.86041e-07 2.62207e-07 1.49593e-07
3.23148e-07 3.40438e-07 1.16867e-07
2.14908e-07 4.43994e-07 1.04128e-07
2.60056e-07 3.09951e-07 1.0314e-07
1.76917e-07 4.09478e-07 1.02773e-07
2.75105e-07 4.37116e-07 1.03385e-07
1.99793e-07 3.14876e-07 1.0267e-07
1.75807e-07 3.54506e-07 9.91921e-08
1.78446e-07 2.12664e-07 1.4054e-07
2.05486e-07 5.46032e-07 1.4152e-07
2.30562e-07 5.87008e-07 1.52044e-07
2.04426e-07 1.77238e-07 1.52612e-07
5.48144e-08 4.81815e-07 1.54974e-07
3.7105e-08 3.01171e-07 1.54829e-07
6.77807e-08 3.89532e-07 1.36439e-07
4.35573e-07 4.61135e-07 1.53284e-07
4.23482e-07 2.89216e-07 1.54687e-07
2.78356e-07 5.40889e-07 1.4132e-07
2.60176e-07 2.14632e-07 1.40792e-07
2.93316e-07 3.94835e-07 9.77607e-08
2.4091e-07 2.57979e-07 1.26009e-07
2.57789e-07 4.97065e-07 1.26797e-07
2.29839e-07 5.00747e-07 1.27899e-07
2.09565e-07 2.5638e-07 1.27113e-07
1.39416e-07 2.34599e-07 1.35787e-07
1.66731e-07 5.22485e-07 1.37815e-07
3.97817e-07 3.28443e-07 1.4281e-07
4.09558e-07 4.23911e-07 1.43372e-07
9.78553e-08 5.12665e-07 1.49965e-07
7.58544e-08 2.60668e-07 1.49239e-07
1.36224e-07 3.5486e-07 1.18011e-07
8.89397e-08 3.20559e-07 1.3968e-07
1.01824e-07 4.52628e-07 1.40003e-07
4.86211e-08 5.19274e-07 1.59274e-07
5.0708e-08 5.03459e-07 1.58378e-07
2.748e-08 2.68007e-07 1.59458e-07
3.03742e-08 2.81911e-07 1.58346e-07
2.84477e-07 3.48928e-07 9.63967e-08
3.32166e-07 5.14031e-07 1.37856e-07
3.1729e-07 2.29022e-07 1.36196e-07
1.32554e-07 4.73747e-07 1.36106e-07
1.15432e-07 2.92764e-07 1.3519e-07
2.68725e-07 6.06342e-07 1.55186e-07
2.42561e-07 1.58555e-07 1.56312e-07
1.42197e-07 4.13022e-07 1.18506e-07
1.18479e-07 3.86959e-07 1.23655e-07
3.93262e-07 3.65373e-07 1.37125e-07
4.32342e-07 4.97596e-07 1.55267e-07
4.16374e-07 2.54799e-07 1.56661e-07
3.07681e-07 4.69319e-07 1.23749e-07
2.88768e-07 2.74961e-07 1.22539e-07
3.32695e-07 3.04757e-07 1.27824e-07
1.64595e-07 2.81497e-07 1.23127e-07
1.84309e-07 4.77589e-07 1.24518e-07
2.33028e-07 4.02078e-07 7.45363e-08
2.42249e-07 3.50277e-07 7.52905e-08
2.62328e-07 3.84656e-07 7.5659e-08
2.12284e-07 3.86424e-07 7.50949e-08
3.43676e-07 4.49303e-07 1.29252e-07
6.27004e-08 4.28951e-07 1.42069e-07
5.32094e-08 3.50799e-07 1.42032e-07
2.23083e-07 3.66328e-07 6.78601e-08
1.99277e-07 2.83817e-07 1.16343e-07
2.48819e-07 3.97903e-07 7.34039e-08
2.54217e-07 3.65515e-07 7.18938e-08
2.92069e-07 2.06303e-07 1.39683e-07
3.08629e-07 5.41886e-07 1.40852e-07
2.72316e-07 4.71245e-07 1.17662e-07
3.47393e-07 3.7289e-07 1.23238e-07
2.1513e-07 4.75207e-07 1.18311e-07
8.05321e-08 4.75384e-07 1.4943e-07
6.43752e-08 3.02461e-07 1.49143e-07
1.00817e-07 2.42133e-07 1.42217e-07
1.26868e-07 5.21761e-07 1.43852e-07
2.90657e-07 4.15072e-07 1.00943e-07
2.59251e-07 2.7861e-07 1.17456e-07
3.52113e-07 3.27429e-07 1.30338e-07
3.69875e-07 4.75257e-07 1.40541e-07
3.55813e-07 2.73965e-07 1.40015e-07
3.67359e-07 4.24639e-07 1.33086e-07
2.2637e-07 3.89516e-07 6.89898e-08
2.4437e-07 3.28555e-07 9.02606e-08
2.29303e-07 4.25123e-07 9.08472e-08
1.93347e-07 3.91092e-07 8.86537e-08
1.99509e-07 4.27064e-07 1.00167e-07
2.70479e-07 3.27315e-07 9.79854e-08
1.42987e-07 2.98341e-07 1.25169e-07
1.59584e-07 4.63998e-07 1.26197e-07
1.87201e-07 3.3125e-07 1.00181e-07
1.22036e-07 4.97038e-07 1.42662e-07
1.01349e-07 2.70303e-07 1.4156e-07
1.66047e-07 4.3284e-07 1.14812e-07
1.55623e-07 3.30223e-07 1.13885e-07
2.27127e-07 3.5496e-07 7.21392e-08
2.13233e-07 3.71996e-07 7.24525e-08
3.74119e-07 5.06622e-07 1.43873e-07
3.58606e-07 2.39604e-07 1.4275e-07
2.2234e-07 1.62316e-07 1.56429e-07
2.481e-07 6.04099e-07 1.55278e-07
5.08472e-07 -5.98666e-08 1.13378e-07
5.08842e-07 6.27013e-08 1.14433e-07
3.78429e-07 6.63701e-08 1.13481e-07
3.78252e-07 -6.62841e-08 1.13602e-07
2.97528e-07 9.69104e-08 1.45482e-07
2.97327e-07 -9.6892e-08 1.45528e-07
4.41684e-07 7.55797e-08 1.07239e-07
3.66192e-07 -6.31051e-10 1.04503e-07
5.15751e-07 -2.46072e-09 1.04569e-07
4.40844e-07 -7.57721e-08 1.07422e-07
2.69371e-07 1.01861e-07 1.5352e-07
2.6912e-07 -1.01879e-07 1.53567e-07
5.88476e-07 -7.72774e-08 1.4159e-07
5.81314e-07 7.39215e-08 1.39326e-07
4.41779e-07 -1.56109e-07 1.41163e-07
4.48981e-07 1.55621e-07 1.41266e-07
4.92076e-07 1.18846e-07 1.30467e-07
3.95202e-07 -1.24231e-07 1.29232e-07
3.05858e-07 3.16524e-08 1.3101e-07
3.01944e-07 -3.16564e-08 1.32079e-07
4.9143e-07 -1.23657e-07 1.3173e-07
3.9592e-07 1.30004e-07 1.30584e-07
4.67454e-07 -2.34091e-08 8.16517e-08
4.69895e-07 2.87123e-08 8.555e-08
4.12072e-07 2.55091e-08 8.40972e-08
4.13327e-07 -2.40271e-08 8.29438e-08
2.62595e-07 1.229e-07 1.56365e-07
2.62306e-07 -1.22934e-07 1.56486e-07
3.42505e-07 1.13387e-07 1.34524e-07
3.42302e-07 -1.12934e-07 1.34552e-07
5.84021e-07 -2.26142e-08 1.33227e-07
5.77166e-07 2.56348e-08 1.31173e-07
3.35039e-07 -5.9791e-08 1.27251e-07
3.35202e-07 5.98563e-08 1.27197e-07
4.66001e-07 -1.92805e-07 1.51453e-07
4.31273e-07 1.93645e-07 1.51151e-07
5.46601e-07 -1.078e-07 1.36033e-07
5.46573e-07 1.05377e-07 1.35578e-07
4.49164e-07 4.00841e-08 8.65937e-08
4.4767e-07 -3.95491e-08 8.59823e-08
3.99798e-07 6.74847e-09 8.57481e-08
4.83262e-07 -4.81166e-09 8.53537e-08
2.61828e-07 6.59249e-08 1.47702e-07
2.61689e-07 -6.59192e-08 1.47686e-07
5.3821e-07 -3.55e-08 1.18631e-07
6.03889e-07 -1.14072e-07 1.4931e-07
6.02934e-07 1.13063e-07 1.49042e-07
5.32224e-07 3.56114e-08 1.16053e-07
4.11567e-07 6.62846e-08 1.04536e-07
4.12793e-07 -6.46673e-08 1.03693e-07
3.77782e-07 -2.83126e-08 1.02364e-07
4.75498e-07 -5.82515e-08 1.02989e-07
4.76577e-07 5.87399e-08 1.03353e-07
3.8258e-07 2.61023e-08 9.9485e-08
3.99044e-07 -1.65341e-07 1.40776e-07
4.9067e-07 1.59545e-07 1.42138e-07
4.69336e-07 1.99507e-07 1.53211e-07
4.29039e-07 -2.0072e-07 1.52753e-07
2.48922e-07 8.66835e-08 1.54566e-07
2.48736e-07 -8.66899e-08 1.54549e-07
2.7085e-07 5.04605e-10 1.3583e-07
6.3926e-07 -8.96461e-08 1.53286e-07
6.39903e-07 8.84457e-08 1.53387e-07
4.76876e-07 -1.57984e-07 1.42037e-07
4.13704e-07 1.62213e-07 1.41343e-07
4.55571e-07 -1.15843e-07 1.26997e-07
4.31174e-07 1.17095e-07 1.26533e-07
4.97336e-07 1.85336e-08 9.63202e-08
4.61267e-07 1.1773e-07 1.28059e-07
4.25527e-07 -1.19928e-07 1.27618e-07
5.29881e-07 1.34785e-07 1.3768e-07
4.99188e-07 -2.69511e-08 9.95048e-08
3.5763e-07 -1.45225e-07 1.36002e-07
6.11862e-07 4.61913e-08 1.42016e-07
6.15581e-07 -5.16173e-08 1.43278e-07
2.91371e-07 1.23697e-07 1.49238e-07
2.91136e-07 -1.23632e-07 1.49279e-07
3.4267e-07 2.89245e-08 1.18102e-07
2.98874e-07 -6.45293e-08 1.39573e-07
2.99302e-07 6.45182e-08 1.39447e-07
2.42249e-07 1.19429e-07 1.59145e-07
2.43918e-07 1.05895e-07 1.5809e-07
2.41961e-07 -1.1956e-07 1.59304e-07
2.43642e-07 -1.05935e-07 1.5812e-07
5.31911e-07 -1.36027e-07 1.38294e-07
3.28441e-07 8.99346e-08 1.35166e-07
3.2825e-07 -8.98777e-08 1.35233e-07
4.69252e-07 -2.19949e-07 1.56481e-07
4.34195e-07 2.18937e-07 1.56442e-07
3.55724e-07 1.4653e-07 1.36463e-07
3.43616e-07 -2.78615e-08 1.17524e-07
3.20483e-07 2.43241e-09 1.23717e-07
6.04073e-07 7.90087e-09 1.367e-07
5.12172e-07 9.3634e-08 1.25423e-07
6.34175e-07 -1.25767e-07 1.55346e-07
6.34235e-07 1.25146e-07 1.55391e-07
5.09421e-07 -9.26359e-08 1.24552e-07
5.44271e-07 7.08434e-08 1.27929e-07
3.78997e-07 -9.82636e-08 1.23477e-07
4.32971e-07 2.45529e-08 7.52251e-08
4.35036e-07 -2.33719e-08 7.43475e-08
4.68336e-07 8.71007e-09 7.59192e-08
4.15612e-07 -6.13728e-09 7.44778e-08
3.78456e-07 1.00063e-07 1.23914e-07
5.46927e-07 -7.33171e-08 1.29251e-07
2.61085e-07 3.79761e-08 1.4149e-07
2.59147e-07 -3.72325e-08 1.41641e-07
4.53143e-07 -1.04462e-08 6.80936e-08
4.6991e-07 8.91549e-08 1.16454e-07
4.52023e-07 2.0515e-08 7.3235e-08
4.2095e-07 9.52046e-09 7.21632e-08
5.07288e-07 -1.61037e-07 1.41571e-07
4.71897e-07 -9.15351e-08 1.17861e-07
5.56264e-07 1.41312e-09 1.2278e-07
4.11061e-07 -9.55094e-08 1.17761e-07
4.95061e-07 3.85184e-08 1.01046e-07
2.76232e-07 8.36737e-08 1.48958e-07
2.75995e-07 -8.36835e-08 1.48991e-07
3.18541e-07 1.38719e-07 1.4214e-07
3.17868e-07 -1.40035e-07 1.42362e-07
4.12203e-07 9.67297e-08 1.18059e-07
5.66539e-07 4.75915e-08 1.306e-07
3.81269e-07 1.6659e-07 1.39249e-07
5.72238e-07 -1.00429e-07 1.40699e-07
5.71477e-07 9.90621e-08 1.40343e-07
5.73159e-07 -5.01285e-08 1.33039e-07
4.28957e-07 -1.05688e-08 6.87871e-08
4.29199e-07 4.62691e-08 9.05061e-08
4.29086e-07 -4.62631e-08 9.0666e-08
3.96134e-07 -1.02705e-08 8.83265e-08
3.99135e-07 4.81035e-08 9.96933e-08
3.98581e-07 -4.72955e-08 9.9709e-08
3.55592e-07 -8.2721e-08 1.25283e-07
4.86589e-07 -4.11536e-08 9.86867e-08
3.55723e-07 8.30469e-08 1.25265e-07
3.16303e-07 1.12493e-07 1.41531e-07
3.16017e-07 -1.12632e-07 1.41633e-07
3.64938e-07 -5.11004e-08 1.14118e-07
3.63785e-07 5.06733e-08 1.14425e-07
4.48295e-07 -2.07319e-08 7.26374e-08
4.6377e-07 -5.82184e-09 7.21273e-08
5.74835e-07 -1.31724e-07 1.44128e-07
5.74827e-07 1.31252e-07 1.4405e-07
4.54367e-07 2.16215e-07 1.56652e-07
4.49131e-07 -2.16026e-07 1.56484e-07
3.05423e-07 -4.39227e-07 1.14143e-07
2.97764e-07 -3.10445e-07 1.14032e-07
1.66754e-07 -3.13335e-07 1.13394e-07
1.80614e-07 -4.46392e-07 1.14288e-07
8.42423e-08 -2.87474e-07 1.4553e-07
1.01982e-07 -4.85074e-07 1.46152e-07
2.28956e-07 -2.99104e-07 1.06712e-07
1.61794e-07 -3.79881e-07 1.04741e-07
3.09428e-07 -3.75408e-07 1.05783e-07
2.44243e-07 -4.55275e-07 1.0754e-07
5.5912e-08 -2.84282e-07 1.53637e-07
7.44112e-08 -4.95521e-07 1.53851e-07
3.72943e-07 -2.97e-07 1.42041e-07
3.76947e-07 -4.48086e-07 1.3938e-07
2.44818e-07 -5.39623e-07 1.40821e-07
2.30204e-07 -2.19826e-07 1.40585e-07
2.78356e-07 -2.51254e-07 1.2903e-07
2.01322e-07 -5.03527e-07 1.30146e-07
9.87969e-08 -3.5355e-07 1.31314e-07
1.03121e-07 -4.18064e-07 1.32102e-07
2.91992e-07 -5.04222e-07 1.31156e-07
1.78334e-07 -2.47947e-07 1.30327e-07
2.65761e-07 -4.05166e-07 8.51019e-08
2.60054e-07 -3.4503e-07 8.53033e-08
2.05346e-07 -3.53889e-07 8.27825e-08
2.14003e-07 -4.04676e-07 8.26915e-08
4.73646e-08 -2.63231e-07 1.56427e-07
6.81456e-08 -5.1886e-07 1.56573e-07
1.27019e-07 -2.67725e-07 1.34437e-07
1.4858e-07 -4.93591e-07 1.3584e-07
3.72024e-07 -3.51541e-07 1.33696e-07
3.6919e-07 -3.99422e-07 1.31297e-07
1.3689e-07 -4.4377e-07 1.27896e-07
1.24901e-07 -3.22868e-07 1.27259e-07
2.6666e-07 -5.78333e-07 1.50367e-07
2.0719e-07 -1.84047e-07 1.50884e-07
3.32525e-07 -2.61977e-07 1.35063e-07
3.40515e-07 -4.77388e-07 1.33685e-07
2.38761e-07 -3.34643e-07 8.61848e-08
2.35102e-07 -4.18707e-07 8.60706e-08
1.96176e-07 -3.85299e-07 8.54859e-08
2.78112e-07 -3.77258e-07 8.70457e-08
5.19254e-08 -3.21444e-07 1.48008e-07
6.55999e-08 -4.58204e-07 1.48164e-07
3.25331e-07 -3.34759e-07 1.18927e-07
3.87005e-07 -2.61583e-07 1.49892e-07
4.00494e-07 -4.86619e-07 1.49017e-07
3.28641e-07 -4.07876e-07 1.1691e-07
1.99402e-07 -3.10988e-07 1.04354e-07
2.70386e-07 -4.41074e-07 1.03818e-07
1.70204e-07 -3.52108e-07 1.02398e-07
2.65028e-07 -3.1394e-07 1.02584e-07
2.13145e-07 -4.41869e-07 1.03452e-07
1.81732e-07 -4.06488e-07 9.95295e-08
2.05297e-07 -5.46017e-07 1.4155e-07
2.74472e-07 -2.10756e-07 1.40572e-07
2.30381e-07 -5.86986e-07 1.52038e-07
2.45942e-07 -1.7662e-07 1.52635e-07
3.70798e-08 -3.01123e-07 1.5485e-07
5.46377e-08 -4.81735e-07 1.54918e-07
6.74818e-08 -3.87844e-07 1.36437e-07
4.22829e-07 -2.88311e-07 1.54631e-07
4.3596e-07 -4.60259e-07 1.53466e-07
2.78177e-07 -5.40879e-07 1.41264e-07
1.93098e-07 -2.15218e-07 1.41012e-07
2.89395e-07 -3.54499e-07 9.76564e-08
2.57649e-07 -4.97037e-07 1.26706e-07
2.15252e-07 -2.58677e-07 1.26013e-07
2.4642e-07 -2.55299e-07 1.27124e-07
2.29676e-07 -5.00775e-07 1.27929e-07
3.17063e-07 -2.30781e-07 1.35851e-07
1.66574e-07 -5.22329e-07 1.37826e-07
4.05318e-07 -4.18904e-07 1.4219e-07
4.01148e-07 -3.23393e-07 1.4413e-07
7.58078e-08 -2.60478e-07 1.49219e-07
9.76832e-08 -5.12565e-07 1.49949e-07
1.42102e-07 -4.11623e-07 1.18299e-07
1.01496e-07 -4.52532e-07 1.40054e-07
8.90351e-08 -3.20424e-07 1.39601e-07
2.75249e-08 -2.68064e-07 1.59305e-07
3.04202e-08 -2.81888e-07 1.58322e-07
4.84086e-08 -5.19173e-07 1.59228e-07
5.0493e-08 -5.03363e-07 1.58325e-07
2.89154e-07 -4.00518e-07 9.66191e-08
3.29893e-07 -5.15181e-07 1.3775e-07
1.15316e-07 -2.92575e-07 1.35159e-07
1.32408e-07 -4.73643e-07 1.36099e-07
2.6855e-07 -6.06306e-07 1.55159e-07
2.06716e-07 -1.58881e-07 1.56269e-07
1.37081e-07 -2.33116e-07 1.36278e-07
1.35765e-07 -3.53462e-07 1.18187e-07
1.17935e-07 -3.82942e-07 1.23635e-07
3.94521e-07 -3.8106e-07 1.37031e-07
2.95385e-07 -2.79698e-07 1.22459e-07
4.1641e-07 -2.5446e-07 1.56717e-07
4.32105e-07 -4.97319e-07 1.55404e-07
3.00598e-07 -4.73407e-07 1.23459e-07
3.42608e-07 -4.42681e-07 1.27978e-07
1.84009e-07 -4.77045e-07 1.24393e-07
2.26347e-07 -3.52204e-07 7.41521e-08
2.48278e-07 -4.02316e-07 7.56935e-08
2.599e-07 -3.6632e-07 7.55441e-08
2.09918e-07 -3.70707e-07 7.4973e-08
1.63628e-07 -2.79068e-07 1.23771e-07
3.32887e-07 -2.98226e-07 1.29052e-07
5.41679e-08 -3.50101e-07 1.41939e-07
6.14095e-08 -4.28399e-07 1.42156e-07
2.26608e-07 -3.88771e-07 6.8061e-08
2.16974e-07 -4.72981e-07 1.17274e-07
2.56799e-07 -2.83191e-07 1.15626e-07
2.43068e-07 -3.54591e-07 7.3049e-08
2.56783e-07 -3.85867e-07 7.20794e-08
3.08047e-07 -5.42221e-07 1.40868e-07
3.47399e-07 -3.75186e-07 1.2327e-07
6.43676e-08 -3.02386e-07 1.49122e-07
8.0335e-08 -4.75307e-07 1.49413e-07
1.01275e-07 -2.4326e-07 1.42033e-07
1.2671e-07 -5.21636e-07 1.43847e-07
2.83569e-07 -3.34336e-07 1.00654e-07
2.72472e-07 -4.7317e-07 1.18267e-07
1.97578e-07 -2.80239e-07 1.17756e-07
3.59451e-07 -4.2038e-07 1.30173e-07
1.60452e-07 -2.11708e-07 1.38977e-07
3.56796e-07 -2.71636e-07 1.40529e-07
3.68482e-07 -4.72794e-07 1.40089e-07
3.59203e-07 -3.23274e-07 1.33391e-07
2.22405e-07 -3.65697e-07 6.87802e-08
2.53461e-07 -4.23887e-07 9.08348e-08
2.18495e-07 -3.29813e-07 9.02541e-08
1.90296e-07 -3.68537e-07 8.84882e-08
2.78501e-07 -4.22895e-07 9.84734e-08
1.87913e-07 -3.31945e-07 9.94434e-08
1.59415e-07 -4.63863e-07 1.26186e-07
1.97949e-07 -4.27314e-07 1.00818e-07
1.42808e-07 -2.97854e-07 1.25196e-07
1.01342e-07 -2.70291e-07 1.41492e-07
1.21883e-07 -4.96931e-07 1.42651e-07
1.54944e-07 -3.29657e-07 1.14154e-07
1.66305e-07 -4.32253e-07 1.14512e-07
2.32908e-07 -3.99381e-07 7.24974e-08
2.15003e-07 -3.84645e-07 7.25489e-08
3.62656e-07 -2.37966e-07 1.43757e-07
3.71401e-07 -5.05153e-07 1.43419e-07
2.27132e-07 -1.62181e-07 1.56421e-07
2.47924e-07 -6.04069e-07 1.55261e-07
-1.22072e-07 -4.69743e-07 1.13888e-07
-1.41252e-07 -3.37409e-07 1.16471e-07
-2.8324e-07 -3.71814e-07 1.21411e-07
-2.47027e-07 -5.08918e-07 1.15804e-07
-3.28719e-07 -5.61548e-07 1.46871e-07
-3.83028e-07 -3.63759e-07 1.56712e-07
-2.1656e-07 -3.40799e-07 1.1207e-07
-2.73815e-07 -4.45804e-07 1.08821e-07
-1.23452e-07 -4.06954e-07 1.04769e-07
-1.82097e-07 -5.02838e-07 1.08363e-07
-3.59182e-07 -5.75237e-07 1.54009e-07
-4.18102e-07 -3.67782e-07 1.64675e-07
-7.20514e-08 -3.22062e-07 1.40138e-07
-4.5145e-08 -4.75869e-07 1.4256e-07
-1.70668e-07 -5.88395e-07 1.41645e-07
-2.26921e-07 -2.56669e-07 1.49048e-07
-2.75815e-07 -3.03747e-07 1.40432e-07
-2.18989e-07 -5.61047e-07 1.31038e-07
-3.26122e-07 -4.94909e-07 1.34996e-07
-3.48219e-07 -4.29204e-07 1.39135e-07
-1.67244e-07 -2.7582e-07 1.34165e-07
-1.28199e-07 -5.43254e-07 1.32223e-07
-1.66749e-07 -4.38748e-07 8.19777e-08
-1.77216e-07 -3.81637e-07 8.7049e-08
-2.34457e-07 -4.06955e-07 8.67848e-08
-2.20332e-07 -4.59897e-07 8.61943e-08
-3.63706e-07 -5.98265e-07 1.5633e-07
-4.35392e-07 -3.49543e-07 1.70169e-07
-2.76395e-07 -5.61801e-07 1.36714e-07
-3.36114e-07 -3.3298e-07 1.47697e-07
-5.08234e-08 -4.19622e-07 1.32849e-07
-6.5259e-08 -3.72317e-07 1.30976e-07
-2.93297e-07 -5.15166e-07 1.29845e-07
-3.26869e-07 -3.90936e-07 1.35439e-07
-2.05742e-07 -2.13794e-07 1.58166e-07
-1.4447e-07 -6.24349e-07 1.51182e-07
-8.01967e-08 -5.14476e-07 1.37038e-07
-1.13011e-07 -2.92755e-07 1.34867e-07
-2.01737e-07 -3.7594e-07 8.94417e-08
-1.81826e-07 -4.6258e-07 8.67207e-08
-2.37973e-07 -4.44425e-07 8.87547e-08
-1.55693e-07 -4.14806e-07 8.57002e-08
-3.67555e-07 -5.39747e-07 1.49789e-07
-4.06273e-07 -4.05481e-07 1.56373e-07
-9.64122e-08 -4.38353e-07 1.18855e-07
-5.661e-08 -2.80211e-07 1.5041e-07
-2.82657e-08 -5.13107e-07 1.50982e-07
-1.14502e-07 -3.67857e-07 1.15711e-07
-2.45232e-07 -3.62282e-07 1.09727e-07
-2.11457e-07 -4.98372e-07 1.05248e-07
-2.71452e-07 -4.1308e-07 1.07711e-07
-1.52676e-07 -4.75377e-07 1.0352e-07
-1.75456e-07 -3.47733e-07 1.05663e-07
-2.50523e-07 -4.68915e-07 1.02411e-07
-2.09625e-07 -6.0189e-07 1.42309e-07
-2.76488e-07 -2.58329e-07 1.54754e-07
-1.79657e-07 -6.3829e-07 1.5277e-07
-2.47205e-07 -2.13377e-07 1.64616e-07
-3.81388e-07 -5.63909e-07 1.5528e-07
-4.32762e-07 -3.89651e-07 1.64052e-07
-3.65113e-07 -4.70532e-07 1.42141e-07
1.85191e-09 -4.8502e-07 1.54838e-07
-1.80446e-08 -3.05604e-07 1.5481e-07
-1.87548e-07 -2.44783e-07 1.46357e-07
-1.37421e-07 -5.83939e-07 1.42213e-07
-2.06035e-07 -2.94186e-07 1.32029e-07
-1.62566e-07 -5.42459e-07 1.2765e-07
-1.46695e-07 -3.87563e-07 9.68977e-08
-2.40333e-07 -2.99205e-07 1.3557e-07
-1.90207e-07 -5.51986e-07 1.28757e-07
-1.35806e-07 -4.35759e-07 9.97773e-08
-2.5302e-07 -5.86428e-07 1.38585e-07
-3.23835e-07 -2.93328e-07 1.52579e-07
-3.42976e-08 -3.49439e-07 1.4203e-07
-1.86212e-08 -4.4691e-07 1.43458e-07
-3.30926e-07 -5.888e-07 1.50171e-07
-4.0068e-07 -3.38889e-07 1.63713e-07
-2.90265e-07 -4.82474e-07 1.21748e-07
-3.29784e-07 -5.29965e-07 1.41819e-07
-3.66902e-07 -3.95775e-07 1.48213e-07
-3.86752e-07 -6.00566e-07 1.5874e-07
-3.87221e-07 -5.84964e-07 1.57974e-07
-4.5706e-07 -3.59877e-07 1.72072e-07
-4.49051e-07 -3.73194e-07 1.68886e-07
-1.27077e-07 -2.5262e-07 1.38878e-07
-8.87987e-08 -5.47383e-07 1.39113e-07
-2.96108e-07 -5.45438e-07 1.37224e-07
-3.45486e-07 -3.6145e-07 1.45973e-07
-1.39454e-07 -6.52619e-07 1.55925e-07
-2.07274e-07 -1.86983e-07 1.64093e-07
-3.05514e-07 -4.22679e-07 1.23683e-07
-3.1782e-07 -4.60705e-07 1.28936e-07
-3.22358e-08 -3.87642e-07 1.35817e-07
-2.82456e-08 -2.69151e-07 1.57367e-07
-1.26529e-10 -5.22979e-07 1.57384e-07
-1.16345e-07 -5.05352e-07 1.25215e-07
-1.49947e-07 -3.03446e-07 1.26147e-07
-1.01928e-07 -3.28363e-07 1.30185e-07
-2.40038e-07 -5.38778e-07 1.25566e-07
-2.89924e-07 -3.37071e-07 1.33712e-07
-2.12564e-07 -3.98718e-07 7.71999e-08
-1.99539e-07 -4.51794e-07 7.64191e-08
-1.74194e-07 -4.03389e-07 7.6742e-08
-2.25873e-07 -4.25638e-07 7.72837e-08
-8.44375e-08 -4.77355e-07 1.30001e-07
-3.6837e-07 -5.11211e-07 1.45566e-07
-3.92388e-07 -4.34816e-07 1.49448e-07
-1.8355e-07 -4.2859e-07 6.84958e-08
-1.94146e-07 -3.95116e-07 7.5283e-08
-2.15737e-07 -4.40842e-07 7.42798e-08
-1.07442e-07 -5.80171e-07 1.41903e-07
-1.54327e-07 -2.31841e-07 1.43663e-07
-1.50941e-07 -5.12628e-07 1.18477e-07
-1.83372e-07 -3.13476e-07 1.21589e-07
-8.25157e-08 -3.9869e-07 1.22537e-07
-2.53035e-07 -3.2962e-07 1.2569e-07
-2.08017e-07 -5.29515e-07 1.1926e-07
-1.52795e-07 -3.66665e-07 1.02104e-07
-3.52683e-07 -5.55014e-07 1.5026e-07
-4.01152e-07 -3.83371e-07 1.58739e-07
-2.96693e-07 -5.93271e-07 1.44359e-07
-3.72481e-07 -3.12538e-07 1.5973e-07
-8.0328e-08 -3.50054e-07 1.31286e-07
-8.56541e-08 -2.96396e-07 1.40829e-07
-5.80791e-08 -5.02416e-07 1.41912e-07
-6.08698e-08 -4.49228e-07 1.33377e-07
-2.1422e-07 -4.16027e-07 7.12923e-08
-2.24078e-07 -3.76464e-07 9.48004e-08
-1.98517e-07 -4.75463e-07 9.18591e-08
-2.46995e-07 -4.27229e-07 9.2137e-08
-2.56363e-07 -3.86052e-07 1.05463e-07
-2.29166e-07 -4.85227e-07 1.0163e-07
-2.67869e-07 -5.30596e-07 1.27501e-07
-3.12631e-07 -3.60915e-07 1.35028e-07
-1.4548e-07 -4.53802e-07 9.90783e-08
-3.05454e-07 -5.69879e-07 1.43315e-07
-3.67148e-07 -3.41815e-07 1.54917e-07
-2.92466e-07 -3.92079e-07 1.21197e-07
-2.6512e-07 -4.98026e-07 1.17105e-07
-1.85539e-07 -4.41629e-07 7.28226e-08
-1.74759e-07 -4.20358e-07 7.25603e-08
-8.33176e-08 -2.58542e-07 1.44464e-07
-5.115e-08 -5.34787e-07 1.45525e-07
-2.28288e-07 -1.94393e-07 1.66457e-07
-1.60364e-07 -6.52996e-07 1.55991e-07
-4.09926e-07 -1.09024e-07 1.79121e-07
-6.46166e-07 1.27733e-07 1.87462e-07
-4.10135e-07 1.13346e-07 1.79026e-07
-6.46378e-07 -1.2776e-07 1.87465e-07
-7.60908e-07 1.61224e-07 1.91028e-07
-7.60943e-07 -1.61329e-07 1.91025e-07
-5.26263e-07 1.51029e-07 1.83138e-07
-6.78039e-07 3.82794e-09 1.88296e-07
-3.91021e-07 -4.39738e-09 1.78992e-07
-5.27747e-07 -1.51269e-07 1.83173e-07
-7.97873e-07 1.67656e-07 1.92086e-07
-7.97908e-07 -1.6775e-07 1.92084e-07
-3.17594e-07 1.06919e-07 1.76998e-07
-3.0978e-07 -1.09637e-07 1.76787e-07
-5.16896e-07 -2.54356e-07 1.82443e-07
-5.0589e-07 2.52715e-07 1.81772e-07
-4.39916e-07 1.9875e-07 1.77734e-07
-5.98517e-07 -2.13964e-07 1.85885e-07
-7.55797e-07 5.95952e-08 1.90292e-07
-7.58681e-07 -5.83801e-08 1.90344e-07
-4.40655e-07 -2.05553e-07 1.77409e-07
-5.95766e-07 2.21563e-07 1.85798e-07
-4.69869e-07 -5.91171e-08 1.81477e-07
-5.97842e-07 6.08805e-08 1.85935e-07
-4.67175e-07 6.85829e-08 1.81355e-07
-5.99822e-07 -6.33678e-08 1.86002e-07
-8.04746e-07 1.93981e-07 1.92287e-07
-8.04791e-07 -1.94071e-07 1.92285e-07
-6.90851e-07 1.89742e-07 1.88835e-07
-6.91054e-07 -1.89253e-07 1.88839e-07
-3.05957e-07 -3.26113e-08 1.75012e-07
-3.14976e-07 3.813e-08 1.7554e-07
-7.14071e-07 1.09461e-07 1.89492e-07
-7.14092e-07 -1.09582e-07 1.89491e-07
-4.78897e-07 -2.92354e-07 1.79271e-07
-5.26823e-07 3.00216e-07 1.83262e-07
-3.62194e-07 -1.65725e-07 1.75518e-07
-3.62285e-07 1.62523e-07 1.75724e-07
-5.12559e-07 9.55883e-08 1.82866e-07
-5.15539e-07 -9.45595e-08 1.82964e-07
-6.26847e-07 -1.63349e-08 1.86865e-07
-4.3897e-07 -1.13191e-08 1.80545e-07
-8.07195e-07 1.16482e-07 1.91728e-07
-8.07215e-07 -1.16576e-07 1.91725e-07
-3.64473e-07 -5.95989e-08 1.78193e-07
-2.96004e-07 -1.52405e-07 1.75785e-07
-2.97134e-07 1.51701e-07 1.75832e-07
-3.72414e-07 6.14072e-08 1.7843e-07
-5.86581e-07 1.34586e-07 1.85468e-07
-5.84455e-07 -1.32492e-07 1.85387e-07
-6.57948e-07 5.9724e-08 1.87773e-07
-4.62631e-07 -1.18656e-07 1.80788e-07
-4.60783e-07 1.18776e-07 1.80745e-07
-6.51153e-07 -5.59767e-08 1.87568e-07
-5.80522e-07 -2.67559e-07 1.85377e-07
-4.4211e-07 2.4989e-07 1.75959e-07
-5.2847e-07 -3.09113e-07 1.83369e-07
-4.73978e-07 2.99161e-07 1.78767e-07
-8.2289e-07 1.47399e-07 1.92397e-07
-8.22919e-07 -1.47488e-07 1.92395e-07
-7.98885e-07 1.44502e-09 1.9079e-07
-2.56816e-07 -1.15292e-07 1.75336e-07
-2.55882e-07 1.13954e-07 1.75232e-07
-4.63016e-07 -2.50639e-07 1.78152e-07
-5.59015e-07 2.63491e-07 1.84578e-07
-4.98462e-07 -2.02959e-07 1.81443e-07
-5.39622e-07 2.06597e-07 1.83589e-07
-4.1889e-07 3.84164e-08 1.79913e-07
-4.88991e-07 2.04395e-07 1.80906e-07
-5.48636e-07 -2.10141e-07 1.83962e-07
-3.83651e-07 2.09363e-07 1.72762e-07
-4.17132e-07 -5.41134e-08 1.79835e-07
-6.55275e-07 -2.35784e-07 1.87557e-07
-2.77607e-07 6.38331e-08 1.73817e-07
-2.7466e-07 -7.07891e-08 1.73787e-07
-7.65873e-07 1.95787e-07 1.91175e-07
-7.65921e-07 -1.95891e-07 1.91173e-07
-7.07591e-07 -5.4752e-08 1.89132e-07
-7.61589e-07 1.14706e-07 1.90804e-07
-7.6182e-07 -1.14714e-07 1.90806e-07
-8.28875e-07 1.89491e-07 1.92766e-07
-8.28541e-07 1.72106e-07 1.92715e-07
-8.28918e-07 -1.89574e-07 1.92764e-07
-8.28577e-07 -1.72191e-07 1.92713e-07
-3.80576e-07 -2.10092e-07 1.72615e-07
-7.18318e-07 1.5454e-07 1.89737e-07
-7.18373e-07 -1.54618e-07 1.89735e-07
-4.73194e-07 -3.2029e-07 1.78101e-07
-5.18732e-07 3.29847e-07 1.82755e-07
-6.58209e-07 2.37011e-07 1.87629e-07
-7.07667e-07 5.71344e-08 1.89139e-07
-7.36803e-07 3.62849e-09 1.89744e-07
-2.79978e-07 1.13183e-08 1.71953e-07
-4.08265e-07 1.59265e-07 1.77541e-07
-2.6469e-07 1.5616e-07 1.75275e-07
-2.6474e-07 -1.56686e-07 1.75257e-07
-4.12096e-07 -1.58805e-07 1.77742e-07
-3.62655e-07 1.1378e-07 1.7779e-07
-6.34875e-07 -1.75785e-07 1.8709e-07
-5.46982e-07 6.4906e-08 1.84188e-07
-5.52711e-07 -6.54463e-08 1.84387e-07
-4.66331e-07 2.30112e-08 1.81344e-07
-5.96685e-07 1.6334e-08 1.85999e-07
-6.35449e-07 1.78118e-07 1.87114e-07
-3.59345e-07 -1.16433e-07 1.77664e-07
-8.08976e-07 7.0476e-08 1.91245e-07
-8.10284e-07 -6.96634e-08 1.9125e-07
-4.98111e-07 -3.27721e-08 1.82408e-07
-4.75457e-07 1.6461e-07 1.80681e-07
-5.02853e-07 5.77705e-08 1.82613e-07
-5.86727e-07 -2.81524e-08 1.85707e-07
-4.1672e-07 -2.48246e-07 1.72914e-07
-4.7197e-07 -1.67665e-07 1.80406e-07
-3.38522e-07 2.39294e-09 1.76702e-07
-5.78877e-07 -1.76804e-07 1.85174e-07
-4.26248e-07 7.71792e-08 1.79969e-07
-7.89807e-07 1.42989e-07 1.91693e-07
-7.89865e-07 -1.43072e-07 1.91691e-07
-7.21789e-07 2.19053e-07 1.89636e-07
-7.22246e-07 -2.20836e-07 1.89635e-07
-5.76788e-07 1.78462e-07 1.85098e-07
-3.30979e-07 7.2825e-08 1.76942e-07
-6.08582e-07 2.67325e-07 1.86101e-07
-3.3077e-07 -1.45993e-07 1.76131e-07
-3.31675e-07 1.44397e-07 1.76223e-07
-3.23383e-07 -7.49961e-08 1.76739e-07
-5.66944e-07 3.45409e-08 1.85011e-07
-5.56079e-07 -1.0598e-07 1.84408e-07
-5.56086e-07 1.05829e-07 1.84416e-07
-6.31542e-07 2.49489e-08 1.86994e-07
-6.18581e-07 9.9792e-08 1.86568e-07
-6.16159e-07 -1.02192e-07 1.86485e-07
-6.78405e-07 -1.48579e-07 1.88486e-07
-4.39989e-07 -8.51633e-08 1.80348e-07
-6.78322e-07 1.48809e-07 1.88489e-07
-7.31529e-07 1.84122e-07 1.90125e-07
-7.31692e-07 -1.84439e-07 1.90126e-07
-6.72299e-07 9.94398e-08 1.88242e-07
-6.74023e-07 -9.83976e-08 1.88291e-07
-5.13491e-07 -5.65391e-08 1.8299e-07
-4.75092e-07 -1.60034e-08 1.816e-07
-3.2644e-07 1.85492e-07 1.72557e-07
-3.26353e-07 -1.85931e-07 1.72546e-07
-5.00671e-07 -3.22448e-07 1.81309e-07
-4.93509e-07 3.20653e-07 1.80621e-07
-1.42771e-07 3.41823e-07 1.1428e-07
-1.21129e-07 4.73146e-07 1.15146e-07
-2.46572e-07 5.08545e-07 1.15687e-07
-2.83327e-07 3.71486e-07 1.21553e-07
-3.83129e-07 3.63569e-07 1.56796e-07
-3.28461e-07 5.61346e-07 1.4688e-07
-1.81278e-07 5.02336e-07 1.08364e-07
-2.73318e-07 4.4709e-07 1.08789e-07
-1.24173e-07 4.02081e-07 1.04724e-07
-2.16379e-07 3.40539e-07 1.12023e-07
-4.18254e-07 3.67578e-07 1.64772e-07
-3.58929e-07 5.75055e-07 1.54019e-07
-5.19368e-08 4.7343e-07 1.40267e-07
-6.54271e-08 3.18625e-07 1.42334e-07
-2.26691e-07 2.5651e-07 1.48997e-07
-1.64117e-07 5.8679e-07 1.41685e-07
-1.28314e-07 5.3811e-07 1.31127e-07
-2.75669e-07 3.03481e-07 1.40474e-07
-3.44491e-07 4.28127e-07 1.38107e-07
-3.29612e-07 4.95751e-07 1.36082e-07
-1.67037e-07 2.75811e-07 1.34019e-07
-2.17179e-07 5.66109e-07 1.32497e-07
-1.7876e-07 3.87852e-07 8.26625e-08
-1.62984e-07 4.44384e-07 8.62526e-08
-2.1868e-07 4.57714e-07 8.47665e-08
-2.36516e-07 4.05482e-07 8.83488e-08
-4.35599e-07 3.49326e-07 1.70298e-07
-3.63459e-07 5.9807e-07 1.56346e-07
-3.36094e-07 3.32749e-07 1.47804e-07
-2.76023e-07 5.61909e-07 1.36779e-07
-5.70049e-08 3.75304e-07 1.32812e-07
-5.77301e-08 4.23703e-07 1.31001e-07
-3.2692e-07 3.90712e-07 1.35554e-07
-2.93038e-07 5.14932e-07 1.29788e-07
-2.05507e-07 2.13665e-07 1.58114e-07
-1.78349e-07 6.3058e-07 1.51226e-07
-1.09485e-07 2.85172e-07 1.36651e-07
-8.0509e-08 5.1228e-07 1.36669e-07
-1.80264e-07 4.62657e-07 8.75686e-08
-2.02736e-07 3.76835e-07 8.86299e-08
-2.42281e-07 4.30104e-07 8.93901e-08
-1.57773e-07 4.04515e-07 8.57657e-08
-4.06396e-07 4.0534e-07 1.5646e-07
-3.67281e-07 5.39599e-07 1.49782e-07
-1.07702e-07 3.65226e-07 1.18855e-07
-2.91396e-08 5.12574e-07 1.50737e-07
-5.56665e-08 2.79524e-07 1.50581e-07
-1.02148e-07 4.39591e-07 1.16381e-07
-2.12343e-07 4.99827e-07 1.06283e-07
-2.45153e-07 3.6188e-07 1.09792e-07
-2.54518e-07 4.72206e-07 1.05194e-07
-1.76476e-07 3.49215e-07 1.04852e-07
-1.5155e-07 4.7582e-07 1.04119e-07
-2.66155e-07 4.13979e-07 1.04787e-07
-2.76301e-07 2.58095e-07 1.54767e-07
-1.24021e-07 5.82889e-07 1.42384e-07
-1.40959e-07 6.31114e-07 1.52825e-07
-2.46988e-07 2.13198e-07 1.64594e-07
-4.32895e-07 3.89478e-07 1.64152e-07
-3.81141e-07 5.63735e-07 1.55283e-07
-3.65306e-07 4.69374e-07 1.42224e-07
-1.88484e-08 3.04922e-07 1.54724e-07
2.62865e-09 4.84127e-07 1.5488e-07
-1.87315e-07 2.44697e-07 1.46259e-07
-1.96366e-07 5.97819e-07 1.42462e-07
-2.05802e-07 2.94078e-07 1.31909e-07
-1.85307e-07 5.48125e-07 1.27675e-07
-1.38999e-07 4.27136e-07 9.66994e-08
-1.57111e-07 5.43445e-07 1.28779e-07
-2.40136e-07 2.98976e-07 1.35546e-07
-9.08628e-08 5.4689e-07 1.3856e-07
-1.46275e-07 3.78364e-07 1.00044e-07
-3.23718e-07 2.93071e-07 1.52675e-07
-2.20139e-08 4.41795e-07 1.42068e-07
-3.19115e-08 3.43997e-07 1.43375e-07
-4.00761e-07 3.38701e-07 1.6379e-07
-3.30673e-07 5.88601e-07 1.50189e-07
-3.06878e-07 4.21633e-07 1.24478e-07
-3.66695e-07 3.95536e-07 1.48203e-07
-3.29811e-07 5.29884e-07 1.419e-07
-4.57307e-07 3.59694e-07 1.72247e-07
-4.49233e-07 3.73021e-07 1.69013e-07
-3.86502e-07 6.00385e-07 1.58752e-07
-3.8697e-07 5.84786e-07 1.57982e-07
-1.24699e-07 2.53368e-07 1.38701e-07
-3.45533e-07 3.61224e-07 1.46074e-07
-2.95825e-07 5.45211e-07 1.37209e-07
-2.07044e-07 1.86846e-07 1.64055e-07
-1.75307e-07 6.5838e-07 1.5596e-07
-2.54731e-07 5.87885e-07 1.3918e-07
-2.89228e-07 4.80968e-07 1.21107e-07
-3.19108e-07 4.55496e-07 1.29203e-07
-2.99264e-08 4.03693e-07 1.35809e-07
-1.13585e-07 5.06176e-07 1.26246e-07
-6.20639e-11 5.22726e-07 1.57434e-07
-2.82481e-08 2.6902e-07 1.57181e-07
-1.45425e-07 3.05424e-07 1.25718e-07
-8.69927e-08 4.75469e-07 1.28749e-07
-2.89876e-07 3.36784e-07 1.33805e-07
-1.97197e-07 4.50006e-07 7.56012e-08
-2.14875e-07 3.98742e-07 7.8114e-08
-1.69322e-07 4.22468e-07 7.64572e-08
-2.21658e-07 4.38817e-07 7.67849e-08
-2.4016e-07 5.40265e-07 1.26106e-07
-1.05885e-07 3.23823e-07 1.29874e-07
-3.91002e-07 4.33462e-07 1.49426e-07
-3.6995e-07 5.10689e-07 1.45724e-07
-1.90303e-07 4.05633e-07 6.90723e-08
-1.53132e-07 5.10692e-07 1.17257e-07
-1.81522e-07 4.40534e-07 7.42306e-08
-2.22478e-07 4.20438e-07 7.51313e-08
-1.53637e-07 2.3194e-07 1.43425e-07
-1.84801e-07 3.15006e-07 1.20829e-07
-8.19155e-08 4.01492e-07 1.22546e-07
-2.52896e-07 3.29307e-07 1.25722e-07
-1.37573e-07 4.49428e-07 1.01609e-07
-4.01227e-07 3.83182e-07 1.58813e-07
-3.52472e-07 5.54859e-07 1.50275e-07
-3.72416e-07 3.12327e-07 1.59839e-07
-2.96312e-07 5.91666e-07 1.44281e-07
-2.06622e-07 5.30125e-07 1.19691e-07
-6.73046e-08 4.47642e-07 1.30962e-07
-2.26621e-07 6.0361e-07 1.4139e-07
-8.43284e-08 2.93269e-07 1.41471e-07
-5.88606e-08 5.01416e-07 1.41607e-07
-7.49754e-08 3.47738e-07 1.33269e-07
-2.05903e-07 4.39008e-07 7.03721e-08
-1.98337e-07 4.74995e-07 9.18837e-08
-2.23958e-07 3.76032e-07 9.48146e-08
-2.40286e-07 4.48969e-07 9.12306e-08
-2.29808e-07 4.84345e-07 1.01566e-07
-2.56185e-07 3.85538e-07 1.05518e-07
-3.12693e-07 3.60629e-07 1.35168e-07
-1.6214e-07 3.65379e-07 9.97384e-08
-2.67527e-07 5.3052e-07 1.27489e-07
-3.67185e-07 3.41603e-07 1.55014e-07
-3.05127e-07 5.69439e-07 1.43298e-07
-2.63533e-07 4.97829e-07 1.16627e-07
-2.93712e-07 3.92695e-07 1.21712e-07
-1.97864e-07 3.97106e-07 7.3947e-08
-1.77889e-07 4.07754e-07 7.27675e-08
-5.11565e-08 5.34711e-07 1.45508e-07
-8.21102e-08 2.5765e-07 1.44572e-07
-1.55466e-07 6.52031e-07 1.56037e-07
-2.28066e-07 1.94234e-07 1.66427e-07
6.6468e-08 -6.41265e-08 -1.08347e-07
6.71094e-08 6.77504e-08 -1.09863e-07
-6.44806e-08 7.49807e-08 -1.12993e-07
-6.48947e-08 -7.51451e-08 -1.13217e-07
-1.4929e-07 -1.14906e-07 -1.52153e-07
-1.4904e-07 1.14742e-07 -1.52098e-07
6.22312e-10 8.21942e-08 -1.02409e-07
-7.55274e-08 2.12753e-09 -1.0454e-07
7.37842e-08 -2.3367e-09 -9.75096e-08
-2.1931e-10 -8.20897e-08 -1.02389e-07
-1.78351e-07 1.23238e-07 -1.6201e-07
-1.78592e-07 -1.23389e-07 -1.62046e-07
1.37752e-07 7.46506e-08 -1.38116e-07
1.44493e-07 -7.73042e-08 -1.40565e-07
3.00736e-10 -1.65909e-07 -1.40475e-07
7.83109e-09 1.65604e-07 -1.40399e-07
5.32419e-08 1.29277e-07 -1.27867e-07
-4.77957e-08 -1.3547e-07 -1.29288e-07
-1.38498e-07 3.90803e-08 -1.40313e-07
-1.41042e-07 -3.84614e-08 -1.41283e-07
5.29231e-08 -1.34247e-07 -1.29037e-07
-4.71541e-08 1.41458e-07 -1.30786e-07
2.41268e-08 -2.42134e-08 -6.35766e-08
2.74661e-08 3.05358e-08 -7.07746e-08
-2.69256e-08 2.64073e-08 -6.85442e-08
-2.85586e-08 -2.8176e-08 -7.10673e-08
-1.8608e-07 1.46712e-07 -1.63893e-07
-1.86319e-07 -1.46852e-07 -1.63927e-07
-1.026e-07 1.28429e-07 -1.37427e-07
-1.02855e-07 -1.28112e-07 -1.37423e-07
1.45604e-07 -2.15963e-08 -1.30748e-07
1.37878e-07 2.5156e-08 -1.28644e-07
-1.09308e-07 -7.0567e-08 -1.31949e-07
-1.08987e-07 7.03789e-08 -1.31817e-07
2.38438e-08 -2.02058e-07 -1.5089e-07
-1.23176e-08 2.04367e-07 -1.51264e-07
1.05502e-07 -1.15306e-07 -1.33835e-07
1.0539e-07 1.1302e-07 -1.33537e-07
7.69329e-09 4.27369e-08 -7.305e-08
5.89106e-09 -4.14513e-08 -7.13864e-08
-4.0319e-08 -7.58639e-09 -7.48001e-08
3.90028e-08 -4.68268e-09 -6.93506e-08
-1.84385e-07 8.29322e-08 -1.60231e-07
-1.84604e-07 -8.30743e-08 -1.60263e-07
9.66482e-08 -3.62814e-08 -1.14636e-07
1.57295e-07 1.1394e-07 -1.49049e-07
1.58111e-07 -1.14485e-07 -1.49273e-07
9.04048e-08 3.69087e-08 -1.11759e-07
-3.00769e-08 7.27875e-08 -1.00278e-07
-2.88394e-08 -7.11086e-08 -9.89605e-08
-6.38095e-08 3.2501e-08 -1.00247e-07
3.40982e-08 -6.31927e-08 -9.59972e-08
3.53301e-08 6.40641e-08 -9.66968e-08
-5.93164e-08 -2.98616e-08 -9.63325e-08
-4.42641e-08 -1.77763e-07 -1.4131e-07
5.2444e-08 1.71834e-07 -1.40174e-07
2.69695e-08 2.09227e-07 -1.5265e-07
-1.47968e-08 -2.11589e-07 -1.53059e-07
-1.98684e-07 1.0832e-07 -1.66536e-07
-1.98904e-07 -1.08466e-07 -1.6655e-07
-1.74307e-07 9.73378e-10 -1.51226e-07
1.92338e-07 -8.66184e-08 -1.53926e-07
1.93246e-07 8.58998e-08 -1.54009e-07
3.77127e-08 -1.68601e-07 -1.40416e-07
-2.92391e-08 1.73608e-07 -1.415e-07
1.52428e-08 -1.24735e-07 -1.24737e-07
-1.02434e-08 1.26354e-07 -1.25122e-07
5.41641e-08 1.95218e-08 -8.66504e-08
2.12451e-08 1.27254e-07 -1.25908e-07
-1.61607e-08 -1.29308e-07 -1.26421e-07
9.26184e-08 1.48064e-07 -1.35055e-07
5.67576e-08 -2.84541e-08 -9.1009e-08
-8.69302e-08 -1.60657e-07 -1.37773e-07
1.72039e-07 4.47238e-08 -1.40653e-07
1.7499e-07 -4.98019e-08 -1.42083e-07
-1.56128e-07 1.44339e-07 -1.54935e-07
-1.56365e-07 -1.44477e-07 -1.54976e-07
-1.00182e-07 -3.34574e-08 -1.22232e-07
-1.46491e-07 -7.8476e-08 -1.47842e-07
-1.46055e-07 7.83569e-08 -1.47691e-07
-2.06364e-07 1.44822e-07 -1.68451e-07
-2.04285e-07 1.2993e-07 -1.68773e-07
-2.066e-07 -1.44964e-07 -1.68478e-07
-2.04518e-07 -1.30073e-07 -1.68795e-07
9.46936e-08 -1.48829e-07 -1.35553e-07
-1.16826e-07 1.04387e-07 -1.39542e-07
-1.17112e-07 -1.04535e-07 -1.39629e-07
-1.07536e-08 2.30167e-07 -1.56716e-07
2.47911e-08 -2.2793e-07 -1.56391e-07
-8.89023e-08 1.62166e-07 -1.38435e-07
-1.00103e-07 3.48161e-08 -1.22289e-07
-1.21473e-07 2.28521e-09 -1.30976e-07
1.68967e-07 7.76903e-09 -1.34226e-07
7.19408e-08 1.02219e-07 -1.22364e-07
1.86317e-07 1.2224e-07 -1.56563e-07
1.86138e-07 -1.22358e-07 -1.56394e-07
6.91313e-08 -1.00758e-07 -1.21205e-07
1.01802e-07 7.4513e-08 -1.25388e-07
-6.44682e-08 -1.09396e-07 -1.2404e-07
-4.59296e-09 2.18562e-08 -4.82111e-08
-7.31379e-09 -2.26163e-08 -5.07063e-08
-2.08161e-08 5.44305e-09 -4.97707e-08
2.17792e-08 8.28278e-09 -5.12795e-08
-6.5001e-08 1.11249e-07 -1.24581e-07
1.04253e-07 -7.66886e-08 -1.267e-07
-1.84341e-07 4.90257e-08 -1.56664e-07
-1.85631e-07 -4.85448e-08 -1.56969e-07
8.42804e-09 -8.73348e-09 -2.99985e-08
2.96414e-08 9.70853e-08 -1.12665e-07
9.50603e-09 1.94868e-08 -4.63162e-08
-1.70906e-08 -9.78745e-09 -4.49142e-08
7.01979e-08 -1.74853e-07 -1.39156e-07
3.16958e-08 -9.94264e-08 -1.14052e-07
1.16528e-07 1.59082e-09 -1.19167e-07
-3.11021e-08 -1.04269e-07 -1.15887e-07
5.29935e-08 4.14503e-08 -9.32054e-08
-1.70586e-07 1.02272e-07 -1.58279e-07
-1.70856e-07 -1.02422e-07 -1.58332e-07
-1.28477e-07 -1.59154e-07 -1.46018e-07
-1.27764e-07 1.57563e-07 -1.45895e-07
-2.99088e-08 1.05572e-07 -1.16359e-07
1.24972e-07 4.80089e-08 -1.28237e-07
-6.24444e-08 1.80778e-07 -1.40257e-07
1.28047e-07 1.03052e-07 -1.39115e-07
1.28737e-07 -1.04089e-07 -1.39376e-07
1.31471e-07 -4.99521e-08 -1.30882e-07
-9.50457e-09 1.00244e-08 -3.28879e-08
-1.17618e-08 4.95083e-08 -7.97521e-08
-1.21075e-08 -4.95657e-08 -7.97783e-08
-4.33969e-08 1.15845e-08 -7.85845e-08
-4.37576e-08 5.23811e-08 -9.46457e-08
-4.28519e-08 -5.39039e-08 -9.49842e-08
-8.86422e-08 -9.46332e-08 -1.27497e-07
4.42043e-08 -4.39316e-08 -8.95006e-08
-8.8363e-08 9.46961e-08 -1.27407e-07
-1.2991e-07 1.29878e-07 -1.4611e-07
-1.30252e-07 -1.30225e-07 -1.4619e-07
-7.81287e-08 5.89456e-08 -1.15178e-07
-7.95419e-08 -5.85489e-08 -1.15771e-07
4.62149e-09 -1.73079e-08 -4.12702e-08
1.65677e-08 -4.37554e-09 -4.06508e-08
1.34601e-07 1.38733e-07 -1.42759e-07
1.34538e-07 -1.38772e-07 -1.42705e-07
9.37811e-09 2.25286e-07 -1.56624e-07
4.34845e-09 -2.25462e-07 -1.56694e-07
2.95979e-07 3.09207e-07 -1.13638e-07
3.07201e-07 4.38186e-07 -1.1441e-07
1.8083e-07 4.46572e-07 -1.14328e-07
1.66791e-07 3.13667e-07 -1.13417e-07
1.02146e-07 4.85158e-07 -1.46163e-07
8.43075e-08 2.87598e-07 -1.45557e-07
2.42419e-07 4.55253e-07 -1.07484e-07
1.62363e-07 3.83768e-07 -1.04769e-07
3.09402e-07 3.73403e-07 -1.05763e-07
2.30594e-07 2.98936e-07 -1.06793e-07
7.4598e-08 4.95604e-07 -1.53882e-07
5.59041e-08 2.84348e-07 -1.53674e-07
3.84401e-07 4.50901e-07 -1.41524e-07
3.66048e-07 2.99681e-07 -1.39718e-07
2.23008e-07 2.20047e-07 -1.40583e-07
2.44981e-07 5.39639e-07 -1.40839e-07
2.01442e-07 5.03845e-07 -1.30162e-07
1.78634e-07 2.54224e-07 -1.289e-07
1.05598e-07 4.18633e-07 -1.31531e-07
9.67014e-08 3.54481e-07 -1.31907e-07
2.92127e-07 5.0407e-07 -1.31245e-07
2.78011e-07 2.46072e-07 -1.30145e-07
2.59804e-07 3.45809e-07 -8.47306e-08
2.66541e-07 4.05843e-07 -8.56575e-08
2.12032e-07 4.03221e-07 -8.31644e-08
2.07208e-07 3.52133e-07 -8.22984e-08
6.83389e-08 5.18959e-07 -1.56604e-07
4.73332e-08 2.63291e-07 -1.56538e-07
1.4871e-07 4.93717e-07 -1.35857e-07
1.27204e-07 2.68389e-07 -1.34405e-07
3.75905e-07 3.9611e-07 -1.33438e-07
3.64944e-07 3.48154e-07 -1.31481e-07
1.25016e-07 3.22993e-07 -1.2731e-07
1.37027e-07 4.43859e-07 -1.27884e-07
2.43627e-07 1.83604e-07 -1.50902e-07
2.66834e-07 5.78368e-07 -1.504e-07
3.45173e-07 4.84132e-07 -1.35735e-07
3.284e-07 2.68595e-07 -1.32984e-07
2.47718e-07 4.18321e-07 -8.66995e-08
2.25878e-07 3.35609e-07 -8.55164e-08
1.94738e-07 3.73916e-07 -8.54035e-08
2.77822e-07 3.72638e-07 -8.70015e-08
6.57469e-08 4.58274e-07 -1.48194e-07
5.19843e-08 3.21499e-07 -1.47994e-07
3.31897e-07 4.13417e-07 -1.18914e-07
4.0176e-07 4.87277e-07 -1.49187e-07
3.86041e-07 2.62207e-07 -1.49593e-07
3.23148e-07 3.40438e-07 -1.16867e-07
2.14908e-07 4.43994e-07 -1.04128e-07
2.60056e-07 3.09951e-07 -1.0314e-07
1.76917e-07 4.09478e-07 -1.02773e-07
2.75105e-07 4.37116e-07 -1.03385e-07
1.99793e-07 3.14876e-07 -1.0267e-07
1.75807e-07 3.54506e-07 -9.91921e-08
1.78446e-07 2.12664e-07 -1.4054e-07
2.05486e-07 5.46032e-07 -1.4152e-07
2.30562e-07 5.87008e-07 -1.52044e-07
2.04426e-07 1.77238e-07 -1.52612e-07
5.48144e-08 4.81815e-07 -1.54974e-07
3.7105e-08 3.01171e-07 -1.54829e-07
6.77807e-08 3.89532e-07 -1.36439e-07
4.35573e-07 4.61135e-07 -1.53284e-07
4.23482e-07 2.89216e-07 -1.54687e-07
2.78356e-07 5.40889e-07 -1.4132e-07
2.60176e-07 2.14632e-07 -1.40792e-07
2.93316e-07 3.94835e-07 -9.77607e-08
2.4091e-07 2.57979e-07 -1.26009e-07
2.57789e-07 4.97065e-07 -1.26797e-07
2.29839e-07 5.00747e-07 -1.27899e-07
2.09565e-07 2.5638e-07 -1.27113e-07
1.39416e-07 2.34599e-07 -1.35787e-07
1.66731e-07 5.22485e-07 -1.37815e-07
3.97817e-07 3.28443e-07 -1.4281e-07
4.09558e-07 4.23911e-07 -1.43372e-07
9.78553e-08 5.12665e-07 -1.49965e-07
7.58544e-08 2.60668e-07 -1.49239e-07
1.36224e-07 3.5486e-07 -1.18011e-07
8.89397e-08 3.20559e-07 -1.3968e-07
1.01824e-07 4.52628e-07 -1.40003e-07
4.86211e-08 5.19274e-07 -1.59274e-07
5.0708e-08 5.03459e-07 -1.58378e-07
2.748e-08 2.68007e-07 -1.59458e-07
3.03742e-08 2.81911e-07 -1.58346e-07
2.84477e-07 3.48928e-07 -9.63967e-08
3.32166e-07 5.14031e-07 -1.37856e-07
3.1729e-07 2.29022e-07 -1.36196e-07
1.32554e-07 4.73747e-07 -1.36106e-07
1.15432e-07 2.92764e-07 -1.3519e-07
2.68725e-07 6.06342e-07 -1.55186e-07
2.42561e-07 1.58555e-07 -1.56312e-07
1.42197e-07 4.13022e-07 -1.18506e-07
1.18479e-07 3.86959e-07 -1.23655e-07
3.93262e-07 3.65373e-07 -1.37125e-07
4.32342e-07 4.97596e-07 -1.55267e-07
4.16374e-07 2.54799e-07 -1.56661e-07
3.07681e-07 4.69319e-07 -1.23749e-07
2.88768e-07 2.74961e-07 -1.22539e-07
3.32695e-07 3.04757e-07 -1.27824e-07
1.64595e-07 2.81497e-07 -1.23127e-07
1.84309e-07 4.77589e-07 -1.24518e-07
2.33028e-07 4.02078e-07 -7.45363e-08
2.42249e-07 3.50277e-07 -7.52905e-08
2.62328e-07 3.84656e-07 -7.5659e-08
2.12284e-07 3.86424e-07 -7.50949e-08
3.43676e-07 4.49303e-07 -1.29252e-07
6.27004e-08 4.28951e-07 -1.42069e-07
5.32094e-08 3.50799e-07 -1.42032e-07
2.23083e-07 3.66328e-07 -6.78601e-08
1.99277e-07 2.83817e-07 -1.16343e-07
2.48819e-07 3.97903e-07 -7.34039e-08
2.54217e-07 3.65515e-07 -7.18938e-08
2.92069e-07 2.06303e-07 -1.39683e-07
3.08629e-07 5.41886e-07 -1.40852e-07
2.72316e-07 4.71245e-07 -1.17662e-07
3.47393e-07 3.7289e-07 -1.23238e-07
2.1513e-07 4.75207e-07 -1.18311e-07
8.05321e-08 4.75384e-07 -1.4943e-07
6.43752e-08 3.02461e-07 -1.49143e-07
1.00817e-07 2.42133e-07 -1.42217e-07
1.26868e-07 5.21761e-07 -1.43852e-07
2.90657e-07 4.15072e-07 -1.00943e-07
2.59251e-07 2.7861e-07 -1.17456e-07
3.52113e-07 3.27429e-07 -1.30338e-07
3.69875e-07 4.75257e-07 -1.40541e-07
3.55813e-07 2.73965e-07 -1.40015e-07
3.67359e-07 4.24639e-07 -1.33086e-07
2.2637e-07 3.89516e-07 -6.89898e-08
2.4437e-07 3.28555e-07 -9.02606e-08
2.29303e-07 4.25123e-07 -9.08472e-08
1.93347e-07 3.91092e-07 -8.86537e-08
1.99509e-07 4.27064e-07 -1.00167e-07
2.70479e-07 3.27315e-07 -9.79854e-08
1.42987e-07 2.98341e-07 -1.25169e-07
1.59584e-07 4.63998e-07 -1.26197e-07
1.87201e-07 3.3125e-07 -1.00181e-07
1.22036e-07 4.97038e-07 -1.42662e-07
1.01349e-07 2.70303e-07 -1.4156e-07
1.66047e-07 4.3284e-07 -1.14812e-07
1.55623e-07 3.30223e-07 -1.13885e-07
2.27127e-07 3.5496e-07 -7.21392e-08
2.13233e-07 3.71996e-07 -7.24525e-08
3.74119e-07 5.06622e-07 -1.43873e-07
3.58606e-07 2.39604e-07 -1.4275e-07
2.2234e-07 1.62316e-07 -1.56429e-07
2.481e-07 6.04099e-07 -1.55278e-07
5.08472e-07 -5.98666e-08 -1.13378e-07
5.08842e-07 6.27013e-08 -1.14433e-07
3.78429e-07 6.63701e-08 -1.13481e-07
3.78252e-07 -6.62841e-08 -1.13602e-07
2.97528e-07 9.69104e-08 -1.45482e-07
2.97327e-07 -9.6892e-08 -1.45528e-07
4.41684e-07 7.55797e-08 -1.07239e-07
3.66192e-07 -6.31051e-10 -1.04503e-07
5.15751e-07 -2.46072e-09 -1.04569e-07
4.40844e-07 -7.57721e-08 -1.07422e-07
2.69371e-07 1.01861e-07 -1.5352e-07
2.6912e-07 -1.01879e-07 -1.53567e-07
5.88476e-07 -7.72774e-08 -1.4159e-07
5.81314e-07 7.39215e-08 -1.39326e-07
4.41779e-07 -1.56109e-07 -1.41163e-07
4.48981e-07 1.55621e-07 -1.41266e-07
4.92076e-07 1.18846e-07 -1.30467e-07
3.95202e-07 -1.24231e-07 -1.29232e-07
3.05858e-07 3.16524e-08 -1.3101e-07
3.01944e-07 -3.16564e-08 -1.32079e-07
4.9143e-07 -1.23657e-07 -1.3173e-07
3.9592e-07 1.30004e-07 -1.30584e-07
4.67454e-07 -2.34091e-08 -8.16517e-08
4.69895e-07 2.87123e-08 -8.555e-08
4.12072e-07 2.55091e-08 -8.40972e-08
4.13327e-07 -2.40271e-08 -8.29438e-08
2.62595e-07 1.229e-07 -1.56365e-07
2.62306e-07 -1.22934e-07 -1.56486e-07
3.42505e-07 1.13387e-07 -1.34524e-07
3.42302e-07 -1.12934e-07 -1.34552e-07
5.84021e-07 -2.26142e-08 -1.33227e-07
5.77166e-07 2.56348e-08 -1.31173e-07
3.35039e-07 -5.9791e-08 -1.27251e-07
3.35202e-07 5.98563e-08 -1.27197e-07
4.66001e-07 -1.92805e-07 -1.51453e-07
4.31273e-07 1.93645e-07 -1.51151e-07
5.46601e-07 -1.078e-07 -1.36033e-07
5.46573e-07 1.05377e-07 -1.35578e-07
4.49164e-07 4.00841e-08 -8.65937e-08
4.4767e-07 -3.95491e-08 -8.59823e-08
3.99798e-07 6.74847e-09 -8.57481e-08
4.83262e-07 -4.81166e-09 -8.53537e-08
2.61828e-07 6.59249e-08 -1.47702e-07
2.61689e-07 -6.59192e-08 -1.47686e-07
5.3821e-07 -3.55e-08 -1.18631e-07
6.03889e-07 -1.14072e-07 -1.4931e-07
6.02934e-07 1.13063e-07 -1.49042e-07
5.32224e-07 3.56114e-08 -1.16053e-07
4.11567e-07 6.62846e-08 -1.04536e-07
4.12793e-07 -6.46673e-08 -1.03693e-07
3.77782e-07 -2.83126e-08 -1.02364e-07
4.75498e-07 -5.82515e-08 -1.02989e-07
4.76577e-07 5.87399e-08 -1.03353e-07
3.8258e-07 2.61023e-08 -9.9485e-08
3.99044e-07 -1.65341e-07 -1.40776e-07
4.9067e-07 1.59545e-07 -1.42138e-07
4.69336e-07 1.99507e-07 -1.53211e-07
4.29039e-07 -2.0072e-07 -1.52753e-07
2.48922e-07 8.66835e-08 -1.54566e-07
2.48736e-07 -8.66899e-08 -1.54549e-07
2.7085e-07 5.04605e-10 -1.3583e-07
6.3926e-07 -8.96461e-08 -1.53286e-07
6.39903e-07 8.84457e-08 -1.53387e-07
4.76876e-07 -1.57984e-07 -1.42037e-07
4.13704e-07 1.62213e-07 -1.41343e-07
4.55571e-07 -1.15843e-07 -1.26997e-07
4.31174e-07 1.17095e-07 -1.26533e-07
4.97336e-07 1.85336e-08 -9.63202e-08
4.61267e-07 1.1773e-07 -1.28059e-07
4.25527e-07 -1.19928e-07 -1.27618e-07
5.29881e-07 1.34785e-07 -1.3768e-07
4.99188e-07 -2.69511e-08 -9.95048e-08
3.5763e-07 -1.45225e-07 -1.36002e-07
6.11862e-07 4.61913e-08 -1.42016e-07
6.15581e-07 -5.16173e-08 -1.43278e-07
2.91371e-07 1.23697e-07 -1.49238e-07
2.91136e-07 -1.23632e-07 -1.49279e-07
3.4267e-07 2.89245e-08 -1.18102e-07
2.98874e-07 -6.45293e-08 -1.39573e-07
2.99302e-07 6.45182e-08 -1.39447e-07
2.42249e-07 1.19429e-07 -1.59145e-07
2.43918e-07 1.05895e-07 -1.5809e-07
2.41961e-07 -1.1956e-07 -1.59304e-07
2.43642e-07 -1.05935e-07 -1.5812e-07
5.31911e-07 -1.36027e-07 -1.38294e-07
3.28441e-07 8.99346e-08 -1.35166e-07
3.2825e-07 -8.98777e-08 -1.35233e-07
4.69252e-07 -2.19949e-07 -1.56481e-07
4.34195e-07 2.18937e-07 -1.56442e-07
3.55724e-07 1.4653e-07 -1.36463e-07
3.43616e-07 -2.78615e-08 -1.17524e-07
3.20483e-07 2.43241e-09 -1.23717e-07
6.04073e-07 7.90087e-09 -1.367e-07
5.12172e-07 9.3634e-08 -1.25423e-07
6.34175e-07 -1.25767e-07 -1.55346e-07
6.34235e-07 1.25146e-07 -1.55391e-07
5.09421e-07 -9.26359e-08 -1.24552e-07
5.44271e-07 7.08434e-08 -1.27929e-07
3.78997e-07 -9.82636e-08 -1.23477e-07
4.32971e-07 2.45529e-08 -7.52251e-08
4.35036e-07 -2.33719e-08 -7.43475e-08
4.68336e-07 8.71007e-09 -7.59192e-08
4.15612e-07 -6.13728e-09 -7.44778e-08
3.78456e-07 1.00063e-07 -1.23914e-07
5.46927e-07 -7.33171e-08 -1.29251e-07
2.61085e-07 3.79761e-08 -1.4149e-07
2.59147e-07 -3.72325e-08 -1.41641e-07
4.53143e-07 -1.04462e-08 -6.80936e-08
4.6991e-07 8.91549e-08 -1.16454e-07
4.52023e-07 2.0515e-08 -7.3235e-08
4.2095e-07 9.52046e-09 -7.21632e-08
5.07288e-07 -1.61037e-07 -1.41571e-07
4.71897e-07 -9.15351e-08 -1.17861e-07
5.56264e-07 1.41312e-09 -1.2278e-07
4.11061e-07 -9.55094e-08 -1.17761e-07
4.95061e-07 3.85184e-08 -1.01046e-07
2.76232e-07 8.36737e-08 -1.48958e-07
2.75995e-07 -8.36835e-08 -1.48991e-07
3.18541e-07 1.38719e-07 -1.4214e-07
3.17868e-07 -1.40035e-07 -1.42362e-07
4.12203e-07 9.67297e-08 -1.18059e-07
5.66539e-07 4.75915e-08 -1.306e-07
3.81269e-07 1.6659e-07 -1.39249e-07
5.72238e-07 -1.00429e-07 -1.40699e-07
5.71477e-07 9.90621e-08 -1.40343e-07
5.73159e-07 -5.01285e-08 -1.33039e-07
4.28957e-07 -1.05688e-08 -6.87871e-08
4.29199e-07 4.62691e-08 -9.05061e-08
4.29086e-07 -4.62631e-08 -9.0666e-08
3.96134e-07 -1.02705e-08 -8.83265e-08
3.99135e-07 4.81035e-08 -9.96933e-08
3.98581e-07 -4.72955e-08 -9.9709e-08
3.55592e-07 -8.2721e-08 -1.25283e-07
4.86589e-07 -4.11536e-08 -9.86867e-08
3.55723e-07 8.30469e-08 -1.25265e-07
3.16303e-07 1.12493e-07 -1.41531e-07
3.16017e-07 -1.12632e-07 -1.41633e-07
3.64938e-07 -5.11004e-08 -1.14118e-07
3.63785e-07 5.06733e-08 -1.14425e-07
4.48295e-07 -2.07319e-08 -7.26374e-08
4.6377e-07 -5.82184e-09 -7.21273e-08
5.74835e-07 -1.31724e-07 -1.44128e-07
5.74827e-07 1.31252e-07 -1.4405e-07
4.54367e-07 2.16215e-07 -1.56652e-07
4.49131e-07 -2.16026e-07 -1.56484e-07
3.05423e-07 -4.39227e-07 -1.14143e-07
2.97764e-07 -3.10445e-07 -1.14032e-07
1.66754e-07 -3.13335e-07 -1.13394e-07
1.80614e-07 -4.46392e-07 -1.14288e-07
8.42423e-08 -2.87474e-07 -1.4553e-07
1.01982e-07 -4.85074e-07 -1.46152e-07
2.28956e-07 -2.99104e-07 -1.06712e-07
1.61794e-07 -3.79881e-07 -1.04741e-07
3.09428e-07 -3.75408e-07 -1.05783e-07
2.44243e-07 -4.55275e-07 -1.0754e-07
5.5912e-08 -2.84282e-07 -1.53637e-07
7.44112e-08 -4.95521e-07 -1.53851e-07
3.72943e-07 -2.97e-07 -1.42041e-07
3.76947e-07 -4.48086e-07 -1.3938e-07
2.44818e-07 -5.39623e-07 -1.40821e-07
2.30204e-07 -2.19826e-07 -1.40585e-07
2.78356e-07 -2.51254e-07 -1.2903e-07
2.01322e-07 -5.03527e-07 -1.30146e-07
9.87969e-08 -3.5355e-07 -1.31314e-07
1.03121e-07 -4.18064e-07 -1.32102e-07
2.91992e-07 -5.04222e-07 -1.31156e-07
1.78334e-07 -2.47947e-07 -1.30327e-07
2.65761e-07 -4.05166e-07 -8.51019e-08
2.60054e-07 -3.4503e-07 -8.53033e-08
2.05346e-07 -3.53889e-07 -8.27825e-08
2.14003e-07 -4.04676e-07 -8.26915e-08
4.73646e-08 -2.63231e-07 -1.56427e-07
6.81456e-08 -5.1886e-07 -1.56573e-07
1.27019e-07 -2.67725e-07 -1.34437e-07
1.4858e-07 -4.93591e-07 -1.3584e-07
3.72024e-07 -3.51541e-07 -1.33696e-07
3.6919e-07 -3.99422e-07 -1.31297e-07
1.3689e-07 -4.4377e-07 -1.27896e-07
1.24901e-07 -3.22868e-07 -1.27259e-07
2.6666e-07 -5.78333e-07 -1.50367e-07
2.0719e-07 -1.84047e-07 -1.50884e-07
3.32525e-07 -2.61977e-07 -1.35063e-07
3.40515e-07 -4.77388e-07 -1.33685e-07
2.38761e-07 -3.34643e-07 -8.61848e-08
2.35102e-07 -4.18707e-07 -8.60706e-08
1.96176e-07 -3.85299e-07 -8.54859e-08
2.78112e-07 -3.77258e-07 -8.70457e-08
5.19254e-08 -3.21444e-07 -1.48008e-07
6.55999e-08 -4.58204e-07 -1.48164e-07
3.25331e-07 -3.34759e-07 -1.18927e-07
3.87005e-07 -2.61583e-07 -1.49892e-07
4.00494e-07 -4.86619e-07 -1.49017e-07
3.28641e-07 -4.07876e-07 -1.1691e-07
1.99402e-07 -3.10988e-07 -1.04354e-07
2.70386e-07 -4.41074e-07 -1.03818e-07
1.70204e-07 -3.52108e-07 -1.02398e-07
2.65028e-07 -3.1394e-07 -1.02584e-07
2.13145e-07 -4.41869e-07 -1.03452e-07
1.81732e-07 -4.06488e-07 -9.95295e-08
2.05297e-07 -5.46017e-07 -1.4155e-07
2.74472e-07 -2.10756e-07 -1.40572e-07
2.30381e-07 -5.86986e-07 -1.52038e-07
2.45942e-07 -1.7662e-07 -1.52635e-07
3.70798e-08 -3.01123e-07 -1.5485e-07
5.46377e-08 -4.81735e-07 -1.54918e-07
6.74818e-08 -3.87844e-07 -1.36437e-07
4.22829e-07 -2.88311e-07 -1.54631e-07
4.3596e-07 -4.60259e-07 -1.53466e-07
2.78177e-07 -5.40879e-07 -1.41264e-07
1.93098e-07 -2.15218e-07 -1.41012e-07
2.89395e-07 -3.54499e-07 -9.76564e-08
2.57649e-07 -4.97037e-07 -1.26706e-07
2.15252e-07 -2.58677e-07 -1.26013e-07
2.4642e-07 -2.55299e-07 -1.27124e-07
2.29676e-07 -5.00775e-07 -1.27929e-07
3.17063e-07 -2.30781e-07 -1.35851e-07
1.66574e-07 -5.22329e-07 -1.37826e-07
4.05318e-07 -4.18904e-07 -1.4219e-07
4.01148e-07 -3.23393e-07 -1.4413e-07
7.58078e-08 -2.60478e-07 -1.49219e-07
9.76832e-08 -5.12565e-07 -1.49949e-07
1.42102e-07 -4.11623e-07 -1.18299e-07
1.01496e-07 -4.52532e-07 -1.40054e-07
8.90351e-08 -3.20424e-07 -1.39601e-07
2.75249e-08 -2.68064e-07 -1.59305e-07
3.04202e-08 -2.81888e-07 -1.58322e-07
4.84086e-08 -5.19173e-07 -1.59228e-07
5.0493e-08 -5.03363e-07 -1.58325e-07
2.89154e-07 -4.00518e-07 -9.66191e-08
3.29893e-07 -5.15181e-07 -1.3775e-07
1.15316e-07 -2.92575e-07 -1.35159e-07
1.32408e-07 -4.73643e-07 -1.36099e-07
2.6855e-07 -6.06306e-07 -1.55159e-07
2.06716e-07 -1.58881e-07 -1.56269e-07
1.37081e-07 -2.33116e-07 -1.36278e-07
1.35765e-07 -3.53462e-07 -1.18187e-07
1.17935e-07 -3.82942e-07 -1.23635e-07
3.94521e-07 -3.8106e-07 -1.37031e-07
2.95385e-07 -2.79698e-07 -1.22459e-07
4.1641e-07 -2.5446e-07 -1.56717e-07
4.32105e-07 -4.97319e-07 -1.55404e-07
3.00598e-07 -4.73407e-07 -1.23459e-07
3.42608e-07 -4.42681e-07 -1.27978e-07
1.84009e-07 -4.77045e-07 -1.24393e-07
2.26347e-07 -3.52204e-07 -7.41521e-08
2.48278e-07 -4.02316e-07 -7.56935e-08
2.599e-07 -3.6632e-07 -7.55441e-08
2.09918e-07 -3.70707e-07 -7.4973e-08
1.63628e-07 -2.79068e-07 -1.23771e-07
3.32887e-07 -2.98226e-07 -1.29052e-07
5.41679e-08 -3.50101e-07 -1.41939e-07
6.14095e-08 -4.28399e-07 -1.42156e-07
2.26608e-07 -3.88771e-07 -6.8061e-08
2.16974e-07 -4.72981e-07 -1.17274e-07
2.56799e-07 -2.83191e-07 -1.15626e-07
2.43068e-07 -3.54591e-07 -7.3049e-08
2.56783e-07 -3.85867e-07 -7.20794e-08
3.08047e-07 -5.42221e-07 -1.40868e-07
3.47399e-07 -3.75186e-07 -1.2327e-07
6.43676e-08 -3.02386e-07 -1.49122e-07
8.0335e-08 -4.75307e-07 -1.49413e-07
1.01275e-07 -2.4326e-07 -1.42033e-07
1.2671e-07 -5.21636e-07 -1.43847e-07
2.83569e-07 -3.34336e-07 -1.00654e-07
2.72472e-07 -4.7317e-07 -1.18267e-07
1.97578e-07 -2.80239e-07 -1.17756e-07
3.59451e-07 -4.2038e-07 -1.30173e-07
1.60452e-07 -2.11708e-07 -1.38977e-07
3.56796e-07 -2.71636e-07 -1.40529e-07
3.68482e-07 -4.72794e-07 -1.40089e-07
3.59203e-07 -3.23274e-07 -1.33391e-07
2.22405e-07 -3.65697e-07 -6.87802e-08
2.53461e-07 -4.23887e-07 -9.08348e-08
2.18495e-07 -3.29813e-07 -9.02541e-08
1.90296e-07 -3.68537e-07 -8.84882e-08
2.78501e-07 -4.22895e-07 -9.84734e-08
1.87913e-07 -3.31945e-07 -9.94434e-08
1.59415e-07 -4.63863e-07 -1.26186e-07
1.97949e-07 -4.27314e-07 -1.00818e-07
1.42808e-07 -2.97854e-07 -1.25196e-07
1.01342e-07 -2.70291e-07 -1.41492e-07
1.21883e-07 -4.96931e-07 -1.42651e-07
1.54944e-07 -3.29657e-07 -1.14154e-07
1.66305e-07 -4.32253e-07 -1.14512e-07
2.32908e-07 -3.99381e-07 -7.24974e-08
2.15003e-07 -3.84645e-07 -7.25489e-08
3.62656e-07 -2.37966e-07 -1.43757e-07
3.71401e-07 -5.05153e-07 -1.43419e-07
2.27132e-07 -1.62181e-07 -1.56421e-07
2.47924e-07 -6.04069e-07 -1.55261e-07
-1.22072e-07 -4.69743e-07 -1.13888e-07
-1.41252e-07 -3.37409e-07 -1.16471e-07
-2.8324e-07 -3.71814e-07 -1.21411e-07
-2.47027e-07 -5.08918e-07 -1.15804e-07
-3.28719e-07 -5.61548e-07 -1.46871e-07
-3.83028e-07 -3.63759e-07 -1.56712e-07
-2.1656e-07 -3.40799e-07 -1.1207e-07
-2.73815e-07 -4.45804e-07 -1.08821e-07
-1.23452e-07 -4.06954e-07 -1.04769e-07
-1.82097e-07 -5.02838e-07 -1.08363e-07
-3.59182e-07 -5.75237e-07 -1.54009e-07
-4.18102e-07 -3.67782e-07 -1.64675e-07
-7.20514e-08 -3.22062e-07 -1.40138e-07
-4.5145e-08 -4.75869e-07 -1.4256e-07
-1.70668e-07 -5.88395e-07 -1.41645e-07
-2.26921e-07 -2.56669e-07 -1.49048e-07
-2.75815e-07 -3.03747e-07 -1.40432e-07
-2.18989e-07 -5.61047e-07 -1.31038e-07
-3.26122e-07 -4.94909e-07 -1.34996e-07
-3.48219e-07 -4.29204e-07 -1.39135e-07
-1.67244e-07 -2.7582e-07 -1.34165e-07
-1.28199e-07 -5.43254e-07 -1.32223e-07
-1.66749e-07 -4.38748e-07 -8.19777e-08
-1.77216e-07 -3.81637e-07 -8.7049e-08
-2.34457e-07 -4.06955e-07 -8.67848e-08
-2.20332e-07 -4.59897e-07 -8.61943e-08
-3.63706e-07 -5.98265e-07 -1.5633e-07
-4.35392e-07 -3.49543e-07 -1.70169e-07
-2.76395e-07 -5.61801e-07 -1.36714e-07
-3.36114e-07 -3.3298e-07 -1.47697e-07
-5.08234e-08 -4.19622e-07 -1.32849e-07
-6.5259e-08 -3.72317e-07 -1.30976e-07
-2.93297e-07 -5.15166e-07 -1.29845e-07
-3.26869e-07 -3.90936e-07 -1.35439e-07
-2.05742e-07 -2.13794e-07 -1.58166e-07
-1.4447e-07 -6.24349e-07 -1.51182e-07
-8.01967e-08 -5.14476e-07 -1.37038e-07
-1.13011e-07 -2.92755e-07 -1.34867e-07
-2.01737e-07 -3.7594e-07 -8.94417e-08
-1.81826e-07 -4.6258e-07 -8.67207e-08
-2.37973e-07 -4.44425e-07 -8.87547e-08
-1.55693e-07 -4.14806e-07 -8.57002e-08
-3.67555e-07 -5.39747e-07 -1.49789e-07
-4.06273e-07 -4.05481e-07 -1.56373e-07
-9.64122e-08 -4.38353e-07 -1.18855e-07
-5.661e-08 -2.80211e-07 -1.5041e-07
-2.82657e-08 -5.13107e-07 -1.50982e-07
-1.14502e-07 -3.67857e-07 -1.15711e-07
-2.45232e-07 -3.62282e-07 -1.09727e-07
-2.11457e-07 -4.98372e-07 -1.05248e-07
-2.71452e-07 -4.1308e-07 -1.07711e-07
-1.52676e-07 -4.75377e-07 -1.0352e-07
-1.75456e-07 -3.47733e-07 -1.05663e-07
-2.50523e-07 -4.68915e-07 -1.02411e-07
-2.09625e-07 -6.0189e-07 -1.42309e-07
-2.76488e-07 -2.58329e-07 -1.54754e-07
-1.79657e-07 -6.3829e-07 -1.5277e-07
-2.47205e-07 -2.13377e-07 -1.64616e-07
-3.81388e-07 -5.63909e-07 -1.5528e-07
-4.32762e-07 -3.89651e-07 -1.64052e-07
-3.65113e-07 -4.70532e-07 -1.42141e-07
1.85191e-09 -4.8502e-07 -1.54838e-07
-1.80446e-08 -3.05604e-07 -1.5481e-07
-1.87548e-07 -2.44783e-07 -1.46357e-07
-1.37421e-07 -5.83939e-07 -1.42213e-07
-2.06035e-07 -2.94186e-07 -1.32029e-07
-1.62566e-07 -5.42459e-07 -1.2765e-07
-1.46695e-07 -3.87563e-07 -9.68977e-08
-2.40333e-07 -2.99205e-07 -1.3557e-07
-1.90207e-07 -5.51986e-07 -1.28757e-07
-1.35806e-07 -4.35759e-07 -9.97773e-08
-2.5302e-07 -5.86428e-07 -1.38585e-07
-3.23835e-07 -2.93328e-07 -1.52579e-07
-3.42976e-08 -3.49439e-07 -1.4203e-07
-1.86212e-08 -4.4691e-07 -1.43458e-07
-3.30926e-07 -5.888e-07 -1.50171e-07
-4.0068e-07 -3.38889e-07 -1.63713e-07
-2.90265e-07 -4.82474e-07 -1.21748e-07
-3.29784e-07 -5.29965e-07 -1.41819e-07
-3.66902e-07 -3.95775e-07 -1.48213e-07
-3.86752e-07 -6.00566e-07 -1.5874e-07
-3.87221e-07 -5.84964e-07 -1.57974e-07
-4.5706e-07 -3.59877e-07 -1.72072e-07
-4.49051e-07 -3.73194e-07 -1.68886e-07
-1.27077e-07 -2.5262e-07 -1.38878e-07
-8.87987e-08 -5.47383e-07 -1.39113e-07
-2.96108e-07 -5.45438e-07 -1.37224e-07
-3.45486e-07 -3.6145e-07 -1.45973e-07
-1.39454e-07 -6.52619e-07 -1.55925e-07
-2.07274e-07 -1.86983e-07 -1.64093e-07
-3.05514e-07 -4.22679e-07 -1.23683e-07
-3.1782e-07 -4.60705e-07 -1.28936e-07
-3.22358e-08 -3.87642e-07 -1.35817e-07
-2.82456e-08 -2.69151e-07 -1.57367e-07
-1.26529e-10 -5.22979e-07 -1.57384e-07
-1.16345e-07 -5.05352e-07 -1.25215e-07
-1.49947e-07 -3.03446e-07 -1.26147e-07
-1.01928e-07 -3.28363e-07 -1.30185e-07
-2.40038e-07 -5.38778e-07 -1.25566e-07
-2.89924e-07 -3.37071e-07 -1.33712e-07
-2.12564e-07 -3.98718e-07 -7.71999e-08
-1.99539e-07 -4.51794e-07 -7.64191e-08
-1.74194e-07 -4.03389e-07 -7.6742e-08
-2.25873e-07 -4.25638e-07 -7.72837e-08
-8.44375e-08 -4.77355e-07 -1.30001e-07
-3.6837e-07 -5.11211e-07 -1.45566e-07
-3.92388e-07 -4.34816e-07 -1.49448e-07
-1.8355e-07 -4.2859e-07 -6.84958e-08
-1.94146e-07 -3.95116e-07 -7.5283e-08
-2.15737e-07 -4.40842e-07 -7.42798e-08
-1.07442e-07 -5.80171e-07 -1.41903e-07
-1.54327e-07 -2.31841e-07 -1.43663e-07
-1.50941e-07 -5.12628e-07 -1.18477e-07
-1.83372e-07 -3.13476e-07 -1.21589e-07
-8.25157e-08 -3.9869e-07 -1.22537e-07
-2.53035e-07 -3.2962e-07 -1.2569e-07
-2.08017e-07 -5.29515e-07 -1.1926e-07
-1.52795e-07 -3.66665e-07 -1.02104e-07
-3.52683e-07 -5.55014e-07 -1.5026e-07
-4.01152e-07 -3.83371e-07 -1.58739e-07
-2.96693e-07 -5.93271e-07 -1.44359e-07
-3.72481e-07 -3.12538e-07 -1.5973e-07
-8.0328e-08 -3.50054e-07 -1.31286e-07
-8.56541e-08 -2.96396e-07 -1.40829e-07
-5.80791e-08 -5.02416e-07 -1.41912e-07
-6.08698e-08 -4.49228e-07 -1.33377e-07
-2.1422e-07 -4.16027e-07 -7.12923e-08
-2.24078e-07 -3.76464e-07 -9.48004e-08
-1.98517e-07 -4.75463e-07 -9.18591e-08
-2.46995e-07 -4.27229e-07 -9.2137e-08
-2.56363e-07 -3.86052e-07 -1.05463e-07
-2.29166e-07 -4.85227e-07 -1.0163e-07
-2.67869e-07 -5.30596e-07 -1.27501e-07
-3.12631e-07 -3.60915e-07 -1.35028e-07
-1.4548e-07 -4.53802e-07 -9.90783e-08
-3.05454e-07 -5.69879e-07 -1.43315e-07
-3.67148e-07 -3.41815e-07 -1.54917e-07
-2.92466e-07 -3.92079e-07 -1.21197e-07
-2.6512e-07 -4.98026e-07 -1.17105e-07
-1.85539e-07 -4.41629e-07 -7.28226e-08
-1.74759e-07 -4.20358e-07 -7.25603e-08
-8.33176e-08 -2.58542e-07 -1.44464e-07
-5.115e-08 -5.34787e-07 -1.45525e-07
-2.28288e-07 -1.94393e-07 -1.66457e-07
-1.60364e-07 -6.52996e-07 -1.55991e-07
-4.09926e-07 -1.09024e-07 -1.79121e-07
-6.46166e-07 1.27733e-07 -1.87462e-07
-4.10135e-07 1.13346e-07 -1.79026e-07
-6.46378e-07 -1.2776e-07 -1.87465e-07
-7.60908e-07 1.61224e-07 -1.91028e-07
-7.60943e-07 -1.61329e-07 -1.91025e-07
-5.26263e-07 1.51029e-07 -1.83138e-07
-6.78039e-07 3.82794e-09 -1.88296e-07
-3.91021e-07 -4.39738e-09 -1.78992e-07
-5.27747e-07 -1.51269e-07 -1.83173e-07
-7.97873e-07 1.67656e-07 -1.92086e-07
-7.97908e-07 -1.6775e-07 -1.92084e-07
-3.17594e-07 1.06919e-07 -1.76998e-07
-3.0978e-07 -1.09637e-07 -1.76787e-07
-5.16896e-07 -2.54356e-07 -1.82443e-07
-5.0589e-07 2.52715e-07 -1.81772e-07
-4.39916e-07 1.9875e-07 -1.77734e-07
-5.98517e-07 -2.13964e-07 -1.85885e-07
-7.55797e-07 5.95952e-08 -1.90292e-07
-7.58681e-07 -5.83801e-08 -1.90344e-07
-4.40655e-07 -2.05553e-07 -1.77409e-07
-5.95766e-07 2.21563e-07 -1.85798e-07
-4.69869e-07 -5.91171e-08 -1.81477e-07
-5.97842e-07 6.08805e-08 -1.85935e-07
-4.67175e-07 6.85829e-08 -1.81355e-07
-5.99822e-07 -6.33678e-08 -1.86002e-07
-8.04746e-07 1.93981e-07 -1.92287e-07
-8.04791e-07 -1.94071e-07 -1.92285e-07
-6.90851e-07 1.89742e-07 -1.88835e-07
-6.91054e-07 -1.89253e-07 -1.88839e-07
-3.05957e-07 -3.26113e-08 -1.75012e-07
-3.14976e-07 3.813e-08 -1.7554e-07
-7.14071e-07 1.09461e-07 -1.89492e-07
-7.14092e-07 -1.09582e-07 -1.89491e-07
-4.78897e-07 -2.92354e-07 -1.79271e-07
-5.26823e-07 3.00216e-07 -1.83262e-07
-3.62194e-07 -1.65725e-07 -1.75518e-07
-3.62285e-07 1.62523e-07 -1.75724e-07
-5.12559e-07 9.55883e-08 -1.82866e-07
-5.15539e-07 -9.45595e-08 -1.82964e-07
-6.26847e-07 -1.63349e-08 -1.86865e-07
-4.3897e-07 -1.13191e-08 -1.80545e-07
-8.07195e-07 1.16482e-07 -1.91728e-07
-8.07215e-07 -1.16576e-07 -1.91725e-07
-3.64473e-07 -5.95989e-08 -1.78193e-07
-2.96004e-07 -1.52405e-07 -1.75785e-07
-2.97134e-07 1.51701e-07 -1.75832e-07
-3.72414e-07 6.14072e-08 -1.7843e-07
-5.86581e-07 1.34586e-07 -1.85468e-07
-5.84455e-07 -1.32492e-07 -1.85387e-07
-6.57948e-07 5.9724e-08 -1.87773e-07
-4.62631e-07 -1.18656e-07 -1.80788e-07
-4.60783e-07 1.18776e-07 -1.80745e-07
-6.51153e-07 -5.59767e-08 -1.87568e-07
-5.80522e-07 -2.67559e-07 -1.85377e-07
-4.4211e-07 2.4989e-07 -1.75959e-07
-5.2847e-07 -3.09113e-07 -1.83369e-07
-4.73978e-07 2.99161e-07 -1.78767e-07
-8.2289e-07 1.47399e-07 -1.92397e-07
-8.22919e-07 -1.47488e-07 -1.92395e-07
-7.98885e-07 1.44502e-09 -1.9079e-07
-2.56816e-07 -1.15292e-07 -1.75336e-07
-2.55882e-07 1.13954e-07 -1.75232e-07
-4.63016e-07 -2.50639e-07 -1.78152e-07
-5.59015e-07 2.63491e-07 -1.84578e-07
-4.98462e-07 -2.02959e-07 -1.81443e-07
-5.39622e-07 2.06597e-07 -1.83589e-07
-4.1889e-07 3.84164e-08 -1.79913e-07
-4.88991e-07 2.04395e-07 -1.80906e-07
-5.48636e-07 -2.10141e-07 -1.83962e-07
-3.83651e-07 2.09363e-07 -1.72762e-07
-4.17132e-07 -5.41134e-08 -1.79835e-07
-6.55275e-07 -2.35784e-07 -1.87557e-07
-2.77607e-07 6.38331e-08 -1.73817e-07
-2.7466e-07 -7.07891e-08 -1.73787e-07
-7.65873e-07 1.95787e-07 -1.91175e-07
-7.65921e-07 -1.95891e-07 -1.91173e-07
-7.07591e-07 -5.4752e-08 -1.89132e-07
-7.61589e-07 1.14706e-07 -1.90804e-07
-7.6182e-07 -1.14714e-07 -1.90806e-07
-8.28875e-07 1.89491e-07 -1.92766e-07
-8.28541e-07 1.72106e-07 -1.92715e-07
-8.28918e-07 -1.89574e-07 -1.92764e-07
-8.28577e-07 -1.72191e-07 -1.92713e-07
-3.80576e-07 -2.10092e-07 -1.72615e-07
-7.18318e-07 1.5454e-07 -1.89737e-07
-7.18373e-07 -1.54618e-07 -1.89735e-07
-4.73194e-07 -3.2029e-07 -1.78101e-07
-5.18732e-07 3.29847e-07 -1.82755e-07
-6.58209e-07 2.37011e-07 -1.87629e-07
-7.07667e-07 5.71344e-08 -1.89139e-07
-7.36803e-07 3.62849e-09 -1.89744e-07
-2.79978e-07 1.13183e-08 -1.71953e-07
-4.08265e-07 1.59265e-07 -1.77541e-07
-2.6469e-07 1.5616e-07 -1.75275e-07
-2.6474e-07 -1.56686e-07 -1.75257e-07
-4.12096e-07 -1.58805e-07 -1.77742e-07
-3.62655e-07 1.1378e-07 -1.7779e-07
-6.34875e-07 -1.75785e-07 -1.8709e-07
-5.46982e-07 6.4906e-08 -1.84188e-07
-5.52711e-07 -6.54463e-08 -1.84387e-07
-4.66331e-07 2.30112e-08 -1.81344e-07
-5.96685e-07 1.6334e-08 -1.85999e-07
-6.35449e-07 1.78118e-07 -1.87114e-07
-3.59345e-07 -1.16433e-07 -1.77664e-07
-8.08976e-07 7.0476e-08 -1.91245e-07
-8.10284e-07 -6.96634e-08 -1.9125e-07
-4.98111e-07 -3.27721e-08 -1.82408e-07
-4.75457e-07 1.6461e-07 -1.80681e-07
-5.02853e-07 5.77705e-08 -1.82613e-07
-5.86727e-07 -2.81524e-08 -1.85707e-07
-4.1672e-07 -2.48246e-07 -1.72914e-07
-4.7197e-07 -1.67665e-07 -1.80406e-07
-3.38522e-07 2.39294e-09 -1.76702e-07
-5.78877e-07 -1.76804e-07 -1.85174e-07
-4.26248e-07 7.71792e-08 -1.79969e-07
-7.89807e-07 1.42989e-07 -1.91693e-07
-7.89865e-07 -1.43072e-07 -1.91691e-07
-7.21789e-07 2.19053e-07 -1.89636e-07
-7.22246e-07 -2.20836e-07 -1.89635e-07
-5.76788e-07 1.78462e-07 -1.85098e-07
-3.30979e-07 7.2825e-08 -1.76942e-07
-6.08582e-07 2.67325e-07 -1.86101e-07
-3.3077e-07 -1.45993e-07 -1.76131e-07
-3.31675e-07 1.44397e-07 -1.76223e-07
-3.23383e-07 -7.49961e-08 -1.76739e-07
-5.66944e-07 3.45409e-08 -1.85011e-07
-5.56079e-07 -1.0598e-07 -1.84408e-07
-5.56086e-07 1.05829e-07 -1.84416e-07
-6.31542e-07 2.49489e-08 -1.86994e-07
-6.18581e-07 9.9792e-08 -1.86568e-07
-6.16159e-07 -1.02192e-07 -1.86485e-07
-6.78405e-07 -1.48579e-07 -1.88486e-07
-4.39989e-07 -8.51633e-08 -1.80348e-07
-6.78322e-07 1.48809e-07 -1.88489e-07
-7.31529e-07 1.84122e-07 -1.90125e-07
-7.31692e-07 -1.84439e-07 -1.90126e-07
-6.72299e-07 9.94398e-08 -1.88242e-07
-6.74023e-07 -9.83976e-08 -1.88291e-07
-5.13491e-07 -5.65391e-08 -1.8299e-07
-4.75092e-07 -1.60034e-08 -1.816e-07
-3.2644e-07 1.85492e-07 -1.72557e-07
-3.26353e-07 -1.85931e-07 -1.72546e-07
-5.00671e-07 -3.22448e-07 -1.81309e-07
-4.93509e-07 3.20653e-07 -1.80621e-07
-1.42771e-07 3.41823e-07 -1.1428e-07
-1.21129e-07 4.73146e-07 -1.15146e-07
-2.46572e-07 5.08545e-07 -1.15687e-07
-2.83327e-07 3.71486e-07 -1.21553e-07
-3.83129e-07 3.63569e-07 -1.56796e-07
-3.28461e-07 5.61346e-07 -1.4688e-07
-1.81278e-07 5.02336e-07 -1.08364e-07
-2.73318e-07 4.4709e-07 -1.08789e-07
-1.24173e-07 4.02081e-07 -1.04724e-07
-2.16379e-07 3.40539e-07 -1.12023e-07
-4.18254e-07 3.67578e-07 -1.64772e-07
-3.58929e-07 5.75055e-07 -1.54019e-07
-5.19368e-08 4.7343e-07 -1.40267e-07
-6.54271e-08 3.18625e-07 -1.42334e-07
-2.26691e-07 2.5651e-07 -1.48997e-07
-1.64117e-07 5.8679e-07 -1.41685e-07
-1.28314e-07 5.3811e-07 -1.31127e-07
-2.75669e-07 3.03481e-07 -1.40474e-07
-3.44491e-07 4.28127e-07 -1.38107e-07
-3.29612e-07 4.95751e-07 -1.36082e-07
-1.67037e-07 2.75811e-07 -1.34019e-07
-2.17179e-07 5.66109e-07 -1.32497e-07
-1.7876e-07 3.87852e-07 -8.26625e-08
-1.62984e-07 4.44384e-07 -8.62526e-08
-2.1868e-07 4.57714e-07 -8.47665e-08
-2.36516e-07 4.05482e-07 -8.83488e-08
-4.35599e-07 3.49326e-07 -1.70298e-07
-3.63459e-07 5.9807e-07 -1.56346e-07
-3.36094e-07 3.32749e-07 -1.47804e-07
-2.76023e-07 5.61909e-07 -1.36779e-07
-5.70049e-08 3.75304e-07 -1.32812e-07
-5.77301e-08 4.23703e-07 -1.31001e-07
-3.2692e-07 3.90712e-07 -1.35554e-07
-2.93038e-07 5.14932e-07 -1.29788e-07
-2.05507e-07 2.13665e-07 -1.58114e-07
-1.78349e-07 6.3058e-07 -1.51226e-07
-1.09485e-07 2.85172e-07 -1.36651e-07
-8.0509e-08 5.1228e-07 -1.36669e-07
-1.80264e-07 4.62657e-07 -8.75686e-08
-2.02736e-07 3.76835e-07 -8.86299e-08
-2.42281e-07 4.30104e-07 -8.93901e-08
-1.57773e-07 4.04515e-07 -8.57657e-08
-4.06396e-07 4.0534e-07 -1.5646e-07
-3.67281e-07 5.39599e-07 -1.49782e-07
-1.07702e-07 3.65226e-07 -1.18855e-07
-2.91396e-08 5.12574e-07 -1.50737e-07
-5.56665e-08 2.79524e-07 -1.50581e-07
-1.02148e-07 4.39591e-07 -1.16381e-07
-2.12343e-07 4.99827e-07 -1.06283e-07
-2.45153e-07 3.6188e-07 -1.09792e-07
-2.54518e-07 4.72206e-07 -1.05194e-07
-1.76476e-07 3.49215e-07 -1.04852e-07
-1.5155e-07 4.7582e-07 -1.04119e-07
-2.66155e-07 4.13979e-07 -1.04787e-07
-2.76301e-07 2.58095e-07 -1.54767e-07
-1.24021e-07 5.82889e-07 -1.42384e-07
-1.40959e-07 6.31114e-07 -1.52825e-07
-2.46988e-07 2.13198e-07 -1.64594e-07
-4.32895e-07 3.89478e-07 -1.64152e-07
-3.81141e-07 5.63735e-07 -1.55283e-07
-3.65306e-07 4.69374e-07 -1.42224e-07
-1.88484e-08 3.04922e-07 -1.54724e-07
2.62865e-09 4.84127e-07 -1.5488e-07
-1.87315e-07 2.44697e-07 -1.46259e-07
-1.96366e-07 5.97819e-07 -1.42462e-07
-2.05802e-07 2.94078e-07 -1.31909e-07
-1.85307e-07 5.48125e-07 -1.27675e-07
-1.38999e-07 4.27136e-07 -9.66994e-08
-1.57111e-07 5.43445e-07 -1.28779e-07
-2.40136e-07 2.98976e-07 -1.35546e-07
-9.08628e-08 5.4689e-07 -1.3856e-07
-1.46275e-07 3.78364e-07 -1.00044e-07
-3.23718e-07 2.93071e-07 -1.52675e-07
-2.20139e-08 4.41795e-07 -1.42068e-07
-3.19115e-08 3.43997e-07 -1.43375e-07
-4.00761e-07 3.38701e-07 -1.6379e-07
-3.30673e-07 5.88601e-07 -1.50189e-07
-3.06878e-07 4.21633e-07 -1.24478e-07
-3.66695e-07 3.95536e-07 -1.48203e-07
-3.29811e-07 5.29884e-07 -1.419e-07
-4.57307e-07 3.59694e-07 -1.72247e-07
-4.49233e-07 3.73021e-07 -1.69013e-07
-3.86502e-07 6.00385e-07 -1.58752e-07
-3.8697e-07 5.84786e-07 -1.57982e-07
-1.24699e-07 2.53368e-07 -1.38701e-07
-3.45533e-07 3.61224e-07 -1.46074e-07
-2.95825e-07 5.45211e-07 -1.37209e-07
-2.07044e-07 1.86846e-07 -1.64055e-07
-1.75307e-07 6.5838e-07 -1.5596e-07
-2.54731e-07 5.87885e-07 -1.3918e-07
-2.89228e-07 4.80968e-07 -1.21107e-07
-3.19108e-07 4.55496e-07 -1.29203e-07
-2.99264e-08 4.03693e-07 -1.35809e-07
-1.13585e-07 5.06176e-07 -1.26246e-07
-6.20639e-11 5.22726e-07 -1.57434e-07
-2.82481e-08 2.6902e-07 -1.57181e-07
-1.45425e-07 3.05424e-07 -1.25718e-07
-8.69927e-08 4.75469e-07 -1.28749e-07
-2.89876e-07 3.36784e-07 -1.33805e-07
-1.97197e-07 4.50006e-07 -7.56012e-08
-2.14875e-07 3.98742e-07 -7.8114e-08
-1.69322e-07 4.22468e-07 -7.64572e-08
-2.21658e-07 4.38817e-07 -7.67849e-08
-2.4016e-07 5.40265e-07 -1.26106e-07
-1.05885e-07 3.23823e-07 -1.29874e-07
-3.91002e-07 4.33462e-07 -1.49426e-07
-3.6995e-07 5.10689e-07 -1.45724e-07
-1.90303e-07 4.05633e-07 -6.90723e-08
-1.53132e-07 5.10692e-07 -1.17257e-07
-1.81522e-07 4.40534e-07 -7.42306e-08
-2.22478e-07 4.20438e-07 -7.51313e-08
-1.53637e-07 2.3194e-07 -1.43425e-07
-1.84801e-07 3.15006e-07 -1.20829e-07
-8.19155e-08 4.01492e-07 -1.22546e-07
-2.52896e-07 3.29307e-07 -1.25722e-07
-1.37573e-07 4.49428e-07 -1.01609e-07
-4.01227e-07 3.83182e-07 -1.58813e-07
-3.52472e-07 5.54859e-07 -1.50275e-07
-3.72416e-07 3.12327e-07 -1.59839e-07
-2.96312e-07 5.91666e-07 -1.44281e-07
-2.06622e-07 5.30125e-07 -1.19691e-07
-6.73046e-08 4.47642e-07 -1.30962e-07
-2.26621e-07 6.0361e-07 -1.4139e-07
-8.43284e-08 2.93269e-07 -1.41471e-07
-5.88606e-08 5.01416e-07 -1.41607e-07
-7.49754e-08 3.47738e-07 -1.33269e-07
-2.05903e-07 4.39008e-07 -7.03721e-08
-1.98337e-07 4.74995e-07 -9.18837e-08
-2.23958e-07 3.76032e-07 -9.48146e-08
-2.40286e-07 4.48969e-07 -9.12306e-08
-2.29808e-07 4.84345e-07 -1.01566e-07
-2.56185e-07 3.85538e-07 -1.05518e-07
-3.12693e-07 3.60629e-07 -1.35168e-07
-1.6214e-07 3.65379e-07 -9.97384e-08
-2.67527e-07 5.3052e-07 -1.27489e-07
-3.67185e-07 3.41603e-07 -1.55014e-07
-3.05127e-07 5.69439e-07 -1.43298e-07
-2.63533e-07 4.97829e-07 -1.16627e-07
-2.93712e-07 3.92695e-07 -1.21712e-07
-1.97864e-07 3.97106e-07 -7.3947e-08
-1.77889e-07 4.07754e-07 -7.27675e-08
-5.11565e-08 5.34711e-07 -1.45508e-07
-8.21102e-08 2.5765e-07 -1.44572e-07
-1.55466e-07 6.52031e-07 -1.56037e-07
-2.28066e-07 1.94234e-07 -1.66427e-07
SCALARS effective_fluid_pressure_TPM float
LOOKUP_TABLE default
133
133
133
133
133
133
133
133
133
133
133
133
133
133
1
133
133
133
133
133
133
133
133
133
133
133
133
1
133
133
133
133
133
133
133
133
133
133
1
133
133
133
133
133
133
133
133
133
133
1
133
133
133
133
133
133
133
133
133
133
1
133
133
133
133
133
133
133
133
133
133
120.271
133
133
133
133
133
133
133
133
1
133
133
133
133
133
133
133
133
133
133
133
133
133
133
1
133
133
133
133
133
133
133
133
133
133
133
133
1
133
133
133
133
133
133
133
133
133
133
1
133
133
133
133
133
133
133
133
133
133
1
133
133
133
133
133
133
133
133
133
133
1
133
133
133
133
133
133
133
133
133
133
120.271
133
133
133
133
133
133
133
133
1
133
105.688
96.6017
95.887
103.917
133
133
114.064
109.289
109.193
114.132
133
133
104.008
96.1832
96.6251
105.695
133
102.907
94.1528
94.1775
102.906
133
102.706
94.1318
94.3165
102.586
133
102.928
94.4553
94.4458
102.986
1
1
1
133
133
102.852
94.5539
94.276
102.767
133
133
102.169
93.8459
94.2333
102.933
133
102.927
93.8803
94.0428
102.674
133
102.725
94.3672
94.0249
102.959
133
102.566
93.8193
93.9308
102.839
133
1
1
1
133
133
133
102.993
94.3901
94.1423
102.767
133
102.979
94.0709
94.4192
102.772
133
102.736
94.1101
93.9413
102.965
133
102.596
94.1281
94.2128
102.795
133
133
1
1
1
133
133
102.746
94.3862
94.0403
102.969
133
102.805
94.0846
93.8112
102.901
133
102.947
94.2555
93.8589
102.169
133
133
102.971
94.3615
94.4765
102.651
133
133
1
1
1
133
133
102.899
94.3446
94.2051
103.203
133
103.314
94.805
94.5328
102.816
133
133
103.475
96.1012
96.9288
105.615
133
133
114.565
109.959
110.242
115.484
133
1
1
1
133
133
125.935
125.435
126.318
128.191
133
133
128.798
127.807
127.803
128.799
133
133
128.195
126.315
125.363
125.907
133
114.585
109.99
110.389
115.542
133
121.476
122.758
121.534
133
133
133
105.653
96.9399
96.1263
103.468
133
133
102.831
94.4969
94.3439
103.253
133
103.268
94.7116
94.436
102.966
133
133
1
1
1
133
105.688
96.6017
95.887
103.917
133
133
114.064
109.289
109.193
114.132
133
133
104.008
96.1832
96.6251
105.695
133
102.907
94.1528
94.1775
102.906
133
102.706
94.1318
94.3165
102.586
133
102.928
94.4553
94.4458
102.986
1
1
1
133
133
102.852
94.5539
94.276
102.767
133
133
102.169
93.8459
94.2333
102.933
133
102.927
93.8803
94.0428
102.674
133
102.725
94.3672
94.0249
102.959
133
102.566
93.8193
93.9308
102.839
133
1
1
1
133
133
133
102.993
94.3901
94.1423
102.767
133
102.979
94.0709
94.4192
102.772
133
102.736
94.1101
93.9413
102.965
133
102.596
94.1281
94.2128
102.795
133
133
1
1
1
133
133
102.746
94.3862
94.0403
102.969
133
102.805
94.0846
93.8112
102.901
133
102.947
94.2555
93.8589
102.169
133
133
102.971
94.3615
94.4765
102.651
133
133
1
1
1
133
133
102.899
94.3446
94.2051
103.203
133
103.314
94.805
94.5328
102.816
133
133
103.475
96.1012
96.9288
105.615
133
133
114.565
109.959
110.242
115.484
133
1
1
1
133
133
125.935
125.435
126.318
128.191
133
133
128.798
127.807
127.803
128.799
133
133
128.195
126.315
125.363
125.907
133
114.585
109.99
110.389
115.542
133
121.476
122.758
121.534
133
133
133
105.653
96.9399
96.1263
103.468
133
133
102.831
94.4969
94.3439
103.253
133
103.268
94.7116
94.436
102.966
133
133
1
1
1
74.829
75.7153
78.043
78.1455
104.446
104.44
71.425
72.9133
68.1129
71.4172
114.709
114.707
94.4853
96.5249
96.643
96.5666
86.7525
87.9459
94.9184
95.4712
87.5355
88.9302
46.6943
51.3424
50.0909
51.6828
119.796
119.796
93.1766
93.1464
88.39
87.1311
89.9465
89.8975
107.54
107.873
90.6981
90.5277
52.9327
51.8349
54.1424
50.3694
109.652
109.638
78.6578
105.049
105.376
76.8767
70.2035
69.3615
70.2615
67.3334
67.724
67.8083
96.1486
95.1458
109.178
109.544
118.071
118.055
101.177
111.669
111.372
96.0817
97.0094
85.3143
85.6386
61.3884
85.9844
86.4309
90.7856
64.1735
92.8772
95.5226
96.8571
107.257
107.257
83.7344
100.561
100.497
129.034
125.128
129.033
125.122
91.1458
94.9899
95.0132
118.405
118.16
93.3412
83.8075
88.9811
90.2215
83.2544
118.365
118.435
82.5778
85.4759
84.6488
36.3675
38.0251
37.4116
38.3276
85.002
86.353
105.327
105.467
23.3917
77.5579
34.9428
33.9867
93.9449
78.4094
81.1938
79.7258
65.4968
109.523
109.529
98.8307
98.798
80.0359
87.2946
94.9269
95.2028
95.414
89.0938
25.4811
57.3
57.2762
56.5717
66.7173
66.8964
87.0023
63.2123
86.9788
99.5849
99.6121
79.4708
79.7972
31.4202
30.9296
97.0216
96.9769
118.364
118.403
75.129
75.2577
75.065
75.1739
100.127
100.385
70.1916
68.4919
68.7489
70.2666
111.003
111.193
96.3428
94.3114
95.7232
95.724
86.0188
86.1684
87.7819
88.2464
86.9443
86.8621
49.9477
50.6897
48.2449
47.8798
117.66
117.879
89.9207
90.2131
88.2598
86.9136
85.3572
85.1908
107.035
107.129
90.355
88.8858
51.9174
51.0629
50.6918
52.0794
102.277
102.397
78.6035
105.214
104.869
77.1746
67.4086
67.2039
66.6631
67.0056
67.1771
64.1421
94.8
94.6761
108.839
108.848
113
113.102
90.8427
111.645
111.387
95.5193
95.4331
62.2742
84.3097
84.3696
85.0446
85.1439
90.71
90.4076
95.4653
96.8009
103.849
104.239
78.5003
94.8546
94.6533
128.202
122.917
128.255
122.988
61.666
90.8259
90.6834
90.9941
91.2393
117.981
117.891
78.5611
82.2415
90.0815
118.355
118.297
81.741
81.4978
85.2456
82.1598
82.0457
35.4021
37.7023
37.2102
37.1768
86.1507
95.5101
95.6396
23.6466
77.3616
34.2117
32.8029
93.5371
93.5559
77.6248
81.167
77.9169
104.297
104.476
96.0713
95.6008
64.8942
77.9997
86.6857
95.1854
94.7693
88.9326
25.0207
55.8637
55.8188
53.9071
64.2751
62.7611
83.7119
83.5134
64.8296
95.9668
96.3018
75.6958
75.5974
31.7558
31.9987
96.7446
96.2511
118.037
118.064
74.4894
75.24
75.0597
75.1439
100.202
100.223
70.174
68.4529
67.8445
70.3166
111.06
111.061
96.4182
94.311
95.761
95.7475
86.1722
86.0962
87.703
88.4307
87.0351
87.0825
46.4117
50.6815
49.4208
48.2902
117.755
117.764
90.038
90.0568
88.2918
86.9887
85.231
85.1976
107.153
107.142
90.4582
90.1964
51.9886
51.0898
51.3758
50.0796
102.258
102.217
78.4449
105.27
104.896
76.5771
68.1784
67.5412
66.6421
66.7869
67.014
64.3458
94.6852
94.7428
108.869
108.813
113.001
112.969
90.6395
111.682
111.397
95.5734
95.7471
84.4497
84.3336
61.0096
85.1133
85.1184
90.4361
63.8798
90.5227
95.4888
96.8561
104.012
104.04
78.5889
94.7437
94.6561
128.221
122.93
128.221
122.921
90.8879
91.0532
91.0962
117.992
117.972
90.8757
78.1643
82.4476
90.146
82.7734
118.384
118.297
82.186
85.1612
82.1441
36.5898
35.8057
37.9352
35.7572
82.4485
86.1312
95.4228
95.4824
23.2439
76.7258
34.0155
32.3869
93.6186
77.7207
81.0166
78.0181
65.0027
104.324
104.332
95.6849
95.8307
78.2445
87.0985
93.1563
95.248
94.962
88.9654
24.7122
55.7211
56.0405
53.696
64.3414
64.3493
83.6051
62.8476
83.5958
96.0436
96.12
75.6696
75.9125
31.9551
30.7226
96.8198
96.7599
118.074
118.06
75.1435
75.3099
75.1676
75.0376
100.373
100.123
70.2024
68.4936
68.7656
70.2316
111.196
110.991
96.3678
94.3262
95.717
95.7054
86.0397
86.0298
87.8622
88.1608
86.8964
87.1931
49.9482
50.7037
48.2723
47.8338
117.875
117.656
90.2275
89.92
88.2802
86.9296
85.2032
85.3242
107.114
107.14
90.3784
88.9154
51.9522
51.0282
50.6766
52.0909
102.431
102.239
78.6298
105.262
104.877
77.1896
68.3168
67.2022
66.7295
66.8542
67.0948
64.0828
94.7033
94.5742
108.842
108.732
113.133
112.966
90.8451
111.664
111.393
95.4894
95.7992
62.2953
84.302
84.3649
85.0739
85.0824
90.4038
90.4273
95.4784
96.8223
104.221
103.846
78.4273
94.6887
94.8078
128.256
122.997
128.198
122.904
61.6758
90.7411
91.2168
90.9961
117.971
117.972
91.083
78.6285
82.2435
90.0986
81.4256
118.387
118.296
81.5204
85.2635
81.9861
35.4263
37.6935
37.2191
37.1864
82.5873
86.1345
95.6206
95.5287
23.6314
77.271
76.7254
34.2177
32.8057
93.6042
81.185
104.478
104.286
95.9431
95.6048
64.9261
78.0027
78.3382
86.7012
93.2964
95.1973
94.7902
88.951
25.0323
55.8489
55.8913
53.9277
62.7652
64.2954
83.5147
64.7415
83.7258
96.2436
95.9668
75.8039
75.4791
31.7353
31.9864
97.155
96.2895
118.025
118.061
74.7984
77.6786
80.4203
76.0638
100.931
106.268
74.1501
70.7664
68.5003
70.7204
111.561
115.262
95.2589
96.6041
96.1154
101.044
93.864
86.6403
89.413
91.8024
90.0671
87.3362
46.6285
52.267
50.6794
50.5215
118.015
121.999
90.7315
98.7189
88.619
87.592
86.4128
90.114
110.479
107.385
90.7029
90.8034
54.3566
51.3815
52.9795
50.6311
103.204
105.709
78.8292
105.789
105.41
77.0369
71.9281
68.1501
69.9321
67.0966
69.5034
65.8386
95.1671
103.841
109.118
114.687
113.535
115.637
93.0195
111.717
111.704
99.1607
95.8641
88.6544
84.8121
61.9875
90.9243
85.5675
64.2898
91.0862
101.68
95.9471
96.9792
104.495
111.963
80.3066
95.7706
99.1814
128.319
123.179
129.315
124.574
93.1493
91.1479
91.9331
97.7404
118.128
119.952
81.595
84.8611
90.5348
118.752
118.45
82.4753
84.5537
87.598
82.8363
89.2154
37.1861
37.4408
38.761
37.149
86.3999
96.9272
98.5792
23.3477
35.6691
33.326
93.893
96.6508
78.0548
81.3047
81.5458
83.7733
78.5603
66.4955
105.081
108.586
96.3253
107.055
88.2181
95.8574
95.4551
89.2316
25.71
59.0489
56.4401
55.8997
68.2803
65.2021
84.4877
90.0216
63.1579
96.7564
104.278
80.1904
77.1547
31.1965
31.036
98.0994
97.0241
120.977
118.226
118.174
124.853
118.132
124.859
128.197
128.194
121.53
125.304
117.786
121.57
129.808
129.805
117.903
118.157
122.943
122.39
117.933
124.251
127.041
127.083
117.808
124.276
119.76
123.415
119.693
123.476
130.697
130.695
126.233
126.231
115.497
115.829
126.476
126.477
123.282
125.987
116.392
116.523
121.003
121.084
124.13
118.956
128.746
128.742
117.402
120.025
119.949
117.536
123.299
123.231
124.92
119.463
119.421
124.749
124.763
117.642
126.436
123.199
130.187
130.185
127.413
122.101
121.853
119.586
124.459
120.853
122.522
118.496
120.442
122.854
114.49
118.469
125.498
115.672
115.978
128.57
128.566
126.038
127.706
127.709
132.294
131.559
132.294
131.558
114.415
126.861
126.859
126.506
128.848
125.58
126.048
126.513
113.528
117.38
125.461
125.495
117.503
117.525
124.801
121.995
122.161
119.61
123.415
124.828
117.5
127.942
127.942
120.478
119.735
120.684
123.176
115.262
119.572
116.326
123.365
118.644
128.931
128.93
127.002
126.998
123.314
116.969
124.99
117.577
117.606
116.989
122.614
122.315
122.315
124.242
124.034
123.98
125.766
118.966
125.768
127.358
127.358
125.397
125.435
120.995
119.815
115.234
115.224
128.105
127.77
76.0541
75.6642
75.9685
80.5278
106.321
100.927
70.7404
70.7398
68.5121
74.0958
115.297
111.557
94.5501
97.2189
101.026
96.1247
86.5636
93.8947
91.1593
90.1153
89.9942
87.6507
47.4989
51.2444
48.9894
52.3153
122.026
118.017
98.7933
90.759
88.8091
87.3404
90.191
86.3714
110.465
107.439
92.1019
90.5087
52.4944
53.2605
53.4931
50.7641
105.765
103.175
79.3423
105.064
106.108
77.0108
68.9488
71.9817
68.0189
68.9449
67.4938
67.6631
103.857
95.0829
109.106
114.689
115.668
113.526
93.0615
111.996
111.412
99.1195
96.1777
88.5915
84.8441
61.55
85.5524
90.9141
90.7708
64.9331
101.746
95.6483
97.2788
112.016
104.5
82.1512
99.1659
95.8291
129.323
124.59
128.318
123.176
93.0722
97.8082
91.9172
119.946
118.153
91.486
79.8467
85.0187
90.4691
83.1571
118.373
118.819
84.3069
85.5032
89.2788
35.8597
38.8397
38.4255
36.742
83.18
87.375
98.6069
96.9723
23.7708
77.1925
34.7661
34.0446
96.5053
80.7955
81.5356
83.7945
65.4969
108.62
105.084
107.141
96.2832
78.8792
87.419
93.641
96.4278
95.2186
89.7204
25.0203
56.4635
59.0645
55.1792
65.0962
68.3643
90.1184
64.311
84.4692
104.346
96.7273
76.7961
80.5543
32.1098
31.2491
97.0142
98.2233
118.233
120.975
74.829
75.7153
78.043
78.1455
104.446
104.44
71.425
72.9133
68.1129
71.4172
114.709
114.707
94.4853
96.5249
96.643
96.5666
86.7525
87.9459
94.9184
95.4712
87.5355
88.9302
46.6943
51.3424
50.0909
51.6828
119.796
119.796
93.1766
93.1464
88.39
87.1311
89.9465
89.8975
107.54
107.873
90.6981
90.5277
52.9327
51.8349
54.1424
50.3694
109.652
109.638
78.6578
105.049
105.376
76.8767
70.2035
69.3615
70.2615
67.3334
67.724
67.8083
96.1486
95.1458
109.178
109.544
118.071
118.055
101.177
111.669
111.372
96.0817
97.0094
85.3143
85.6386
61.3884
85.9844
86.4309
90.7856
64.1735
92.8772
95.5226
96.8571
107.257
107.257
83.7344
100.561
100.497
129.034
125.128
129.033
125.122
91.1458
94.9899
95.0132
118.405
118.16
93.3412
83.8075
88.9811
90.2215
83.2544
118.365
118.435
82.5778
85.4759
84.6488
36.3675
38.0251
37.4116
38.3276
85.002
86.353
105.327
105.467
23.3917
77.5579
34.9428
33.9867
93.9449
78.4094
81.1938
79.7258
65.4968
109.523
109.529
98.8307
98.798
80.0359
87.2946
94.9269
95.2028
95.414
89.0938
25.4811
57.3
57.2762
56.5717
66.7173
66.8964
87.0023
63.2123
86.9788
99.5849
99.6121
79.4708
79.7972
31.4202
30.9296
97.0216
96.9769
118.364
118.403
75.129
75.2577
75.065
75.1739
100.127
100.385
70.1916
68.4919
68.7489
70.2666
111.003
111.193
96.3428
94.3114
95.7232
95.724
86.0188
86.1684
87.7819
88.2464
86.9443
86.8621
49.9477
50.6897
48.2449
47.8798
117.66
117.879
89.9207
90.2131
88.2598
86.9136
85.3572
85.1908
107.035
107.129
90.355
88.8858
51.9174
51.0629
50.6918
52.0794
102.277
102.397
78.6035
105.214
104.869
77.1746
67.4086
67.2039
66.6631
67.0056
67.1771
64.1421
94.8
94.6761
108.839
108.848
113
113.102
90.8427
111.645
111.387
95.5193
95.4331
62.2742
84.3097
84.3696
85.0446
85.1439
90.71
90.4076
95.4653
96.8009
103.849
104.239
78.5003
94.8546
94.6533
128.202
122.917
128.255
122.988
61.666
90.8259
90.6834
90.9941
91.2393
117.981
117.891
78.5611
82.2415
90.0815
118.355
118.297
81.741
81.4978
85.2456
82.1598
82.0457
35.4021
37.7023
37.2102
37.1768
86.1507
95.5101
95.6396
23.6466
77.3616
34.2117
32.8029
93.5371
93.5559
77.6248
81.167
77.9169
104.297
104.476
96.0713
95.6008
64.8942
77.9997
86.6857
95.1854
94.7693
88.9326
25.0207
55.8637
55.8188
53.9071
64.2751
62.7611
83.7119
83.5134
64.8296
95.9668
96.3018
75.6958
75.5974
31.7558
31.9987
96.7446
96.2511
118.037
118.064
74.4894
75.24
75.0597
75.1439
100.202
100.223
70.174
68.4529
67.8445
70.3166
111.06
111.061
96.4182
94.311
95.761
95.7475
86.1722
86.0962
87.703
88.4307
87.0351
87.0825
46.4117
50.6815
49.4208
48.2902
117.755
117.764
90.038
90.0568
88.2918
86.9887
85.231
85.1976
107.153
107.142
90.4582
90.1964
51.9886
51.0898
51.3758
50.0796
102.258
102.217
78.4449
105.27
104.896
76.5771
68.1784
67.5412
66.6421
66.7869
67.014
64.3458
94.6852
94.7428
108.869
108.813
113.001
112.969
90.6395
111.682
111.397
95.5734
95.7471
84.4497
84.3336
61.0096
85.1133
85.1184
90.4361
63.8798
90.5227
95.4888
96.8561
104.012
104.04
78.5889
94.7437
94.6561
128.221
122.93
128.221
122.921
90.8879
91.0532
91.0962
117.992
117.972
90.8757
78.1643
82.4476
90.146
82.7734
118.384
118.297
82.186
85.1612
82.1441
36.5898
35.8057
37.9352
35.7572
82.4485
86.1312
95.4228
95.4824
23.2439
76.7258
34.0155
32.3869
93.6186
77.7207
81.0166
78.0181
65.0027
104.324
104.332
95.6849
95.8307
78.2445
87.0985
93.1563
95.248
94.962
88.9654
24.7122
55.7211
56.0405
53.696
64.3414
64.3493
83.6051
62.8476
83.5958
96.0436
96.12
75.6696
75.9125
31.9551
30.7226
96.8198
96.7599
118.074
118.06
75.1435
75.3099
75.1676
75.0376
100.373
100.123
70.2024
68.4936
68.7656
70.2316
111.196
110.991
96.3678
94.3262
95.717
95.7054
86.0397
86.0298
87.8622
88.1608
86.8964
87.1931
49.9482
50.7037
48.2723
47.8338
117.875
117.656
90.2275
89.92
88.2802
86.9296
85.2032
85.3242
107.114
107.14
90.3784
88.9154
51.9522
51.0282
50.6766
52.0909
102.431
102.239
78.6298
105.262
104.877
77.1896
68.3168
67.2022
66.7295
66.8542
67.0948
64.0828
94.7033
94.5742
108.842
108.732
113.133
112.966
90.8451
111.664
111.393
95.4894
95.7992
62.2953
84.302
84.3649
85.0739
85.0824
90.4038
90.4273
95.4784
96.8223
104.221
103.846
78.4273
94.6887
94.8078
128.256
122.997
128.198
122.904
61.6758
90.7411
91.2168
90.9961
117.971
117.972
91.083
78.6285
82.2435
90.0986
81.4256
118.387
118.296
81.5204
85.2635
81.9861
35.4263
37.6935
37.2191
37.1864
82.5873
86.1345
95.6206
95.5287
23.6314
77.271
76.7254
34.2177
32.8057
93.6042
81.185
104.478
104.286
95.9431
95.6048
64.9261
78.0027
78.3382
86.7012
93.2964
95.1973
94.7902
88.951
25.0323
55.8489
55.8913
53.9277
62.7652
64.2954
83.5147
64.7415
83.7258
96.2436
95.9668
75.8039
75.4791
31.7353
31.9864
97.155
96.2895
118.025
118.061
74.7984
77.6786
80.4203
76.0638
100.931
106.268
74.1501
70.7664
68.5003
70.7204
111.561
115.262
95.2589
96.6041
96.1154
101.044
93.864
86.6403
89.413
91.8024
90.0671
87.3362
46.6285
52.267
50.6794
50.5215
118.015
121.999
90.7315
98.7189
88.619
87.592
86.4128
90.114
110.479
107.385
90.7029
90.8034
54.3566
51.3815
52.9795
50.6311
103.204
105.709
78.8292
105.789
105.41
77.0369
71.9281
68.1501
69.9321
67.0966
69.5034
65.8386
95.1671
103.841
109.118
114.687
113.535
115.637
93.0195
111.717
111.704
99.1607
95.8641
88.6544
84.8121
61.9875
90.9243
85.5675
64.2898
91.0862
101.68
95.9471
96.9792
104.495
111.963
80.3066
95.7706
99.1814
128.319
123.179
129.315
124.574
93.1493
91.1479
91.9331
97.7404
118.128
119.952
81.595
84.8611
90.5348
118.752
118.45
82.4753
84.5537
87.598
82.8363
89.2154
37.1861
37.4408
38.761
37.149
86.3999
96.9272
98.5792
23.3477
35.6691
33.326
93.893
96.6508
78.0548
81.3047
81.5458
83.7733
78.5603
66.4955
105.081
108.586
96.3253
107.055
88.2181
95.8574
95.4551
89.2316
25.71
59.0489
56.4401
55.8997
68.2803
65.2021
84.4877
90.0216
63.1579
96.7564
104.278
80.1904
77.1547
31.1965
31.036
98.0994
97.0241
120.977
118.226
118.174
124.853
118.132
124.859
128.197
128.194
121.53
125.304
117.786
121.57
129.808
129.805
117.903
118.157
122.943
122.39
117.933
124.251
127.041
127.083
117.808
124.276
119.76
123.415
119.693
123.476
130.697
130.695
126.233
126.231
115.497
115.829
126.476
126.477
123.282
125.987
116.392
116.523
121.003
121.084
124.13
118.956
128.746
128.742
117.402
120.025
119.949
117.536
123.299
123.231
124.92
119.463
119.421
124.749
124.763
117.642
126.436
123.199
130.187
130.185
127.413
122.101
121.853
119.586
124.459
120.853
122.522
118.496
120.442
122.854
114.49
118.469
125.498
115.672
115.978
128.57
128.566
126.038
127.706
127.709
132.294
131.559
132.294
131.558
114.415
126.861
126.859
126.506
128.848
125.58
126.048
126.513
113.528
117.38
125.461
125.495
117.503
117.525
124.801
121.995
122.161
119.61
123.415
124.828
117.5
127.942
127.942
120.478
119.735
120.684
123.176
115.262
119.572
116.326
123.365
118.644
128.931
128.93
127.002
126.998
123.314
116.969
124.99
117.577
117.606
116.989
122.614
122.315
122.315
124.242
124.034
123.98
125.766
118.966
125.768
127.358
127.358
125.397
125.435
120.995
119.815
115.234
115.224
128.105
127.77
76.0541
75.6642
75.9685
80.5278
106.321
100.927
70.7404
70.7398
68.5121
74.0958
115.297
111.557
94.5501
97.2189
101.026
96.1247
86.5636
93.8947
91.1593
90.1153
89.9942
87.6507
47.4989
51.2444
48.9894
52.3153
122.026
118.017
98.7933
90.759
88.8091
87.3404
90.191
86.3714
110.465
107.439
92.1019
90.5087
52.4944
53.2605
53.4931
50.7641
105.765
103.175
79.3423
105.064
106.108
77.0108
68.9488
71.9817
68.0189
68.9449
67.4938
67.6631
103.857
95.0829
109.106
114.689
115.668
113.526
93.0615
111.996
111.412
99.1195
96.1777
88.5915
84.8441
61.55
85.5524
90.9141
90.7708
64.9331
101.746
95.6483
97.2788
112.016
104.5
82.1512
99.1659
95.8291
129.323
124.59
128.318
123.176
93.0722
97.8082
91.9172
119.946
118.153
91.486
79.8467
85.0187
90.4691
83.1571
118.373
118.819
84.3069
85.5032
89.2788
35.8597
38.8397
38.4255
36.742
83.18
87.375
98.6069
96.9723
23.7708
77.1925
34.7661
34.0446
96.5053
80.7955
81.5356
83.7945
65.4969
108.62
105.084
107.141
96.2832
78.8792
87.419
93.641
96.4278
95.2186
89.7204
25.0203
56.4635
59.0645
55.1792
65.0962
68.3643
90.1184
64.311
84.4692
104.346
96.7273
76.7961
80.5543
32.1098
31.2491
97.0142
98.2233
118.233
120.975
VECTORS nodal_fluid_flux_TPM float
-0.000743824 1.76825e-05 -2.20657e-19
0.000612155 -0.000253606 -8.42363e-20
0.000351539 0.000584418 -1.85148e-19
0.00133722 0.000176025 2.20182e-19
-0.000191415 -0.000331449 -1.39148e-19
-0.000190227 0.000329391 -1.54303e-19
0.00133761 -0.000176076 -2.49497e-20
0.000351532 -0.000584134 1.82421e-19
-0.000742845 -1.99731e-05 5.75111e-20
0.000612599 0.000253797 -5.47842e-20
-0.000364594 -0.000683281 -3.47785e-20
0.000507569 0.000511491 4.18803e-20
0.000507393 -0.000510102 2.45081e-20
-0.000481329 0.000833819 -2.85143e-19
-0.00108833 0.00088661 -3.99478e-21
0.00159981 -0.000210544 -2.68374e-19
-0.00036651 0.000634839 -1.06527e-20
-0.000370734 -0.000641859 1.22821e-19
0.00161794 0.000212946 3.17798e-19
0.000627643 0.000259897 7.6438e-20
-0.000480419 -0.00083221 -8.26036e-19
0.000364207 -0.000682888 5.95456e-19
-0.000771043 -1.06479e-05 1.79346e-19
-0.000372708 -0.000645397 6.15045e-19
-0.000371056 0.00064274 -2.43807e-20
-0.000366618 -0.000682735 -1.88478e-19
0.000619531 0.00025664 3.02388e-19
-0.00160091 0.000187799 3.33069e-19
0.00161124 0.000211961 -3.09134e-20
0.000480189 -0.000831713 -2.09274e-19
-0.00076979 -1.25393e-05 -4.76824e-20
-0.000370916 -0.000642343 -8.21126e-20
-0.000372035 0.000644278 2.34954e-19
-0.000769505 1.06986e-05 1.38766e-19
0.00036353 0.000682484 7.44526e-19
-0.000768842 -1.20487e-05 -8.56318e-21
0.000481712 -0.000834442 -8.31915e-20
0.00161138 -0.000211972 2.92338e-19
-0.00108071 0.000881051 -1.37799e-19
-0.000372299 -0.000644889 -7.32012e-20
-0.000371013 0.000642465 -6.88104e-21
-0.000769422 1.35657e-05 8.3561e-19
0.000364683 0.000683232 -8.27777e-19
-0.000480505 0.00083236 -2.71636e-19
0.000627655 -0.000259902 3.00867e-19
0.00161908 -0.000213095 1.34136e-19
-0.000371506 0.000643193 -2.31658e-19
-0.000365622 -0.000633294 3.534e-19
0.0015994 0.000210498 -3.29623e-19
-0.0016012 0.000187575 -1.26885e-19
-0.0007658 1.12584e-05 2.17361e-19
0.000361178 0.000676034 -8.17507e-19
-0.000475274 0.000823145 -1.0939e-18
0.000614474 -0.000254362 4.07233e-19
0.00157846 -0.00020744 5.49804e-19
0.000495756 0.000494613 -2.29314e-19
0.000409845 -0.000471168 -2.4621e-19
0.00124246 0.00016398 -9.17308e-22
0.000291354 0.000260553 5.18365e-20
-0.000424577 -7.00092e-05 2.09231e-20
-0.0010959 0.000884251 4.10941e-19
-0.000157497 0.000272696 -1.7272e-19
9.78795e-05 -4.05396e-05 4.68584e-20
0.000238098 -3.1336e-05 -2.13988e-20
7.37649e-05 6.96203e-05 1.51321e-19
7.37145e-05 -6.95794e-05 1.22217e-19
0.000237926 3.13133e-05 1.85879e-19
9.77901e-05 4.05026e-05 1.56648e-19
-6.44765e-05 -0.000198176 -1.19745e-19
0.000355291 -0.000147319 9.91365e-20
-0.00038676 0.000670077 -5.12333e-20
3.21597e-05 1.15559e-05 5.34845e-20
0.00123974 -0.000163634 9.60426e-19
0.00040902 0.000470409 -3.19063e-19
0.000495857 -0.000494963 4.74759e-19
0.00157859 0.000207457 2.90469e-19
0.00061418 0.00025424 2.37866e-21
-0.000360688 -0.000674873 -4.09288e-20
0.000474873 -0.000822838 -7.08669e-19
-0.000765407 -1.34933e-05 -2.45352e-19
-0.00109598 0.000902796 -1.77546e-21
-0.000743824 1.76825e-05 -9.46341e-20
0.000612155 -0.000253606 -7.58348e-20
0.000351539 0.000584418 -2.27156e-19
0.00133722 0.000176025 1.19363e-19
-0.000191415 -0.000331449 3.72846e-20
-0.000190227 0.000329391 1.39751e-19
0.00133761 -0.000176076 -1.59375e-19
0.000351532 -0.000584134 2.8324e-19
-0.000742845 -1.99731e-05 -7.69137e-20
0.000612599 0.000253797 2.08298e-20
-0.000364594 -0.000683281 -7.67862e-20
0.000507569 0.000511491 5.02818e-20
0.000507393 -0.000510102 -1.60326e-19
-0.000481329 0.000833819 -8.35056e-20
-0.00108833 0.00088661 1.49087e-20
0.00159981 -0.000210544 2.44121e-19
-0.00036651 0.000634839 3.97566e-20
-0.000370734 -0.000641859 -4.52104e-20
0.00161794 0.000212946 9.93573e-20
0.000627643 0.000259897 -3.27822e-20
-0.000480419 -0.00083221 -7.50422e-19
0.000364207 -0.000682888 4.86236e-19
-0.000771043 -1.06479e-05 2.71763e-19
-0.000372708 -0.000645397 1.00992e-18
-0.000371056 0.00064274 6.80364e-20
-0.000366618 -0.000682735 -5.40535e-20
0.000619531 0.00025664 3.86403e-19
-0.00160091 0.000187799 3.12066e-19
0.00161124 0.000211961 3.21952e-19
0.000480189 -0.000831713 -3.43699e-19
-0.00076979 -1.25393e-05 -5.67463e-21
-0.000370916 -0.000642343 -1.49002e-20
-0.000372035 0.000644278 2.93765e-19
-0.000769505 1.06986e-05 2.39584e-19
0.00036353 0.000682484 6.18503e-19
-0.000768842 -1.20487e-05 4.45121e-19
0.000481712 -0.000834442 1.26847e-19
0.00161138 -0.000211972 3.09141e-19
-0.00108071 0.000881051 -1.399e-19
-0.000372299 -0.000644889 -3.9246e-19
-0.000371013 0.000642465 1.86355e-19
-0.000769422 1.35657e-05 8.52413e-19
0.000364683 0.000683232 -1.08823e-18
-0.000480505 0.00083236 -2.71636e-19
0.000627655 -0.000259902 2.0845e-19
0.00161908 -0.000213095 3.94584e-19
-0.000371506 0.000643193 -1.22438e-19
-0.000365622 -0.000633294 2.18975e-19
0.0015994 0.000210498 -1.69993e-19
-0.0016012 0.000187575 -1.28986e-19
-0.0007658 1.12584e-05 -7.66929e-20
0.000361178 0.000676034 -8.51113e-19
-0.000475274 0.000823145 -8.75459e-19
0.000614474 -0.000254362 2.47603e-19
0.00157846 -0.00020744 2.89356e-19
0.000495756 0.000494613 9.83467e-20
0.000409845 -0.000471168 -1.3699e-19
0.00124246 0.00016398 -2.94972e-19
0.000291354 0.000260553 -1.24596e-19
-0.000424577 -7.00092e-05 1.97356e-19
-0.0010959 0.000884251 4.40346e-19
-0.000157497 0.000272696 -2.73539e-19
9.78795e-05 -4.05396e-05 -3.71571e-20
0.000238098 -3.1336e-05 -1.72627e-19
7.37649e-05 6.96203e-05 1.00912e-19
7.37145e-05 -6.95794e-05 7.18081e-20
0.000237926 3.13133e-05 1.78479e-20
9.77901e-05 4.05026e-05 8.10337e-20
-6.44765e-05 -0.000198176 5.66871e-20
0.000355291 -0.000147319 1.57947e-19
-0.00038676 0.000670077 7.57756e-21
3.21597e-05 1.15559e-05 -3.89326e-20
0.00123974 -0.000163634 9.60426e-19
0.00040902 0.000470409 -4.6189e-19
0.000495857 -0.000494963 5.92381e-19
0.00157859 0.000207457 6.36273e-20
0.00061418 0.00025424 -1.23645e-19
-0.000360688 -0.000674873 -9.97397e-20
0.000474873 -0.000822838 -6.83464e-19
-0.000765407 -1.34933e-05 -4.38588e-19
-0.00109598 0.000902796 6.6261e-21
-0.00014206 -0.000898008 -1.58075e-19
0.000351539 0.000584418 1.53445e-19
5.00129e-05 7.04421e-05 -6.66263e-20
-0.000203944 2.37049e-06 6.53732e-20
-0.000743824 1.76825e-05 -2.96729e-20
0.000654805 -0.000184188 7.35836e-20
0.000293264 -0.00070807 1.56868e-19
0.000117188 0.00021459 1.04718e-19
0.000110051 2.09087e-06 1.44219e-19
0.000110051 2.09087e-06 -9.64096e-20
0.000127217 -0.000202817 -6.98119e-20
0.000293468 0.000708564 -1.76398e-19
0.000654778 0.000184356 -6.33132e-20
-0.000742845 -1.99731e-05 -6.9652e-22
-0.000201282 -6.71603e-06 1.07729e-19
5.53824e-05 -7.33978e-05 9.77901e-20
0.000351532 -0.000584134 1.24214e-19
0.00015923 0.000898 9.97397e-20
-0.000364594 -0.000683281 -1.63274e-20
-2.39403e-05 -6.73302e-05 1.33996e-19
0.000215591 7.99743e-06 1.07823e-19
0.00053948 0.000149245 1.55034e-20
-0.000771013 -5.7066e-09 -3.52449e-19
0.000343497 -0.000661775 -3.36724e-19
9.85945e-05 -0.000187342 4.62723e-20
9.78345e-05 0.00018068 4.66672e-20
0.000342338 0.0006644 -1.50625e-19
-0.000771223 3.01107e-09 -3.91254e-19
0.000538982 -0.00014898 -7.68795e-20
0.000212428 -2.30248e-06 5.66234e-20
5.16949e-05 8.91167e-05 1.39021e-20
-0.000258117 0.000209713 1.40923e-19
0.000881748 -0.00107237 1.83088e-20
0.00112149 -0.000863349 -1.88716e-20
-0.000886688 0.00109745 -2.54425e-21
0.00074324 0.00024162 4.11838e-20
0.000373158 0.000900523 1.55824e-19
-4.35055e-05 0.000397535 4.08864e-19
-9.9351e-05 6.07848e-06 -7.29508e-20
-9.9351e-05 6.07848e-06 -7.54228e-20
-3.08668e-05 -0.000378886 2.84952e-19
0.000375774 -0.000906829 5.22781e-20
0.000754483 -0.000242761 -1.47898e-19
0.000544712 0.000163359 -5.78653e-19
0.000205378 7.99081e-06 1.24375e-19
4.24095e-05 -9.03886e-05 -2.72692e-21
-0.000260098 -0.000211536 -2.81685e-19
0.000152634 -0.000917422 1.00491e-18
0.000364207 -0.000682888 -2.14507e-19
3.46316e-05 -6.24175e-05 -1.89175e-19
-0.00021552 3.86132e-06 -2.81227e-19
-0.000771043 -1.06479e-05 -5.16291e-19
-0.000775183 -3.97141e-08 5.97801e-19
-5.36082e-05 -0.000397402 1.46708e-19
-0.000103325 -7.47576e-06 5.50687e-20
-0.000103325 -7.47576e-06 1.69012e-19
-4.09754e-05 0.000378864 -2.53121e-19
-0.000774802 1.00532e-07 -1.32615e-19
0.000542658 0.000154574 -1.87782e-19
0.000214203 1.11811e-05 -1.79062e-19
-2.66935e-05 -6.66053e-05 -2.2414e-20
-0.000366618 -0.000682735 1.89871e-19
0.000156838 0.000919699 1.08141e-19
0.000842925 -0.00105009 -4.07367e-19
0.00108022 0.000875022 2.08015e-19
0.00087419 0.00107541 -1.17628e-19
0.000375235 -0.000905689 2.82416e-19
0.000749502 -0.000242886 4.68864e-19
-0.000153745 -0.000916982 -4.71812e-19
0.000259079 -0.000211312 -7.10096e-19
-4.72886e-05 -9.27363e-05 -1.83407e-20
-0.000216271 2.24829e-06 7.69774e-20
-0.00076979 -1.25393e-05 2.38412e-19
-0.000774802 -6.2698e-08 -8.21092e-19
-4.10315e-05 -0.000378508 3.2707e-19
-0.000102897 7.61075e-06 2.56973e-19
-0.000102897 7.61075e-06 2.92448e-19
-5.35056e-05 0.000396935 4.92276e-19
-0.000773656 6.35182e-08 -8.59642e-19
-0.000769505 1.06986e-05 9.6718e-19
-0.000215189 -4.1829e-06 1.15871e-20
3.46771e-05 6.23892e-05 -7.45009e-21
0.00036353 0.000682484 2.04296e-19
0.000151746 0.000917598 -8.53152e-20
0.00026567 -0.000206348 2.71076e-20
-5.34837e-05 -8.89332e-05 1.39067e-19
-0.000216353 2.93774e-07 1.24919e-20
-0.000768842 -1.20487e-05 -3.40478e-20
0.000748992 0.000243212 9.60613e-20
0.000375595 0.000906534 -8.43571e-21
-0.000139243 -0.0015717 -1.26148e-19
0.00106326 0.000842891 9.25741e-21
-0.000880784 0.00109421 -3.27601e-19
-0.000151187 -0.000919638 -1.14547e-19
-0.000773504 -9.85378e-08 -8.44571e-20
-5.35885e-05 -0.000397382 -1.23517e-19
-0.000103308 -7.56276e-06 -1.38609e-19
-0.000103308 -7.56276e-06 -9.638e-20
-4.09693e-05 0.00037868 -2.14664e-19
-0.000774854 4.01221e-08 5.73233e-19
-0.000769422 1.35657e-05 -6.09004e-20
-0.000218557 -2.49902e-06 -1.27637e-19
4.04216e-05 6.58563e-05 2.64012e-19
0.000364683 0.000683232 -3.78477e-19
0.000153053 0.00091764 -1.21393e-19
-0.000259651 0.000211177 2.61238e-19
4.21567e-05 9.03468e-05 2.68369e-19
0.000205162 -7.76853e-06 3.05828e-19
0.00054464 -0.000163276 1.02594e-19
0.000754635 0.000243131 1.63274e-20
0.000376246 0.000907969 -8.31965e-19
-2.78904e-05 -0.000379856 4.45945e-19
-9.86407e-05 2.50697e-06 9.54285e-20
-9.86407e-05 2.50697e-06 -2.13692e-20
-4.64963e-05 0.000397001 1.92029e-19
0.000372782 -0.000899635 3.82852e-19
0.000743545 -0.000241296 -6.22343e-20
0.000843386 -0.00105161 -3.01714e-19
0.00107993 0.000874473 2.44394e-19
0.000873565 0.00107476 2.01389e-19
-0.00075085 -4.13542e-08 -1.36005e-20
-0.000770229 -8.90014e-08 -1.71803e-19
-0.0007658 1.12584e-05 -1.32649e-19
-0.00021357 -3.90505e-06 2.00193e-19
3.51096e-05 6.24026e-05 -3.14825e-20
0.000361178 0.000676034 -1.34611e-19
0.000151838 0.000907607 -3.49119e-19
-0.000255918 0.00020864 1.84103e-19
4.39966e-05 8.81194e-05 3.8631e-20
0.000203472 -9.51621e-06 1.00666e-20
0.000533117 -0.000161104 3.90259e-20
0.000737137 0.000236403 3.82852e-19
0.000365895 0.000883322 -3.24738e-19
0.000333315 0.000644943 -1.10265e-19
9.45092e-05 0.000161104 -2.74792e-19
8.74934e-05 -0.000189772 -9.31136e-20
0.000272753 -0.000598134 2.48207e-19
0.000314182 -0.000757846 1.25557e-20
0.000533126 -0.000210749 -3.21221e-19
-0.000424577 -7.00092e-05 1.90602e-19
-4.06724e-05 -0.000130785 -2.34292e-20
0.000116773 -0.000112842 3.44302e-20
0.000291354 0.000260553 -1.3135e-19
0.000182437 -0.00074654 1.75574e-19
0.000888543 -0.0011034 7.081e-20
0.00110633 -0.000875654 1.30848e-19
-0.000886019 0.00108582 -3.71248e-19
-0.000397258 2.04002e-08 -1.72627e-19
0.000147535 0.00031382 -2.94521e-20
-2.59621e-05 2.92953e-05 4.29592e-20
2.26336e-05 6.33695e-07 -1.22693e-19
4.05292e-05 -1.16097e-05 -8.10337e-20
8.35801e-05 -2.93471e-05 -1.79601e-19
0.000113859 3.42339e-05 4.1532e-20
5.37057e-05 0.000129661 -2.4599e-19
4.98117e-05 9.17857e-05 3.18494e-19
1.1833e-05 2.16322e-05 3.52449e-19
1.18698e-05 -2.17439e-05 5.531e-19
4.97446e-05 -9.17602e-05 1.32012e-19
5.36703e-05 -0.000129575 1.90543e-20
0.00011377 -3.42125e-05 -1.21869e-19
8.35185e-05 2.92993e-05 2.43704e-19
4.05874e-05 1.18284e-05 4.32217e-19
1.76412e-05 2.52949e-06 3.53052e-19
-6.44765e-05 -0.000198176 2.69257e-19
1.51887e-05 -0.000311996 -8.43638e-20
-9.18174e-05 0.000258689 5.38328e-20
0.000124259 0.000197719 -4.35624e-20
0.000213174 0.00014409 1.95325e-19
0.000408561 5.10837e-05 4.43523e-20
-0.000397296 -1.99042e-08 -1.8813e-19
4.56636e-05 6.00476e-07 3.83455e-19
3.25702e-05 1.11888e-05 5.11991e-20
4.57628e-05 2.62715e-07 1.76874e-19
0.000182664 0.000746703 1.09077e-20
0.000531792 0.00021037 2.63769e-20
0.000313585 0.000756403 -5.87785e-19
0.000271998 0.000597309 -3.52542e-20
8.80691e-05 0.000190353 -1.94501e-19
9.36496e-05 -0.000160415 -3.43699e-19
0.000333641 -0.000645085 -4.85633e-19
0.000366015 -0.000883614 9.52152e-19
0.000737034 -0.000236509 2.8454e-19
0.000533018 0.000160731 -7.47729e-19
0.000203939 1.09061e-05 -2.23779e-19
-2.57671e-05 -6.21956e-05 -2.17582e-19
-0.000360688 -0.000674873 -5.25041e-19
-0.000150902 -0.000906991 -7.76102e-20
0.000257289 -0.000209687 -1.0177e-20
-4.63668e-05 -9.23301e-05 2.15679e-19
-0.000214112 1.88897e-06 7.59622e-20
-0.000765407 -1.34933e-05 -3.91636e-19
-0.000770863 9.01362e-08 -8.09062e-20
-0.000750709 3.81754e-08 1.27323e-19
0.000864911 -0.0010593 -4.00622e-19
0.00110225 -0.000847402 -1.42563e-19
-0.000901063 0.00112636 7.85298e-20
-0.00014206 -0.000898008 -6.84688e-21
0.000351539 0.000584418 1.61847e-19
5.00129e-05 7.04421e-05 1.22409e-19
-0.000203944 2.37049e-06 -1.44415e-20
-0.000743824 1.76825e-05 -2.56515e-19
0.000654805 -0.000184188 1.15591e-19
0.000293264 -0.00070807 2.40884e-19
0.000117188 0.00021459 -4.65101e-20
0.000110051 2.09087e-06 1.27416e-19
0.000110051 2.09087e-06 -2.14031e-19
0.000127217 -0.000202817 3.10068e-20
0.000293468 0.000708564 -1.67997e-19
0.000654778 0.000184356 1.21521e-19
-0.000742845 -1.99731e-05 -1.35121e-19
-0.000201282 -6.71603e-06 1.11114e-20
5.53824e-05 -7.33978e-05 1.37746e-20
0.000351532 -0.000584134 2.25032e-19
0.00015923 0.000898 4.09288e-20
-0.000364594 -0.000683281 -7.92582e-21
-2.39403e-05 -6.73302e-05 1.6374e-20
0.000215591 7.99743e-06 2.63251e-19
0.00053948 0.000149245 -3.49059e-20
-0.000771013 -5.7066e-09 -2.68433e-19
0.000343497 -0.000661775 -1.43489e-19
9.85945e-05 -0.000187342 -9.23533e-20
9.78345e-05 0.00018068 1.01277e-19
0.000342338 0.0006644 3.42094e-20
-0.000771223 3.01107e-09 -3.07238e-19
0.000538982 -0.00014898 -2.86918e-19
0.000212428 -2.30248e-06 -7.36006e-20
5.16949e-05 8.91167e-05 5.5005e-21
-0.000258117 0.000209713 -4.39107e-20
0.000881748 -0.00107237 1.20077e-20
0.00112149 -0.000863349 -4.16891e-21
-0.000886688 0.00109745 3.75691e-21
0.00074324 0.00024162 -8.48395e-20
0.000373158 0.000900523 3.82019e-20
-4.35055e-05 0.000397535 5.05482e-19
-9.9351e-05 6.07848e-06 6.56748e-20
-9.9351e-05 6.07848e-06 -6.28204e-20
-3.08668e-05 -0.000378886 2.2194e-19
0.000375774 -0.000906829 1.95104e-19
0.000754483 -0.000242761 -2.18745e-20
0.000544712 0.000163359 -5.03039e-19
0.000205378 7.99081e-06 -2.11687e-19
4.24095e-05 -9.03886e-05 5.60839e-20
-0.000260098 -0.000211536 -3.48898e-19
0.000152634 -0.000917422 1.04691e-18
0.000364207 -0.000682888 -7.16806e-20
3.46316e-05 -6.24175e-05 -1.89175e-19
-0.00021552 3.86132e-06 -2.01412e-19
-0.000771043 -1.06479e-05 -5.75102e-19
-0.000775183 -3.97141e-08 7.07021e-19
-5.36082e-05 -0.000397402 8.36968e-20
-0.000103325 -7.47576e-06 9.28757e-20
-0.000103325 -7.47576e-06 8.07958e-20
-4.09754e-05 0.000378864 -2.4892e-19
-0.000774802 1.00532e-07 -2.16631e-19
0.000542658 0.000154574 8.10678e-20
0.000214203 1.11811e-05 -1.58058e-19
-2.66935e-05 -6.66053e-05 -7.70241e-20
-0.000366618 -0.000682735 3.24296e-19
0.000156838 0.000919699 3.25273e-20
0.000842925 -0.00105009 -3.90563e-19
0.00108022 0.000875022 2.16416e-19
0.00087419 0.00107541 -1.17628e-19
0.000375235 -0.000905689 1.3959e-19
0.000749502 -0.000242886 3.84848e-19
-0.000153745 -0.000916982 -4.88615e-19
0.000259079 -0.000211312 -6.09278e-19
-4.72886e-05 -9.27363e-05 1.10647e-20
-0.000216271 2.24829e-06 -1.03656e-19
-0.00076979 -1.25393e-05 2.83732e-20
-0.000774802 -6.2698e-08 -4.93431e-19
-4.10315e-05 -0.000378508 2.59857e-19
-0.000102897 7.61075e-06 1.77159e-19
-0.000102897 7.61075e-06 3.89066e-19
-5.35056e-05 0.000396935 5.38485e-19
-0.000773656 6.35182e-08 -7.16816e-19
-0.000769505 1.06986e-05 8.66361e-19
-0.000215189 -4.1829e-06 8.30003e-20
3.46771e-05 6.23892e-05 -4.10563e-20
0.00036353 0.000682484 4.31138e-19
0.000151746 0.000917598 6.59127e-20
0.00026567 -0.000206348 -1.2412e-19
-5.34837e-05 -8.89332e-05 1.81075e-19
-0.000216353 2.93774e-07 -9.25275e-20
-0.000768842 -1.20487e-05 -2.86094e-19
0.000748992 0.000243212 1.46471e-19
0.000375595 0.000906534 3.52831e-19
-0.000139243 -0.0015717 -1.03044e-19
0.00106326 0.000842891 1.13578e-20
-0.000880784 0.00109421 -2.75091e-19
-0.000151187 -0.000919638 1.29098e-19
-0.000773504 -9.85378e-08 -2.35685e-19
-5.35885e-05 -0.000397382 -8.99109e-20
-0.000103308 -7.56276e-06 -3.35891e-20
-0.000103308 -7.56276e-06 8.42534e-20
-4.09693e-05 0.00037868 -2.77676e-19
-0.000774854 4.01221e-08 2.70778e-19
-0.000769422 1.35657e-05 -3.46553e-19
-0.000218557 -2.49902e-06 -3.0407e-19
4.04216e-05 6.58563e-05 1.96799e-19
0.000364683 0.000683232 -2.8606e-19
0.000153053 0.00091764 -2.89764e-20
-0.000259651 0.000211177 1.26813e-19
4.21567e-05 9.03468e-05 3.98593e-19
0.000205162 -7.76853e-06 2.93226e-19
0.00054464 -0.000163276 -1.07445e-19
0.000754635 0.000243131 7.92582e-21
0.000376246 0.000907969 -6.13525e-19
-2.78904e-05 -0.000379856 3.42686e-20
-9.86407e-05 2.50697e-06 -3.47955e-20
-9.86407e-05 2.50697e-06 1.25658e-19
-4.64963e-05 0.000397001 4.08014e-20
0.000372782 -0.000899635 3.1564e-19
0.000743545 -0.000241296 -2.02265e-20
0.000843386 -0.00105161 -3.14317e-19
0.00107993 0.000874473 2.52796e-19
0.000873565 0.00107476 2.18192e-19
-0.00075085 -4.13542e-08 -6.40098e-20
-0.000770229 -8.90014e-08 2.1433e-20
-0.0007658 1.12584e-05 1.27799e-19
-0.00021357 -3.90505e-06 4.47643e-20
3.51096e-05 6.24026e-05 9.45408e-20
0.000361178 0.000676034 -3.69855e-19
0.000151838 0.000907607 -4.41536e-19
-0.000255918 0.00020864 2.4474e-20
4.39966e-05 8.81194e-05 5.02477e-21
0.000203472 -9.51621e-06 -9.49528e-20
0.000533117 -0.000161104 1.98655e-19
0.000737137 0.000236403 3.1564e-19
0.000365895 0.000883322 -5.09572e-19
0.000333315 0.000644943 -9.34619e-20
9.45092e-05 0.000161104 -6.47529e-20
8.74934e-05 -0.000189772 -4.27043e-20
0.000272753 -0.000598134 2.90214e-19
0.000314182 -0.000757846 -1.38672e-19
0.000533126 -0.000210749 -1.78395e-19
-0.000424577 -7.00092e-05 1.14988e-19
-4.06724e-05 -0.000130785 1.85786e-20
0.000116773 -0.000112842 9.22554e-21
0.000291354 0.000260553 1.45902e-19
0.000182437 -0.00074654 1.25165e-19
0.000888543 -0.0011034 4.56053e-20
0.00110633 -0.000875654 1.37149e-19
-0.000886019 0.00108582 -4.04854e-19
-0.000397258 2.04002e-08 -2.13988e-20
0.000147535 0.00031382 -9.66645e-20
-2.59621e-05 2.92953e-05 -9.14656e-20
2.26336e-05 6.33695e-07 -4.70792e-20
4.05292e-05 -1.16097e-05 -1.56648e-19
8.35801e-05 -2.93471e-05 -8.7184e-20
0.000113859 3.42339e-05 -1.72788e-20
5.37057e-05 0.000129661 2.28602e-20
4.98117e-05 9.17857e-05 2.34479e-19
1.1833e-05 2.16322e-05 2.68433e-19
1.18698e-05 -2.17439e-05 4.60683e-19
4.97446e-05 -9.17602e-05 3.33649e-19
5.36703e-05 -0.000129575 -4.81581e-20
0.00011377 -3.42125e-05 -4.24743e-21
8.35185e-05 2.92993e-05 3.52924e-19
4.05874e-05 1.18284e-05 6.25484e-20
1.76412e-05 2.52949e-06 1.51415e-19
-6.44765e-05 -0.000198176 3.9528e-19
1.51887e-05 -0.000311996 1.64548e-20
-9.18174e-05 0.000258689 2.86281e-20
0.000124259 0.000197719 2.08484e-19
0.000213174 0.00014409 2.12128e-19
0.000408561 5.10837e-05 1.78777e-19
-0.000397296 -1.99042e-08 1.35071e-20
4.56636e-05 6.00476e-07 1.98621e-19
3.25702e-05 1.11888e-05 3.36852e-19
4.57628e-05 2.62715e-07 1.43268e-19
0.000182664 0.000746703 -2.24336e-19
0.000531792 0.00021037 8.51878e-20
0.000313585 0.000756403 -2.8533e-19
0.000271998 0.000597309 -5.20573e-20
8.80691e-05 0.000190353 -1.69297e-19
9.36496e-05 -0.000160415 -2.09274e-19
0.000333641 -0.000645085 -7.12475e-19
0.000366015 -0.000883614 8.76538e-19
0.000737034 -0.000236509 2.00524e-19
0.000533018 0.000160731 -5.3769e-19
0.000203939 1.09061e-05 -2.32181e-19
-2.57671e-05 -6.21956e-05 -8.31574e-20
-0.000360688 -0.000674873 -6.34261e-19
-0.000150902 -0.000906991 -7.76102e-20
0.000257289 -0.000209687 1.50276e-20
-4.63668e-05 -9.23301e-05 1.82073e-19
-0.000214112 1.88897e-06 -8.05329e-21
-0.000765407 -1.34933e-05 -3.03694e-20
-0.000770863 9.01362e-08 -2.48937e-19
-0.000750709 3.81754e-08 -1.0792e-19
0.000864911 -0.0010593 -3.98521e-19
0.00110225 -0.000847402 -1.2786e-19
-0.000901063 0.00112636 5.12248e-20
-0.000240792 0.000362688 5.26263e-21
-0.000269899 -0.000180922 -2.18946e-19
0.000257871 -0.00024582 -1.388e-19
0.000256011 0.000248183 1.5305e-19
0.000319359 6.3756e-05 -8.34123e-20
0.000318932 -6.41418e-05 1.54524e-19
8.0026e-05 -0.00035242 -1.59183e-19
0.000409747 -7.4604e-05 3.78536e-20
-0.000436729 -6.39113e-05 -7.52486e-20
-5.47435e-05 0.00034884 -5.20106e-20
0.000515304 -0.000147469 7.21564e-20
0.000515114 0.00014765 -7.85617e-20
-0.000284535 -0.00017134 -1.63274e-19
-0.000287232 0.000146458 5.9125e-21
1.63617e-05 0.000324228 -9.05141e-20
6.06362e-06 -0.000324122 -1.23088e-19
-2.85096e-05 -0.000325389 -6.81001e-20
4.82714e-05 0.00031402 7.81326e-20
0.000346487 -4.01921e-05 -3.54921e-20
0.000270347 0.000117612 -1.01515e-19
-5.62503e-05 0.000178388 8.49328e-20
7.48195e-05 -0.000174008 -1.13973e-19
-0.000489966 0.00033948 -8.08129e-20
-0.000431565 -0.000242634 -1.36595e-19
0.000827794 -0.000387878 3.57789e-20
0.000467656 0.000638845 -1.14529e-19
0.000515304 -0.000147469 9.34619e-20
0.000515114 0.00014765 -3.90905e-19
0.000287068 -0.000126192 9.06883e-20
0.000286363 0.000124628 9.64904e-20
-0.000223034 0.000107193 2.29598e-19
-0.000226395 -0.000107101 9.41117e-20
0.00034629 0.000122033 -5.13904e-20
0.000345186 -0.000125296 -9.034e-20
9.9592e-05 0.000527219 -1.33694e-19
-8.18451e-05 -0.000523812 5.12333e-20
-0.000214751 5.0935e-05 -7.21268e-20
-0.000219223 -5.43313e-05 -1.03053e-19
1.74506e-06 -0.000755412 -1.01753e-19
8.88867e-05 0.000766223 3.5199e-20
0.000806567 6.68244e-06 5.06301e-20
-0.000748879 -0.000101047 -6.39546e-20
0.000375202 -0.000226673 -1.61753e-19
0.000374377 0.000227047 -2.31055e-19
-0.000280787 0.000166259 -9.8457e-20
-0.000370681 -4.96916e-05 2.79358e-19
-0.000372423 4.85886e-05 4.94749e-20
-0.00029229 -0.000177721 2.56633e-20
0.000272085 -0.000373651 -6.67196e-20
0.000273749 0.000379644 8.85008e-20
0.000419063 -0.000185198 -2.29535e-20
-0.000240792 0.000362688 -2.63132e-20
-6.12945e-05 -0.000336421 -1.38545e-19
0.000426994 0.000182239 -2.28897e-20
-0.000244828 0.000201146 1.53955e-19
0.000267395 -0.000200821 -2.78974e-20
7.7168e-05 -0.000686029 -1.76526e-19
-5.58328e-05 0.000685754 -2.49668e-19
0.000413361 -0.000348696 -3.18308e-20
0.00041351 0.000349358 -1.08362e-19
0.000183002 6.25681e-05 -1.16067e-19
-4.76368e-05 0.000398689 -1.68362e-19
-3.18944e-05 -0.000380599 3.61419e-20
8.32414e-05 0.000222971 1.04875e-19
-5.8619e-05 -0.000227806 -1.83169e-19
-1.15882e-05 0.000309022 -9.97568e-20
3.38189e-05 -0.000302215 -2.32151e-19
-0.000431565 -0.000242634 -5.62797e-21
-2.85096e-05 -0.000325389 -4.14683e-20
4.82714e-05 0.00031402 1.10818e-20
-0.000197757 -0.000134842 -1.1797e-19
-0.000489966 0.00033948 8.60118e-20
5.73208e-05 7.99802e-05 -7.89908e-20
-3.18944e-05 -0.000380599 1.50085e-19
-0.000223034 0.000107193 -1.83946e-19
0.000518522 -0.000146467 4.85064e-20
0.000518547 0.00014658 -3.81086e-20
0.000426994 0.000182239 -3.88688e-20
0.000302242 0.00018207 -2.8527e-19
0.000303886 -0.000182149 -2.35558e-19
0.000654805 -0.000184188 1.97797e-19
0.000515304 -0.000147469 1.33218e-19
0.000654778 0.000184356 -3.16685e-19
0.000515114 0.00014765 -1.67963e-19
-5.62503e-05 0.000178388 -1.50752e-19
0.000287068 -0.000126192 -7.71811e-20
0.000286363 0.000124628 -9.0595e-20
-0.000349893 -0.000664659 -1.94501e-19
0.00037123 0.000671806 -2.25126e-19
-1.06492e-05 -5.71268e-05 8.3047e-20
0.000419063 -0.000185198 -1.23772e-19
0.000346487 -4.01921e-05 -8.59014e-20
-0.000231779 6.76081e-05 -8.74981e-21
-0.000197757 -0.000134842 -5.79527e-20
-0.000765442 -1.43922e-05 1.03766e-19
-0.000766211 1.23003e-05 -4.53379e-20
-5.32756e-05 0.000197092 1.2683e-19
-0.00029229 -0.000177721 -8.15265e-20
0.000195103 0.000159905 -8.87728e-22
1.74506e-06 -0.000755412 -1.21631e-19
8.88867e-05 0.000766223 -2.76214e-20
0.000806567 6.68244e-06 -8.42363e-20
-0.000748879 -0.000101047 1.72026e-21
0.00019439 -0.000161581 5.128e-20
-0.000269922 0.000161224 6.48804e-20
0.000181455 -0.000149825 -5.86834e-20
0.000179022 0.000146674 6.4613e-20
-0.00108833 0.00088661 -5.95393e-20
-2.85096e-05 -0.000325389 -1.47231e-19
-4.71794e-05 -0.000704161 -6.54199e-20
0.00075529 5.48377e-05 -1.80489e-19
-5.62503e-05 0.000178388 2.78389e-19
-1.15882e-05 0.000309022 -1.59009e-19
-0.000231779 6.76081e-05 6.79089e-20
4.82714e-05 0.00031402 5.37303e-21
-0.000431565 -0.000242634 -1.11391e-19
0.000375202 -0.000226673 1.37848e-19
0.000374377 0.000227047 -1.72848e-19
0.000244859 -0.000102756 2.68943e-19
0.000246725 0.000103375 -2.58079e-20
3.38189e-05 -0.000302215 -1.23152e-19
-0.00029229 -0.000177721 -4.56691e-20
-1.06492e-05 -5.71268e-05 2.12969e-19
-0.000219223 -5.43313e-05 6.99143e-21
-0.000214751 5.0935e-05 -1.22154e-19
-0.000223034 0.000107193 -3.90896e-20
0.00112149 -0.000863349 5.61943e-21
1.74506e-06 -0.000755412 -1.18777e-19
2.94695e-05 0.000695379 -1.71089e-19
0.000806567 6.68244e-06 -7.89099e-20
0.000272085 -0.000373651 -2.30639e-20
0.000273749 0.000379644 -7.44246e-20
0.000286363 0.000124628 1.29493e-19
-0.000489966 0.00033948 -1.48246e-19
0.000287068 -0.000126192 -5.13141e-20
0.000318932 -6.41418e-05 3.52542e-20
0.000319359 6.3756e-05 2.50237e-19
0.000419063 -0.000185198 -3.4651e-20
0.000426994 0.000182239 -5.39468e-22
-0.000886688 0.00109745 -2.54425e-21
-0.00108833 0.00088661 -4.16106e-20
-0.000219223 -5.43313e-05 -7.92753e-20
-0.000214751 5.0935e-05 2.83094e-20
-8.18451e-05 -0.000523812 -2.10701e-19
9.9592e-05 0.000527219 -9.39376e-20
-0.000239708 0.000387228 -1.61719e-19
-0.000261908 -0.000248687 1.83849e-19
0.000231761 -0.000258651 1.09186e-19
0.000234343 0.000260752 1.68498e-20
0.000317777 -0.000105566 -2.33527e-19
0.000318522 0.000111421 1.15405e-20
-6.54498e-05 -0.000351794 1.49134e-19
0.000350759 -8.52951e-05 1.45345e-19
-0.000493021 -0.000111378 1.31681e-19
-5.95215e-05 0.000355093 -1.92922e-20
0.000583143 -0.000221461 -2.9329e-19
0.0005766 0.000225241 1.2824e-19
-0.000290438 -0.000145959 4.30059e-20
-0.000287678 0.000168242 -3.02817e-19
7.84778e-06 0.000331159 1.1388e-19
3.12458e-06 -0.000331854 7.97339e-20
3.21886e-05 -0.000319548 -2.5087e-19
3.59521e-05 0.000322919 5.60839e-20
0.000286886 -5.0551e-05 -1.37593e-19
0.000183621 0.000166836 2.12417e-20
-6.19213e-05 -0.00018278 2.75883e-19
-5.85307e-05 0.000185999 -1.06493e-19
-0.000394244 0.00064462 -4.0059e-19
-0.000442395 -0.000239216 -1.98783e-20
0.000785844 -0.000373366 -4.44883e-20
0.000771867 0.000419164 1.77991e-19
0.000583143 -0.000221461 -3.22393e-19
0.0005766 0.000225241 -5.9125e-20
0.000264113 -0.000142999 -1.2079e-19
0.00026586 0.000146311 5.22952e-20
-0.000227378 -0.000106443 2.07881e-19
-0.000231911 0.000107746 4.16595e-20
0.000310734 0.000145218 5.42152e-20
0.000306767 -0.000147274 5.04185e-21
9.56346e-05 0.000539283 -2.49506e-19
9.18091e-05 -0.000539246 -1.97356e-19
-0.000219049 -5.10283e-05 -1.84511e-20
-0.000233733 5.71171e-05 -3.22886e-19
-9.99279e-06 -0.000740114 4.1083e-19
-7.40796e-05 0.000755109 3.8584e-19
0.000746047 -5.44256e-05 1.92603e-20
-0.000657892 6.01723e-06 1.34129e-19
0.000369078 -0.000348838 -2.72842e-19
0.000365563 0.000349838 2.03727e-19
-0.000345304 -0.000207846 2.13016e-19
-0.000375349 -4.87633e-05 -8.42363e-20
-0.000373268 6.21164e-05 -1.16241e-19
-0.000289729 0.000169835 4.45606e-20
0.000247956 -0.000381683 3.4327e-19
-0.000234444 0.000383302 -1.67045e-19
0.00037043 -0.000198993 5.84626e-20
-6.97649e-05 -0.000340449 1.20268e-19
0.000229885 0.000358219 3.9043e-20
0.000379496 0.000199253 2.6551e-20
-0.000258117 0.000209713 -6.85121e-20
-0.000260098 -0.000211536 -2.95192e-19
-6.75476e-05 -0.000701777 -5.06497e-19
-6.45173e-05 0.000702658 1.67649e-19
0.000508754 -0.000508848 -1.73722e-20
0.000504265 0.000508019 1.15243e-19
3.42514e-05 -0.000100094 -2.15696e-19
-5.36082e-05 -0.000397402 -7.19527e-20
-4.09754e-05 0.000378864 -2.32198e-19
7.80508e-05 -0.000227517 -2.64406e-19
7.90988e-05 0.000227827 -1.87051e-19
-0.000442395 -0.000239216 4.11838e-20
-1.79312e-05 0.000313367 4.00753e-20
-2.04146e-05 -0.000310244 1.92284e-20
3.21886e-05 -0.000319548 3.76966e-20
3.59521e-05 0.000322919 -6.31858e-20
5.16949e-05 8.91167e-05 -1.86308e-19
4.24095e-05 -9.03886e-05 -1.0849e-19
-4.09754e-05 0.000378864 -3.73142e-20
-0.000227378 -0.000106443 1.57472e-19
0.000576225 -0.000223616 -3.05556e-19
0.0005697 0.00022739 1.71514e-20
0.000379496 0.000199253 1.7388e-19
0.0002481 0.000276602 3.36062e-20
0.000250308 -0.000274678 9.09807e-21
0.000754483 -0.000242761 8.27408e-21
0.000583143 -0.000221461 6.66092e-20
0.00074324 0.00024162 -1.4272e-21
0.0005766 0.000225241 7.00327e-20
-0.00047905 0.000358518 -1.03877e-19
-6.19213e-05 -0.00018278 -1.47167e-19
-5.85307e-05 0.000185999 -2.41257e-20
0.000264113 -0.000142999 -1.10137e-19
0.00026586 0.000146311 1.30381e-19
0.000364207 -0.000682888 1.11344e-19
0.000371881 0.000685576 5.84285e-20
0.00037043 -0.000198993 1.58516e-20
0.000286886 -5.0551e-05 -8.86112e-20
-0.000235027 -6.95268e-05 1.88635e-19
-0.000771043 -1.06479e-05 -5.26944e-19
-0.000769081 1.43487e-05 -1.58075e-19
-5.90747e-05 -0.000200684 -1.87765e-19
-5.28037e-05 0.000215264 -8.08766e-20
-0.000289729 0.000169835 -2.26982e-19
0.000179016 0.000179718 -8.00993e-20
0.000175467 -0.000177249 7.28233e-20
-9.99279e-06 -0.000740114 3.16765e-19
-7.40796e-05 0.000755109 -1.48159e-19
-0.000657892 6.01723e-06 -6.23214e-20
0.000746047 -5.44256e-05 3.35312e-19
-0.00027341 -0.000160726 2.12713e-20
6.29852e-05 -0.000230987 2.32419e-19
6.12174e-05 0.000227775 8.92394e-21
0.00108022 0.000875022 2.00739e-19
3.59521e-05 0.000322919 2.94521e-20
-5.35741e-05 -0.000694692 -8.88582e-21
-0.000657892 6.01723e-06 -3.5336e-19
-5.85307e-05 0.000185999 -1.1001e-19
-6.19213e-05 -0.00018278 -1.3547e-19
-2.04146e-05 -0.000310244 1.99178e-19
-0.000235027 -6.95268e-05 -2.03222e-19
3.21886e-05 -0.000319548 5.32933e-20
0.000369078 -0.000348838 -5.1989e-21
0.000365563 0.000349838 1.93074e-19
0.000241503 -9.30247e-05 2.55279e-21
0.00023662 0.000105454 -2.70098e-19
-0.000442395 -0.000239216 2.23503e-20
-1.79312e-05 0.000313367 1.93393e-19
-0.000289729 0.000169835 -3.35599e-19
-0.000219049 -5.10283e-05 6.10621e-20
-0.000233733 5.71171e-05 -6.94124e-20
-0.000227378 -0.000106443 2.30231e-19
0.00102571 -0.000839124 -9.41404e-19
-1.78878e-05 0.000682638 3.81773e-19
-9.99279e-06 -0.000740114 -3.49526e-20
0.000708372 -2.20506e-05 9.35302e-21
0.000247956 -0.000381683 -1.66047e-19
-0.000234444 0.000383302 -2.29535e-20
0.00026586 0.000146311 7.36006e-20
0.000264113 -0.000142999 2.57737e-20
0.000328447 0.000249555 -1.3547e-19
0.000317777 -0.000105566 -2.37809e-19
0.000318522 0.000111421 -4.41952e-20
0.00037043 -0.000198993 2.50772e-20
0.000379496 0.000199253 5.24556e-21
0.00087419 0.00107541 1.98615e-19
0.00108022 0.000875022 1.02487e-18
-0.000219049 -5.10283e-05 -1.29922e-19
-0.000233733 5.71171e-05 -4.30076e-19
9.56346e-05 0.000539283 1.73722e-20
9.18091e-05 -0.000539246 8.09403e-20
-0.000245707 0.000358543 7.67054e-20
-0.000274639 -0.000179863 -2.83478e-19
0.00023412 -0.000255337 4.04332e-19
0.000231963 0.000259283 2.34258e-19
0.000318725 -0.000109384 2.73284e-20
0.000318256 0.000109799 1.24706e-19
6.29992e-05 -0.000356985 8.44742e-20
0.000339401 -8.45332e-05 9.80746e-20
-0.000439961 -6.24508e-05 -2.38998e-19
-6.50603e-05 0.000350764 1.07411e-19
0.000580562 -0.000224583 -1.29972e-21
0.000579976 0.000225239 2.18745e-20
-0.000290364 0.000146189 4.37207e-19
-0.000288711 -0.000170689 -3.13121e-19
3.00044e-06 0.000330665 -5.26434e-20
-6.18078e-06 -0.000332032 -1.83199e-19
-3.70302e-05 -0.000328003 -6.62439e-20
3.2278e-05 0.000318484 -7.69604e-20
0.000286317 -5.33855e-05 1.79754e-20
0.00018092 0.000166775 3.18308e-20
-6.13479e-05 0.000182102 1.77303e-19
5.85668e-05 -0.000183196 -4.10392e-20
-0.000489429 0.000335836 3.59725e-19
-0.000438056 -0.00023997 -1.53143e-19
0.000450873 -0.000646386 1.40384e-19
0.000781284 0.000384645 1.64779e-19
0.000580562 -0.000224583 -1.09917e-19
0.000579976 0.000225239 6.20313e-19
0.000264729 -0.000144367 3.92638e-20
0.00026424 0.000144641 1.00819e-19
-0.000226693 0.000107648 1.27178e-19
-0.00023064 -0.000106932 1.45986e-20
0.000307252 0.000146856 8.52982e-20
0.000309161 -0.000145816 -5.73666e-20
9.07894e-05 0.000538726 -2.44783e-19
-9.2802e-05 -0.000538111 -1.52051e-21
-0.00021784 5.12156e-05 -1.68668e-20
-0.000222585 -5.35429e-05 -1.05002e-19
-1.02183e-05 -0.000708241 -1.1204e-19
3.0225e-05 0.000742095 3.7949e-19
0.000754734 -4.57146e-06 2.18215e-19
-0.00074644 -9.49363e-05 -4.7679e-19
0.000367612 -0.00035063 -3.39545e-20
0.000366162 0.000351935 8.0303e-20
-0.000283841 0.000165883 4.06443e-20
-0.000374674 4.88902e-05 -2.78534e-19
-0.000374324 -4.89025e-05 6.78772e-21
-0.000296127 -0.000176791 7.68966e-20
0.000247653 -0.000378698 8.24609e-20
0.000244382 0.000380748 2.40344e-19
0.000376021 0.000198527 -4.08355e-20
-0.000245707 0.000358543 1.23216e-19
-7.31877e-05 -0.000337639 -2.15964e-19
0.000376307 -0.000198231 1.72737e-19
-0.000262542 0.000208216 1.79474e-19
0.000259079 -0.000211312 -3.02643e-19
6.68775e-05 -0.000701007 -1.87841e-19
-6.90413e-05 0.000701744 -1.39496e-19
0.000507393 -0.000510102 -6.85121e-20
0.000507569 0.000511491 3.72675e-19
3.58492e-05 0.00010055 -8.90403e-20
-5.35056e-05 0.000396935 3.48184e-19
-4.10315e-05 -0.000378508 4.28933e-19
7.77209e-05 0.000226549 -1.63703e-19
-7.40685e-05 -0.000236672 -1.74861e-19
-2.07388e-05 0.00030987 -5.3769e-20
1.85956e-05 -0.000308739 -2.2183e-19
-0.000438056 -0.00023997 -6.83766e-19
-3.70302e-05 -0.000328003 -8.61222e-20
3.2278e-05 0.000318484 1.42503e-20
-0.000201912 -0.000136975 7.70241e-20
-0.000489429 0.000335836 3.23867e-19
4.85998e-05 8.7881e-05 -6.4358e-20
-4.10315e-05 -0.000378508 -3.03569e-20
-0.000226693 0.000107648 7.81963e-20
0.000573762 -0.000226701 4.07199e-19
0.000573036 0.000227401 1.92505e-19
0.000376307 -0.000198231 1.52859e-19
0.000246841 0.000277639 4.28318e-20
0.000249353 -0.000276773 -1.23007e-20
0.000749502 -0.000242886 -3.73058e-19
0.000580562 -0.000224583 -1.46819e-19
0.000748992 0.000243212 -3.59507e-20
0.000579976 0.000225239 1.33346e-19
-6.13479e-05 0.000182102 1.41446e-19
0.000264729 -0.000144367 9.88986e-20
0.00026424 0.000144641 -4.2611e-20
0.00036353 0.000682484 4.05933e-19
-0.000366618 -0.000682735 -2.30325e-19
-2.66935e-05 -6.66053e-05 1.36346e-21
0.000376021 0.000198527 1.50149e-19
0.000286317 -5.33855e-05 1.37245e-19
-0.000234393 6.83008e-05 9.03434e-21
-0.000201912 -0.000136975 -2.62996e-19
-0.000769505 1.06986e-05 -3.63798e-19
-0.00076979 -1.25393e-05 1.82294e-19
-5.88071e-05 0.00019808 2.53359e-19
-0.000296127 -0.000176791 1.1808e-19
0.000176203 0.000178657 2.43912e-19
-1.02183e-05 -0.000708241 1.31443e-19
3.0225e-05 0.000742095 7.79903e-20
-0.00074644 -9.49363e-05 6.83847e-20
0.000754734 -4.57146e-06 3.21506e-19
0.000176131 -0.000178214 -5.02989e-20
-0.000272823 0.000161152 -8.28899e-20
6.19716e-05 -0.000232829 -1.11114e-20
5.80044e-05 0.000226326 -9.25912e-20
-0.00108071 0.000881051 6.70546e-19
-3.70302e-05 -0.000328003 -1.08855e-19
-2.0393e-05 -0.000695425 -2.08197e-19
0.000709553 -4.65266e-05 1.79799e-19
-6.13479e-05 0.000182102 -5.20106e-20
-2.07388e-05 0.00030987 -1.15405e-20
-0.000234393 6.83008e-05 2.31595e-19
3.2278e-05 0.000318484 4.33541e-20
-0.000438056 -0.00023997 -5.3292e-19
0.000367612 -0.00035063 5.62114e-20
0.000366162 0.000351935 2.49497e-20
0.00024475 9.85529e-05 -5.20402e-20
0.000240149 -9.75886e-05 9.83125e-20
1.85956e-05 -0.000308739 1.05066e-19
-0.000296127 -0.000176791 8.2223e-20
-2.66935e-05 -6.66053e-05 -1.85339e-19
-0.00021784 5.12156e-05 9.42221e-20
-0.000222585 -5.35429e-05 -8.40793e-20
-0.000226693 0.000107648 -3.96462e-20
0.00106326 0.000842891 8.71197e-19
-1.02183e-05 -0.000708241 -4.85064e-21
6.75561e-06 0.000719113 2.97427e-19
0.000754734 -4.57146e-06 7.22206e-19
0.000247653 -0.000378698 2.43959e-19
0.000244382 0.000380748 4.53297e-19
0.00026424 0.000144641 7.27596e-20
-0.000489429 0.000335836 5.87229e-19
0.000264729 -0.000144367 1.40082e-19
0.000318725 -0.000109384 -2.17582e-19
0.000318256 0.000109799 4.76653e-20
0.000376021 0.000198527 -2.1793e-19
0.000376307 -0.000198231 7.72449e-20
-0.000880784 0.00109421 6.49518e-19
-0.00108071 0.000881051 -3.29637e-19
-0.00021784 5.12156e-05 8.33782e-21
-0.000222585 -5.35429e-05 -9.9676e-20
-9.2802e-05 -0.000538111 -4.51585e-19
9.07894e-05 0.000538726 1.44219e-19
-0.000240093 0.000387227 -2.4288e-19
-0.000261849 -0.000249857 7.19993e-20
0.000234883 -0.000256154 -1.05414e-19
0.000232449 0.000259272 -4.22456e-20
0.000318618 -0.000111127 2.4062e-20
0.000317646 0.000105663 1.21219e-19
6.51259e-05 -0.000356314 -3.29826e-19
0.000350783 -8.71481e-05 -4.68584e-20
-0.000493159 -0.000111647 -1.24294e-19
-6.0447e-05 0.000355492 -3.06733e-19
0.000577016 -0.000224651 7.66588e-20
0.000583058 0.000221954 -1.36039e-19
-0.000290659 -0.000145868 -1.31048e-19
-0.000287574 0.000168238 -5.12171e-19
6.22586e-06 0.00033202 -3.90557e-19
-4.16417e-06 -0.000330924 -3.3774e-19
-3.42531e-05 -0.000325243 -9.17889e-21
3.36434e-05 0.000322662 2.67401e-19
0.000287213 -5.2576e-05 2.83436e-20
0.000183311 0.000164662 -1.60007e-19
-5.89571e-05 0.000186875 7.91182e-20
6.08547e-05 -0.000183277 9.41925e-20
-0.00039463 0.000644337 3.30557e-19
-0.000442881 -0.000239795 -3.36533e-19
0.000785936 -0.000373951 7.38766e-20
0.000771349 0.00041823 -3.31175e-19
0.000577016 -0.000224651 -2.85439e-21
0.000583058 0.000221954 -6.88104e-21
0.000265484 -0.000145996 1.70486e-19
0.000264482 0.0001432 -7.5202e-20
-0.000227368 -0.000106499 2.53492e-20
-0.000231848 0.000107679 -9.78368e-20
0.00030994 0.000143084 3.2022e-20
0.000307969 -0.000149005 6.477e-20
9.224e-05 0.000539536 -3.49467e-19
-8.98581e-05 -0.000538406 -6.9302e-20
-0.00021959 -5.19132e-05 -3.42561e-20
-0.0002336 5.76915e-05 -6.9652e-22
-8.98745e-06 -0.000741597 -5.09857e-19
-7.46324e-05 0.000754511 2.83498e-20
0.000745851 -5.52663e-05 -1.87527e-20
-0.000658119 5.84658e-06 -1.71017e-19
0.000366826 -0.000348973 4.55245e-20
0.00036809 0.000349615 -1.03036e-19
-0.000345237 -0.000208241 8.99747e-20
-0.000379146 -4.05876e-05 -4.80477e-20
-0.000372552 6.26699e-05 -3.53986e-19
-0.000289711 0.000169897 1.5099e-19
0.000248553 -0.000375925 -1.52876e-19
-0.00023499 0.000383421 -4.10355e-19
0.000370525 -0.000199724 1.2618e-19
-7.14861e-05 -0.000340024 -3.72504e-21
0.000228409 0.000357 7.9751e-20
0.000379072 0.00019742 -3.35425e-20
-0.000259651 0.000211177 2.18627e-19
0.00026567 -0.000206348 1.51321e-19
-6.70239e-05 0.000701973 2.09529e-19
7.12978e-05 -0.000702797 -8.24609e-20
0.000504027 -0.000506725 1.4032e-19
0.00050918 0.000510126 -1.79219e-19
3.51659e-05 -0.000102392 -4.9632e-20
-5.35885e-05 -0.000397382 -4.4004e-20
-4.09693e-05 0.00037868 -1.0643e-19
7.88041e-05 0.000228749 -1.05368e-19
-7.13512e-05 -0.000236587 5.9809e-20
-0.000442881 -0.000239795 2.58668e-19
-1.89427e-05 0.000313859 1.93724e-19
2.07724e-05 -0.000308125 -2.58481e-19
-3.42531e-05 -0.000325243 -9.75352e-20
3.36434e-05 0.000322662 -3.02213e-19
-0.000205328 -0.000139728 1.04068e-19
4.21567e-05 9.03468e-05 1.9561e-19
-4.09693e-05 0.00037868 -3.1691e-19
-0.000227368 -0.000106499 -3.09226e-21
0.000570172 -0.000226783 4.36557e-20
0.000576185 0.000224094 3.3258e-20
0.000379072 0.00019742 -2.82352e-19
0.000248372 0.000274961 -2.67992e-19
0.000250278 -0.000276213 1.72151e-19
0.000743545 -0.000241296 -4.09288e-20
0.000577016 -0.000224651 3.62753e-19
0.000754635 0.000243131 -9.5144e-20
0.000583058 0.000221954 1.55e-19
-0.000479353 0.0003585 -2.89756e-19
-5.89571e-05 0.000186875 -3.72756e-19
0.000265484 -0.000145996 1.37101e-19
0.000264482 0.0001432 -1.16679e-20
0.000364683 0.000683232 -7.96406e-20
-0.000364594 -0.000683281 4.47347e-20
-2.39403e-05 -6.73302e-05 1.35041e-19
0.000370525 -0.000199724 -6.44218e-20
0.000287213 -5.2576e-05 -1.00152e-19
-0.00023502 -6.96343e-05 -6.50716e-20
-0.000205328 -0.000139728 2.1373e-19
-0.000768842 -1.20487e-05 5.6648e-19
-0.000769422 1.35657e-05 -1.38324e-19
-5.32748e-05 0.000215923 -2.79672e-19
-0.000289711 0.000169897 -1.86941e-19
0.000176349 0.000177095 2.19277e-19
-8.98745e-06 -0.000741597 3.8989e-19
-7.46324e-05 0.000754511 -1.16265e-19
-0.000658119 5.84658e-06 8.21888e-21
0.000745851 -5.52663e-05 -2.66135e-19
0.000177256 -0.000179691 1.40843e-19
-0.000273134 -0.00016099 6.5849e-20
6.50191e-05 -0.000232487 7.86891e-20
5.9403e-05 0.000226121 -2.26158e-19
0.00107993 0.000874473 -3.93679e-20
3.36434e-05 0.000322662 8.70315e-21
-3.42531e-05 -0.000325243 8.63134e-20
-5.30806e-05 -0.000695339 -2.09283e-19
-0.000658119 5.84658e-06 -3.7403e-19
-5.89571e-05 0.000186875 1.17065e-19
-0.00023502 -6.96343e-05 -1.33932e-19
0.000366826 -0.000348973 1.70503e-19
0.00036809 0.000349615 -1.85403e-19
0.000245648 9.39754e-05 1.56885e-19
0.000236454 -0.000105354 1.59769e-19
-0.000442881 -0.000239795 -2.70145e-19
-1.89427e-05 0.000313859 1.75273e-19
2.07724e-05 -0.000308125 1.06081e-19
-0.000289711 0.000169897 -7.83238e-20
-2.39403e-05 -6.73302e-05 1.07364e-19
-0.00021959 -5.19132e-05 1.65572e-19
-0.0002336 5.76915e-05 -3.34346e-19
-0.000227368 -0.000106499 -1.52511e-19
0.00102578 -0.000839698 2.90476e-19
-1.86657e-05 0.000682338 -9.97397e-20
-8.98745e-06 -0.000741597 2.91926e-19
0.000708628 -2.32847e-05 1.78063e-19
-0.00023499 0.000383421 -9.16397e-20
0.000248553 -0.000375925 -1.08735e-20
0.000264482 0.0001432 3.76966e-20
0.000327442 0.000247829 -1.64548e-20
0.000265484 -0.000145996 1.09424e-19
0.000318618 -0.000111127 2.17518e-19
0.000317646 0.000105663 4.13237e-20
0.000370525 -0.000199724 -1.62386e-19
0.000379072 0.00019742 1.66285e-19
0.000873565 0.00107476 -1.27266e-19
0.00107993 0.000874473 -2.47707e-19
-0.00021959 -5.19132e-05 2.01429e-19
-0.0002336 5.76915e-05 -2.65485e-19
-8.98581e-05 -0.000538406 -1.06969e-19
9.224e-05 0.000539536 -1.83407e-19
-0.000245722 0.000358468 3.79127e-19
-0.000264 -0.000191129 9.13552e-20
0.000249247 -0.000318318 -9.85037e-20
0.000233821 0.000252735 1.16798e-19
0.000313224 9.93255e-05 -1.99462e-19
0.000281027 -0.000202821 1.37942e-19
-3.97349e-05 -0.000371497 1.31855e-19
0.000343608 6.63681e-05 -2.43547e-19
-0.000433461 -6.85862e-05 1.58644e-19
-6.33662e-05 0.000350378 -1.72563e-19
0.000568878 0.000213675 4.43787e-19
0.000444599 -0.000269371 -1.05542e-19
-0.00027656 -0.000177735 7.94665e-20
-0.000288071 0.000145485 -1.67394e-20
5.5805e-06 0.000329063 -5.31021e-20
4.92986e-05 -0.000338294 -1.19253e-19
9.13565e-05 -0.000364565 1.39607e-19
3.50766e-05 0.000316734 6.73228e-20
0.000287189 3.3257e-05 -2.50772e-20
0.000167122 -0.000197463 -1.76874e-19
-3.88604e-05 -0.00018839 1.64811e-19
-6.04896e-05 0.000181556 -2.56167e-20
-0.000494586 0.000335261 5.29306e-19
-0.000430573 -0.000256739 -1.82787e-19
0.000821754 -0.000416101 -1.399e-19
0.000449303 0.000632154 -1.66633e-19
0.000568878 0.000213675 4.27425e-19
0.000444599 -0.000269371 2.52267e-19
0.000263759 0.000137215 3.18774e-20
0.000262859 -0.000231021 5.20402e-20
-0.000222584 0.000104183 1.96323e-19
-0.000219011 -0.000114201 2.15729e-20
0.000311745 0.00013092 -1.75116e-19
0.000311554 -0.00018673 1.85148e-20
0.0001375 -0.000467412 8.68358e-20
9.17561e-05 0.000533863 2.18372e-19
-0.000216308 5.11214e-05 2.83542e-19
-0.000214201 -6.86692e-05 9.17035e-20
6.50115e-06 -0.000787802 -2.94241e-19
7.71826e-05 0.000758682 2.07388e-19
0.000784831 -1.37372e-05 -1.39543e-19
-0.000753656 -0.000111788 2.99678e-19
0.000358921 0.000334184 -4.16253e-20
0.000292027 -0.000350369 1.52366e-19
-0.000280994 0.000163298 3.12994e-19
-0.000357182 -6.63959e-05 1.63703e-19
-0.000372098 4.87998e-05 -4.20544e-20
-0.000285559 -0.000184309 -9.48424e-20
0.000272174 -0.000428205 1.95453e-19
0.00025661 0.000378278 2.88915e-19
0.000385534 -0.000242299 1.89523e-19
-0.000245722 0.000358468 1.47341e-19
-4.4671e-05 -0.000358699 3.19582e-20
0.000381961 0.000185813 -2.97681e-19
-0.000255918 0.00020864 6.48338e-20
-9.23708e-05 -0.000258652 -5.05368e-20
-6.55956e-05 0.000694322 4.54533e-19
3.004e-05 -0.000577045 1.15464e-19
0.000495756 0.000494613 4.67853e-19
0.000409845 -0.000471168 4.47338e-19
3.14431e-05 -0.000117347 -5.4436e-20
-4.64963e-05 0.000397001 -2.71542e-19
-2.78904e-05 -0.000379856 5.90317e-20
9.89253e-05 -0.00023006 1.2339e-19
7.8163e-05 0.000225881 -1.53462e-19
1.05026e-05 -0.000319265 2.49268e-19
-1.9237e-05 0.00030967 1.4151e-19
-0.000430573 -0.000256739 -7.55969e-20
9.13565e-05 -0.000364565 6.43751e-20
3.50766e-05 0.000316734 5.52429e-20
-0.000494586 0.000335261 3.74561e-19
4.39966e-05 8.81194e-05 -1.54826e-19
0.000121642 -0.000198282 1.52051e-21
-2.78904e-05 -0.000379856 1.47388e-19
-0.000222584 0.000104183 1.39925e-19
0.000563742 0.000215274 4.91308e-19
0.000427899 -0.000274578 2.52012e-19
0.000381961 0.000185813 -2.74949e-19
0.000243974 0.000262389 6.12828e-20
0.000214279 -0.000301986 5.31362e-20
0.000737137 0.000236403 8.08757e-19
0.000568878 0.000213675 5.36042e-19
0.000533126 -0.000210749 -1.43744e-19
0.000444599 -0.000269371 3.44523e-19
-3.88604e-05 -0.00018839 -1.41161e-19
-6.04896e-05 0.000181556 1.28083e-19
0.000263759 0.000137215 1.47248e-19
0.000262859 -0.000231021 2.30945e-19
0.000361178 0.000676034 -2.85839e-19
0.000351532 -0.000584134 2.72587e-19
0.000385534 -0.000242299 2.90342e-19
0.000287189 3.3257e-05 -2.27759e-19
-0.000230476 6.45623e-05 1.14959e-19
-0.000742845 -1.99731e-05 -1.65432e-19
-0.0007658 1.12584e-05 6.61335e-20
-5.792e-05 0.000197723 1.54745e-19
-3.38296e-05 -0.000213526 -3.36995e-20
-0.000285559 -0.000184309 9.22429e-20
0.000177209 0.000170665 6.85588e-20
0.000204473 -0.000253592 5.86126e-22
6.50115e-06 -0.000787802 -1.85624e-19
7.71826e-05 0.000758682 2.48572e-19
-0.000753656 -0.000111788 1.23628e-19
0.000784831 -1.37372e-05 -1.54095e-19
-0.00027086 0.000160167 2.55912e-19
5.21257e-05 0.000213742 5.48013e-20
4.49055e-05 -0.000238604 1.52366e-19
-0.0010959 0.000884251 8.81928e-19
-4.77034e-05 -0.000731401 -2.26205e-19
0.000730988 3.62505e-05 2.86655e-19
-6.04896e-05 0.000181556 6.34157e-21
-3.88604e-05 -0.00018839 3.77432e-20
-1.9237e-05 0.00030967 2.42991e-19
1.05026e-05 -0.000319265 8.56806e-20
-0.000230476 6.45623e-05 1.52905e-19
9.13565e-05 -0.000364565 -3.44888e-19
3.50766e-05 0.000316734 5.66701e-20
-0.000430573 -0.000256739 6.45959e-20
0.000358921 0.000334184 -1.1334e-19
0.000292027 -0.000350369 4.22864e-19
0.000234063 -0.000104927 5.95245e-20
0.000233308 -8.39111e-05 1.81852e-19
-0.000285559 -0.000184309 1.91252e-19
-0.000214201 -6.86692e-05 7.67691e-20
-0.000216308 5.11214e-05 9.15123e-20
-0.000222584 0.000104183 1.22519e-19
0.00110633 -0.000875654 1.41501e-19
6.50115e-06 -0.000787802 -8.23334e-20
1.77428e-05 0.00068779 6.08343e-19
0.000784831 -1.37372e-05 -3.63148e-19
0.000272174 -0.000428205 -3.73779e-20
0.00025661 0.000378278 -7.63105e-20
0.000263759 0.000137215 1.02165e-19
0.000262859 -0.000231021 1.03877e-19
-0.000494586 0.000335261 3.57537e-19
0.000313224 9.93255e-05 5.42914e-20
0.000281027 -0.000202821 -1.16195e-19
0.000385534 -0.000242299 4.19882e-19
0.000381961 0.000185813 1.21903e-20
-0.000886019 0.00108582 4.3567e-19
-0.0010959 0.000884251 -3.15228e-19
-0.000214201 -6.86692e-05 -2.6139e-20
-0.000216308 5.11214e-05 2.71462e-19
0.0001375 -0.000467412 7.12391e-20
9.17561e-05 0.000533863 -7.20749e-19
3.43725e-05 -4.53611e-06 5.98556e-20
3.82243e-05 -4.94687e-06 2.31183e-19
1.77857e-05 -2.25434e-06 -1.76613e-20
3.81457e-05 4.90412e-06 9.02934e-20
5.13997e-05 -6.62261e-06 2.66785e-19
5.14879e-05 6.58075e-06 -1.50752e-19
4.45425e-05 -1.08661e-05 1.22566e-19
3.08228e-05 -3.42601e-06 4.54312e-20
3.08774e-05 -2.93686e-06 1.05763e-19
5.52021e-05 4.39471e-06 1.99259e-19
8.63906e-05 -2.69179e-05 7.22838e-20
8.64514e-05 2.69218e-05 1.82421e-19
-1.36634e-05 -3.04104e-05 -4.28318e-20
-1.73711e-05 -1.15034e-05 -2.30468e-20
5.66671e-05 3.19123e-05 2.02555e-19
6.19871e-05 -2.83572e-05 -3.12275e-20
7.31799e-05 8.59944e-06 2.5417e-19
4.18146e-05 9.97793e-06 -1.23169e-19
3.09686e-05 -3.50528e-06 2.80513e-19
2.21525e-05 1.54055e-05 2.79817e-19
7.06954e-05 -5.54012e-05 4.33075e-20
2.87964e-05 -1.27274e-05 3.69379e-19
3.47946e-05 -4.55039e-06 2.60286e-19
3.84578e-05 1.6581e-06 1.31061e-19
3.58449e-05 2.67727e-06 1.46794e-20
4.07003e-05 3.19124e-07 5.02818e-20
8.63906e-05 -2.69179e-05 1.78046e-19
8.64514e-05 2.69218e-05 -6.6006e-20
4.07591e-05 -2.14653e-06 2.77438e-19
4.07588e-05 2.04681e-06 2.60286e-20
2.89116e-05 3.50715e-05 -1.01388e-19
3.11538e-05 -2.97211e-05 2.18661e-19
3.70173e-05 -6.81626e-06 2.22526e-19
3.69749e-05 6.71156e-06 -4.0302e-19
0.000121972 0.00015472 2.06929e-19
4.19147e-05 -0.000146022 1.28716e-19
-6.72417e-06 -8.15799e-05 -1.26372e-19
-7.29842e-06 7.98243e-05 -2.74558e-20
4.29529e-05 7.91962e-08 1.36549e-19
4.25649e-05 -7.15309e-07 3.76354e-19
3.47707e-05 8.995e-09 -7.00668e-20
3.36187e-05 -3.82714e-08 1.44244e-20
5.38525e-05 -4.45088e-05 9.9009e-20
5.38701e-05 4.46164e-05 1.51449e-19
1.55796e-05 3.16296e-06 -1.62101e-19
-0.000116766 -8.32147e-05 -3.04036e-20
-0.000116345 8.3162e-05 1.58516e-20
2.01494e-05 -2.59213e-06 8.06854e-20
4.10529e-05 -4.25454e-06 6.4358e-20
4.11445e-05 4.22285e-06 6.22001e-20
3.4187e-05 -4.52145e-06 8.49328e-20
3.43725e-05 -4.53611e-06 3.85502e-20
4.89175e-05 1.08899e-05 -1.81028e-20
3.42153e-05 4.65288e-06 8.11611e-20
-2.59621e-05 2.92953e-05 -8.69632e-20
0.000231643 3.42912e-05 1.08141e-19
5.88052e-05 0.000219142 1.19142e-19
0.000124233 -0.000230028 -4.63827e-20
7.37145e-05 -6.95794e-05 -2.90105e-20
7.37649e-05 6.96203e-05 2.17327e-19
3.65194e-06 1.09685e-05 3.93726e-19
0.000117188 0.00021459 -2.05536e-19
0.000127217 -0.000202817 3.10068e-20
0.000134438 -3.50227e-05 -2.24777e-20
1.68142e-05 -1.75572e-05 1.85624e-19
7.53913e-05 -1.42336e-05 2.76614e-19
4.38575e-05 -1.01216e-05 -7.29212e-20
3.58449e-05 2.67727e-06 1.1825e-20
7.31799e-05 8.59944e-06 1.71803e-19
4.18146e-05 9.97793e-06 6.49612e-20
1.52697e-05 7.18789e-05 8.4712e-20
3.47946e-05 -4.55039e-06 2.23384e-19
2.26336e-05 6.33695e-07 -2.02206e-19
0.000127217 -0.000202817 4.16595e-20
2.89116e-05 3.50715e-05 -3.5058e-19
8.80624e-05 -2.63974e-05 2.76359e-19
8.81281e-05 2.63997e-05 -2.98616e-19
3.42153e-05 4.65288e-06 -1.30364e-19
3.4237e-05 -3.22627e-05 3.43571e-19
3.41012e-05 3.22906e-05 1.78479e-20
0.00011377 -3.42125e-05 5.56082e-20
8.63906e-05 -2.69179e-05 1.99352e-19
0.000113859 3.42339e-05 -2.0766e-19
8.64514e-05 2.69218e-05 2.85439e-21
7.06954e-05 -5.54012e-05 1.7532e-19
4.07591e-05 -2.14653e-06 1.68821e-19
4.07588e-05 2.04681e-06 2.8883e-20
0.000291354 0.000260553 -9.93914e-20
-6.44765e-05 -0.000198176 1.69203e-19
1.76412e-05 2.52949e-06 1.94026e-19
3.4187e-05 -4.52145e-06 1.03384e-19
3.09686e-05 -3.50528e-06 6.61335e-20
6.3894e-05 2.23358e-05 1.1825e-20
1.52697e-05 7.18789e-05 2.14634e-19
-0.000424864 6.86467e-05 -1.12737e-19
-0.000424577 -7.00092e-05 -7.62763e-20
7.19703e-05 -4.73777e-05 1.375e-19
2.01494e-05 -2.59213e-06 6.22343e-20
3.71394e-05 3.44559e-06 -4.70792e-20
4.29529e-05 7.91962e-08 2.28804e-19
4.25649e-05 -7.15309e-07 -1.2412e-19
3.36187e-05 -3.82714e-08 7.54865e-20
3.47707e-05 8.995e-09 1.68473e-19
3.71518e-05 -3.52367e-06 2.35175e-19
-3.44822e-05 -2.60999e-05 -1.0177e-20
7.30589e-06 -2.74104e-05 4.70733e-19
7.31132e-06 2.69509e-05 2.9611e-19
3.21597e-05 1.15559e-05 5.06301e-20
7.31799e-05 8.59944e-06 -5.114e-20
4.24195e-05 6.38151e-07 -3.161e-20
3.49236e-05 -1.34565e-07 3.33513e-20
7.06954e-05 -5.54012e-05 3.26547e-20
7.53913e-05 -1.42336e-05 5.4436e-20
6.3894e-05 2.23358e-05 -6.6261e-21
4.18146e-05 9.97793e-06 4.65101e-20
3.58449e-05 2.67727e-06 1.67997e-19
5.38525e-05 -4.45088e-05 2.76486e-19
5.38701e-05 4.46164e-05 3.07518e-21
4.41044e-05 2.18904e-05 7.39318e-20
4.38166e-05 -2.18725e-05 -1.13085e-19
4.38575e-05 -1.01216e-05 8.11611e-20
2.01494e-05 -2.59213e-06 5.15816e-20
1.76412e-05 2.52949e-06 2.12477e-19
-6.72417e-06 -8.15799e-05 -4.24743e-21
-7.29842e-06 7.98243e-05 9.46683e-20
2.89116e-05 3.50715e-05 2.56804e-20
3.25702e-05 1.11888e-05 3.3235e-19
4.31656e-05 1.20163e-09 -1.68031e-20
4.29529e-05 7.91962e-08 -3.59849e-20
3.47707e-05 8.995e-09 3.56603e-19
4.10529e-05 -4.25454e-06 3.398e-19
4.11445e-05 4.22285e-06 8.14161e-20
4.07588e-05 2.04681e-06 -4.56861e-20
3.47946e-05 -4.55039e-06 1.09059e-19
4.07591e-05 -2.14653e-06 2.6964e-19
5.13997e-05 -6.62261e-06 4.86873e-19
5.14879e-05 6.58075e-06 6.93361e-20
3.4187e-05 -4.52145e-06 3.02167e-19
3.42153e-05 4.65288e-06 -1.62322e-19
4.57628e-05 2.62715e-07 2.07023e-20
3.21597e-05 1.15559e-05 1.80553e-19
-7.29842e-06 7.98243e-05 7.05084e-20
-6.72417e-06 -8.15799e-05 1.51924e-19
0.000121972 0.00015472 -2.32482e-19
4.19147e-05 -0.000146022 2.29535e-19
-0.000232583 0.000378801 -8.97368e-20
-0.000272423 -0.000177825 -1.02467e-19
0.000235796 -0.000250119 -2.10243e-19
0.000249141 0.000317176 -2.02903e-20
0.000280312 0.000202984 -5.21848e-20
0.000312905 -9.98047e-05 -1.61481e-19
6.60297e-05 -0.000354407 2.24875e-19
0.000343452 0.000116288 1.98226e-19
-0.000439217 -5.79092e-05 4.14512e-20
-3.80573e-05 0.000371982 -4.47643e-20
0.000443634 0.000269153 1.31247e-20
0.000568873 -0.000214005 -1.80901e-19
-0.000285485 -0.000168749 -5.75544e-21
-0.000278614 0.000153458 -6.44388e-20
5.08081e-05 0.000338826 1.23122e-19
-4.27022e-06 -0.000329109 1.47358e-19
-3.56407e-05 -0.00032629 -1.2567e-19
9.25717e-05 0.000364177 2.06883e-19
0.000281489 7.9943e-05 -1.65525e-19
0.000178109 -0.000150121 -1.81359e-19
-4.25647e-05 0.000185873 6.89241e-20
6.01595e-05 -0.000179714 3.24882e-19
-0.000489779 0.00035486 -2.86727e-19
-0.000436208 -0.000237869 -2.21418e-19
0.000809271 -0.000373968 2.88653e-19
0.00046466 0.000674613 -1.53921e-19
0.000443634 0.000269153 1.984e-19
0.000568873 -0.000214005 2.79817e-19
0.00026234 0.000230823 -4.63189e-20
0.000264573 -0.000138324 -1.57947e-19
-0.00021716 0.000111377 -1.6629e-20
-0.000226108 -0.000103709 -4.33712e-20
0.000312091 0.000186726 1.99399e-19
0.000311826 -0.000130944 5.79698e-20
0.000137772 0.000467855 9.3316e-23
-9.06094e-05 -0.000532419 -4.92548e-19
-0.000203208 5.91764e-05 -1.39386e-19
-0.000220291 -5.35165e-05 -1.08855e-19
-9.73174e-06 -0.000746687 -8.4715e-19
8.79772e-05 0.000794294 -1.4502e-19
0.00078143 3.08503e-05 2.47463e-19
-0.000752978 -9.21494e-05 5.63537e-20
0.000291614 0.000349289 -2.60414e-19
0.00035879 -0.000335301 -2.07057e-19
-0.000275025 0.000174562 6.30583e-20
-0.000370878 -4.89004e-05 -1.57361e-19
-0.000359344 5.68626e-05 -7.14598e-20
-0.000292949 -0.00017489 -1.78633e-19
0.00025361 -0.000373094 1.67428e-19
0.000275406 0.000426543 -1.57217e-19
0.000383727 -0.000184874 -2.87487e-19
-0.000232583 0.000378801 8.38414e-20
-7.07993e-05 -0.000336179 -1.73022e-19
0.000383505 0.000242527 2.05978e-19
-9.18174e-05 0.000258689 6.27784e-21
0.000257289 -0.000209687 2.09911e-19
6.73379e-05 -0.000693551 4.22627e-20
3.05065e-05 0.000577289 1.35249e-19
0.00040902 0.000470409 2.52361e-19
0.000495857 -0.000494963 -1.73323e-19
3.19224e-05 -8.06112e-05 -4.48917e-20
-4.35055e-05 0.000397535 -1.93091e-19
-3.08668e-05 -0.000378886 -5.89679e-20
9.89415e-05 0.000231089 2.8866e-20
-7.24932e-05 -0.000233184 -2.74142e-19
1.17403e-05 0.000326026 7.91011e-20
2.06921e-05 -0.000305141 1.41301e-19
-0.000436208 -0.000237869 1.91362e-19
-3.56407e-05 -0.00032629 3.0765e-19
9.25717e-05 0.000364177 -1.44173e-19
-0.000199888 -0.000136331 -5.87471e-20
-0.000489779 0.00035486 2.42468e-19
0.000124259 0.000197719 2.08484e-19
-3.08668e-05 -0.000378886 -2.31119e-19
-0.00021716 0.000111377 2.15157e-19
0.000426821 0.000274395 3.38245e-19
0.000563641 -0.000215634 -5.01646e-19
0.000383505 0.000242527 1.39972e-19
0.000215113 0.000301538 5.30657e-19
0.000242823 -0.000263088 6.87329e-20
0.000531792 0.00021037 3.41575e-19
0.000443634 0.000269153 -1.40193e-19
0.000737034 -0.000236509 9.27678e-19
0.000568873 -0.000214005 -4.61286e-19
-4.25647e-05 0.000185873 -1.21678e-19
0.00026234 0.000230823 9.38739e-20
0.000264573 -0.000138324 -8.9087e-20
0.000351539 0.000584418 7.92582e-21
-0.000360688 -0.000674873 5.22697e-19
-2.57671e-05 -6.21956e-05 6.56577e-20
0.000383727 -0.000184874 1.99479e-19
0.000281489 7.9943e-05 -2.43228e-19
-0.000230225 7.16258e-05 1.00041e-19
-0.000199888 -0.000136331 -1.59183e-19
-0.000765407 -1.34933e-05 1.65823e-20
-0.000743824 1.76825e-05 6.25826e-20
-3.89495e-05 0.00020859 7.34094e-20
-0.000292949 -0.00017489 1.69186e-19
0.000204883 0.000253047 8.5124e-20
-9.73174e-06 -0.000746687 -1.14228e-19
8.79772e-05 0.000794294 -2.19729e-19
-0.000752978 -9.21494e-05 1.71151e-19
0.00078143 3.08503e-05 -5.60373e-20
0.000176811 -0.000171825 4.19611e-20
-0.000258811 0.000170348 -2.53915e-19
4.5268e-05 0.000243543 -3.78536e-20
5.18137e-05 -0.000208355 -4.91231e-19
-0.00109598 0.000902796 2.01951e-19
-3.56407e-05 -0.00032629 1.77065e-19
-5.70275e-05 -0.000697128 -1.44394e-19
0.000734537 7.44049e-05 -3.0494e-19
-4.25647e-05 0.000185873 -7.4123e-20
1.17403e-05 0.000326026 -4.65397e-20
-0.000230225 7.16258e-05 4.04064e-20
9.25717e-05 0.000364177 8.76131e-20
-0.000436208 -0.000237869 -1.23453e-19
0.000291614 0.000349289 -1.48943e-19
0.00035879 -0.000335301 3.36028e-19
0.000232327 8.42671e-05 1.10613e-19
0.000236894 0.000105105 -1.01876e-19
2.06921e-05 -0.000305141 1.6118e-19
-0.000292949 -0.00017489 -1.16908e-19
-2.57671e-05 -6.21956e-05 -5.67463e-21
-0.000203208 5.91764e-05 2.61653e-21
-0.000220291 -5.35165e-05 -1.28733e-19
-0.00021716 0.000111377 -3.36529e-20
0.00110225 -0.000847402 6.09524e-19
-9.73174e-06 -0.000746687 6.57215e-20
3.42056e-05 0.000730187 -6.63543e-20
0.00078143 3.08503e-05 -2.66135e-19
0.00025361 -0.000373094 4.77757e-20
0.000275406 0.000426543 1.99828e-19
0.00026234 0.000230823 3.96992e-19
-0.000489779 0.00035486 2.5702e-19
0.000264573 -0.000138324 9.37168e-20
0.000280312 0.000202984 4.37636e-19
0.000312905 -9.98047e-05 -1.53683e-19
0.000383727 -0.000184874 1.96625e-19
0.000383505 0.000242527 -5.88109e-20
-0.000901063 0.00112636 -6.39127e-19
-0.00109598 0.000902796 1.24579e-19
-0.000220291 -5.35165e-05 -2.79145e-20
-0.000203208 5.91764e-05 6.1869e-20
-9.06094e-05 -0.000532419 8.91693e-19
0.000137772 0.000467855 1.64548e-20
-0.000240792 0.000362688 2.62665e-20
-0.000269899 -0.000180922 -5.51154e-20
0.000257871 -0.00024582 1.04845e-19
0.000256011 0.000248183 -3.17841e-20
0.000319359 6.3756e-05 -3.3003e-20
0.000318932 -6.41418e-05 2.00991e-20
8.0026e-05 -0.00035242 -1.63384e-19
0.000409747 -7.4604e-05 8.8263e-20
-0.000436729 -6.39113e-05 -2.90401e-20
-5.47435e-05 0.00034884 9.08157e-20
0.000515304 -0.000147469 1.89778e-19
0.000515114 0.00014765 -2.81524e-20
-0.000284535 -0.00017134 -7.92582e-20
-0.000287232 0.000146458 3.53179e-20
1.63617e-05 0.000324228 -6.49862e-21
6.06362e-06 -0.000324122 -2.4071e-19
-2.85096e-05 -0.000325389 7.05255e-20
4.82714e-05 0.00031402 1.78951e-19
0.000346487 -4.01921e-05 -3.96928e-20
0.000270347 0.000117612 -3.43027e-20
-5.62503e-05 0.000178388 2.10956e-19
7.48195e-05 -0.000174008 -2.86205e-19
-0.000489966 0.00033948 3.20265e-21
-0.000431565 -0.000242634 -5.25797e-20
0.000827794 -0.000387878 -1.67959e-19
0.000467656 0.000638845 -4.31163e-20
0.000515304 -0.000147469 1.10265e-19
0.000515114 0.00014765 -2.39678e-19
0.000287068 -0.000126192 4.0279e-20
0.000286363 0.000124628 -4.32825e-21
-0.000223034 0.000107193 1.53588e-20
-0.000226395 -0.000107101 1.19316e-19
0.00034629 0.000122033 -1.98418e-19
0.000345186 -0.000125296 2.72817e-20
9.9592e-05 0.000527219 -7.48833e-20
-8.18451e-05 -0.000523812 -7.57756e-21
-0.000214751 5.0935e-05 1.08507e-19
-0.000219223 -5.43313e-05 -4.00411e-20
1.74506e-06 -0.000755412 -2.19383e-20
8.88867e-05 0.000766223 1.20947e-20
0.000806567 6.68244e-06 1.09441e-19
-0.000748879 -0.000101047 2.63621e-20
0.000375202 -0.000226673 9.86949e-20
0.000374377 0.000227047 -2.39457e-19
-0.000280787 0.000166259 1.49389e-19
-0.000370681 -4.96916e-05 -4.41019e-20
-0.000372423 4.85886e-05 -1.73166e-19
-0.00029229 -0.000177721 1.22281e-19
0.000272085 -0.000373651 -1.29731e-19
0.000273749 0.000379644 2.54892e-20
0.000419063 -0.000185198 -6.15036e-21
-0.000240792 0.000362688 -1.31333e-19
-6.12945e-05 -0.000336421 -7.97339e-20
0.000426994 0.000182239 -5.22952e-20
-0.000244828 0.000201146 -2.07312e-19
0.000267395 -0.000200821 -2.63141e-19
7.7168e-05 -0.000686029 -7.57073e-20
-5.58328e-05 0.000685754 1.28402e-19
0.000413361 -0.000348696 2.69801e-20
0.00041351 0.000349358 -1.92378e-19
0.000183002 6.25681e-05 -4.88546e-20
-4.76368e-05 0.000398689 -7.17444e-20
-3.18944e-05 -0.000380599 4.87443e-20
8.32414e-05 0.000222971 1.59485e-19
-5.8619e-05 -0.000227806 9.82829e-20
-1.15882e-05 0.000309022 1.31286e-19
3.38189e-05 -0.000302215 7.45055e-20
-0.000431565 -0.000242634 7.83876e-20
-2.85096e-05 -0.000325389 -2.8866e-20
4.82714e-05 0.00031402 -1.90555e-19
-0.000197757 -0.000134842 5.00611e-20
-0.000489966 0.00033948 6.92087e-20
5.73208e-05 7.99802e-05 1.22646e-19
-3.18944e-05 -0.000380599 3.66643e-20
-0.000223034 0.000107193 1.81521e-19
0.000518522 -0.000146467 4.85064e-20
0.000518547 0.00014658 9.63162e-20
0.000426994 0.000182239 7.33969e-21
0.000302242 0.00018207 8.78397e-21
0.000303886 -0.000182149 -1.76747e-19
0.000654805 -0.000184188 3.40624e-19
0.000515304 -0.000147469 9.96122e-20
0.000654778 0.000184356 -5.85534e-19
0.000515114 0.00014765 -5.20828e-19
-5.62503e-05 0.000178388 1.26499e-19
0.000287068 -0.000126192 -2.28409e-19
0.000286363 0.000124628 2.11861e-19
-0.000349893 -0.000664659 -1.69297e-19
0.00037123 0.000671806 -3.76354e-19
-1.06492e-05 -5.71268e-05 1.37657e-19
0.000419063 -0.000185198 9.46683e-20
0.000346487 -4.01921e-05 1.07165e-20
-0.000231779 6.76081e-05 -5.91591e-20
-0.000197757 -0.000134842 -2.42787e-19
-0.000765442 -1.43922e-05 2.94771e-21
-0.000766211 1.23003e-05 2.1511e-19
-5.32756e-05 0.000197092 8.90232e-20
-0.00029229 -0.000177721 4.0296e-20
0.000195103 0.000159905 3.31305e-21
1.74506e-06 -0.000755412 -1.66119e-20
8.88867e-05 0.000766223 -6.3328e-20
0.000806567 6.68244e-06 -7.58348e-20
-0.000748879 -0.000101047 -4.65887e-20
0.00019439 -0.000161581 1.18492e-19
-0.000269922 0.000161224 1.82502e-19
0.000181455 -0.000149825 -3.34787e-20
0.000179022 0.000146674 -1.03418e-19
-0.00108833 0.00088661 -5.32381e-20
-2.85096e-05 -0.000325389 -1.85038e-19
-4.71794e-05 -0.000704161 -1.11628e-19
0.00075529 5.48377e-05 -8.3871e-20
-5.62503e-05 0.000178388 1.77571e-19
-1.15882e-05 0.000309022 -1.29604e-19
-0.000231779 6.76081e-05 6.79089e-20
4.82714e-05 0.00031402 1.06192e-19
-0.000431565 -0.000242634 -7.77843e-20
0.000375202 -0.000226673 -5.53874e-20
0.000374377 0.000227047 -1.81249e-19
0.000244859 -0.000102756 -1.67098e-20
0.000246725 0.000103375 1.42223e-19
3.38189e-05 -0.000302215 -1.94565e-19
-0.00029229 -0.000177721 -2.46652e-20
-1.06492e-05 -5.71268e-05 6.59423e-20
-0.000219223 -5.43313e-05 -1.0643e-19
-0.000214751 5.0935e-05 -1.17953e-19
-0.000223034 0.000107193 -1.52511e-19
0.00112149 -0.000863349 7.71982e-21
1.74506e-06 -0.000755412 -1.64985e-19
2.94695e-05 0.000695379 -1.56604e-20
0.000806567 6.68244e-06 -9.5713e-20
0.000272085 -0.000373651 -8.60755e-20
0.000273749 0.000379644 1.37917e-20
0.000286363 0.000124628 7.90841e-20
-0.000489966 0.00033948 -8.94352e-20
0.000287068 -0.000126192 2.25937e-19
0.000318932 -6.41418e-05 5.20573e-20
0.000319359 6.3756e-05 9.9009e-20
0.000419063 -0.000185198 -1.69076e-19
0.000426994 0.000182239 7.08737e-20
-0.000886688 0.00109745 3.75691e-21
-0.00108833 0.00088661 -8.57187e-20
-0.000219223 -5.43313e-05 8.94102e-21
-0.000214751 5.0935e-05 2.84557e-19
-8.18451e-05 -0.000523812 -2.69512e-19
9.9592e-05 0.000527219 -8.5536e-20
-0.000239708 0.000387228 -2.45735e-19
-0.000261908 -0.000248687 2.09053e-19
0.000231761 -0.000258651 2.35209e-19
0.000234343 0.000260752 1.09267e-19
0.000317777 -0.000105566 -3.67952e-19
0.000318522 0.000111421 -4.30696e-20
-6.54498e-05 -0.000351794 8.61222e-20
0.000350759 -8.52951e-05 1.11739e-19
-0.000493021 -0.000111378 9.38739e-20
-5.95215e-05 0.000355093 6.05226e-20
0.000583143 -0.000221461 -2.59683e-19
0.0005766 0.000225241 1.87051e-19
-0.000290438 -0.000145959 3.46043e-20
-0.000287678 0.000168242 -2.35604e-19
7.84778e-06 0.000331159 3.40649e-20
3.12458e-06 -0.000331854 1.38545e-19
3.21886e-05 -0.000319548 -2.80275e-19
3.59521e-05 0.000322919 -2.72692e-21
0.000286886 -5.0551e-05 -1.29192e-19
0.000183621 0.000166836 -3.33683e-20
-6.19213e-05 -0.00018278 3.93505e-19
-5.85307e-05 0.000185999 5.31362e-20
-0.000394244 0.00064462 -4.21594e-19
-0.000442395 -0.000239216 5.32637e-21
0.000785844 -0.000373366 -3.80128e-22
0.000771867 0.000419164 2.13698e-19
0.000583143 -0.000221461 -2.88787e-19
0.0005766 0.000225241 -3.53179e-19
0.000264113 -0.000142999 -1.45995e-19
0.00026586 0.000146311 2.28897e-20
-0.000227378 -0.000106443 7.34561e-20
-0.000231911 0.000107746 -1.09568e-19
0.000310734 0.000145218 -2.48241e-19
0.000306767 -0.000147274 -1.33584e-19
9.56346e-05 0.000539283 -3.08317e-19
9.18091e-05 -0.000539246 -2.09231e-20
-0.000219049 -5.10283e-05 -6.88604e-20
-0.000233733 5.71171e-05 -9.18434e-20
-9.99279e-06 -0.000740114 3.60421e-19
-7.40796e-05 0.000755109 3.10226e-19
0.000746047 -5.44256e-05 -3.74502e-20
-0.000657892 6.01723e-06 1.59334e-19
0.000369078 -0.000348838 -3.75987e-20
0.000365563 0.000349838 2.03727e-19
-0.000345304 -0.000207846 1.92012e-19
-0.000375349 -4.87633e-05 -7.58348e-20
-0.000373268 6.21164e-05 -8.2635e-20
-0.000289729 0.000169835 -1.31872e-19
0.000247956 -0.000381683 3.60073e-19
-0.000234444 0.000383302 -2.25856e-19
0.00037043 -0.000198993 -1.26372e-19
-6.97649e-05 -0.000340449 4.46539e-20
0.000229885 0.000358219 2.64406e-20
0.000379496 0.000199253 1.18968e-19
-0.000258117 0.000209713 4.91096e-20
-0.000260098 -0.000211536 -1.60768e-19
-6.75476e-05 -0.000701777 -3.13261e-19
-6.45173e-05 0.000702658 1.08838e-19
0.000508754 -0.000508848 -2.10608e-19
0.000504265 0.000508019 6.02289e-21
3.42514e-05 -0.000100094 -9.85833e-21
-5.36082e-05 -0.000397402 1.42287e-19
-4.09754e-05 0.000378864 -5.15645e-20
7.80508e-05 -0.000227517 -3.9043e-19
7.90988e-05 0.000227827 -1.2824e-19
-0.000442395 -0.000239216 -8.48395e-20
-1.79312e-05 0.000313367 -2.41377e-19
-2.04146e-05 -0.000310244 -1.43778e-20
3.21886e-05 -0.000319548 -1.17732e-19
3.59521e-05 0.000322919 2.92313e-20
5.16949e-05 8.91167e-05 1.32951e-19
4.24095e-05 -9.03886e-05 -1.00088e-19
-4.09754e-05 0.000378864 -1.59137e-19
-0.000227378 -0.000106443 1.23865e-19
0.000576225 -0.000223616 -6.5002e-19
0.0005697 0.00022739 5.07576e-20
0.000379496 0.000199253 -8.65683e-20
0.0002481 0.000276602 -3.36062e-20
0.000250308 -0.000274678 1.2672e-19
0.000754483 -0.000242761 8.38881e-20
0.000583143 -0.000221461 4.98061e-20
0.00074324 0.00024162 7.41868e-20
0.0005766 0.000225241 1.28844e-19
-0.00047905 0.000358518 -8.28728e-20
-6.19213e-05 -0.00018278 -2.31183e-19
-5.85307e-05 0.000185999 -1.16543e-19
0.000264113 -0.000142999 -1.85751e-19
0.00026586 0.000146311 7.5771e-20
0.000364207 -0.000682888 -4.82856e-20
0.000371881 0.000685576 2.18058e-19
0.00037043 -0.000198993 3.26547e-20
0.000286886 -5.0551e-05 -1.05414e-19
-0.000235027 -6.95268e-05 2.60049e-19
-0.000771043 -1.06479e-05 -5.35346e-19
-0.000769081 1.43487e-05 -6.84688e-21
-5.90747e-05 -0.000200684 -9.11469e-20
-5.28037e-05 0.000215264 4.93475e-20
-0.000289729 0.000169835 -1.51368e-19
0.000179016 0.000179718 -3.38907e-20
0.000175467 -0.000177249 2.66148e-20
-9.99279e-06 -0.000740114 3.67175e-19
-7.40796e-05 0.000755109 -7.2545e-20
-0.000657892 6.01723e-06 -3.71167e-20
0.000746047 -5.44256e-05 3.66818e-19
-0.00027341 -0.000160726 2.64916e-19
6.29852e-05 -0.000230987 2.11415e-19
6.12174e-05 0.000227775 9.29395e-20
0.00108022 0.000875022 2.0914e-19
3.59521e-05 0.000322919 9.66645e-20
-5.35741e-05 -0.000694692 1.19238e-19
-0.000657892 6.01723e-06 -3.28155e-19
-5.85307e-05 0.000185999 -2.78041e-19
-6.19213e-05 -0.00018278 -6.82572e-20
-2.04146e-05 -0.000310244 1.40367e-19
-0.000235027 -6.95268e-05 6.98289e-20
3.21886e-05 -0.000319548 9.95018e-20
0.000369078 -0.000348838 -7.24113e-20
0.000365563 0.000349838 2.43483e-19
0.000241503 -9.30247e-05 -8.98643e-20
0.00023662 0.000105454 -2.65897e-19
-0.000442395 -0.000239216 1.23169e-19
-1.79312e-05 0.000313367 1.27594e-20
-0.000289729 0.000169835 -1.59166e-19
-0.000219049 -5.10283e-05 -9.01659e-20
-0.000233733 5.71171e-05 -4.18077e-19
-0.000227378 -0.000106443 1.96625e-19
0.00102571 -0.000839124 -9.85512e-19
-1.78878e-05 0.000682638 4.57387e-19
-9.99279e-06 -0.000740114 -1.10567e-19
0.000708372 -2.20506e-05 -5.78594e-20
0.000247956 -0.000381683 -1.49244e-19
-0.000234444 0.000383302 -6.15036e-21
0.00026586 0.000146311 -5.66234e-20
0.000264113 -0.000142999 2.02206e-19
0.000328447 0.000249555 -6.82572e-20
0.000317777 -0.000105566 -1.45392e-19
0.000318522 0.000111421 2.7218e-20
0.00037043 -0.000198993 6.70849e-20
0.000379496 0.000199253 1.98481e-19
0.00087419 0.00107541 1.48206e-19
0.00108022 0.000875022 1.05848e-18
-0.000219049 -5.10283e-05 7.17148e-20
-0.000233733 5.71171e-05 -1.73829e-19
9.56346e-05 0.000539283 2.10608e-19
9.18091e-05 -0.000539246 -9.54923e-20
-0.000245707 0.000358543 2.53138e-19
-0.000274639 -0.000179863 -1.70057e-19
0.00023412 -0.000255337 2.69907e-19
0.000231963 0.000259283 1.58644e-19
0.000318725 -0.000109384 3.57299e-20
0.000318256 0.000109799 2.80886e-20
6.29992e-05 -0.000356985 6.34703e-20
0.000339401 -8.45332e-05 1.2748e-19
-0.000439961 -6.24508e-05 -8.35694e-20
-6.50603e-05 0.000350764 2.41835e-19
0.000580562 -0.000224583 -1.81028e-20
0.000579976 0.000225239 1.47898e-19
-0.000290364 0.000146189 4.45609e-19
-0.000288711 -0.000170689 -1.28287e-19
3.00044e-06 0.000330665 -9.04504e-20
-6.18078e-06 -0.000332032 -2.00002e-19
-3.70302e-05 -0.000328003 -1.5446e-19
3.2278e-05 0.000318484 -6.85588e-20
0.000286317 -5.33855e-05 9.35893e-20
0.00018092 0.000166775 -2.69801e-20
-6.13479e-05 0.000182102 -7.5309e-21
5.85668e-05 -0.000183196 -1.79665e-19
-0.000489429 0.000335836 2.75709e-19
-0.000438056 -0.00023997 -2.20356e-19
0.000450873 -0.000646386 2.6963e-20
0.000781284 0.000384645 1.08069e-19
0.000580562 -0.000224583 -2.59012e-20
0.000579976 0.000225239 3.93471e-19
0.000264729 -0.000144367 1.86291e-19
0.00026424 0.000144641 -1.00819e-19
-0.000226693 0.000107648 1.56584e-19
-0.00023064 -0.000106932 1.40622e-19
0.000307252 0.000146856 1.06302e-19
0.000309161 -0.000145816 -1.87591e-19
9.07894e-05 0.000538726 -2.11177e-19
-9.2802e-05 -0.000538111 -1.77953e-19
-0.00021784 5.12156e-05 6.29479e-20
-0.000222585 -5.35429e-05 -6.71953e-20
-1.02183e-05 -0.000708241 -8.68358e-20
3.0225e-05 0.000742095 5.11815e-19
0.000754734 -4.57146e-06 2.64424e-19
-0.00074644 -9.49363e-05 -4.01176e-19
0.000367612 -0.00035063 -3.39545e-20
0.000366162 0.000351935 3.65956e-19
-0.000283841 0.000165883 -1.39658e-20
-0.000374674 4.88902e-05 8.69337e-20
-0.000374324 -4.89025e-05 -4.38495e-19
-0.000296127 -0.000176791 1.14704e-19
0.000247653 -0.000378698 8.24609e-20
0.000244382 0.000380748 2.27742e-19
0.000376021 0.000198527 1.524e-19
-0.000245707 0.000358543 1.4842e-19
-7.31877e-05 -0.000337639 -2.95779e-19
0.000376307 -0.000198231 1.01324e-19
-0.000262542 0.000208216 1.79474e-19
0.000259079 -0.000211312 -2.01824e-19
6.68775e-05 -0.000701007 -5.15502e-19
-6.90413e-05 0.000701744 -3.02761e-20
0.000507393 -0.000510102 4.91096e-20
0.000507569 0.000511491 3.30667e-19
3.58492e-05 0.00010055 4.53845e-20
-5.35056e-05 0.000396935 3.18779e-19
-4.10315e-05 -0.000378508 3.61721e-19
7.77209e-05 0.000226549 7.15407e-20
-7.40685e-05 -0.000236672 -1.62259e-19
-2.07388e-05 0.00030987 -7.47729e-20
1.85956e-05 -0.000308739 -2.05027e-19
-0.000438056 -0.00023997 -6.5016e-19
-3.70302e-05 -0.000328003 -1.49134e-19
3.2278e-05 0.000318484 7.30612e-20
-0.000201912 -0.000136975 2.2414e-20
-0.000489429 0.000335836 3.4067e-19
4.85998e-05 8.7881e-05 -8.11611e-20
-4.10315e-05 -0.000378508 7.88633e-20
-0.000226693 0.000107648 1.32806e-19
0.000573762 -0.000226701 5.92033e-19
0.000573036 0.000227401 1.60724e-20
0.000376307 -0.000198231 1.0665e-19
0.000246841 0.000277639 8.23992e-22
0.000249353 -0.000276773 -4.59069e-20
0.000749502 -0.000242886 -5.37986e-20
0.000580562 -0.000224583 -1.63622e-19
0.000748992 0.000243212 -1.87179e-19
0.000579976 0.000225239 7.32262e-21
-6.13479e-05 0.000182102 5.74303e-20
0.000264729 -0.000144367 1.70312e-19
0.00026424 0.000144641 1.59026e-19
0.00036353 0.000682484 2.29501e-19
-0.000366618 -0.000682735 -4.48765e-19
-2.66935e-05 -6.66053e-05 -2.8042e-20
0.000376021 0.000198527 -9.48049e-21
0.000286317 -5.33855e-05 6.16311e-20
-0.000234393 6.83008e-05 1.72865e-19
-0.000201912 -0.000136975 -2.92402e-19
-0.000769505 1.06986e-05 -3.63798e-19
-0.00076979 -1.25393e-05 3.7553e-19
-5.88071e-05 0.00019808 2.36556e-19
-0.000296127 -0.000176791 2.98641e-20
0.000176203 0.000178657 4.22752e-20
-1.02183e-05 -0.000708241 1.06238e-19
3.0225e-05 0.000742095 1.22098e-19
-0.00074644 -9.49363e-05 4.318e-20
0.000754734 -4.57146e-06 2.921e-19
0.000176131 -0.000178214 1.30334e-19
-0.000272823 0.000161152 6.8338e-20
6.19716e-05 -0.000232829 -1.07729e-19
5.80044e-05 0.000226326 5.86367e-20
-0.00108071 0.000881051 6.30638e-19
-3.70302e-05 -0.000328003 4.56611e-21
-2.0393e-05 -0.000695425 -1.64089e-19
0.000709553 -4.65266e-05 1.83999e-19
-6.13479e-05 0.000182102 9.08157e-20
-2.07388e-05 0.00030987 4.30696e-20
-0.000234393 6.83008e-05 1.68583e-19
3.2278e-05 0.000318484 1.02165e-19
-0.000438056 -0.00023997 -5.24519e-19
0.000367612 -0.00035063 -9.50165e-20
0.000366162 0.000351935 1.59375e-19
0.00024475 9.85529e-05 -2.07469e-19
0.000240149 -9.75886e-05 1.15116e-19
1.85956e-05 -0.000308739 2.10505e-20
-0.000296127 -0.000176791 9.48253e-20
-2.66935e-05 -6.66053e-05 -8.87216e-20
-0.00021784 5.12156e-05 1.99242e-19
-0.000222585 -5.35429e-05 1.3016e-19
-0.000226693 0.000107648 9.05779e-20
0.00106326 0.000842891 8.22888e-19
-1.02183e-05 -0.000708241 -4.85064e-21
6.75561e-06 0.000719113 3.01627e-19
0.000754734 -4.57146e-06 7.93619e-19
0.000247653 -0.000378698 1.68345e-19
0.000244382 0.000380748 4.65899e-19
0.00026424 0.000144641 7.27596e-20
-0.000489429 0.000335836 5.28418e-19
0.000264729 -0.000144367 8.54723e-20
0.000318725 -0.000109384 -8.31574e-20
0.000318256 0.000109799 1.77889e-19
0.000376021 0.000198527 -1.50718e-19
0.000376307 -0.000198231 1.82264e-19
-0.000880784 0.00109421 5.88607e-19
-0.00108071 0.000881051 -3.19135e-19
-0.00021784 5.12156e-05 3.77432e-20
-0.000222585 -5.35429e-05 -8.70736e-20
-9.2802e-05 -0.000538111 -4.2638e-19
9.07894e-05 0.000538726 1.27416e-19
-0.000240093 0.000387227 -3.10093e-19
-0.000261849 -0.000249857 -1.6217e-20
0.000234883 -0.000256154 -8.86112e-20
0.000232449 0.000259272 5.43722e-20
0.000318618 -0.000111127 1.62688e-19
0.000317646 0.000105663 -4.80398e-21
6.51259e-05 -0.000356314 -5.02058e-19
0.000350783 -8.71481e-05 3.71571e-20
-0.000493159 -0.000111647 -6.67275e-21
-6.0447e-05 0.000355492 -1.17698e-19
0.000577016 -0.000224651 1.27068e-19
0.000583058 0.000221954 -2.95668e-19
-0.000290659 -0.000145868 8.73923e-20
-0.000287574 0.000168238 -3.60943e-19
6.22586e-06 0.00033202 -1.72117e-19
-4.16417e-06 -0.000330924 -4.78861e-20
-3.42531e-05 -0.000325243 9.16397e-20
3.36434e-05 0.000322662 6.20266e-19
0.000287213 -5.2576e-05 -5.98727e-20
0.000183311 0.000164662 -2.06216e-19
-5.89571e-05 0.000186875 -2.14936e-19
6.08547e-05 -0.000183277 -9.90432e-20
-0.00039463 0.000644337 2.9275e-19
-0.000442881 -0.000239795 -2.81923e-19
0.000785936 -0.000373951 1.43189e-19
0.000771349 0.00041823 -3.24874e-19
0.000577016 -0.000224651 1.48374e-19
0.000583058 0.000221954 1.86355e-19
0.000265484 -0.000145996 1.32679e-19
0.000264482 0.0001432 9.70298e-20
-0.000227368 -0.000106499 -2.89709e-19
-0.000231848 0.000107679 -1.39845e-19
0.00030994 0.000143084 -1.65415e-19
0.000307969 -0.000149005 1.02577e-19
9.224e-05 0.000539536 -5.09096e-19
-8.98581e-05 -0.000538406 -3.38152e-19
-0.00021959 -5.19132e-05 2.45548e-20
-0.0002336 5.76915e-05 -1.35121e-19
-8.98745e-06 -0.000741597 -4.38443e-19
-7.46324e-05 0.000754511 1.75377e-19
0.000745851 -5.52663e-05 -1.03511e-20
-0.000658119 5.84658e-06 -1.47913e-19
0.000366826 -0.000348973 2.8917e-19
0.00036809 0.000349615 -2.12256e-19
-0.000345237 -0.000208241 7.73723e-20
-0.000379146 -4.05876e-05 9.89794e-20
-0.000372552 6.26699e-05 -2.74171e-19
-0.000289711 0.000169897 -1.38863e-19
0.000248553 -0.000375925 6.55644e-20
-0.00023499 0.000383421 -3.8515e-19
0.000370525 -0.000199724 7.99718e-20
-7.14861e-05 -0.000340024 -2.05281e-20
0.000228409 0.000357 -3.36699e-20
0.000379072 0.00019742 -1.25386e-20
-0.000259651 0.000211177 2.85839e-19
0.00026567 -0.000206348 1.00912e-19
-6.70239e-05 0.000701973 1.5912e-19
7.12978e-05 -0.000702797 -8.24609e-20
0.000504027 -0.000506725 7.31078e-20
0.00050918 0.000510126 -3.64053e-19
3.51659e-05 -0.000102392 -3.28289e-20
-5.35885e-05 -0.000397382 -1.11216e-19
-4.09693e-05 0.00037868 6.99143e-21
7.88041e-05 0.000228749 3.74587e-20
-7.13512e-05 -0.000236587 1.78012e-20
-0.000442881 -0.000239795 3.88892e-19
-1.89427e-05 0.000313859 2.52535e-19
2.07724e-05 -0.000308125 1.15388e-19
-3.42531e-05 -0.000325243 -1.98354e-19
3.36434e-05 0.000322662 -3.52623e-19
-0.000205328 -0.000139728 -5.55616e-20
4.21567e-05 9.03468e-05 3.25834e-19
-4.09693e-05 0.00037868 -1.0267e-19
-0.000227368 -0.000106499 1.60738e-19
0.000570172 -0.000226783 4.36557e-20
0.000576185 0.000224094 -1.01167e-19
0.000379072 0.00019742 -1.85734e-19
0.000248372 0.000274961 -3.27481e-20
0.000250278 -0.000276213 4.61277e-20
0.000743545 -0.000241296 -9.97397e-20
0.000577016 -0.000224651 1.61116e-19
0.000754635 0.000243131 1.48501e-19
0.000583058 0.000221954 -4.62985e-21
-0.000479353 0.0003585 -1.00721e-19
-5.89571e-05 0.000186875 -1.12308e-19
0.000265484 -0.000145996 3.26135e-19
0.000264482 0.0001432 1.35359e-19
0.000364683 0.000683232 1.13595e-19
-0.000364594 -0.000683281 -9.80917e-20
-2.39403e-05 -6.73302e-05 2.19056e-19
0.000370525 -0.000199724 -3.50163e-20
0.000287213 -5.2576e-05 -6.23447e-20
-0.00023502 -6.96343e-05 -4.40677e-20
-0.000205328 -0.000139728 1.54919e-19
-0.000768842 -1.20487e-05 3.64843e-19
-0.000769422 1.35657e-05 8.01163e-20
-5.32748e-05 0.000215923 -3.67888e-19
-0.000289711 0.000169897 -4.83152e-20
0.000176349 0.000177095 2.94891e-19
-8.98745e-06 -0.000741597 3.3528e-19
-7.46324e-05 0.000754511 -1.4567e-19
-0.000658119 5.84658e-06 4.39255e-20
0.000745851 -5.52663e-05 -2.57734e-19
0.000177256 -0.000179691 1.74449e-19
-0.000273134 -0.00016099 -3.91704e-20
6.50191e-05 -0.000232487 -6.41372e-20
5.9403e-05 0.000226121 -1.08536e-19
0.00107993 0.000874473 -3.09664e-20
3.36434e-05 0.000322662 -6.69108e-20
-3.42531e-05 -0.000325243 1.06994e-20
-5.30806e-05 -0.000695339 -2.57591e-19
-0.000658119 5.84658e-06 -3.88733e-19
-5.89571e-05 0.000186875 1.25467e-19
-0.00023502 -6.96343e-05 -6.25188e-20
0.000366826 -0.000348973 -3.95358e-20
0.00036809 0.000349615 -4.25768e-20
0.000245648 9.39754e-05 6.86692e-20
0.000236454 -0.000105354 2.1858e-19
-0.000442881 -0.000239795 -3.91967e-19
-1.89427e-05 0.000313859 1.83674e-19
2.07724e-05 -0.000308125 -7.45521e-20
-0.000289711 0.000169897 -4.05168e-20
-2.39403e-05 -6.73302e-05 1.15765e-19
-0.00021959 -5.19132e-05 1.73973e-19
-0.0002336 5.76915e-05 -2.67133e-19
-0.000227368 -0.000106499 -3.90896e-20
0.00102578 -0.000839698 2.98877e-19
-1.86657e-05 0.000682338 -4.09288e-20
-8.98745e-06 -0.000741597 2.87725e-19
0.000708628 -2.32847e-05 8.14457e-20
-0.00023499 0.000383421 9.17889e-21
0.000248553 -0.000375925 -1.20094e-19
0.000264482 0.0001432 -1.17732e-19
0.000327442 0.000247829 8.43638e-20
0.000265484 -0.000145996 2.22845e-19
0.000318618 -0.000111127 1.29302e-19
0.000317646 0.000105663 2.9337e-19
0.000370525 -0.000199724 -8.25712e-20
0.000379072 0.00019742 1.3688e-19
0.000873565 0.00107476 -1.73474e-19
0.00107993 0.000874473 -2.51908e-19
-0.00021959 -5.19132e-05 1.09012e-19
-0.0002336 5.76915e-05 -2.48682e-19
-8.98581e-05 -0.000538406 7.78652e-20
9.224e-05 0.000539536 1.10647e-19
-0.000245722 0.000358468 2.95112e-19
-0.000264 -0.000191129 -1.22884e-19
0.000249247 -0.000318318 2.33188e-20
0.000233821 0.000252735 -1.60453e-19
0.000313224 9.93255e-05 -2.54072e-19
0.000281027 -0.000202821 1.96752e-19
-3.97349e-05 -0.000371497 1.27654e-19
0.000343608 6.63681e-05 -1.46929e-19
-0.000433461 -6.85862e-05 2.34258e-19
-6.33662e-05 0.000350378 -6.75436e-20
0.000568878 0.000213675 3.17763e-19
0.000444599 -0.000269371 3.67839e-21
-0.00027656 -0.000177735 -1.47375e-19
-0.000288071 0.000145485 -2.93417e-20
5.5805e-06 0.000329063 -2.37936e-19
4.92986e-05 -0.000338294 -1.40257e-19
9.13565e-05 -0.000364565 1.10201e-19
3.50766e-05 0.000316734 1.27127e-20
0.000287189 3.3257e-05 -6.70849e-20
0.000167122 -0.000197463 -1.43268e-19
-3.88604e-05 -0.00018839 8.49966e-20
-6.04896e-05 0.000181556 3.78878e-21
-0.000494586 0.000335261 5.83916e-19
-0.000430573 -0.000256739 -1.78586e-19
0.000821754 -0.000416101 -1.37799e-19
0.000449303 0.000632154 -2.0444e-19
0.000568878 0.000213675 6.54267e-19
0.000444599 -0.000269371 -9.21963e-20
0.000263759 0.000137215 9.90898e-20
0.000262859 -0.000231021 2.07469e-19
-0.000222584 0.000104183 2.8874e-19
-0.000219011 -0.000114201 2.06407e-19
0.000311745 0.00013092 2.23207e-20
0.000311554 -0.00018673 2.27156e-20
0.0001375 -0.000467412 1.1204e-19
9.17561e-05 0.000533863 4.70419e-19
-0.000216308 5.11214e-05 1.23912e-19
-0.000214201 -6.86692e-05 -5.53237e-20
6.50115e-06 -0.000787802 -2.10225e-19
7.71826e-05 0.000758682 2.704e-19
0.000784831 -1.37372e-05 -1.56346e-19
-0.000753656 -0.000111788 2.70272e-19
0.000358921 0.000334184 -2.34861e-19
0.000292027 -0.000350369 3.03594e-19
-0.000280994 0.000163298 2.20577e-19
-0.000357182 -6.63959e-05 -7.15407e-20
-0.000372098 4.87998e-05 -8.40622e-20
-0.000285559 -0.000184309 8.99918e-20
0.000272174 -0.000428205 1.19839e-19
0.00025661 0.000378278 2.30104e-19
0.000385534 -0.000242299 2.56736e-19
-0.000245722 0.000358468 2.64963e-19
-4.4671e-05 -0.000358699 -1.1927e-19
0.000381961 0.000185813 -1.17048e-19
-0.000255918 0.00020864 5.64322e-20
-9.23708e-05 -0.000258652 1.42699e-19
-6.55956e-05 0.000694322 5.30147e-19
3.004e-05 -0.000577045 1.65873e-19
0.000495756 0.000494613 -1.62263e-19
0.000409845 -0.000471168 3.04511e-19
3.14431e-05 -0.000117347 8.83904e-20
-4.64963e-05 0.000397001 -1.94959e-20
-2.78904e-05 -0.000379856 1.01039e-19
9.89253e-05 -0.00023006 1.82201e-19
7.8163e-05 0.000225881 1.03682e-20
1.05026e-05 -0.000319265 3.20682e-19
-1.9237e-05 0.00030967 1.12855e-20
-0.000430573 -0.000256739 -9.66008e-20
9.13565e-05 -0.000364565 -9.10536e-20
3.50766e-05 0.000316734 1.26656e-19
-0.000494586 0.000335261 4.03966e-19
4.39966e-05 8.81194e-05 3.84102e-20
0.000121642 -0.000198282 1.77953e-19
-2.78904e-05 -0.000379856 3.91033e-19
-0.000222584 0.000104183 -1.20523e-19
0.000563742 0.000215274 7.60157e-19
0.000427899 -0.000274578 9.23829e-20
0.000381961 0.000185813 -2.70748e-19
0.000243974 0.000262389 6.96844e-20
0.000214279 -0.000301986 -1.06493e-19
0.000737137 0.000236403 7.91954e-19
0.000568878 0.000213675 6.62065e-19
0.000533126 -0.000210749 -1.52145e-19
0.000444599 -0.000269371 2.52106e-19
-3.88604e-05 -0.00018839 5.62752e-20
-6.04896e-05 0.000181556 -1.89439e-20
0.000263759 0.000137215 1.28231e-20
0.000262859 -0.000231021 1.59532e-19
0.000361178 0.000676034 -2.18627e-19
0.000351532 -0.000584134 2.22178e-19
0.000385534 -0.000242299 1.55917e-19
0.000287189 3.3257e-05 -6.81297e-20
-0.000230476 6.45623e-05 -1.07683e-19
-0.000742845 -1.99731e-05 2.04237e-19
-0.0007658 1.12584e-05 7.4535e-20
-5.792e-05 0.000197723 1.79949e-19
-3.38296e-05 -0.000213526 -2.18534e-19
-0.000285559 -0.000184309 -1.26197e-19
0.000177209 0.000170665 7.69604e-20
0.000204473 -0.000253592 5.51962e-20
6.50115e-06 -0.000787802 -2.02427e-19
7.71826e-05 0.000758682 1.8556e-19
-0.000753656 -0.000111788 1.69836e-19
0.000784831 -1.37372e-05 -1.70898e-19
-0.00027086 0.000160167 1.46691e-19
5.21257e-05 0.000213742 -1.93044e-19
4.49055e-05 -0.000238604 3.03594e-19
-0.0010959 0.000884251 8.86129e-19
-4.77034e-05 -0.000731401 -2.34606e-19
0.000730988 3.62505e-05 3.47566e-19
-6.04896e-05 0.000181556 -1.15481e-19
-3.88604e-05 -0.00018839 8.33782e-21
-1.9237e-05 0.00030967 3.90018e-19
1.05026e-05 -0.000319265 -1.70567e-19
-0.000230476 6.45623e-05 2.3272e-19
9.13565e-05 -0.000364565 -1.47452e-19
3.50766e-05 0.000316734 5.24693e-20
-0.000430573 -0.000256739 6.87967e-20
0.000358921 0.000334184 -1.04939e-19
0.000292027 -0.000350369 1.20408e-19
0.000234063 -0.000104927 -9.59043e-20
0.000233308 -8.39111e-05 5.5829e-20
-0.000285559 -0.000184309 1.2404e-19
-0.000214201 -6.86692e-05 2.06993e-19
-0.000216308 5.11214e-05 8.31107e-20
-0.000222584 0.000104183 1.32988e-20
0.00110633 -0.000875654 9.73929e-20
6.50115e-06 -0.000787802 -1.7475e-19
1.77428e-05 0.00068779 5.87339e-19
0.000784831 -1.37372e-05 -3.54746e-19
0.000272174 -0.000428205 -1.12992e-19
0.00025661 0.000378278 -5.95074e-20
0.000263759 0.000137215 4.33541e-20
0.000262859 -0.000231021 8.28728e-20
-0.000494586 0.000335261 2.60919e-19
0.000313224 9.93255e-05 1.76114e-19
0.000281027 -0.000202821 4.3435e-20
0.000385534 -0.000242299 3.61071e-19
0.000381961 0.000185813 -3.40182e-20
-0.000886019 0.00108582 4.39871e-19
-0.0010959 0.000884251 -3.61436e-19
-0.000214201 -6.86692e-05 -9.75522e-20
-0.000216308 5.11214e-05 2.37855e-19
0.0001375 -0.000467412 -1.05194e-19
9.17561e-05 0.000533863 -5.69521e-19
3.43725e-05 -4.53611e-06 1.43871e-19
3.82243e-05 -4.94687e-06 1.47167e-19
1.77857e-05 -2.25434e-06 3.18401e-19
3.81457e-05 4.90412e-06 -1.53352e-19
5.13997e-05 -6.62261e-06 2.66785e-19
5.14879e-05 6.58075e-06 1.26499e-19
4.45425e-05 -1.08661e-05 1.39369e-19
3.08228e-05 -3.42601e-06 3.70297e-20
3.08774e-05 -2.93686e-06 1.56172e-19
5.52021e-05 4.39471e-06 -7.79926e-20
8.63906e-05 -2.69179e-05 9.74885e-20
8.64514e-05 2.69218e-05 2.8324e-19
-1.36634e-05 -3.04104e-05 -8.23992e-22
-1.73711e-05 -1.15034e-05 -2.5829e-19
5.66671e-05 3.19123e-05 9.33344e-20
6.19871e-05 -2.83572e-05 -9.00384e-20
7.31799e-05 8.59944e-06 -1.91112e-19
4.18146e-05 9.97793e-06 -2.23503e-20
3.09686e-05 -3.50528e-06 2.38505e-19
2.21525e-05 1.54055e-05 1.03384e-19
7.06954e-05 -5.54012e-05 -2.39049e-20
2.87964e-05 -1.27274e-05 1.5934e-19
3.47946e-05 -4.55039e-06 1.76271e-19
3.84578e-05 1.6581e-06 3.83107e-19
3.58449e-05 2.67727e-06 -7.77377e-20
4.07003e-05 3.19124e-07 4.18803e-20
8.63906e-05 -2.69179e-05 2.5366e-19
8.64514e-05 2.69218e-05 -1.66825e-19
4.07591e-05 -2.14653e-06 2.27029e-19
4.07588e-05 2.04681e-06 1.76271e-20
2.89116e-05 3.50715e-05 -1.26592e-19
3.11538e-05 -2.97211e-05 -5.85901e-20
3.70173e-05 -6.81626e-06 3.40148e-19
3.69749e-05 6.71156e-06 2.18695e-19
0.000121972 0.00015472 1.22914e-19
4.19147e-05 -0.000146022 1.62322e-19
-6.72417e-06 -8.15799e-05 5.84626e-20
-7.29842e-06 7.98243e-05 5.65597e-20
4.29529e-05 7.91962e-08 -7.34903e-20
4.25649e-05 -7.15309e-07 2.25126e-19
3.47707e-05 8.995e-09 2.15586e-19
3.36187e-05 -3.82714e-08 1.06842e-19
5.38525e-05 -4.45088e-05 2.50237e-19
5.38701e-05 4.46164e-05 8.62234e-21
1.55796e-05 3.16296e-06 3.11342e-20
-0.000116766 -8.32147e-05 -4.72067e-20
-0.000116345 8.3162e-05 3.26547e-20
2.01494e-05 -2.59213e-06 8.9087e-20
4.10529e-05 -4.25454e-06 8.11611e-20
4.11445e-05 4.22285e-06 3.64656e-19
3.4187e-05 -4.52145e-06 2.10956e-19
3.43725e-05 -4.53611e-06 2.23384e-19
4.89175e-05 1.08899e-05 -1.29972e-21
3.42153e-05 4.65288e-06 6.4358e-20
-2.59621e-05 2.92953e-05 -1.97508e-20
0.000231643 3.42912e-05 3.25273e-20
5.88052e-05 0.000219142 6.03314e-20
0.000124233 -0.000230028 1.24282e-20
7.37145e-05 -6.95794e-05 2.23036e-19
7.37649e-05 6.96203e-05 2.67737e-19
3.65194e-06 1.09685e-05 4.35733e-19
0.000117188 0.00021459 1.47329e-19
0.000127217 -0.000202817 -6.98119e-20
0.000134438 -3.50227e-05 -3.08793e-20
1.68142e-05 -1.75572e-05 2.02427e-19
7.53913e-05 -1.42336e-05 1.84197e-19
4.38575e-05 -1.01216e-05 3.6396e-19
3.58449e-05 2.67727e-06 7.06359e-20
7.31799e-05 8.59944e-06 -2.1433e-20
4.18146e-05 9.97793e-06 -3.58574e-20
1.52697e-05 7.18789e-05 5.11058e-20
3.47946e-05 -4.55039e-06 3.85502e-20
2.26336e-05 6.33695e-07 -2.57737e-20
0.000127217 -0.000202817 -1.09568e-19
2.89116e-05 3.50715e-05 -2.29193e-20
8.80624e-05 -2.63974e-05 3.68776e-19
8.81281e-05 2.63997e-05 -2.39805e-19
3.42153e-05 4.65288e-06 -2.47986e-19
3.4237e-05 -3.22627e-05 3.01564e-19
3.41012e-05 3.22906e-05 1.85879e-19
0.00011377 -3.42125e-05 2.2002e-20
8.63906e-05 -2.69179e-05 1.74147e-19
0.000113859 3.42339e-05 8.63942e-20
8.64514e-05 2.69218e-05 -1.48374e-19
7.06954e-05 -5.54012e-05 3.09744e-19
4.07591e-05 -2.14653e-06 2.1923e-19
4.07588e-05 2.04681e-06 -1.30746e-19
0.000291354 0.000260553 2.66319e-20
-6.44765e-05 -0.000198176 -5.76386e-20
1.76412e-05 2.52949e-06 1.94026e-19
3.4187e-05 -4.52145e-06 2.79817e-19
3.09686e-05 -3.50528e-06 7.4535e-20
6.3894e-05 2.23358e-05 7.06359e-20
1.52697e-05 7.18789e-05 -2.0609e-20
-0.000424864 6.86467e-05 -2.21957e-19
-0.000424577 -7.00092e-05 -4.03937e-19
7.19703e-05 -4.73777e-05 -1.22948e-19
2.01494e-05 -2.59213e-06 2.02265e-20
3.71394e-05 3.44559e-06 -1.22693e-19
4.29529e-05 7.91962e-08 2.70812e-19
4.25649e-05 -7.15309e-07 2.71076e-20
3.36187e-05 -3.82714e-08 1.66756e-20
3.47707e-05 8.995e-09 1.5167e-19
3.71518e-05 -3.52367e-06 4.53616e-19
-3.44822e-05 -2.60999e-05 1.50276e-20
7.30589e-06 -2.74104e-05 6.30362e-19
7.31132e-06 2.69509e-05 4.55739e-19
3.21597e-05 1.15559e-05 1.09441e-19
7.31799e-05 8.59944e-06 2.59717e-19
4.24195e-05 6.38151e-07 1.8683e-19
3.49236e-05 -1.34565e-07 1.50973e-19
7.06954e-05 -5.54012e-05 1.58516e-20
7.53913e-05 -1.42336e-05 -8.83904e-20
6.3894e-05 2.23358e-05 1.77546e-21
4.18146e-05 9.97793e-06 -1.04718e-19
3.58449e-05 2.67727e-06 1.76398e-19
5.38525e-05 -4.45088e-05 2.76486e-19
5.38701e-05 4.46164e-05 1.14767e-20
4.41044e-05 2.18904e-05 1.83152e-19
4.38166e-05 -2.18725e-05 -2.89518e-19
4.38575e-05 -1.01216e-05 6.4358e-20
2.01494e-05 -2.59213e-06 5.99831e-20
1.76412e-05 2.52949e-06 2.62886e-19
-6.72417e-06 -8.15799e-05 -1.21869e-19
-7.29842e-06 7.98243e-05 -1.23772e-19
2.89116e-05 3.50715e-05 -4.99336e-20
3.25702e-05 1.11888e-05 1.13909e-19
4.31656e-05 1.20163e-09 1.68031e-20
4.29529e-05 7.91962e-08 1.57251e-19
3.47707e-05 8.995e-09 1.38162e-19
4.10529e-05 -4.25454e-06 1.54965e-19
4.11445e-05 4.22285e-06 -1.20221e-19
4.07588e-05 2.04681e-06 1.4755e-19
3.47946e-05 -4.55039e-06 3.27499e-19
4.07591e-05 -2.14653e-06 1.18412e-19
5.13997e-05 -6.62261e-06 1.34008e-19
5.14879e-05 6.58075e-06 -6.27784e-21
3.4187e-05 -4.52145e-06 2.26553e-19
3.42153e-05 4.65288e-06 -1.28716e-19
4.57628e-05 2.62715e-07 3.75054e-20
3.21597e-05 1.15559e-05 3.77262e-20
-7.29842e-06 7.98243e-05 1.04115e-19
-6.72417e-06 -8.15799e-05 -1.61066e-20
0.000121972 0.00015472 -1.6527e-19
4.19147e-05 -0.000146022 6.15036e-20
-0.000232583 0.000378801 -8.97368e-20
-0.000272423 -0.000177825 1.51551e-20
0.000235796 -0.000250119 -1.22026e-19
0.000249141 0.000317176 -1.60895e-20
0.000280312 0.000202984 5.70354e-20
0.000312905 -9.98047e-05 -2.58099e-19
6.60297e-05 -0.000354407 -8.17814e-20
0.000343452 0.000116288 1.89825e-19
-0.000439217 -5.79092e-05 2.01081e-19
-3.80573e-05 0.000371982 -2.00193e-19
0.000443634 0.000269153 8.87387e-20
0.000568873 -0.000214005 -1.05287e-19
-0.000285485 -0.000168749 1.70677e-19
-0.000278614 0.000153458 1.37198e-19
5.08081e-05 0.000338826 -1.0372e-19
-4.27022e-06 -0.000329109 9.27483e-20
-3.56407e-05 -0.00032629 -4.4913e-19
9.25717e-05 0.000364177 -3.156e-21
0.000281489 7.9943e-05 -4.79032e-20
0.000178109 -0.000150121 -2.52773e-19
-4.25647e-05 0.000185873 -2.76937e-20
6.01595e-05 -0.000179714 2.45068e-19
-0.000489779 0.00035486 -2.15314e-19
-0.000436208 -0.000237869 -1.83611e-19
0.000809271 -0.000373968 1.79433e-19
0.00046466 0.000674613 -1.37118e-19
0.000443634 0.000269153 2.23605e-19
0.000568873 -0.000214005 1.03384e-19
0.00026234 0.000230823 -3.37166e-20
0.000264573 -0.000138324 -9.91365e-20
-0.00021716 0.000111377 5.05834e-20
-0.000226108 -0.000103709 7.00497e-20
0.000312091 0.000186726 3.00217e-19
0.000311826 -0.000130944 7.05721e-20
0.000137772 0.000467855 2.5214e-19
-9.06094e-05 -0.000532419 -1.81691e-19
-0.000203208 5.91764e-05 4.96491e-20
-0.000220291 -5.35165e-05 4.56611e-21
-9.73174e-06 -0.000746687 -8.09343e-19
8.79772e-05 0.000794294 -1.07213e-19
0.00078143 3.08503e-05 2.9023e-20
-0.000752978 -9.21494e-05 -3.81638e-20
0.000291614 0.000349289 -8.39814e-20
0.00035879 -0.000335301 -3.06243e-20
-0.000275025 0.000174562 6.30583e-20
-0.000370878 -4.89004e-05 -4.39403e-20
-0.000359344 5.68626e-05 -5.46567e-20
-0.000292949 -0.00017489 -3.08857e-19
0.00025361 -0.000373094 -5.10125e-20
0.000275406 0.000426543 -3.08445e-19
0.000383727 -0.000184874 -3.0429e-19
-0.000232583 0.000378801 -1.17796e-19
-7.07993e-05 -0.000336179 -2.15029e-19
0.000383505 0.000242527 1.72372e-19
-9.18174e-05 0.000258689 -6.93361e-20
0.000257289 -0.000209687 -1.17749e-19
6.73379e-05 -0.000693551 -2.26587e-19
3.05065e-05 0.000577289 -9.15931e-20
0.00040902 0.000470409 1.59944e-19
0.000495857 -0.000494963 -1.5652e-19
3.19224e-05 -8.06112e-05 -1.07903e-19
-4.35055e-05 0.000397535 -7.12686e-20
-3.08668e-05 -0.000378886 -1.47184e-19
9.89415e-05 0.000231089 4.14683e-20
-7.24932e-05 -0.000233184 -5.57015e-20
1.17403e-05 0.000326026 -4.27214e-20
2.06921e-05 -0.000305141 3.21935e-19
-0.000436208 -0.000237869 2.03965e-19
-3.56407e-05 -0.00032629 4.1267e-19
9.25717e-05 0.000364177 -1.34638e-21
-0.000199888 -0.000136331 1.26661e-20
-0.000489779 0.00035486 2.88677e-19
0.000124259 0.000197719 -4.35624e-20
-3.08668e-05 -0.000378886 -1.93312e-19
-0.00021716 0.000111377 8.07321e-20
0.000426821 0.000274395 3.21442e-19
0.000563641 -0.000215634 -3.0841e-19
0.000383505 0.000242527 5.54716e-21
0.000215113 0.000301538 8.53744e-20
0.000242823 -0.000263088 1.10741e-19
0.000531792 0.00021037 1.48339e-19
0.000443634 0.000269153 -1.65397e-19
0.000737034 -0.000236509 6.92435e-19
0.000568873 -0.000214005 -4.36082e-19
-4.25647e-05 0.000185873 -1.42682e-19
0.00026234 0.000230823 1.31681e-19
0.000264573 -0.000138324 -8.06854e-20
0.000351539 0.000584418 1.63274e-20
-0.000360688 -0.000674873 4.13477e-19
-2.57671e-05 -6.21956e-05 9.9264e-20
0.000383727 -0.000184874 8.18577e-20
0.000281489 7.9943e-05 -3.77653e-19
-0.000230225 7.16258e-05 -1.75804e-20
-0.000199888 -0.000136331 -1.63384e-19
-0.000765407 -1.34933e-05 -1.76653e-19
-0.000743824 1.76825e-05 8.77872e-20
-3.89495e-05 0.00020859 8.1811e-20
-0.000292949 -0.00017489 1.14576e-19
0.000204883 0.000253047 7.25217e-20
-9.73174e-06 -0.000746687 -1.01626e-19
8.79772e-05 0.000794294 -2.07127e-19
-0.000752978 -9.21494e-05 2.90873e-19
0.00078143 3.08503e-05 1.28797e-19
0.000176811 -0.000171825 -1.68078e-19
-0.000258811 0.000170348 6.53278e-21
4.5268e-05 0.000243543 -8.8263e-20
5.18137e-05 -0.000208355 -3.35803e-19
-0.00109598 0.000902796 2.10353e-19
-3.56407e-05 -0.00032629 4.83356e-21
-5.70275e-05 -0.000697128 -1.61197e-19
0.000734537 7.44049e-05 -2.96539e-19
-4.25647e-05 0.000185873 -4.47176e-20
1.17403e-05 0.000326026 -1.93567e-19
-0.000230225 7.16258e-05 -1.60133e-21
9.25717e-05 0.000364177 2.88022e-20
-0.000436208 -0.000237869 -1.36056e-19
0.000291614 0.000349289 -2.24557e-19
0.00035879 -0.000335301 8.3674e-21
0.000232327 8.42671e-05 1.61023e-19
0.000236894 0.000105105 -5.72363e-19
2.06921e-05 -0.000305141 3.16608e-19
-0.000292949 -0.00017489 8.05283e-20
-2.57671e-05 -6.21956e-05 -4.76824e-20
-0.000203208 5.91764e-05 -1.36009e-19
-0.000220291 -5.35165e-05 9.89248e-21
-0.00021716 0.000111377 -9.24637e-20
0.00110225 -0.000847402 6.11624e-19
-9.73174e-06 -0.000746687 5.31192e-20
3.42056e-05 0.000730187 -2.34385e-19
0.00078143 3.08503e-05 -2.57734e-19
0.00025361 -0.000373094 2.57815e-19
0.000275406 0.000426543 1.49418e-19
0.00026234 0.000230823 3.08776e-19
-0.000489779 0.00035486 3.03229e-19
0.000264573 -0.000138324 -7.43142e-20
0.000280312 0.000202984 2.9481e-19
0.000312905 -9.98047e-05 -1.49482e-19
0.000383727 -0.000184874 2.30231e-19
0.000383505 0.000242527 5.88109e-20
-0.000901063 0.00112636 -6.79034e-19
-0.00109598 0.000902796 1.20378e-19
-0.000220291 -5.35165e-05 -9.09261e-20
-0.000203208 5.91764e-05 1.24881e-19
-9.06094e-05 -0.000532419 8.49686e-19
0.000137772 0.000467855 -8.43638e-20

CELL_DATA 2380
TENSORS stress float
0.0386468 6.41165 1.29248e-11
6.41165 8.82082 1.0882e-11
1.29248e-11 1.0882e-11 0.231177

-2.87394 4.26467 -3.48946e-11
4.26467 4.35531 7.79406e-12
-3.48946e-11 7.79406e-12 -1.21256

-2.98592 3.41958 -3.65193e-11
3.41958 3.95736 4.71845e-12
-3.65193e-11 4.71845e-12 -1.23814

8.26511 1.87434 -8.66492e-12
1.87434 -7.13983 -1.534e-11
-8.66492e-12 -1.534e-11 -0.943485

11.0721 0.743239 2.79254e-11
0.743239 -3.49259 4.16197e-12
2.79254e-11 4.16197e-12 0.00855932

-9.49837 4.0318 -1.77835e-11
4.0318 -2.16711 -3.73528e-11
-1.77835e-11 -3.73528e-11 -4.91979

-9.67055 3.73807 -7.33978e-13
3.73807 -2.25223 3.46552e-12
-7.33978e-13 3.46552e-12 -4.8972

11.3929 -0.939141 4.40069e-11
-0.939141 -3.02926 9.76434e-12
4.40069e-11 9.76434e-12 0.191585

7.49708 0.153159 1.39615e-11
0.153159 -11.0734 1.7904e-11
1.39615e-11 1.7904e-11 -1.55971

3.09319 6.23075 3.77639e-12
6.23075 12.7106 -5.69207e-11
3.77639e-12 -5.69207e-11 0.793796

3.91849 -6.6629 9.03189e-12
-6.6629 13.3699 -3.10143e-11
9.03189e-12 -3.10143e-11 1.04555

11.869 6.44752 -3.83311e-11
6.44752 5.01606 -1.53377e-11
-3.83311e-11 -1.53377e-11 0.906489

-5.39068 -5.27377 1.43929e-11
-5.27377 -0.81888 -1.34768e-11
1.43929e-11 -1.34768e-11 -3.85318

-5.49784 -5.96849 3.67446e-11
-5.96849 -0.312004 -6.76274e-13
3.67446e-11 -6.76274e-13 -3.90447

-4.64065 6.06365 1.17241e-11
6.06365 5.71283 2.54216e-11
1.17241e-11 2.54216e-11 -0.984451

-6.64004 7.2599 2.40356e-12
7.2599 3.59601 -2.32975e-11
2.40356e-12 -2.32975e-11 -1.48588

-9.80498 -2.75898 3.2007e-11
-2.75898 -2.4598 -1.22261e-11
3.2007e-11 -1.22261e-11 -5.03194

-9.768 -2.97892 1.55208e-11
-2.97892 -2.40333 3.00343e-11
1.55208e-11 3.00343e-11 -5.06674

5.63008 2.76721 -4.62208e-12
2.76721 -3.48577 -2.45443e-11
-4.62208e-12 -2.45443e-11 -0.69453

2.68866 2.41068 8.06459e-12
2.41068 15.5129 3.65932e-11
8.06459e-12 3.65932e-11 1.46525

2.97042 -2.30549 4.26326e-11
-2.30549 15.9701 -4.23928e-12
4.26326e-11 -4.23928e-12 1.59513

14.54 1.97756 -2.28203e-11
1.97756 5.62904 1.01134e-12
-2.28203e-11 1.01134e-12 1.7699

0.0894062 7.16227 1.27572e-11
7.16227 6.99456 -9.24312e-12
1.27572e-11 -9.24312e-12 -0.127543

9.86542 -3.66334 -3.51289e-12
-3.66334 -1.90118 -1.21546e-11
-3.51289e-12 -1.21546e-11 -0.228828

1.35303 6.57309 4.05332e-11
6.57309 3.56818 -4.42683e-12
4.05332e-11 -4.42683e-12 -0.294264

0.131677 7.15988 -2.43079e-11
7.15988 9.08435 4.07255e-11
-2.43079e-11 4.07255e-11 0.214417

8.68895 -1.55101 -1.75245e-11
-1.55101 -7.66199 1.46471e-11
-1.75245e-11 1.46471e-11 -0.908989

11.1654 5.54506 1.62818e-11
5.54506 21.7258 -4.72893e-11
1.62818e-11 -4.72893e-11 4.06257

6.75639 0.68956 -7.69755e-13
0.68956 -11.1036 -1.83732e-11
-7.69755e-13 -1.83732e-11 -1.7273

19.9815 5.55794 3.64816e-11
5.55794 13.1251 4.67105e-11
3.64816e-11 4.67105e-11 4.0728

-4.886 0.876287 -1.73617e-11
0.876287 -1.60716 -2.67619e-11
-1.73617e-11 -2.67619e-11 -4.8954

-4.88156 0.298844 -3.34489e-12
0.298844 -1.73783 8.47174e-12
-3.34489e-12 8.47174e-12 -4.91338

-9.37174 3.12176 1.92516e-11
3.12176 -15.1409 2.98461e-12
1.92516e-11 2.98461e-12 -14.8262

-9.41656 -2.99463 -2.27143e-11
-2.99463 -15.1236 -2.07857e-11
-2.27143e-11 -2.07857e-11 -14.9676

16.2713 -2.32109 -2.60044e-11
-2.32109 4.00469 1.40576e-11
-2.60044e-11 1.40576e-11 1.86436

-3.02813 7.06577 -1.27101e-11
7.06577 2.29913 -2.87887e-11
-1.27101e-11 -2.87887e-11 -1.23743

-2.97471 1.29898 2.69666e-12
1.29898 -5.99695 2.08893e-11
2.69666e-12 2.08893e-11 -5.25699

-3.52672 -1.18086 -3.35018e-11
-1.18086 -6.37143 1.08763e-11
-3.35018e-11 1.08763e-11 -5.63084

8.33654 0.0162994 -1.69433e-11
0.0162994 -12.065 -1.39931e-11
-1.69433e-11 -1.39931e-11 -1.42572

-0.523211 7.75034 1.93493e-11
7.75034 8.95358 -2.01217e-11
1.93493e-11 -2.01217e-11 0.0183009

8.99656 -4.74324 -2.00751e-11
-4.74324 2.30671 -2.22874e-11
-2.00751e-11 -2.22874e-11 0.536118

8.79098 -0.45675 2.69636e-12
-0.45675 -12.0685 2.7241e-11
2.69636e-12 2.7241e-11 -1.21699

0.0833882 -7.17722 -3.9968e-12
-7.17722 7.37198 -4.52601e-12
-3.9968e-12 -4.52601e-12 -0.111567

0.095341 -6.14948 1.37669e-11
-6.14948 8.99594 1.26111e-11
1.37669e-11 1.26111e-11 0.257816

-5.98691 8.16367 4.95759e-12
8.16367 4.3039 -3.3693e-12
4.95759e-12 -3.3693e-12 -1.3713

7.33138 -7.66072 8.52444e-12
-7.66072 4.47222 -7.18048e-12
8.52444e-12 -7.18048e-12 0.381934

10.0909 15.6492 3.143e-11
15.6492 20.8677 1.86313e-11
3.143e-11 1.86313e-11 4.98348

19.6401 15.4642 4.28398e-13
15.4642 11.2348 -6.05442e-13
4.28398e-13 -6.05442e-13 4.97191

-8.5734 -7.29602 -3.99458e-12
-7.29602 0.498739 2.11808e-12
-3.99458e-12 2.11808e-12 -3.06348

14.4866 6.56504 -2.31225e-11
6.56504 27.6901 1.41798e-11
-2.31225e-11 1.41798e-11 6.58151

25.0472 5.88345 3.35616e-11
5.88345 15.4517 -2.42769e-14
3.35616e-11 -2.42769e-14 6.25699

-6.16847 -5.129 -2.72398e-11
-5.129 -1.74215 1.82896e-11
-2.72398e-11 1.82896e-11 -4.44208

-6.19396 5.10982 -3.02219e-11
5.10982 -1.80097 8.8526e-12
-3.02219e-11 8.8526e-12 -4.44192

6.23093 0.148255 -1.63668e-11
0.148255 -5.10319 -2.15971e-11
-1.63668e-11 -2.15971e-11 -0.532399

-6.9094 -4.47103 -5.25553e-11
-4.47103 -3.86786 3.07087e-11
-5.25553e-11 3.07087e-11 -5.02253

-6.929 4.4573 -2.35774e-11
4.4573 -3.88701 8.94906e-12
-2.35774e-11 8.94906e-12 -5.01298

-4.33168 7.16036 -9.26503e-12
7.16036 6.52841 4.78728e-13
-9.26503e-12 4.78728e-13 -0.871501

-5.64319 2.92574 2.36801e-11
2.92574 -14.6039 -4.03289e-11
2.36801e-11 -4.03289e-11 -11.7219

-5.61733 -2.90399 3.85088e-12
-2.90399 -14.7078 2.21401e-12
3.85088e-12 2.21401e-12 -11.8115

-3.6983 -5.91825 5.08267e-11
-5.91825 -0.616484 -1.05443e-11
5.08267e-11 -1.05443e-11 -2.3735

-3.75897 5.88225 2.80109e-11
5.88225 -0.650533 -1.68158e-12
2.80109e-11 -1.68158e-12 -2.37223

12.9407 -6.36189 -3.98247e-11
-6.36189 4.57694 1.28583e-11
-3.98247e-11 1.28583e-11 1.08195

-13.2544 2.85738 1.5796e-11
2.85738 -5.81806 2.312e-12
1.5796e-11 2.312e-12 -11.296

-13.2831 2.25935 -6.55524e-12
2.25935 -5.73497 3.00327e-11
-6.55524e-12 3.00327e-11 -11.2343

-0.677884 -7.89719 -9.59973e-13
-7.89719 8.98379 -2.91741e-11
-9.59973e-13 -2.91741e-11 -0.0078742

10.886 -5.22844 1.78602e-11
-5.22844 23.5397 1.02108e-11
1.78602e-11 1.02108e-11 4.37202

22.4793 -5.18218 1.63768e-11
-5.18218 11.5384 -3.16221e-12
1.63768e-11 -3.16221e-12 4.32846

-6.27778 6.2354 -3.3578e-12
6.2354 4.58143 -8.56974e-12
-3.3578e-12 -8.56974e-12 -1.59374

-6.43635 5.7972 8.59022e-12
5.7972 3.78329 -8.0882e-12
8.59022e-12 -8.0882e-12 -1.66372

-14.2513 -8.64734 6.60267e-11
-8.64734 -20.0219 -5.63083e-11
6.60267e-11 -5.63083e-11 -18.3129

-14.2541 8.64489 -2.7328e-11
8.64489 -20.0065 -9.22982e-11
-2.7328e-11 -9.22982e-11 -18.2999

-6.50843 8.83536 -2.86438e-13
8.83536 3.06585 2.01219e-11
-2.86438e-13 2.01219e-11 -1.38365

0.563275 4.35147 1.7137e-11
4.35147 -2.92959 2.93133e-11
1.7137e-11 2.93133e-11 -1.6203

0.748794 -4.42764 4.43795e-11
-4.42764 -2.95341 -1.70408e-11
4.43795e-11 -1.70408e-11 -1.62143

-6.5143 8.4465 1.61757e-11
8.4465 1.29873 3.36967e-11
1.61757e-11 3.36967e-11 -1.95245

-8.26509 -7.71811 2.41464e-13
-7.71811 1.15363 -1.14574e-11
2.41464e-13 -1.14574e-11 -3.03562

15.3845 -0.0875946 -2.44142e-11
-0.0875946 1.09335 4.1477e-11
-2.44142e-11 4.1477e-11 1.08265

12.2731 3.45174 -2.14267e-11
3.45174 -0.64428 2.92684e-11
-2.14267e-11 2.92684e-11 0.453898

-1.77402 1.40456 -1.08791e-11
1.40456 -11.1456 3.56271e-12
-1.08791e-11 3.56271e-12 -5.25328

-17.6074 -2.16425 -4.23306e-12
-2.16425 -18.7233 -4.19639e-11
-4.23306e-12 -4.19639e-11 -19.6997

-17.4862 1.86321 -1.5034e-10
1.86321 -18.4536 7.55557e-11
-1.5034e-10 7.55557e-11 -19.5127

8.06231 6.39257 1.21334e-11
6.39257 11.2981 -2.11389e-11
1.21334e-11 -2.11389e-11 1.67356

2.29307 -5.58002 -3.03266e-11
-5.58002 -0.465532 -2.65224e-11
-3.03266e-11 -2.65224e-11 -1.04539

5.88349 3.34919 1.18419e-11
3.34919 -1.22978 2.22392e-11
1.18419e-11 2.22392e-11 -0.257701

-15.8063 1.82595 -3.56254e-11
1.82595 -10.6394 1.09703e-11
-3.56254e-11 1.09703e-11 -14.842

-15.7608 1.55513 -5.71209e-11
1.55513 -10.5908 3.65959e-12
-5.71209e-11 3.65959e-12 -14.8496

-2.366 -1.03046 -1.72304e-11
-1.03046 -11.2206 4.04203e-12
-1.72304e-11 4.04203e-12 -5.61666

-3.28306 -2.17958 3.70721e-11
-2.17958 3.95356 1.61724e-11
3.70721e-11 1.61724e-11 -1.48022

-3.2759 -2.967 3.38965e-11
-2.967 4.21477 1.69408e-11
3.38965e-11 1.69408e-11 -1.47687

3.48372 -2.05668 -2.06972e-11
-2.05668 -6.20425 1.81451e-11
-2.06972e-11 1.81451e-11 -1.17425

3.4335 2.07979 4.29334e-11
2.07979 -6.37036 2.26926e-11
4.29334e-11 2.26926e-11 -1.1865

10.4078 -6.34449 -6.21133e-12
-6.34449 10.2154 -1.56448e-11
-6.21133e-12 -1.56448e-11 1.79178

9.31299 0.395694 2.33028e-11
0.395694 -0.482034 -1.22919e-11
2.33028e-11 -1.22919e-11 0.26716

-0.447482 -3.11863 -2.80598e-11
-3.11863 -6.05771 -1.571e-11
-2.80598e-11 -1.571e-11 -2.56449

-0.550076 3.0893 -4.10069e-11
3.0893 -6.03959 -5.0295e-11
-4.10069e-11 -5.0295e-11 -2.55445

5.97713 -3.47556 -3.15805e-11
-3.47556 -0.940942 3.51887e-11
-3.15805e-11 3.51887e-11 -0.21469

-0.0163295 -7.19147 -1.45375e-11
-7.19147 9.42715 -9.91725e-12
-1.45375e-11 -9.91725e-12 0.261993

3.73845 -2.31599 8.85588e-12
-2.31599 -4.78973 -1.36918e-11
8.85588e-12 -1.36918e-11 -1.17563

3.65625 2.33713 5.42927e-11
2.33713 -4.9753 2.83247e-11
5.42927e-11 2.83247e-11 -1.19099

6.65324 -1.51825 1.46357e-11
-1.51825 -5.15571 -8.47411e-12
1.46357e-11 -8.47411e-12 -0.837389

-5.70529 10.0903 -1.91555e-11
10.0903 3.60613 -1.13629e-11
-1.91555e-11 -1.13629e-11 -1.32412

7.23513 5.56288 -6.06774e-12
5.56288 4.74524 -3.39428e-11
-6.06774e-12 -3.39428e-11 0.696762

-7.01609 8.53718 -9.53504e-12
8.53718 3.22204 -3.21556e-11
-9.53504e-12 -3.21556e-11 -1.4843

-6.3532 9.53261 1.15041e-11
9.53261 4.19151 1.50191e-11
1.15041e-11 1.50191e-11 -1.30577

9.21382 4.12975 -1.92735e-12
4.12975 0.190449 5.75155e-12
-1.92735e-12 5.75155e-12 0.00961598

-0.672746 -3.41711 3.17749e-11
-3.41711 -5.70184 -1.75702e-11
3.17749e-11 -1.75702e-11 -2.66598

7.06969 1.86992 -1.54046e-11
1.86992 -3.87122 -1.39533e-12
-1.54046e-11 -1.39533e-12 -0.543746

3.24892 7.03734 -7.85002e-12
7.03734 5.08343 -2.87429e-11
-7.85002e-12 -2.87429e-11 -0.204554

1.85344 5.71347 3.70674e-11
5.71347 -0.417057 5.30687e-13
3.70674e-11 5.30687e-13 -1.12447

-7.95654 0.494025 9.9637e-12
0.494025 2.67182 -6.4498e-12
9.9637e-12 -6.4498e-12 -2.58543

-7.88206 0.781967 1.10949e-11
0.781967 2.69601 5.10377e-12
1.10949e-11 5.10377e-12 -2.57841

11.4901 -7.1758 1.18442e-11
-7.1758 5.79978 1.67451e-12
1.18442e-11 1.67451e-12 1.01789

-6.58993 -8.5128 -2.64736e-11
-8.5128 1.2987 7.89494e-12
-2.64736e-11 7.89494e-12 -1.96594

3.43406 -8.41035 -1.52651e-11
-8.41035 9.16436 4.97839e-11
-1.52651e-11 4.97839e-11 0.525551

3.46422 8.61432 -3.80362e-12
8.61432 9.05453 1.4347e-11
-3.80362e-12 1.4347e-11 0.521394

5.34431 -3.13252 2.37838e-11
-3.13252 -2.33578 -1.78169e-12
2.37838e-11 -1.78169e-12 -0.666717

4.64515 -0.467784 4.23631e-12
-0.467784 -14.2435 1.52092e-11
4.23631e-12 1.52092e-11 -3.13454

5.04361 0.523315 1.82943e-11
0.523315 -13.7654 2.71427e-11
1.82943e-11 2.71427e-11 -2.89741

-1.6568 4.56876 -6.45191e-12
4.56876 9.62626 7.03156e-12
-6.45191e-12 7.03156e-12 -0.23465

1.57513 -6.91381 1.63913e-12
-6.91381 3.62933 -2.61879e-11
1.63913e-12 -2.61879e-11 -0.281914

-1.16126 -0.154257 -3.40755e-11
-0.154257 15.2364 4.33609e-12
-3.40755e-11 4.33609e-12 0.471204

-0.984538 0.339562 9.71471e-12
0.339562 15.6321 3.32416e-12
9.71471e-12 3.32416e-12 0.590997

14.8104 -0.0557285 -2.01756e-11
-0.0557285 1.19235 3.71809e-11
-2.01756e-11 3.71809e-11 0.823705

10.5452 6.73681 -2.35489e-11
6.73681 10.697 1.64149e-11
-2.35489e-11 1.64149e-11 1.91175

5.31618 -7.89995 -2.51303e-11
-7.89995 4.40023 8.66981e-12
-2.51303e-11 8.66981e-12 -0.0603708

-22.0415 -3.87332 1.14554e-10
-3.87332 -13.6431 -4.67953e-11
1.14554e-10 -4.67953e-11 -20.5295

-21.9519 -3.57219 8.44258e-11
-3.57219 -13.6053 3.69564e-11
8.44258e-11 3.69564e-11 -20.4551

9.27293 -4.04666 1.56953e-11
-4.04666 -0.195113 -8.52241e-12
1.56953e-11 -8.52241e-12 -0.032726

-3.90647 9.37484 -3.12576e-12
9.37484 6.36635 2.7727e-11
-3.12576e-12 2.7727e-11 -0.540325

6.39291 -0.248267 -3.42733e-11
-0.248267 -5.04016 2.64128e-11
-3.42733e-11 2.64128e-11 -0.505896

-1.79746 -4.49596 2.32507e-11
-4.49596 9.96743 2.7539e-11
2.32507e-11 2.7539e-11 -0.196451

-8.17231 8.39147 -2.28465e-12
8.39147 1.73429 4.29342e-11
-2.28465e-12 4.29342e-11 -2.67907

-8.82198 7.89777 4.72041e-12
7.89777 1.09058 2.54174e-11
4.72041e-12 2.54174e-11 -2.74098

-5.69583 -10.0709 -3.94618e-12
-10.0709 3.56052 1.13585e-11
-3.94618e-12 1.13585e-11 -1.35148

-6.52787 9.71056 -5.79018e-13
9.71056 4.80534 -6.16139e-12
-5.79018e-13 -6.16139e-12 -1.09831

-4.27892 8.19516 1.79555e-11
8.19516 5.27868 2.06057e-11
1.79555e-11 2.06057e-11 -0.668228

3.69903 0.0181574 -7.89265e-12
0.0181574 -7.22901 -1.76732e-11
-7.89265e-12 -1.76732e-11 -0.771195

5.85545 7.75267 -6.73979e-12
7.75267 4.13279 2.98958e-11
-6.73979e-12 2.98958e-11 -0.0133289

-7.02463 -8.6103 -2.74294e-11
-8.6103 3.15737 -4.90005e-11
-2.74294e-11 -4.90005e-11 -1.50482

4.25384 6.77519 -7.41259e-12
6.77519 7.33775 1.78228e-12
-7.41259e-12 1.78228e-12 0.4848

8.12458 -5.84974 -5.67161e-11
-5.84974 12.1772 -1.70977e-11
-5.67161e-11 -1.70977e-11 1.78281

-3.09435 -7.15907 1.35746e-11
-7.15907 2.59928 4.90992e-12
1.35746e-11 4.90992e-12 -1.20508

2.69812 -4.08158 1.68869e-11
-4.08158 15.8613 2.01747e-11
1.68869e-11 2.01747e-11 1.53497

2.61768 3.97881 -4.83203e-11
3.97881 15.7141 -3.33733e-11
-4.83203e-11 -3.33733e-11 1.48982

14.0748 -2.80322 1.14125e-11
-2.80322 5.7971 -7.84602e-12
1.14125e-11 -7.84602e-12 1.75803

4.40659 -6.96066 -3.17703e-11
-6.96066 7.51106 5.01095e-12
-3.17703e-11 5.01095e-12 0.517815

-0.865292 1.07903 6.75044e-12
1.07903 9.899 -2.6971e-12
6.75044e-12 -2.6971e-12 0.241731

-0.884892 -0.0129338 1.45239e-11
-0.0129338 9.76669 -2.98471e-11
1.45239e-11 -2.98471e-11 0.219994

6.76581 -8.03509 1.31459e-11
-8.03509 11.828 -1.83012e-11
1.31459e-11 -1.83012e-11 1.25158

5.9092 8.13432 -1.05986e-11
8.13432 11.6439 -2.05143e-11
-1.05986e-11 -2.05143e-11 1.07838

3.82041 -0.718083 3.19584e-11
-0.718083 -8.59694 5.00533e-12
3.19584e-11 5.00533e-12 -1.25771

3.81185 0.752608 -2.32951e-11
0.752608 -8.63487 9.84257e-12
-2.32951e-11 9.84257e-12 -1.25286

-3.89424 8.83717 2.83035e-11
8.83717 5.63708 1.26172e-11
2.83035e-11 1.26172e-11 -0.641879

-8.38573 -8.0367 7.07797e-12
-8.0367 1.75939 -2.02179e-11
7.07797e-12 -2.02179e-11 -2.3966

-3.7301 5.85325 3.52308e-11
5.85325 -0.645049 -4.20659e-11
3.52308e-11 -4.20659e-11 -2.12812

16.5354 6.48237 -1.03044e-11
6.48237 8.08622 -1.43507e-11
-1.03044e-11 -1.43507e-11 2.511

-1.75895 5.54521 -6.85866e-12
5.54521 11.147 3.3895e-11
-6.85866e-12 3.3895e-11 0.0157483

-3.00406 3.8762 -4.30285e-11
3.8762 -3.45742 -1.63144e-11
-4.30285e-11 -1.63144e-11 -3.2004

-2.94262 -3.90422 -8.46967e-12
-3.90422 -3.4039 -2.21377e-11
-8.46967e-12 -2.21377e-11 -3.1967

1.29907 -5.28529 5.41056e-11
-5.28529 0.261974 -2.57056e-11
5.41056e-11 -2.57056e-11 -0.987232

1.20146 5.2438 1.24178e-11
5.2438 0.202329 4.91281e-12
1.24178e-11 4.91281e-12 -0.996794

18.2421 1.7319 3.11432e-11
1.7319 39.0488 4.53267e-12
3.11432e-11 4.53267e-12 9.60148

36.7091 1.79267 1.41623e-11
1.79267 20.1868 -9.5004e-12
1.41623e-11 -9.5004e-12 9.52727

-2.3061 -5.26135 9.94268e-12
-5.26135 11.0644 -2.97556e-11
9.94268e-12 -2.97556e-11 -0.101369

-8.76593 -4.20192 -2.25215e-11
-4.20192 -7.6549 -1.49137e-11
-2.25215e-11 -1.49137e-11 -8.68896

-8.78609 4.21558 2.36747e-11
4.21558 -7.65469 3.0894e-11
2.36747e-11 3.0894e-11 -8.67853

2.74832 6.44548 -2.40667e-11
6.44548 3.03193 -7.23273e-13
-2.40667e-11 -7.23273e-13 -0.243139

19.0663 3.5318 -1.10969e-11
3.5318 5.22392 1.87547e-11
-1.10969e-11 1.87547e-11 2.44979

9.3173 -0.672661 4.04376e-11
-0.672661 -0.441552 -1.39147e-11
4.04376e-11 -1.39147e-11 0.269023

-6.75035 -4.62504 -2.26828e-11
-4.62504 3.31405 -3.94751e-12
-2.26828e-11 -3.94751e-12 -1.99779

-6.52074 -5.06008 -8.4594e-12
-5.06008 3.63119 9.91636e-12
-8.4594e-12 9.91636e-12 -1.99058

4.18543 -7.65571 -4.01899e-11
-7.65571 7.00497 -8.32419e-11
-4.01899e-11 -8.32419e-11 0.291117

-6.58596 -9.75163 -3.56359e-12
-9.75163 4.83736 1.36699e-11
-3.56359e-12 1.36699e-11 -1.12459

2.86538 -6.51497 2.84948e-11
-6.51497 3.24908 1.28955e-11
2.84948e-11 1.28955e-11 -0.205136

-7.52953 9.3391 -1.89653e-11
9.3391 3.16827 -8.85814e-12
-1.89653e-11 -8.85814e-12 -1.34041

-5.97453 6.75067 2.41725e-11
6.75067 -0.538876 1.59824e-11
2.41725e-11 1.59824e-11 -4.01849

-5.83067 6.13104 -2.61666e-11
6.13104 -1.26365 1.4535e-11
-2.61666e-11 1.4535e-11 -3.98988

-4.09233 -8.87599 -2.07086e-12
-8.87599 5.68189 6.25973e-12
-2.07086e-12 6.25973e-12 -0.681632

-3.93069 8.01104 -1.69405e-11
8.01104 4.58556 4.48652e-11
-1.69405e-11 4.48652e-11 -0.738215

9.76213 5.5475 -1.43003e-11
5.5475 1.35435 -1.55519e-11
-1.43003e-11 -1.55519e-11 0.302145

-6.53588 10.2784 -1.54488e-11
10.2784 4.26603 7.21848e-12
-1.54488e-11 7.21848e-12 -1.09236

-4.80475 -6.28249 4.3554e-12
-6.28249 5.90132 6.16129e-12
4.3554e-12 6.16129e-12 -0.985429

-4.21101 2.44701 -4.5106e-11
2.44701 8.67375 -2.89842e-13
-4.5106e-11 -2.89842e-13 -0.702088

-1.63161 7.46587 1.93478e-11
7.46587 1.64945 -4.79024e-13
1.93478e-11 -4.79024e-13 -1.26533

-3.6745 3.14424 -2.23356e-11
3.14424 8.73769 -1.05797e-12
-2.23356e-11 -1.05797e-12 -0.609676

-7.59301 -8.72246 8.61463e-12
-8.72246 2.50343 -5.20043e-12
8.61463e-12 -5.20043e-12 -2.28495

14.3962 -7.49715 -5.39998e-12
-7.49715 15.2259 -6.81242e-11
-5.39998e-12 -6.81242e-11 3.5912

14.7829 -7.57915 3.08743e-11
-7.57915 14.8235 9.86914e-13
3.08743e-11 9.86914e-13 3.60361

-1.59993 -7.51023 3.72588e-11
-7.51023 1.68637 -5.30131e-12
3.72588e-11 -5.30131e-12 -1.27363

5.63678 -2.83984 -3.89921e-11
-2.83984 -3.39643 1.2726e-11
-3.89921e-11 1.2726e-11 -0.700863

-11.1734 8.90064 3.65711e-11
8.90064 -15.1804 5.96727e-11
3.65711e-11 5.96727e-11 -15.1371

-11.1725 -8.90144 3.6185e-11
-8.90144 -15.1796 8.13156e-11
3.6185e-11 8.13156e-11 -15.1475

-4.20486 -9.31751 2.60368e-11
-9.31751 6.2657 2.24271e-11
2.60368e-11 2.24271e-11 -0.621195

-10.5991 1.95792 4.42624e-12
1.95792 -8.92722 -4.23598e-12
4.42624e-12 -4.23598e-12 -9.6917

-10.7034 -1.80003 -2.29075e-11
-1.80003 -9.03211 -2.31012e-11
-2.29075e-11 -2.31012e-11 -9.87622

10.0822 0.123291 7.79791e-12
0.123291 -8.51022 -2.86812e-11
7.79791e-12 -2.86812e-11 -0.536531

-7.50873 -9.38429 9.43375e-12
-9.38429 3.35888 -4.81526e-12
9.43375e-12 -4.81526e-12 -1.30856

11.91 9.13587 4.70258e-11
9.13587 12.7137 1.96773e-11
4.70258e-11 1.96773e-11 2.39216

10.665 8.65288 -2.01652e-11
8.65288 12.4007 1.1844e-11
-2.01652e-11 1.1844e-11 2.12074

8.4128 -6.50125 -9.89786e-12
-6.50125 20.3677 2.74992e-11
-9.89786e-12 2.74992e-11 3.17921

8.47184 6.81694 3.32863e-11
6.81694 20.3138 2.9383e-11
3.32863e-11 2.9383e-11 3.20652

19.4603 -5.40843 1.02588e-11
-5.40843 10.5571 7.96933e-12
1.02588e-11 7.96933e-12 3.41577

-6.54646 -10.3227 -2.08864e-11
-10.3227 4.52299 -2.88784e-11
-2.08864e-11 -2.88784e-11 -1.05875

3.16187 2.39546 3.51765e-11
2.39546 21.4809 -1.35826e-11
3.51765e-11 -1.35826e-11 2.40444

20.166 3.05897 -4.79231e-12
3.05897 5.63065 -1.4374e-11
-4.79231e-12 -1.4374e-11 2.62999

-9.41691 -3.18732 -1.18615e-11
-3.18732 -4.17094 -4.60102e-11
-1.18615e-11 -4.60102e-11 -7.62225

-9.30207 -3.85864 6.14842e-13
-3.85864 -4.20504 1.40518e-11
6.14842e-13 1.40518e-11 -7.70135

5.30782 1.21696 5.97078e-12
1.21696 -4.65036 4.04447e-12
5.97078e-12 4.04447e-12 -1.1518

8.45509 0.0753257 -4.02446e-11
0.0753257 -13.4165 -2.04734e-13
-4.02446e-11 -2.04734e-13 -1.40214

1.94066 -5.89877 3.85099e-12
-5.89877 12.4521 5.87708e-12
3.85099e-12 5.87708e-12 0.611303

1.78832 5.76914 7.21941e-12
5.76914 12.388 -7.02999e-11
7.21941e-12 -7.02999e-11 0.578727

9.74746 -0.000449965 2.7911e-12
-0.000449965 -9.08121 1.71876e-11
2.7911e-12 1.71876e-11 -0.689305

-4.59999 -7.1204 3.31964e-12
-7.1204 6.54001 2.18575e-11
3.31964e-12 2.18575e-11 -0.918473

-5.17426 -3.05656 -3.72539e-11
-3.05656 -5.86204 1.33811e-11
-3.72539e-11 1.33811e-11 -5.8844

-5.23486 3.05046 1.07792e-11
3.05046 -5.88732 -1.05403e-11
1.07792e-11 -1.05403e-11 -5.88519

-0.759936 4.20143 -1.69445e-11
4.20143 -0.0211914 -9.1472e-12
-1.69445e-11 -9.1472e-12 -1.59428

-4.12924 -7.97562 -1.27995e-11
-7.97562 4.60965 -1.60763e-11
-1.27995e-11 -1.60763e-11 -0.792032

5.71977 1.21471 -7.60636e-12
1.21471 -9.58502 -4.33187e-12
-7.60636e-12 -4.33187e-12 -1.84198

8.55384 6.65841 -1.50247e-11
6.65841 7.31525 -1.10978e-12
-1.50247e-11 -1.10978e-12 0.906342

-4.35097 -8.19165 2.26256e-11
-8.19165 5.17661 -2.19523e-11
2.26256e-11 -2.19523e-11 -0.728556

16.3818 -14.3969 -4.67037e-11
-14.3969 16.8944 1.8785e-11
-4.67037e-11 1.8785e-11 5.58332

-3.87493 -1.96313 2.50569e-11
-1.96313 8.34959 2.69399e-12
2.50569e-11 2.69399e-12 -0.708295

-3.41167 -2.68934 1.11682e-11
-2.68934 8.43032 -7.9939e-12
1.11682e-11 -7.9939e-12 -0.630942

-10.8526 -0.635022 -1.6393e-11
-0.635022 -7.06675 3.21494e-11
-1.6393e-11 3.21494e-11 -9.37527

-10.7639 -0.364861 -3.98127e-12
-0.364861 -7.15465 4.71658e-11
-3.98127e-12 4.71658e-11 -9.37559

1.70625 -2.23513 3.11866e-11
-2.23513 -7.61171 2.38678e-11
3.11866e-11 2.38678e-11 -1.74551

1.64507 2.23889 -1.50151e-11
2.23889 -7.63146 1.37628e-11
-1.50151e-11 1.37628e-11 -1.74042

-6.09686 -4.3969 8.85455e-12
-4.3969 -5.10413 7.69984e-12
8.85455e-12 7.69984e-12 -4.57053

-5.49001 4.53682 -3.37153e-12
4.53682 -5.23253 -2.50407e-12
-3.37153e-12 -2.50407e-12 -4.34915

-8.86857 -3.90018 -1.36665e-11
-3.90018 -4.61541 -1.15508e-11
-1.36665e-11 -1.15508e-11 -7.45472

-8.86713 4.05964 2.19435e-11
4.05964 -4.5634 -1.70381e-11
2.19435e-11 -1.70381e-11 -7.39705

-11.1487 6.06814 3.38751e-11
6.06814 -11.624 3.85081e-12
3.38751e-11 3.85081e-12 -12.6545

-11.1458 -6.05913 -5.48651e-11
-6.05913 -11.6216 6.16032e-11
-5.48651e-11 6.16032e-11 -12.6657

-6.66793 -10.0051 2.31178e-12
-10.0051 2.17465 -8.76067e-12
2.31178e-12 -8.76067e-12 -1.97253

-6.65249 10.0396 3.34028e-11
10.0396 2.05952 6.45535e-12
3.34028e-11 6.45535e-12 -1.97141

3.27405 5.98421 -3.60079e-11
5.98421 0.480048 1.11631e-11
-3.60079e-11 1.11631e-11 -0.693771

-2.08167 -4.71406 1.85104e-12
-4.71406 7.28251 2.93647e-11
1.85104e-12 2.93647e-11 -0.244147

-2.21649 -5.88623 -6.2359e-12
-5.88623 8.04118 3.19651e-11
-6.2359e-12 3.19651e-11 -0.198707

11.4782 -5.95283 -1.12198e-11
-5.95283 9.7902 1.2513e-12
-1.12198e-11 1.2513e-12 1.94416

3.31674 -5.97477 2.66667e-11
-5.97477 0.740238 5.12615e-11
2.66667e-11 5.12615e-11 -0.661774

-2.01319 4.44858 1.23453e-11
4.44858 7.17914 -2.21393e-12
1.23453e-11 -2.21393e-12 -0.242359

1.3278 8.37677 -3.47562e-11
8.37677 4.52771 -1.15576e-11
-3.47562e-11 -1.15576e-11 -0.358522

-8.53092 -8.66565 5.49005e-12
-8.66565 0.0788082 -4.56318e-11
5.49005e-12 -4.56318e-11 -2.91084

-8.5303 8.50647 -4.7266e-11
8.50647 -0.0324605 -3.14826e-11
-4.7266e-11 -3.14826e-11 -2.95789

1.29852 -8.5022 1.32839e-11
-8.5022 4.57031 -1.29966e-11
1.32839e-11 -1.29966e-11 -0.386111

4.5162 -0.848176 -8.56863e-12
-0.848176 -5.25465 4.04306e-12
-8.56863e-12 4.04306e-12 -1.5984

-21.4808 2.40223 -1.64072e-11
2.40223 -17.3562 -3.15712e-11
-1.64072e-11 -3.15712e-11 -21.2007

-21.3089 2.11032 -4.32043e-11
2.11032 -17.5081 -1.13586e-11
-4.32043e-11 -1.13586e-11 -21.1697

-4.23413 -7.46308 1.98309e-11
-7.46308 4.54597 -1.73319e-11
1.98309e-11 -1.73319e-11 -1.19826

-0.429974 3.65804 -1.76178e-11
3.65804 -5.18035 -9.64488e-13
-1.76178e-11 -9.64488e-13 -2.42147

1.98438 -0.895301 4.21635e-11
-0.895301 -10.5272 -3.20029e-11
4.21635e-11 -3.20029e-11 -4.52036

14.4537 -8.03864 -2.51118e-11
-8.03864 15.6896 -3.636e-11
-2.51118e-11 -3.636e-11 3.57942

14.5194 -7.85128 -9.8271e-12
-7.85128 15.5966 1.01166e-11
-9.8271e-12 1.01166e-11 3.57231

1.01383 -2.52442 2.90702e-11
-2.52442 -8.54875 -1.17916e-11
2.90702e-11 -1.17916e-11 -2.69862

0.900859 2.56651 3.65768e-11
2.56651 -8.54674 -3.79903e-11
3.65768e-11 -3.79903e-11 -2.69391

1.74533 0.736399 3.75492e-12
0.736399 -10.5567 1.3329e-11
3.75492e-12 1.3329e-11 -4.7153

-2.06005 5.84372 -4.16828e-11
5.84372 7.87421 4.03958e-12
-4.16828e-11 4.03958e-12 -0.189571

8.73348 4.60943 -1.63454e-12
4.60943 3.78778 2.50331e-11
-1.63454e-12 2.50331e-11 0.748656

-3.27935 -6.65986 1.7323e-11
-6.65986 1.35465 5.05344e-11
1.7323e-11 5.05344e-11 -1.92456

-3.32899 6.6082 5.75096e-13
6.6082 1.32527 3.27216e-12
5.75096e-13 3.27216e-12 -1.92212

-17.5122 -1.20638 1.25139e-11
-1.20638 -23.9683 4.27607e-11
1.25139e-11 4.27607e-11 -21.8088

-17.2965 1.21964 -8.08598e-12
1.21964 -22.9767 3.69079e-11
-8.08598e-12 3.69079e-11 -21.4394

-6.45465 -8.55272 2.02334e-12
-8.55272 4.21163 -2.75343e-11
2.02334e-12 -2.75343e-11 -1.38119

6.19942 3.67296 -1.36714e-11
3.67296 -1.13587 5.48924e-12
-1.36714e-11 5.48924e-12 -0.273535

-1.03512 2.55277 -2.94541e-11
2.55277 -4.18168 7.26456e-12
-2.94541e-11 7.26456e-12 -2.91314

-0.951886 -2.56587 -4.2257e-11
-2.56587 -4.16345 -4.12392e-11
-4.2257e-11 -4.12392e-11 -2.91316

-4.38278 -6.63715 8.71316e-12
-6.63715 3.68745 -2.05066e-11
8.71316e-12 -2.05066e-11 -1.26062

-6.7454 -9.12569 2.34421e-11
-9.12569 3.43845 -1.61757e-11
2.34421e-11 -1.61757e-11 -1.25991

16.5356 -14.9277 2.04281e-14
-14.9277 17.3305 4.23957e-12
2.04281e-14 4.23957e-12 5.66825

-8.73637 6.22354 -5.46744e-11
6.22354 -0.012002 -1.72356e-11
-5.46744e-11 -1.72356e-11 -4.02421

-8.84548 -6.31737 3.7443e-11
-6.31737 0.0146608 9.14847e-14
3.7443e-11 9.14847e-14 -4.04938

-7.03987 -7.90727 3.20582e-11
-7.90727 3.49127 -1.42522e-11
3.20582e-11 -1.42522e-11 -1.48853

8.98864 -4.9733 2.58045e-11
-4.9733 3.55372 4.14935e-11
2.58045e-11 4.14935e-11 0.76207

-0.640105 -3.96415 2.67653e-11
-3.96415 -0.389315 -8.28108e-12
2.67653e-11 -8.28108e-12 -1.73513

-6.11586 5.38944 -1.34735e-11
5.38944 -1.7061 2.55104e-11
-1.34735e-11 2.55104e-11 -3.66087

-6.33045 -5.59331 8.61385e-13
-5.59331 -1.63078 4.17771e-11
8.61385e-13 4.17771e-11 -3.73013

4.95995 -0.809813 -1.27086e-11
-0.809813 -10.5559 6.93153e-12
-1.27086e-11 6.93153e-12 -2.24478

-2.21468 1.98531 2.73347e-11
1.98531 -7.53453 1.23206e-11
2.73347e-11 1.23206e-11 -4.36068

-2.12704 -1.96597 2.36771e-11
-1.96597 -7.55669 -3.08005e-12
2.36771e-11 -3.08005e-12 -4.36716

-16.88 0.873602 1.9718e-11
0.873602 -7.25597 -2.17532e-11
1.9718e-11 -2.17532e-11 -15.8077

-16.8093 0.581432 6.39287e-11
0.581432 -7.29862 -3.0032e-11
6.39287e-11 -3.0032e-11 -15.8133

17.0457 0.627238 8.94425e-12
0.627238 39.0569 1.71714e-13
8.94425e-12 1.71714e-13 9.39783

36.2046 0.557879 -8.62717e-13
0.557879 17.2534 2.80824e-11
-8.62717e-13 2.80824e-11 8.90029

-4.95391 -8.54739 -3.13764e-11
-8.54739 4.17361 -1.8484e-11
-3.13764e-11 -1.8484e-11 -1.31023

-4.95211 8.52309 -2.26213e-11
8.52309 4.12095 -3.052e-11
-2.26213e-11 -3.052e-11 -1.29988

-6.63207 -9.72507 -1.14532e-11
-9.72507 4.6242 -2.3874e-11
-1.14532e-11 -2.3874e-11 -1.17966

13.8816 -7.01538 -1.87873e-11
-7.01538 30.0902 -4.16425e-11
-1.87873e-11 -4.16425e-11 7.03979

28.4611 -6.70609 1.45863e-11
-6.70609 15.2875 3.64121e-11
1.45863e-11 3.64121e-11 6.99472

-18.6949 -8.93203 -5.15693e-11
-8.93203 -11.7652 -1.21259e-10
-5.15693e-11 -1.21259e-10 -16.0771

-18.7021 8.93054 -1.57592e-11
8.93054 -11.7606 2.05286e-10
-1.57592e-11 2.05286e-10 -16.0683

-3.93198 -5.90489 4.52705e-12
-5.90489 -0.83246 -4.62304e-12
4.52705e-12 -4.62304e-12 -2.20889

0.00433118 -8.2074 -3.87956e-11
-8.2074 5.71229 -4.67904e-11
-3.87956e-11 -4.67904e-11 -0.272517

-4.60074 -8.63981 -7.70107e-11
-8.63981 1.91459 3.93823e-11
-7.70107e-11 3.93823e-11 -1.77287

-4.62519 8.60615 -2.00232e-11
8.60615 1.87014 1.61707e-11
-2.00232e-11 1.61707e-11 -1.76906

-3.0773 -9.26983 -2.45399e-11
-9.26983 4.98544 -5.72826e-11
-2.45399e-11 -5.72826e-11 -0.811524

0.05891 8.20991 -4.68855e-11
8.20991 5.5188 -2.1477e-11
-4.68855e-11 -2.1477e-11 -0.284776

6.72506 -2.66201 -1.52157e-11
-2.66201 22.0707 2.40874e-12
-1.52157e-11 2.40874e-12 3.21328

5.74042 3.22347 8.66814e-12
3.22347 20.8083 5.18684e-11
8.66814e-12 5.18684e-11 2.77083

20.342 -2.02828 4.24105e-12
-2.02828 9.41005 1.83698e-11
4.24105e-12 1.83698e-11 3.38495

-2.98284 9.22189 1.64639e-11
9.22189 4.96017 3.86084e-11
1.64639e-11 3.86084e-11 -0.786088

3.44629 -1.65571 -1.2194e-13
-1.65571 22.7209 3.34722e-11
-1.2194e-13 3.34722e-11 2.74118

21.4639 -1.60344 -5.82467e-12
-1.60344 4.38706 1.90988e-11
-5.82467e-12 1.90988e-11 2.73152

-5.96963 -8.44064 7.79701e-11
-8.44064 0.693516 -5.27653e-11
7.79701e-11 -5.27653e-11 -2.6977

-5.95173 8.39205 6.54425e-12
8.39205 0.65328 -1.44367e-11
6.54425e-12 -1.44367e-11 -2.68158

-6.55015 -7.34799 9.09554e-11
-7.34799 0.56788 6.23627e-11
9.09554e-11 6.23627e-11 -3.14331

-6.55304 7.31901 -2.97442e-11
7.31901 0.512362 -1.54393e-12
-2.97442e-11 -1.54393e-12 -3.138

14.5641 -7.05421 -2.51076e-11
-7.05421 30.4109 -3.6828e-11
-2.51076e-11 -3.6828e-11 7.33878

29.1703 -6.5248 -8.97652e-13
-6.5248 15.1738 4.19951e-11
-8.97652e-13 4.19951e-11 7.22828

-1.84285 7.79095 1.15533e-11
7.79095 3.93092 4.35157e-11
1.15533e-11 4.35157e-11 -0.764715

-1.80314 -7.8538 1.96465e-11
-7.8538 4.04312 -3.16767e-11
1.96465e-11 -3.16767e-11 -0.754109

-11.7468 -1.25587 2.82344e-11
-1.25587 -8.72613 2.11823e-12
2.82344e-11 2.11823e-12 -11.1681

-11.7605 -1.66814 4.43728e-11
-1.66814 -8.59515 -3.90827e-11
4.43728e-11 -3.90827e-11 -11.1691

-7.98227 -8.47394 7.69836e-12
-8.47394 2.43905 2.38703e-11
7.69836e-12 2.38703e-11 -2.82278

-8.01461 8.51281 6.35551e-12
8.51281 2.36257 2.06024e-11
6.35551e-12 2.06024e-11 -2.82428

-4.58024 -3.33713 -1.16454e-11
-3.33713 -8.23471 4.14124e-12
-1.16454e-11 4.14124e-12 -5.46229

-4.62763 3.33802 -7.60177e-12
3.33802 -8.20951 1.38073e-11
-7.60177e-12 1.38073e-11 -5.44839

-5.33358 7.01436 6.25713e-11
7.01436 1.57355 2.19554e-11
6.25713e-11 2.19554e-11 -2.00643

-5.44945 -6.98529 -2.33931e-11
-6.98529 1.78486 1.52123e-11
-2.33931e-11 1.52123e-11 -1.98766

-16.1181 -2.62232 -8.06325e-12
-2.62232 -5.79826 2.69462e-12
-8.06325e-12 2.69462e-12 -13.191

-7.13734 -4.78912 -3.84211e-13
-4.78912 -9.56158 3.07946e-12
-3.84211e-13 3.07946e-12 -8.66741

-11.3164 -4.92644 -4.42707e-11
-4.92644 -13.2327 4.62948e-11
-4.42707e-11 4.62948e-11 -12.4342

-7.18595 4.81568 2.11764e-12
4.81568 -9.54502 -8.85325e-12
2.11764e-12 -8.85325e-12 -8.65907

-11.331 4.93825 6.92942e-12
4.93825 -13.2313 2.07886e-11
6.92942e-12 2.07886e-11 -12.4252

-16.2517 -2.03516 1.14304e-11
-2.03516 -5.59056 5.39124e-12
1.14304e-11 5.39124e-12 -13.1347

-11.8438 -5.36592 6.16396e-12
-5.36592 -12.0464 -2.02124e-11
6.16396e-12 -2.02124e-11 -13.6349

-12.0759 5.54983 -9.43268e-12
5.54983 -11.9589 4.04406e-12
-9.43268e-12 4.04406e-12 -13.5891

-13.443 -6.96934 -3.05889e-12
-6.96934 -9.57264 -6.80473e-11
-3.05889e-12 -6.80473e-11 -13.4571

0.301191 -5.19908 4.36572e-10
-5.19908 -18.023 -1.28734e-10
4.36572e-10 -1.28734e-10 -15.2494

0.302438 5.19528 -6.25641e-11
5.19528 -18.0058 -9.55409e-12
-6.25641e-11 -9.55409e-12 -15.2343

-13.4623 6.97279 1.13984e-10
6.97279 -9.58452 2.22348e-10
1.13984e-10 2.22348e-10 -13.4506

-7.85456 -7.39319 -1.08712e-11
-7.39319 -8.11314 -5.36066e-11
-1.08712e-11 -5.36066e-11 -10.0362

-7.0597 -5.96481 -7.79821e-12
-5.96481 -1.14443 -5.10046e-12
-7.79821e-12 -5.10046e-12 -5.16537

-13.9097 -5.7015 2.07941e-11
-5.7015 -13.9254 -1.41766e-10
2.07941e-11 -1.41766e-10 -15.2591

-7.86855 7.39683 -2.14634e-11
7.39683 -8.1477 -3.14751e-11
-2.14634e-11 -3.14751e-11 -10.0326

-13.9146 5.70637 -9.24831e-12
5.70637 -13.92 -1.43214e-10
-9.24831e-12 -1.43214e-10 -15.2468

-7.06494 5.96319 1.06857e-11
5.96319 -1.18986 -8.64272e-13
1.06857e-11 -8.64272e-13 -5.16051

-9.78147 -6.15297 -2.80056e-11
-6.15297 -3.96697 -1.57821e-11
-2.80056e-11 -1.57821e-11 -7.11387

-9.50605 -5.01315 -2.07906e-11
-5.01315 -7.61462 1.05912e-11
-2.07906e-11 1.05912e-11 -9.52594

-9.78193 6.1487 3.35909e-11
6.1487 -3.99856 5.01524e-11
3.35909e-11 5.01524e-11 -7.10493

-9.53144 5.00603 4.50431e-11
5.00603 -7.64704 4.52378e-11
4.50431e-11 4.52378e-11 -9.52376

-2.94355 4.02644 5.36608e-15
4.02644 2.10518 1.03978e-11
5.36608e-15 1.03978e-11 -0.958914

-8.01409 -1.16296 9.62274e-12
-1.16296 4.30609 5.77405e-12
9.62274e-12 5.77405e-12 -1.21764

4.66539 -1.29744 -5.58265e-12
-1.29744 -7.12999 -6.53592e-12
-5.58265e-12 -6.53592e-12 -0.070514

7.36792 0.0411962 2.44489e-11
0.0411962 -3.85999 -2.17595e-11
2.44489e-11 -2.17595e-11 1.33553

-9.61641 4.03724 9.23898e-12
4.03724 -3.65357 -5.004e-12
9.23898e-12 -5.004e-12 -4.79339

-13.8483 -1.75743 1.28992e-11
-1.75743 2.77646 -3.9282e-11
1.28992e-11 -3.9282e-11 -4.2399

6.99443 2.26869 1.32858e-11
2.26869 -4.18267 1.90633e-11
1.32858e-11 1.90633e-11 1.18303

1.22318 2.88766 6.35492e-12
2.88766 -10.333 -3.19604e-11
6.35492e-12 -3.19604e-11 -1.77204

2.82494 5.75493 1.31023e-11
5.75493 10.9331 1.11685e-11
1.31023e-11 1.11685e-11 5.55334

4.38075 5.57652 -3.66551e-12
5.57652 12.2224 -3.64017e-11
-3.66551e-12 -3.64017e-11 6.12053

11.9493 5.01802 -6.00974e-11
5.01802 4.62428 1.27099e-11
-6.00974e-11 1.27099e-11 6.31841

-6.17471 2.53184 -3.3303e-11
2.53184 0.465076 -1.9252e-12
-3.3303e-11 -1.9252e-12 -3.46304

-5.24827 -4.8821 -4.36984e-11
-4.8821 -2.48998 8.0859e-12
-4.36984e-11 8.0859e-12 -3.7947

0.0269633 -6.21875 -3.62019e-11
-6.21875 1.76021 2.81082e-11
-3.62019e-11 2.81082e-11 0.356451

-13.8282 2.10965 -3.61918e-11
2.10965 3.1104 2.3491e-11
-3.61918e-11 2.3491e-11 -4.24112

-9.70205 -2.3356 -1.29012e-11
-2.3356 -3.95916 -3.46893e-12
-1.29012e-11 -3.46893e-12 -4.82905

6.55971 1.60831 2.2436e-11
1.60831 -7.32148 2.27178e-11
2.2436e-11 2.27178e-11 -0.213974

1.28614 2.65319 -7.12615e-12
2.65319 12.5125 2.61885e-11
-7.12615e-12 2.61885e-11 4.56358

3.10333 2.02083 -3.94492e-12
2.02083 11.7786 -7.89842e-12
-3.94492e-12 -7.89842e-12 4.55682

13.0246 1.5512 3.94677e-12
1.5512 3.45157 -2.40703e-11
3.94677e-12 -2.40703e-11 5.16473

-0.117998 6.20215 -4.13721e-12
6.20215 6.95217 3.8323e-11
-4.13721e-12 3.8323e-11 1.58145

-2.55409 -3.72103 7.70066e-12
-3.72103 6.66095 4.35201e-11
7.70066e-12 4.35201e-11 1.54393

4.54369 3.5771 9.42979e-12
3.5771 -8.01839 4.81953e-12
9.42979e-12 4.81953e-12 -0.294952

10.5825 4.20679 -1.57923e-11
4.20679 16.6796 -5.66288e-11
-1.57923e-11 -5.66288e-11 10.823

2.69809 -1.60258 -8.8581e-12
-1.60258 -11.8372 -1.69413e-11
-8.8581e-12 -1.69413e-11 -1.54919

-4.8204 1.08223 2.54115e-11
1.08223 -3.50357 -2.60889e-11
2.54115e-11 -2.60889e-11 -4.87913

-7.4832 -0.286536 -6.16219e-12
-0.286536 1.47389 -3.92731e-11
-6.16219e-12 -3.92731e-11 -4.54315

-0.563331 6.26738 2.96375e-11
6.26738 -11.449 -2.54098e-11
2.96375e-11 -2.54098e-11 -12.9097

-1.83012 -2.80944 5.38917e-12
-2.80944 -17.1307 1.21264e-11
5.38917e-12 1.21264e-11 -13.627

-1.40843 -7.10523 -3.04251e-11
-7.10523 1.90807 -6.15952e-12
-3.04251e-11 -6.15952e-12 0.146507

-0.915566 -5.98687 -1.3484e-11
-5.98687 6.32105 2.31178e-12
-1.3484e-11 2.31178e-12 1.49464

11.97 -0.0700262 1.7141e-11
-0.0700262 1.20248 -7.69114e-12
1.7141e-11 -7.69114e-12 4.64453

-0.262981 3.8835 2.92661e-11
3.8835 -7.23713 -2.07899e-11
2.92661e-11 -2.07899e-11 -5.04826

-0.980159 -1.06698 -8.86054e-12
-1.06698 -7.9814 1.32842e-11
-8.86054e-12 1.32842e-11 -4.81133

0.890951 -0.630064 2.34927e-11
-0.630064 -13.6385 -3.34989e-11
2.34927e-11 -3.34989e-11 -2.14656

-2.58476 -4.54812 -4.20723e-11
-4.54812 4.80761 -6.92972e-12
-4.20723e-11 -6.92972e-12 1.20857

1.62793 0.884852 1.26139e-11
0.884852 -13.6605 3.7541e-11
1.26139e-11 3.7541e-11 -1.84065

6.95375 -4.46803 3.6983e-11
-4.46803 2.09908 -1.61767e-11
3.6983e-11 -1.61767e-11 2.54478

-0.80857 6.57335 1.11754e-11
6.57335 3.61539 4.0057e-11
1.11754e-11 4.0057e-11 1.23791

8.95901 4.88066 5.12306e-11
4.88066 -1.40046 3.08335e-12
5.12306e-11 3.08335e-12 2.52179

8.01746 -2.82282 4.64109e-11
-2.82282 -1.46778 1.50191e-11
4.64109e-11 1.50191e-11 2.27408

-1.34564 5.54254 5.08331e-11
5.54254 6.70582 7.32051e-12
5.08331e-11 7.32051e-12 1.70656

-10.2281 -4.12032 3.56193e-12
-4.12032 2.84748 2.69266e-12
3.56193e-12 2.69266e-12 -1.18194

-6.67054 7.35697 -1.53705e-12
7.35697 2.45442 3.88961e-11
-1.53705e-12 3.88961e-11 -1.23453

-0.0550113 -5.18512 1.73331e-11
-5.18512 6.48456 -2.70524e-12
1.73331e-11 -2.70524e-12 1.63266

-0.620646 6.80964 1.75235e-11
6.80964 6.7956 2.61871e-11
1.75235e-11 2.61871e-11 1.49812

31.761 -5.75047 3.35156e-11
-5.75047 32.7191 -1.15929e-12
3.35156e-11 -1.15929e-12 32.5838

31.7327 6.60815 -2.73507e-11
6.60815 34.1281 3.25544e-11
-2.73507e-11 3.25544e-11 32.7305

-12.2309 5.6474 3.94659e-11
5.6474 0.460194 -2.3123e-12
3.94659e-11 -2.3123e-12 -3.22363

-8.42682 -6.59476 1.61708e-11
-6.59476 -0.880235 2.11812e-11
1.61708e-11 2.11812e-11 -2.89678

-4.69711 6.22066 -4.24046e-12
6.22066 4.74715 -4.21731e-11
-4.24046e-12 -4.21731e-11 -0.0841225

19.6855 2.1272 -2.92846e-11
2.1272 19.9318 -5.96767e-12
-2.92846e-11 -5.96767e-12 21.6601

19.4158 -0.0353214 -1.27184e-11
-0.0353214 21.5708 -1.30956e-11
-1.27184e-11 -1.30956e-11 22.0855

-7.80053 -4.74307 1.40288e-12
-4.74307 -5.78714 -3.07998e-11
1.40288e-12 -3.07998e-11 -5.8179

-7.159 2.31496 2.09961e-11
2.31496 -4.06017 7.08456e-11
2.09961e-11 7.08456e-11 -5.71824

7.72306 -0.134503 2.50846e-11
-0.134503 -8.55277 -1.03993e-11
2.50846e-11 -1.03993e-11 -0.246789

-7.80091 -4.41918 -7.22281e-12
-4.41918 -5.7251 6.27538e-11
-7.22281e-12 6.27538e-11 -5.96662

-7.68651 1.59028 -2.63271e-13
1.59028 -7.19924 2.65691e-11
-2.63271e-13 2.65691e-11 -6.50979

-6.9857 -3.91598 -1.42573e-11
-3.91598 4.59347 4.0823e-11
-1.42573e-11 4.0823e-11 -0.0144052

-2.95822 5.9255 -5.85222e-11
5.9255 -9.70272 1.46296e-11
-5.85222e-11 1.46296e-11 -10.5946

-2.57784 -4.8839 -1.00055e-11
-4.8839 -15.1951 -2.00208e-11
-1.00055e-11 -2.00208e-11 -11.0185

-4.21129 -4.74448 -1.40594e-11
-4.74448 -4.47565 -1.0978e-11
-1.40594e-11 -1.0978e-11 -2.68101

-4.01252 3.61413 -5.67901e-12
3.61413 -3.66842 8.09397e-12
-5.67901e-12 8.09397e-12 -2.8669

-12.7697 0.376063 -3.9079e-11
0.376063 0.262359 -3.31126e-11
-3.9079e-11 -3.31126e-11 -10.1286

-13.4296 2.86129 7.1223e-12
2.86129 -7.28431 6.44803e-12
7.1223e-12 6.44803e-12 -11.5455

9.82429 1.96819 4.83486e-11
1.96819 16.1059 -3.14011e-11
4.83486e-11 -3.14011e-11 11.0087

15.7889 2.01283 4.60291e-11
2.01283 10.0625 4.66168e-11
4.60291e-11 4.66168e-11 11.0453

-6.54184 5.90574 -2.04082e-11
5.90574 2.92807 -2.50444e-12
-2.04082e-11 -2.50444e-12 -1.15404

-10.2805 -3.60267 4.42731e-12
-3.60267 3.68753 -4.626e-12
4.42731e-12 -4.626e-12 -1.27056

-15.8398 -7.77522 1.81859e-10
-7.77522 -6.9859 -7.58564e-11
1.81859e-10 -7.58564e-11 -19.6741

-14.9046 4.63242 -2.33613e-12
4.63242 -22.7551 7.41099e-11
-2.33613e-12 7.41099e-11 -22.5644

5.26337 6.26897 -1.07877e-11
6.26897 1.54776 -6.93393e-12
-1.07877e-11 -6.93393e-12 2.11958

1.18563 2.41133 -3.05197e-11
2.41133 -7.04356 -3.90058e-13
-3.05197e-11 -3.90058e-13 -1.7592

0.951157 -3.15427 -2.23347e-11
-3.15427 -7.0688 3.65801e-11
-2.23347e-11 3.65801e-11 -1.57509

-1.04076 -3.38903 -1.15544e-11
-3.38903 -13.1518 1.13609e-11
-1.15544e-11 1.13609e-11 -4.8735

11.5488 1.43329 3.45886e-12
1.43329 0.960893 -5.23758e-11
3.45886e-12 -5.23758e-11 4.57199

-1.77571 0.437067 -2.54209e-11
0.437067 -17.7489 5.00766e-12
-2.54209e-11 5.00766e-12 -16.1957

-2.59785 -0.884948 -1.23206e-11
-0.884948 -6.69294 3.04141e-11
-1.23206e-11 3.04141e-11 -14.8565

1.37595 7.52349 3.00423e-11
7.52349 -2.4703 2.6994e-12
3.00423e-11 2.6994e-12 0.0535283

6.65347 1.99384 -2.49845e-12
1.99384 -3.93689 3.33088e-11
-2.49845e-12 3.33088e-11 0.342745

6.63215 6.12595 5.39864e-12
6.12595 8.943 -2.91885e-11
5.39864e-12 -2.91885e-11 5.21501

-12.1319 -3.48008 5.90925e-11
-3.48008 -1.14621 -4.73518e-11
5.90925e-11 -4.73518e-11 -12.5863

-15.7222 2.17694 7.04558e-11
2.17694 -11.9923 1.79077e-11
7.04558e-11 1.79077e-11 -15.0341

-0.209512 6.31614 2.77292e-11
6.31614 -10.4196 3.46521e-11
2.77292e-11 3.46521e-11 -4.76071

-3.20634 -1.97977 -1.2544e-12
-1.97977 1.82405 -2.02206e-11
-1.2544e-12 -2.02206e-11 -1.14045

-8.33978 1.40167 -6.23757e-11
1.40167 4.41366 1.34768e-11
-6.23757e-11 1.34768e-11 -1.46828

4.77667 -0.967371 -4.95833e-12
-0.967371 -10.6698 -8.85771e-12
-4.95833e-12 -8.85771e-12 -1.42054

5.50169 0.714251 9.43653e-12
0.714251 -11.0917 -4.62208e-12
9.43653e-12 -4.62208e-12 -1.43401

9.79784 -4.03454 1.94659e-13
-4.03454 7.27447 -2.57971e-11
1.94659e-13 -2.57971e-11 5.6792

9.58511 0.209586 -1.48296e-11
0.209586 -3.60158 -8.85584e-12
-1.48296e-11 -8.85584e-12 1.47576

0.954456 0.81058 3.63451e-11
0.81058 -10.4163 6.73313e-12
3.63451e-11 6.73313e-12 -3.27182

-0.247111 -1.73101 -3.07639e-11
-1.73101 -9.26119 4.62025e-11
-3.07639e-11 4.62025e-11 -3.11627

6.13263 -2.36391 4.57372e-11
-2.36391 -4.72284 -2.46456e-11
4.57372e-11 -2.46456e-11 0.288419

4.42597 -1.11377 -1.51146e-11
-1.11377 -7.8091 1.63661e-11
-1.51146e-11 1.63661e-11 -1.20873

5.34616 0.481022 -8.78645e-12
0.481022 -7.81159 -1.90576e-11
-8.78645e-12 -1.90576e-11 -1.18287

4.1602 4.98244 -9.22995e-12
4.98244 -5.76165 -3.42763e-11
-9.22995e-12 -3.42763e-11 -0.165403

4.61491 -6.61066 -2.61831e-11
-6.61066 3.9066 -1.48163e-11
-2.61831e-11 -1.48163e-11 2.81062

-6.77934 8.61126 5.96234e-12
8.61126 1.63012 -3.3118e-11
5.96234e-12 -3.3118e-11 -1.52976

-8.63525 -7.32756 1.6218e-11
-7.32756 -1.88191 -3.35049e-11
1.6218e-11 -3.35049e-11 -1.70613

-10.4639 -5.46991 -6.45333e-12
-5.46991 -2.28684 2.69566e-11
-6.45333e-12 2.69566e-11 -2.1746

-6.61178 9.08948 -7.60312e-12
9.08948 2.83743 1.65575e-11
-7.60312e-12 1.65575e-11 -1.21802

9.34707 3.16129 -2.31193e-12
3.16129 -2.48374 -2.46453e-11
-2.31193e-12 -2.46453e-11 2.01892

14.2702 -3.77345 -2.27412e-11
-3.77345 9.85298 -5.08535e-11
-2.27412e-11 -5.08535e-11 9.64188

0.743261 7.18545 2.506e-12
7.18545 -6.76895 1.11646e-11
2.506e-12 1.11646e-11 -1.72653

4.59682 -2.40653 2.49252e-12
-2.40653 -4.72325 -3.64878e-12
2.49252e-12 -3.64878e-12 0.23605

14.6949 -2.93485 1.38708e-11
-2.93485 8.68929 9.5964e-13
1.38708e-11 9.5964e-13 9.37

1.54807 -5.8369 -1.7719e-11
-5.8369 -1.97498 6.34611e-12
-1.7719e-11 6.34611e-12 0.114575

-11.4289 0.0392506 -3.34982e-11
0.0392506 5.65067 2.69655e-11
-3.34982e-11 2.69655e-11 -1.52609

-7.76454 0.905433 -2.83015e-11
0.905433 0.900967 4.43083e-12
-2.83015e-11 4.43083e-12 -1.99381

2.96158 7.4832 1.50256e-11
7.4832 3.20631 -1.30938e-11
1.50256e-11 -1.30938e-11 2.24581

11.2678 -4.33811 2.1186e-12
-4.33811 3.89351 3.96729e-11
2.1186e-12 3.96729e-11 5.83997

-5.80235 7.97056 -1.94472e-11
7.97056 -3.37078 -1.54691e-12
-1.94472e-11 -1.54691e-12 -1.84592

-5.40312 -7.63643 2.23303e-11
-7.63643 -0.155631 -3.65967e-12
2.23303e-11 -3.65967e-12 -1.43986

2.03136 -5.64438 1.15219e-12
-5.64438 6.68945 3.06999e-12
1.15219e-12 3.06999e-12 2.82219

3.36525 -6.2224 -3.27575e-12
-6.2224 6.65635 4.10263e-11
-3.27575e-12 4.10263e-11 2.89921

4.09284 5.80802 -2.31085e-11
5.80802 -4.40312 -7.51739e-12
-2.31085e-11 -7.51739e-12 -0.0425853

1.5012 3.57165 2.50301e-11
3.57165 -16.5982 -1.30953e-11
2.50301e-11 -1.30953e-11 -3.71262

1.77149 -2.43507 -2.38783e-11
-2.43507 -18.0968 3.08003e-11
-2.38783e-11 3.08003e-11 -3.60592

-1.41054 4.61785 -4.62215e-12
4.61785 8.51516 1.00157e-11
-4.62215e-12 1.00157e-11 1.84238

1.44399 7.0994 9.67966e-13
7.0994 0.0751598 2.00266e-11
9.67966e-13 2.00266e-11 0.590493

-1.02268 0.668051 1.57974e-11
0.668051 13.2602 5.04636e-11
1.57974e-11 5.04636e-11 4.82183

0.826836 0.371717 -2.98522e-11
0.371717 12.9478 1.73861e-12
-2.98522e-11 1.73861e-12 4.94826

14.1726 0.303818 3.49626e-11
0.303818 0.769655 1.46361e-11
3.49626e-11 1.46361e-11 5.50408

4.63612 -5.33572 -1.063e-12
-5.33572 0.907091 6.14879e-12
-1.063e-12 6.14879e-12 2.09479

-21.5165 -3.65923 2.42544e-11
-3.65923 -14.7388 2.77926e-13
2.42544e-11 2.77926e-13 -20.6477

-1.94025 1.88497 1.96519e-10
1.88497 -1.87953 -1.5e-11
1.96519e-10 -1.5e-11 -14.7501

7.7586 6.40357 1.90722e-11
6.40357 -0.457352 3.42843e-11
1.90722e-11 3.42843e-11 2.60036

9.08446 -2.66615 1.03027e-11
-2.66615 -2.99039 4.42861e-11
1.03027e-11 4.42861e-11 1.89101

13.5735 4.49651 -1.86753e-11
4.49651 6.91839 -1.27092e-11
-1.86753e-11 -1.27092e-11 8.57064

-7.83543 -4.66731 4.37021e-11
-4.66731 1.68451 2.88833e-11
4.37021e-11 2.88833e-11 -0.66991

-4.2202 8.45159 4.12995e-11
8.45159 4.36595 -3.81473e-13
4.12995e-11 -3.81473e-13 -0.150598

7.84002 -0.12395 9.95811e-12
-0.12395 -8.50494 -1.73254e-11
9.95811e-12 -1.73254e-11 -0.170903

-4.21008 4.25421 -3.33119e-11
4.25421 7.98712 7.31755e-12
-3.33119e-11 7.31755e-12 1.53764

-14.1674 -5.6516 -1.79033e-11
-5.6516 0.480626 -2.61841e-11
-1.79033e-11 -2.61841e-11 -3.27467

-8.74812 7.92977 7.41329e-12
7.92977 0.29154 2.11799e-11
7.41329e-12 2.11799e-11 -2.78688

6.71835 4.98313 -3.32313e-11
4.98313 9.71334 -3.84321e-11
-3.32313e-11 -3.84321e-11 5.2831

9.68052 5.25451 -3.33196e-11
5.25451 8.76497 -5.58605e-12
-3.33196e-11 -5.58605e-12 5.82975

13.6388 4.03633 -2.38824e-11
4.03633 6.96342 -1.73315e-11
-2.38824e-11 -1.73315e-11 8.49342

-7.32284 8.72459 -4.95703e-12
8.72459 3.60895 2.48382e-11
-4.95703e-12 2.48382e-11 -1.23854

-10.6383 -6.30699 1.1452e-11
-6.30699 -4.27207 1.23188e-11
1.1452e-11 1.23188e-11 -2.41079

6.94145 0.253783 4.33046e-12
0.253783 -12.2568 -3.73485e-11
4.33046e-12 -3.73485e-11 -1.16462

-8.52327 5.9596 -8.27919e-12
5.9596 -4.45495 2.61877e-11
-8.27919e-12 2.61877e-11 -2.45031

-6.60994 -7.43019 1.19357e-11
-7.43019 1.98167 3.2719e-12
1.19357e-11 3.2719e-12 -1.23181

-3.00803 7.21478 -2.54203e-11
7.21478 -1.62914 -1.19387e-11
-2.54203e-11 -1.19387e-11 -0.823239

0.413897 -1.56289 2.90813e-11
-1.56289 11.7143 7.20311e-11
2.90813e-11 7.20311e-11 4.01934

2.46244 -2.06987 -4.62034e-12
-2.06987 11.4784 -3.73726e-11
-4.62034e-12 -3.73726e-11 4.09659

11.6281 -1.27174 -5.77938e-12
-1.27174 2.26816 3.46707e-11
-5.77938e-12 3.46707e-11 4.4107

3.28111 -4.40797 5.68197e-12
-4.40797 3.20514 -9.63851e-12
5.68197e-12 -9.63851e-12 2.13928

-0.84562 0.768163 -2.61833e-11
0.768163 6.77155 -1.53818e-12
-2.61833e-11 -1.53818e-12 1.15881

-5.28348 0.253714 -5.77681e-12
0.253714 8.22515 -8.46923e-12
-5.77681e-12 -8.46923e-12 0.887687

6.14847 -4.9322 1.42605e-11
-4.9322 11.1177 -2.75454e-11
1.42605e-11 -2.75454e-11 6.09391

5.75943 -4.69448 -1.8198e-11
-4.69448 9.80024 -2.69618e-11
-1.8198e-11 -2.69618e-11 5.96014

7.27404 -0.27806 -2.73907e-11
-0.27806 -11.6269 -1.25124e-11
-2.73907e-11 -1.25124e-11 -1.15519

6.54865 0.309744 1.03523e-12
0.309744 -11.1568 -1.15497e-12
1.03523e-12 -1.15497e-12 -1.15825

-6.24318 -5.82944 3.5596e-12
-5.82944 -0.576911 -1.15528e-11
3.5596e-12 -1.15528e-11 -0.826786

-4.60051 7.65788 6.06056e-12
7.65788 4.16175 -1.5986e-11
6.06056e-12 -1.5986e-11 -0.344446

-13.7079 4.9392 -2.38753e-11
4.9392 0.131186 -1.61754e-11
-2.38753e-11 -1.61754e-11 -3.12534

-8.21324 -7.2538 -3.23469e-11
-7.2538 0.200729 1.82935e-11
-3.23469e-11 1.82935e-11 -2.33711

-2.55755 -5.81098 -3.84818e-12
-5.81098 -3.48744 1.57822e-11
-3.84818e-12 1.57822e-11 -1.62883

-4.07837 -3.0525 6.55002e-12
-3.0525 8.70752 2.96563e-11
6.55002e-12 2.96563e-11 1.75388

-3.14638 0.921524 6.2564e-12
0.921524 -6.21532 2.79115e-11
6.2564e-12 2.79115e-11 -3.99692

-4.26291 -2.90885 6.51161e-11
-2.90885 -7.31793 -2.64776e-11
6.51161e-11 -2.64776e-11 -4.14998

2.25144 -4.48931 2.21509e-11
-4.48931 -1.16616 3.73535e-11
2.21509e-11 3.73535e-11 0.450866

0.806146 -3.81198 -2.93657e-11
-3.81198 -4.24562 -1.8483e-11
-2.93657e-11 -1.8483e-11 -1.07513

1.54419 3.21338 -3.2106e-11
3.21338 -2.11848 -3.11894e-11
-3.2106e-11 -3.11894e-11 -0.867581

17.6641 -1.75611 -7.73807e-13
-1.75611 11.3619 1.73387e-11
-7.73807e-13 1.73387e-11 20.0336

3.07273 7.57019 7.0289e-12
7.57019 6.06288 -3.37034e-11
7.0289e-12 -3.37034e-11 2.50464

13.6885 3.62576 -4.60412e-11
3.62576 18.5571 1.23354e-11
-4.60412e-11 1.23354e-11 20.4206

-1.5832 -4.06908 -8.85292e-12
-4.06908 8.17944 1.7315e-12
-8.85292e-12 1.7315e-12 1.81853

-11.7312 -3.98264 -6.02089e-12
-3.98264 -7.18805 -3.11787e-11
-6.02089e-12 -3.11787e-11 -10.9893

-9.36879 1.59873 -2.34885e-11
1.59873 -11.0975 3.25302e-11
-2.34885e-11 3.25302e-11 -11.4215

2.83652 4.9262 -5.8719e-12
4.9262 0.80755 -1.65588e-11
-5.8719e-12 -1.65588e-11 0.571411

9.4714 -0.267427 -3.26401e-11
-0.267427 -4.07093 3.31217e-11
-3.26401e-11 3.31217e-11 1.41313

6.20504 6.14146 6.5592e-12
6.14146 1.49485 3.0617e-11
6.5592e-12 3.0617e-11 2.34033

-10.029 2.97282 -1.92565e-11
2.97282 4.89724 -1.92513e-11
-1.92565e-11 -1.92513e-11 -1.22735

-6.63272 -4.10147 9.58289e-13
-4.10147 1.5722 -7.12349e-12
9.58289e-13 -7.12349e-12 -1.48877

-5.82693 6.80175 2.86865e-11
6.80175 -2.10449 1.92538e-11
2.86865e-11 1.92538e-11 -3.99829

-6.05965 -3.76656 -3.98512e-11
-3.76656 -0.651006 -1.91588e-11
-3.98512e-11 -1.91588e-11 -3.62101

-7.5537 9.2628 8.68805e-13
9.2628 2.74456 2.32983e-11
8.68805e-13 2.32983e-11 -1.31707

-14.4592 -8.77954 1.44092e-12
-8.77954 -2.24578 1.92261e-12
1.44092e-12 1.92261e-12 -2.59307

-6.42009 4.80412 2.07834e-11
4.80412 4.15636 -1.61765e-11
2.07834e-11 -1.61765e-11 -0.0993268

-4.07936 2.43569 3.14812e-11
2.43569 6.5444 -3.33141e-11
3.14812e-11 -3.33141e-11 0.5728

-2.1595 -5.3911 3.7061e-11
-5.3911 -3.0309 9.62186e-12
3.7061e-11 9.62186e-12 -1.03085

-1.915 5.70405 -1.14554e-11
5.70405 -1.3689 -5.58487e-12
-1.14554e-11 -5.58487e-12 -1.10794

4.65188 5.81519 -1.23241e-11
5.81519 5.09814 -4.02509e-11
-1.23241e-11 -4.02509e-11 2.43444

-4.74656 -5.69914 3.85299e-12
-5.69914 4.18279 7.69858e-12
3.85299e-12 7.69858e-12 -0.105042

-6.49958 -1.0119 4.13031e-11
-1.0119 8.39834 3.38929e-11
4.13031e-11 3.38929e-11 0.842114

16.4728 4.10754 2.42878e-11
4.10754 19.3253 8.93772e-11
2.42878e-11 8.93772e-11 16.1156

18.8144 4.25083 6.26098e-11
4.25083 16.6155 5.52793e-11
6.26098e-11 5.52793e-11 16.0352

7.43769 -4.92886 -2.4453e-11
-4.92886 9.07867 -2.52305e-11
-2.4453e-11 -2.52305e-11 5.59981

6.16542 -1.84732 4.46213e-11
-1.84732 -7.3038 -1.77132e-11
4.46213e-11 -1.77132e-11 -0.19242

-14.8715 -6.18263 1.94694e-10
-6.18263 -11.3399 -6.94363e-12
1.94694e-10 -6.94363e-12 -18.5247

-9.66492 6.41764 -7.91596e-12
6.41764 -19.0513 7.12352e-12
-7.91596e-12 7.12352e-12 -19.0241

-5.48878 6.28203 -3.11898e-11
6.28203 -5.3824 -4.73617e-11
-3.11898e-11 -4.73617e-11 -8.30263

-8.4792 -1.64613 1.7324e-11
-1.64613 -11.9359 -1.09722e-11
1.7324e-11 -1.09722e-11 -9.64645

3.45111 -0.0700354 -1.52095e-11
-0.0700354 -9.00324 -1.11645e-11
-1.52095e-11 -1.11645e-11 -0.574884

-7.0856 -8.23104 1.15521e-11
-8.23104 1.84803 -1.40576e-11
1.15521e-11 -1.40576e-11 -1.14863

-12.9572 8.59919 3.04179e-11
8.59919 -2.51929 2.69929e-12
3.04179e-11 2.69929e-12 -2.58495

13.2298 -4.00388 -1.52227e-11
-4.00388 15.1447 -1.67589e-11
-1.52227e-11 -1.67589e-11 12.4767

13.1439 5.16569 -1.368e-11
5.16569 13.2366 8.571e-12
-1.368e-11 8.571e-12 12.1201

7.11986 -1.8653 1.92672e-11
-1.8653 15.4856 -6.58716e-11
1.92672e-11 -6.58716e-11 9.73417

8.31222 -2.29499 -8.27375e-12
-2.29499 15.2558 3.07976e-12
-8.27375e-12 3.07976e-12 9.34695

16.077 -1.60514 1.78194e-11
-1.60514 7.69281 -7.89709e-12
1.78194e-11 -7.89709e-12 9.77633

7.23822 6.07797 -1.86805e-11
6.07797 6.07043 3.85131e-11
-1.86805e-11 3.85131e-11 4.96057

8.07908 1.81143 -3.10174e-11
1.81143 18.339 -4.54623e-11
-3.10174e-11 -4.54623e-11 12.2331

17.566 0.399206 2.25409e-11
0.399206 8.25197 -2.70682e-12
2.25409e-11 -2.70682e-12 11.9895

-8.85194 -0.718755 -3.48389e-11
-0.718755 0.852555 1.19362e-11
-3.48389e-11 1.19362e-11 -6.5749

-9.21526 -2.6417 3.84744e-12
-2.6417 -5.76537 5.32319e-11
3.84744e-12 5.32319e-11 -7.67325

2.25885 -2.05702 2.92657e-11
-2.05702 -6.47943 -2.8298e-11
2.92657e-11 -2.8298e-11 -1.17667

1.88003 0.90961 4.31349e-11
0.90961 -18.8065 -1.13617e-11
4.31349e-11 -1.13617e-11 -2.68512

1.73467 -4.00762 2.98501e-11
-4.00762 9.98572 7.51029e-12
2.98501e-11 7.51029e-12 3.98296

0.87488 -2.88574 -1.85831e-11
-2.88574 9.51247 -4.61942e-12
-1.85831e-11 -4.61942e-12 3.88198

4.24831 1.92062 -2.58028e-11
1.92062 -8.56762 7.71438e-13
-2.58028e-11 7.71438e-13 -0.33808

-8.04137 -1.90928 -7.29183e-11
-1.90928 -6.83271 3.73548e-11
-7.29183e-11 3.73548e-11 -7.64219

-5.66088 -0.0231269 2.41817e-11
-0.0231269 -8.86478 -1.92542e-12
2.41817e-11 -1.92542e-12 -7.75225

-0.89817 -4.05524 -6.92735e-12
-4.05524 -2.45928 -1.71371e-11
-6.92735e-12 -1.71371e-11 -1.28305

-3.56654 6.71589 -2.59966e-11
6.71589 -0.931335 -2.38779e-11
-2.59966e-11 -2.38779e-11 -0.586445

-4.36007 -7.06231 -2.0796e-11
-7.06231 3.21133 1.02089e-11
-2.0796e-11 1.02089e-11 -0.295076

2.82698 -1.82928 3.07362e-12
-1.82928 -10.6615 1.38588e-11
3.07362e-12 1.38588e-11 -1.51229

-6.63068 5.63942 8.08165e-12
5.63942 1.0678 -3.31182e-11
8.08165e-12 -3.31182e-11 -0.713472

-4.0127 -7.48231 -1.09773e-11
-7.48231 3.05296 2.06031e-11
-1.09773e-11 2.06031e-11 -0.229948

33.276 -8.37529 -1.21397e-11
-8.37529 33.8895 -8.09208e-12
-1.21397e-11 -8.09208e-12 34.3135

-6.12799 1.79153 -2.29103e-11
1.79153 8.39577 7.31652e-12
-2.29103e-11 7.31652e-12 0.876149

-3.35979 -1.62538 1.00117e-11
-1.62538 6.03698 1.32848e-11
1.00117e-11 1.32848e-11 0.655618

-12.0167 0.880959 1.73195e-11
0.880959 3.04393 6.12229e-11
1.73195e-11 6.12229e-11 -7.68921

-10.7066 -0.0990122 4.36984e-11
-0.0990122 -8.27668 8.75907e-12
4.36984e-11 8.75907e-12 -9.36688

3.39469 -0.344095 -1.58365e-11
-0.344095 -11.7143 1.88675e-11
-1.58365e-11 1.88675e-11 -2.46161

4.6491 0.553253 -4.66601e-12
0.553253 -12.6562 2.79123e-11
-4.66601e-12 2.79123e-11 -2.49457

-2.43945 8.06328 1.61695e-11
8.06328 -6.49158 -1.4638e-11
1.61695e-11 -1.4638e-11 -3.73201

-4.20056 -4.59784 -4.08194e-11
-4.59784 -7.44541 1.80991e-11
-4.08194e-11 1.80991e-11 -3.97009

-1.22081 2.95138 1.61703e-11
2.95138 -5.40747 6.16091e-12
1.61703e-11 6.16091e-12 -6.16973

-5.03856 -1.61159 2.30989e-11
-1.61159 -5.47533 1.11611e-11
2.30989e-11 1.11611e-11 -6.59986

-12.2516 3.35968 -8.18981e-11
3.35968 -15.533 -9.43553e-12
-8.18981e-11 -9.43553e-12 -16.2602

-11.4153 -9.51961 -8.10507e-12
-9.51961 -7.21258 7.62381e-11
-8.10507e-12 7.62381e-11 -14.3776

-8.23472 8.39269 -2.37588e-13
8.39269 0.401948 2.69562e-11
-2.37588e-13 2.69562e-11 -2.67472

-11.9881 -10.3773 -6.44037e-11
-10.3773 -5.04789 1.8114e-11
-6.44037e-11 1.8114e-11 -3.49036

3.49682 4.49516 9.43912e-12
4.49516 -2.8717 2.71526e-11
9.43912e-12 2.71526e-11 0.0598163

-6.21562 3.57174 -3.87021e-11
3.57174 5.3651 1.30963e-11
-3.87021e-11 1.30963e-11 0.0620128

0.211529 -5.81663 -7.21497e-12
-5.81663 0.0339159 8.0936e-12
-7.21497e-12 8.0936e-12 0.506453

-2.17702 -4.46571 1.27071e-11
-4.46571 4.95258 3.42729e-11
1.27071e-11 3.42729e-11 0.460123

3.00279 -4.18366 1.90653e-11
-4.18366 -3.50753 -3.11964e-11
1.90653e-11 -3.11964e-11 0.101441

-2.2524 4.97214 -7.27168e-12
4.97214 5.46844 -4.52531e-11
-7.27168e-12 -4.52531e-11 0.480797

1.38464 7.06542 4.4677e-11
7.06542 1.73698 -1.88716e-11
4.4677e-11 -1.88716e-11 0.656808

-8.73264 9.32431 -9.82244e-12
9.32431 -4.68151 3.04198e-11
-9.82244e-12 3.04198e-11 -3.36848

-7.20142 -6.94027 -1.63662e-11
-6.94027 -1.34187 1.54051e-11
-1.63662e-11 1.54051e-11 -2.62733

2.52382 4.25825 2.04112e-11
4.25825 -6.46671 6.17047e-12
2.04112e-11 6.17047e-12 -1.56498

-2.24679 3.14262 -8.93061e-11
3.14262 -4.02867 9.2476e-12
-8.93061e-11 9.2476e-12 -15.3333

-21.2356 3.00387 -8.02725e-11
3.00387 -19.0414 -4.89971e-11
-8.02725e-11 -4.89971e-11 -21.4962

-0.125157 -4.30451 2.00283e-11
-4.30451 -6.34277 -1.61682e-11
2.00283e-11 -1.61682e-11 -1.57258

0.287326 0.278565 -1.88644e-11
0.278565 -11.5289 -1.17405e-11
-1.88644e-11 -1.17405e-11 -4.52857

15.461 -3.65492 2.52178e-11
-3.65492 18.2914 4.27625e-11
2.52178e-11 4.27625e-11 15.2143

17.7166 -3.00809 -3.27443e-11
-3.00809 14.6599 -7.126e-12
-3.27443e-11 -7.126e-12 14.6586

1.01287 0.335323 1.75951e-11
0.335323 -10.779 3.31094e-11
1.75951e-11 3.31094e-11 -3.44227

3.09207 -0.497361 1.1652e-11
-0.497361 -11.7507 2.02097e-11
1.1652e-11 2.02097e-11 -3.35038

0.666221 0.867318 -1.15514e-11
0.867318 -6.80219 3.3109e-11
-1.15514e-11 3.3109e-11 -4.06788

-6.23578 -2.61953 1.81914e-11
-2.61953 5.7612 2.54154e-11
1.81914e-11 2.54154e-11 0.21785

8.75048 3.48791 2.10938e-11
3.48791 1.16576 3.81245e-11
2.10938e-11 3.81245e-11 2.41941

-4.69223 -5.43433 1.10217e-11
-5.43433 -4.49089 2.4251e-11
1.10217e-11 2.4251e-11 -2.6892

-3.88156 4.49799 2.01143e-11
4.49799 -0.572001 5.00836e-12
2.01143e-11 5.00836e-12 -2.26295

-6.08257 0.541353 8.0068e-11
0.541353 -0.715216 3.26863e-11
8.0068e-11 3.26863e-11 -15.4687

-11.8178 5.11717 3.15669e-11
5.11717 -23.3399 -1.42587e-11
3.15669e-11 -1.42587e-11 -20.4607

3.76021 -3.40897 9.24283e-12
-3.40897 -3.1077 -4.6166e-12
9.24283e-12 -4.6166e-12 0.23871

-0.20278 -0.145023 4.9214e-11
-0.145023 -7.19468 -7.70547e-12
4.9214e-11 -7.70547e-12 -3.68397

-1.40391 -1.20709 -3.10474e-11
-1.20709 -5.99978 -1.08963e-10
-3.10474e-11 -1.08963e-10 -3.47727

-4.28507 -6.16289 -7.89415e-12
-6.16289 1.75899 -2.09859e-11
-7.89415e-12 -2.09859e-11 -1.01157

-8.02744 3.19388 2.36821e-11
3.19388 1.57884 4.19792e-11
2.36821e-11 4.19792e-11 -1.45919

-9.69249 5.90209 -8.47585e-12
5.90209 -2.85355 -1.88712e-11
-8.47585e-12 -1.88712e-11 -2.1149

-6.5549 -8.35198 -3.65787e-11
-8.35198 2.07927 -1.48208e-11
-3.65787e-11 -1.48208e-11 -1.05945

35.4349 10.6914 -3.8188e-13
10.6914 34.4463 -1.92305e-12
-3.8188e-13 -1.92305e-12 34.941

-7.9785 6.12454 1.03968e-11
6.12454 -2.46017 -1.17418e-11
1.03968e-11 -1.17418e-11 -4.11592

-7.59969 -4.69258 -9.62445e-12
-4.69258 -1.60783 -4.61868e-12
-9.62445e-12 -4.61868e-12 -3.77375

-9.27034 5.59435 8.66818e-12
5.59435 0.644719 3.92792e-11
8.66818e-12 3.92792e-11 -1.41446

-6.71776 -7.05663 -2.79197e-11
-7.05663 1.86111 -5.77375e-12
-2.79197e-11 -5.77375e-12 -1.13691

8.30212 -3.32555 3.56589e-12
-3.32555 -0.366324 -8.47182e-12
3.56589e-12 -8.47182e-12 2.15341

-0.12639 6.0495 -4.03973e-12
6.0495 -3.90549 3.00365e-11
-4.03973e-12 3.00365e-11 -1.58884

-1.3399 6.48103 -1.81005e-11
6.48103 -6.01266 -1.07874e-11
-1.81005e-11 -1.07874e-11 -3.18492

-3.92276 -4.2893 -2.67639e-11
-4.2893 -4.02514 1.36786e-11
-2.67639e-11 1.36786e-11 -3.2175

3.09594 4.07247 2.48432e-11
4.07247 -11.3663 -2.07927e-11
2.48432e-11 -2.07927e-11 -1.88564

-2.72946 0.789765 1.88629e-11
0.789765 -7.38717 -8.7012e-11
1.88629e-11 -8.7012e-11 -5.29879

-1.11019 -1.15398 9.32251e-12
-1.15398 -10.0714 -3.31111e-11
9.32251e-12 -3.31111e-11 -5.64893

-16.7853 1.37302 -7.54543e-11
1.37302 -8.19208 1.65557e-11
-7.54543e-11 1.65557e-11 -15.9282

-14.1672 -2.16715 1.34646e-12
-2.16715 0.393012 2.6561e-11
1.34646e-12 2.6561e-11 -14.2337

20.5741 -1.00342 4.41251e-11
-1.00342 14.2566 -1.05986e-11
4.41251e-11 -1.05986e-11 20.9466

12.0113 -0.209748 -3.46049e-12
-0.209748 20.4703 -4.93236e-11
-3.46049e-12 -4.93236e-11 20.6618

-5.7089 6.99485 -2.5557e-11
6.99485 2.57967 -4.81032e-12
-2.5557e-11 -4.81032e-12 -1.47844

-6.97574 -6.02298 2.50754e-11
-6.02298 -3.10522 -6.35452e-11
2.50754e-11 -6.35452e-11 -2.08746

21.9615 3.76 -3.82102e-13
3.76 21.5919 5.97241e-11
-3.82102e-13 5.97241e-11 24.1869

22.0764 4.86046 4.81822e-12
4.86046 20.1222 -7.70828e-12
4.81822e-12 -7.70828e-12 23.538

-31.026 -7.699 3.12611e-11
-7.699 -6.59972 6.15491e-12
3.12611e-11 6.15491e-12 -21.541

-22.3491 5.74357 6.1634e-11
5.74357 -10.5626 -4.67817e-11
6.1634e-11 -4.67817e-11 -20.6313

-0.827278 7.35296 -8.27982e-12
7.35296 -4.06092 3.91539e-13
-8.27982e-12 3.91539e-13 -1.33094

-5.48714 6.70137 5.72801e-12
6.70137 -0.556703 3.08205e-12
5.72801e-12 3.08205e-12 -2.02706

-5.74803 -6.70927 -5.91453e-12
-6.70927 -3.15113 2.04056e-11
-5.91453e-12 2.04056e-11 -1.95986

-0.33238 6.76657 -2.23351e-11
6.76657 3.18996 2.32938e-11
-2.23351e-11 2.32938e-11 0.520196

-1.23515 -5.39989 -1.67496e-11
-5.39989 1.92931 -5.38414e-12
-1.67496e-11 -5.38414e-12 0.616554

6.81912 -0.856207 -3.89475e-13
-0.856207 15.2288 -5.8946e-11
-3.89475e-13 -5.8946e-11 9.35839

7.79796 -1.73708 -1.96464e-11
-1.73708 15.0131 1.48326e-11
-1.96464e-11 1.48326e-11 9.07699

15.9361 -0.735689 2.28287e-11
-0.735689 7.99791 -5.3933e-12
2.28287e-11 -5.3933e-12 9.61736

-3.47445 7.79984 4.14232e-12
7.79984 2.60747 2.48387e-11
4.14232e-12 2.48387e-11 -0.441519

-4.7309 -6.04773 -2.89766e-11
-6.04773 0.112233 -2.54169e-11
-2.89766e-11 -2.54169e-11 -0.553246

10.0889 1.21025 1.32849e-11
1.21025 18.4114 -9.44148e-12
1.32849e-11 -9.44148e-12 12.6256

18.347 1.86835 4.82556e-11
1.86835 10.4216 1.04114e-11
4.82556e-11 1.04114e-11 12.8107

-7.62096 -7.72874 -1.05327e-11
-7.72874 -5.65293 -4.73619e-11
-1.05327e-11 -4.73619e-11 -3.63686

-7.28939 6.36639 5.84794e-11
6.36639 -1.31089 1.48277e-11
5.84794e-11 1.48277e-11 -3.40498

-7.7327 -6.83706 2.88255e-11
-6.83706 -3.20647 -1.23315e-11
2.88255e-11 -1.23315e-11 -3.77046

-7.55293 5.08508 3.5336e-11
5.08508 -1.98494 4.3514e-11
3.5336e-11 4.3514e-11 -4.01164

21.7558 -3.17634 -6.22179e-11
-3.17634 22.4478 8.36176e-11
-6.22179e-11 8.36176e-11 24.642

21.7112 -3.19482 3.17909e-12
-3.19482 22.404 -2.6397e-11
3.17909e-12 -2.6397e-11 24.7298

-2.27446 6.1668 -2.12082e-12
6.1668 2.05208 -4.42979e-12
-2.12082e-12 -4.42979e-12 -0.525446

-2.87039 -5.64872 2.08926e-11
-5.64872 -1.5851 2.11695e-11
2.08926e-11 2.11695e-11 -0.770271

-9.92796 1.61355 -2.11544e-12
1.61355 -2.7322 4.96636e-11
-2.11544e-12 4.96636e-11 -9.83808

-11.7292 -0.912252 -1.65599e-11
-0.912252 -10.3398 7.62342e-11
-1.65599e-11 7.62342e-11 -11.3019

-11.4271 -7.09132 -1.18325e-11
-7.09132 -1.86484 2.65718e-11
-1.18325e-11 2.65718e-11 -3.82767

-9.30304 6.66292 3.05066e-11
6.66292 0.526735 -6.2187e-11
3.05066e-11 -6.2187e-11 -3.70342

-6.88145 -1.48402 -7.24621e-11
-1.48402 -11.0992 -9.31739e-11
-7.24621e-11 -9.31739e-11 -7.27018

-4.47455 0.145224 1.40741e-11
0.145224 -12.4123 -1.90561e-11
1.40741e-11 -1.90561e-11 -7.21646

-4.84466 6.56597 -1.42452e-11
6.56597 -3.54055 -5.006e-12
-1.42452e-11 -5.006e-12 -2.20457

-4.23864 -6.44754 7.69969e-12
-6.44754 -0.362995 1.86694e-11
7.69969e-12 1.86694e-11 -1.559

-7.22216 1.98645 1.34523e-11
1.98645 -14.3038 -8.53732e-12
1.34523e-11 -8.53732e-12 -12.1383

-13.2863 0.591225 7.00257e-11
0.591225 -16.8667 -4.56211e-11
7.00257e-11 -4.56211e-11 -16.7731

-10.5644 -1.78503 -1.59051e-11
-1.78503 -12.2862 -1.35258e-11
-1.59051e-11 -1.35258e-11 -12.2982

-19.81 -0.233784 6.83463e-11
-0.233784 -11.9578 7.89309e-11
6.83463e-11 7.89309e-11 -17.02

-14.8505 1.15133 -2.90639e-11
1.15133 0.264744 2.10942e-15
-2.90639e-11 2.10942e-15 -12.025

-4.14859 6.5107 1.30884e-11
6.5107 -8.9253 6.81464e-11
1.30884e-11 6.81464e-11 -11.7969

-10.1366 -2.54662 -4.42756e-11
-2.54662 -13.599 -1.94448e-11
-4.42756e-11 -1.94448e-11 -13.4686

-16.1587 -1.5328 -5.77612e-12
-1.5328 -7.13492 -3.10909e-11
-5.77612e-12 -3.10909e-11 -13.3173

-18.4366 3.81007 1.23557e-10
3.81007 -13.9728 2.20418e-10
1.23557e-10 2.20418e-10 -17.617

3.4395 3.87102 4.41536e-10
3.87102 -28.0056 -5.30294e-10
4.41536e-10 -5.30294e-10 -19.8636

0.273912 -2.54592 6.64263e-10
-2.54592 -1.54728 5.02644e-10
6.64263e-10 5.02644e-10 -15.3449

-13.2857 -8.76184 4.38105e-10
-8.76184 -5.77827 -5.09504e-10
4.38105e-10 -5.09504e-10 -14.7988

-10.9844 4.94215 -7.54482e-11
4.94215 -11.3256 -9.81754e-11
-7.54482e-11 -9.81754e-11 -13.1139

-8.76057 3.59159 2.555e-11
3.59159 -3.18945 -4.83157e-11
2.555e-11 -4.83157e-11 -6.79981

-16.72 1.05558 -4.84188e-11
1.05558 -18.3201 -3.36907e-11
-4.84188e-11 -3.36907e-11 -19.4101

-7.42221 -8.17703 -1.44293e-11
-8.17703 -10.1868 7.08413e-11
-1.44293e-11 7.08413e-11 -11.8978

-13.804 -9.39422 -2.08873e-11
-9.39422 -5.64453 3.27328e-11
-2.08873e-11 3.27328e-11 -16.3267

-8.12638 -4.59082 -2.58918e-11
-4.59082 -5.3679 1.46345e-11
-2.58918e-11 1.46345e-11 -6.59042

-9.55465 -7.66039 2.59607e-12
-7.66039 -5.02541 2.34845e-11
2.59607e-12 2.34845e-11 -8.13962

-13.5549 -5.09497 3.10091e-11
-5.09497 -8.70853 -9.24486e-12
3.10091e-11 -9.24486e-12 -12.3731

-11.7775 3.21211 7.45937e-12
3.21211 -7.17568 7.12369e-11
7.45937e-12 7.12369e-11 -9.30472

-10.598 1.92269 2.43626e-11
1.92269 -10.9568 1.46263e-11
2.43626e-11 1.46263e-11 -12.3686

-0.0641767 5.46537 -3.773e-11
5.46537 5.0825 9.05202e-12
-3.773e-11 9.05202e-12 1.6677

-4.51889 2.74133 -3.61948e-11
2.74133 2.6665 -3.17376e-12
-3.61948e-11 -3.17376e-12 -0.964794

-6.48365 2.34753 -1.05887e-11
2.34753 1.6462 -2.68638e-11
-1.05887e-11 -2.68638e-11 -1.31418

5.76945 3.10311 -2.85009e-11
3.10311 -7.40951 1.31128e-11
-2.85009e-11 1.31128e-11 0.0183102

8.11784 1.05196 -3.27377e-11
1.05196 -4.88323 4.15066e-11
-3.27377e-11 4.15066e-11 1.28347

-10.7136 1.68049 -9.24392e-12
1.68049 -2.03847 -5.79832e-13
-9.24392e-12 -5.79832e-13 -4.54028

-12.7517 3.8718 -2.38714e-11
3.8718 -1.00547 3.94721e-11
-2.38714e-11 3.94721e-11 -4.50478

8.66416 -1.23537 -1.92628e-11
-1.23537 -4.22757 -1.24256e-11
-1.92628e-11 -1.24256e-11 1.49266

1.33366 -2.48099 -6.74349e-12
-2.48099 -10.1146 2.0936e-11
-6.74349e-12 2.0936e-11 -1.81937

4.44071 4.97677 -1.11692e-11
4.97677 9.60294 9.7781e-12
-1.11692e-11 9.7781e-12 5.56342

5.3437 -4.97244 -1.38668e-11
-4.97244 10.2544 -8.23341e-12
-1.38668e-11 -8.23341e-12 6.30506

12.1524 -4.55911 2.19561e-11
-4.55911 3.77971 -1.66563e-12
2.19561e-11 -1.66563e-12 6.02851

-7.86962 -4.68411 1.53684e-12
-4.68411 -1.95255 1.02052e-11
1.53684e-12 1.02052e-11 -3.91903

-5.11076 -3.23959 -3.08061e-12
-3.23959 -1.57225 -8.57277e-12
-3.08061e-12 -8.57277e-12 -3.60452

-4.87561 4.65617 -2.00225e-11
4.65617 2.05406 -1.1656e-11
-2.00225e-11 -1.1656e-11 -0.124061

-8.66263 5.60366 2.1955e-11
5.60366 0.314546 1.4538e-11
2.1955e-11 1.4538e-11 -1.31963

-12.4303 -3.63067 3.04183e-11
-3.63067 -0.807205 -1.78102e-11
3.04183e-11 -1.78102e-11 -4.48759

-11.3757 -1.06109 -3.45649e-12
-1.06109 -2.05291 3.27664e-12
-3.45649e-12 3.27664e-12 -4.6746

7.12544 1.42904 -1.07844e-11
1.42904 -7.9331 -1.70084e-11
-1.07844e-11 -1.70084e-11 -0.267844

3.00916 1.79092 -3.85181e-12
1.79092 11.2423 7.52346e-12
-3.85181e-12 7.52346e-12 4.59066

3.04101 -1.4632 -2.04166e-11
-1.4632 11.0587 -1.68517e-11
-2.04166e-11 -1.68517e-11 4.65176

13.8152 -1.26377 -5.77538e-12
-1.26377 2.76546 -6.95644e-12
-5.77538e-12 -6.95644e-12 5.06507

0.316843 6.28091 -2.79237e-11
6.28091 2.32033 -2.33114e-11
-2.79237e-11 -2.33114e-11 1.22077

9.1111 -4.17594 -9.63081e-12
-4.17594 -3.0273 1.66031e-11
-9.63081e-12 1.66031e-11 2.15415

2.08046 6.65373 3.65863e-11
6.65373 -1.06994 -3.90414e-12
3.65863e-11 -3.90414e-12 0.533837

-0.76378 5.303 -2.54172e-11
5.303 6.34655 2.04117e-11
-2.54172e-11 2.04117e-11 1.50202

5.24687 -2.63334 1.15568e-11
-2.63334 -8.31563 -1.34948e-11
1.15568e-11 -1.34948e-11 -0.285259

12.343 3.49954 7.48438e-13
3.49954 15.8744 -1.25893e-11
7.48438e-13 -1.25893e-11 10.9896

3.35018 3.26508 1.65605e-11
3.26508 -10.14 -1.31644e-11
1.65605e-11 -1.31644e-11 -1.31654

17.5308 -3.02457 4.16089e-11
-3.02457 11.3948 1.40671e-11
4.16089e-11 1.40671e-11 11.3831

-6.71476 -1.15189 2.38759e-11
-1.15189 -2.15264 -7.70495e-12
2.38759e-11 -7.70495e-12 -4.84229

-6.84586 2.04393 1.88712e-11
2.04393 -1.97406 -3.07443e-12
1.88712e-11 -3.07443e-12 -4.80473

-0.547676 -6.22324 -3.34979e-11
-6.22324 -11.3957 6.35044e-12
-3.34979e-11 6.35044e-12 -12.8928

-0.598536 6.43915 1.77178e-11
6.43915 -11.4427 5.03356e-11
1.77178e-11 5.03356e-11 -12.8034

13.1118 -1.66205 -7.26139e-11
-1.66205 1.77746 2.77343e-11
-7.26139e-11 2.77343e-11 5.16107

-2.0335 7.27151 8.27842e-12
7.27151 -2.63363 -3.9673e-11
8.27842e-12 -3.9673e-11 -0.780141

-0.151167 -3.77265 -3.08005e-12
-3.77265 -7.40192 -1.54976e-11
-3.08005e-12 -1.54976e-11 -5.06727

0.0300192 3.75891 -2.15586e-11
3.75891 -7.12482 2.86956e-13
-2.15586e-11 2.86956e-13 -4.74521

1.02653 1.30883 -1.38638e-11
1.30883 -11.9635 -9.03796e-13
-1.38638e-11 -9.03796e-13 -2.06514

-1.18746 5.99215 2.27185e-11
5.99215 6.40031 -1.88676e-11
2.27185e-11 -1.88676e-11 1.44994

7.73049 -5.1848 -2.77319e-11
-5.1848 -1.00948 -4.21733e-11
-2.77319e-11 -4.21733e-11 2.12376

1.88309 -0.322193 -7.414e-12
-0.322193 -12.7153 2.8985e-12
-7.414e-12 2.8985e-12 -1.76007

0.149754 -6.30363 1.34723e-11
-6.30363 2.53406 7.80176e-12
1.34723e-11 7.80176e-12 1.23859

-0.111705 -5.16876 -4.39027e-11
-5.16876 5.07019 -2.02194e-11
-4.39027e-11 -2.02194e-11 1.64252

-6.87632 5.90153 -2.50159e-12
5.90153 2.71688 -3.36972e-11
-2.50159e-12 -3.36972e-11 -1.04402

7.02505 -7.21001 8.0882e-12
-7.21001 1.76428 -1.75718e-11
8.0882e-12 -1.75718e-11 3.00423

33.9932 -5.49853 -5.00876e-11
-5.49853 30.8683 -3.77979e-12
-5.00876e-11 -3.77979e-12 32.5757

34.1202 7.63783 -3.08975e-12
7.63783 33.0792 -2.68864e-11
-3.08975e-12 -2.68864e-11 33.3595

-12.3504 -7.04572 -3.6576e-11
-7.04572 -1.06773 -1.90639e-11
-3.6576e-11 -1.90639e-11 -3.2402

23.1664 1.00248 -6.16573e-12
1.00248 19.7938 -2.92661e-11
-6.16573e-12 -2.92661e-11 22.7937

19.8713 -1.84624 -3.19759e-11
-1.84624 18.8735 4.67182e-12
-3.19759e-11 4.67182e-12 21.5201

-7.02022 -1.65339 -3.84877e-12
-1.65339 -5.00845 8.85669e-12
-3.84877e-12 8.85669e-12 -5.80145

-6.95714 1.71654 4.87061e-11
1.71654 -5.13007 6.64391e-12
4.87061e-11 6.64391e-12 -5.80512

8.78885 -0.117324 -9.24364e-12
-0.117324 -9.34265 4.16593e-12
-9.24364e-12 4.16593e-12 -0.279335

-7.58071 -0.898456 -3.48406e-11
-0.898456 -8.23314 9.38472e-12
-3.48406e-11 9.38472e-12 -6.65603

-7.48959 0.98735 2.63754e-11
0.98735 -8.21411 6.15124e-11
2.63754e-11 6.15124e-11 -6.62303

-5.07292 5.496 -1.84791e-11
5.496 4.78414 3.062e-11
-1.84791e-11 3.062e-11 0.0139403

-2.88977 -5.82506 2.42603e-11
-5.82506 -9.52614 -2.71427e-11
2.42603e-11 -2.71427e-11 -10.5711

-3.03278 5.85243 1.57798e-11
5.85243 -9.61397 -3.25796e-11
1.57798e-11 -3.25796e-11 -10.5439

-3.84316 -2.92343 3.48486e-11
-2.92343 -4.50114 2.54104e-11
3.48486e-11 2.54104e-11 -2.92974

-3.84199 2.94859 3.66018e-12
2.94859 -4.54702 1.92949e-12
3.66018e-12 1.92949e-12 -2.9372

12.7224 -4.96911 -4.23809e-12
-4.96911 3.74687 5.75396e-11
-4.23809e-12 5.75396e-11 6.71552

-15.8617 2.88854 -2.88704e-11
2.88854 -1.97913 -1.5397e-11
-2.88704e-11 -1.5397e-11 -10.6911

-12.2711 -0.553674 -2.65675e-11
-0.553674 -7.16851 -3.73472e-11
-2.65675e-11 -3.73472e-11 -11.2147

-1.15382 -6.05673 -5.57791e-12
-6.05673 6.39156 -1.13629e-11
-5.57791e-12 -1.13629e-11 1.43753

10.4344 -1.52376 4.61853e-12
-1.52376 15.2368 -4.29606e-11
4.61853e-12 -4.29606e-11 11.2479

17.0412 -1.57339 -2.58119e-11
-1.57339 8.69257 1.68077e-11
-2.58119e-11 1.68077e-11 11.5577

-7.5077 4.71936 1.2704e-11
4.71936 3.1361 -1.42496e-11
1.2704e-11 -1.42496e-11 -1.11989

-8.30466 4.70771 -2.19519e-11
4.70771 0.993806 -1.71405e-11
-2.19519e-11 -1.71405e-11 -1.32721

-14.9305 -4.68892 5.75688e-13
-4.68892 -26.3119 -1.29639e-10
5.75688e-13 -1.29639e-10 -23.4088

-14.7226 4.33555 1.01061e-10
4.33555 -24.9891 5.36223e-11
1.01061e-10 5.36223e-11 -23.0378

-10.0194 6.17718 1.4245e-11
6.17718 -3.35465 -1.90633e-11
1.4245e-11 -1.90633e-11 -2.22468

1.42238 1.88513 -3.67741e-11
1.88513 -7.88164 3.12392e-11
-3.67741e-11 3.12392e-11 -1.86775

1.56466 -1.9602 1.3482e-11
-1.9602 -7.89387 -2.67151e-11
1.3482e-11 -2.67151e-11 -1.83806

-5.67761 8.28926 1.30932e-11
8.28926 -4.02561 2.0117e-11
1.30932e-11 2.0117e-11 -1.86569

-8.96735 -5.5829 3.5038e-11
-5.5829 -0.536179 4.90822e-12
3.5038e-11 4.90822e-12 -2.94937

12.851 -0.0959796 -5.08475e-11
-0.0959796 0.298602 -1.97389e-11
-5.08475e-11 -1.97389e-11 4.96416

10.3949 0.119728 -3.77449e-11
0.119728 -4.08252 -3.14705e-11
-3.77449e-11 -3.14705e-11 1.48309

10.4587 3.72658 3.08213e-12
3.72658 -1.56426 1.25865e-11
3.08213e-12 1.25865e-11 2.8968

0.224066 6.19815 -1.1939e-11
6.19815 -10.6577 5.24699e-12
-1.1939e-11 5.24699e-12 -4.46171

-2.36358 -0.92052 -1.0701e-10
-0.92052 -7.10116 9.1776e-11
-1.0701e-10 9.1776e-11 -14.7886

-2.59481 0.915373 1.44743e-10
0.915373 -6.65096 4.2942e-11
1.44743e-10 4.2942e-11 -14.8455

8.18498 5.41674 -7.12631e-11
5.41674 7.57058 9.81778e-12
-7.12631e-11 9.81778e-12 5.22449

2.82416 -6.90087 -5.81484e-11
-6.90087 -3.10804 -3.85617e-13
-5.81484e-11 -3.85617e-13 0.229544

7.13837 -1.71492 -3.56213e-11
-1.71492 -4.39165 8.66122e-13
-3.56213e-11 8.66122e-13 0.349393

-15.3458 6.66214 -1.23152e-11
6.66214 -3.43959 -2.73395e-11
-1.23152e-11 -2.73395e-11 -13.1327

-14.5266 -1.75139 -3.0414e-11
-1.75139 -12.2472 -4.52427e-11
-3.0414e-11 -4.52427e-11 -14.8291

0.0405436 -6.06195 -1.23177e-11
-6.06195 -10.2688 -1.61728e-11
-1.23177e-11 -1.61728e-11 -4.71788

-6.46183 -1.75517 5.81444e-11
-1.75517 1.90777 9.34364e-12
5.81444e-11 9.34364e-12 -1.46231

-5.34764 -1.83593 8.73005e-14
-1.83593 2.50872 -1.25146e-11
8.73005e-14 -1.25146e-11 -1.26966

6.23652 -0.484891 5.9693e-12
-0.484891 -11.958 -4.8848e-12
5.9693e-12 -4.8848e-12 -1.54006

6.33399 0.456627 3.235e-11
0.456627 -12.2261 3.4293e-11
3.235e-11 3.4293e-11 -1.56932

10.5314 4.66735 -2.55177e-11
4.66735 7.57975 8.47441e-12
-2.55177e-11 8.47441e-12 5.72196

1.5165 -0.370585 -4.67407e-11
-0.370585 -11.463 5.10207e-12
-4.67407e-11 5.10207e-12 -3.39967

1.51454 0.336155 1.47296e-11
0.336155 -11.3793 1.22288e-11
1.47296e-11 1.22288e-11 -3.3697

7.30216 1.70177 -3.85025e-13
1.70177 -4.49816 7.20601e-11
-3.85025e-13 7.20601e-11 0.366011

-0.892358 -5.38939 7.70695e-12
-5.38939 6.38632 1.27104e-11
7.70695e-12 1.27104e-11 1.46063

6.19322 -0.181135 7.70399e-12
-0.181135 -8.41924 -2.06479e-11
7.70399e-12 -2.06479e-11 -1.1657

6.25897 0.229722 2.07975e-11
0.229722 -8.62844 6.68909e-12
2.07975e-11 6.68909e-12 -1.19033

4.98446 -4.13259 9.25053e-12
-4.13259 -5.82091 -2.03092e-11
9.25053e-12 -2.03092e-11 -0.0660163

-6.78568 7.60665 2.88643e-12
7.60665 1.0324 -1.46316e-11
2.88643e-12 -1.46316e-11 -1.46565

6.59377 5.79023 2.27264e-11
5.79023 0.856096 2.86808e-13
2.27264e-11 2.86808e-13 2.27062

-8.34175 6.17259 -2.11793e-11
6.17259 -4.66109 -5.39372e-12
-2.11793e-11 -5.39372e-12 -2.34338

-6.8197 7.5683 4.42707e-12
7.5683 2.01944 -1.2996e-11
4.42707e-12 -1.2996e-11 -1.20971

9.79403 -2.94328 -3.46567e-12
-2.94328 -2.91646 1.02805e-11
-3.46567e-12 1.02805e-11 1.9866

1.36219 -6.76008 -1.98344e-11
-6.76008 -6.95526 1.54002e-11
-1.98344e-11 1.54002e-11 -1.65564

5.5083 4.127 -2.1178e-11
4.127 -4.79125 3.78787e-11
-2.1178e-11 3.78787e-11 0.311737

4.09255 6.75398 -1.42448e-11
6.75398 2.05802 2.27166e-11
-1.42448e-11 2.27166e-11 2.23508

2.84021 6.93703 3.46634e-11
6.93703 -3.06847 -3.27175e-12
3.46634e-11 -3.27175e-12 0.279962

-9.33121 0.635763 -3.85983e-12
0.635763 2.28083 -2.01186e-11
-3.85983e-12 -2.01186e-11 -1.74796

-9.14237 0.224333 1.53627e-12
0.224333 2.23208 2.22354e-11
1.53627e-12 2.22354e-11 -1.75759

11.9208 4.88097 -2.43664e-11
4.88097 3.59466 -4.67174e-11
-2.43664e-11 -4.67174e-11 5.82065

-5.76138 -8.28137 -3.58112e-11
-8.28137 -4.13046 3.58155e-11
-3.58112e-11 3.58155e-11 -1.90553

3.0242 -6.60219 -4.21686e-11
-6.60219 6.29586 1.71472e-11
-4.21686e-11 1.71472e-11 2.65381

2.94665 6.68395 2.00375e-11
6.68395 6.65929 7.76268e-13
2.00375e-11 7.76268e-13 2.72595

4.52575 -4.98247 4.39096e-11
-4.98247 -5.51602 2.46144e-12
4.39096e-11 2.46144e-12 -0.193283

1.63788 -3.2993 2.04107e-11
-3.2993 -15.9722 -1.45327e-11
2.04107e-11 -1.45327e-11 -3.66063

1.72704 3.32562 3.35042e-11
3.32562 -15.0228 1.93442e-11
3.35042e-11 1.93442e-11 -3.3724

-1.94708 3.65664 6.54203e-12
3.65664 6.2111 -8.66788e-12
6.54203e-12 -8.66788e-12 1.61916

2.43022 -6.95214 -3.00505e-11
-6.95214 -0.924693 2.91701e-11
-3.00505e-11 2.91701e-11 0.625756

0.58597 -0.282961 1.42475e-11
-0.282961 11.9608 1.89228e-11
1.42475e-11 1.89228e-11 4.80045

0.653491 0.112707 1.00075e-11
0.112707 12.0882 1.82876e-12
1.00075e-11 1.82876e-12 4.89107

14.7856 0.351543 1.11737e-11
0.351543 0.458832 7.65728e-12
1.11737e-11 7.65728e-12 5.4444

10.2986 -4.84208 -1.07899e-11
-4.84208 8.07971 -3.55832e-11
-1.07899e-11 -3.55832e-11 5.77839

5.23632 5.88672 -1.00161e-11
5.88672 1.09132 4.62625e-11
-1.00161e-11 4.62625e-11 2.038

-16.1561 -11.9721 -5.39058e-12
-11.9721 -10.8155 -6.83206e-11
-5.39058e-12 -6.83206e-11 -18.8294

-11.6945 5.17461 8.89272e-11
5.17461 -8.29289 -3.04163e-11
8.89272e-11 -3.04163e-11 -17.3443

9.64155 2.68179 1.23278e-11
2.68179 -3.13928 -4.26518e-11
1.23278e-11 -4.26518e-11 1.84335

-4.81505 7.32559 -2.77233e-11
7.32559 3.88498 -6.06544e-12
-2.77233e-11 -6.06544e-12 -0.190554

8.93935 0.107355 -1.23245e-11
0.107355 -9.21743 1.85463e-11
-1.23245e-11 1.85463e-11 -0.220863

-2.1516 -3.53652 -1.92257e-12
-3.53652 6.28065 -3.90982e-11
-1.92257e-12 -3.90982e-11 1.57314

-14.8483 7.29432 6.9401e-12
7.29432 -1.1116 2.56117e-11
6.9401e-12 2.56117e-11 -3.5002

-8.40457 5.97244 -1.03948e-11
5.97244 0.0203307 8.95336e-12
-1.03948e-11 8.95336e-12 -2.56389

-6.77222 -7.58838 -1.2706e-11
-7.58838 0.959884 3.5141e-11
-1.2706e-11 3.5141e-11 -1.48712

-7.41087 7.66735 -2.12093e-12
7.66735 2.47425 -2.72434e-11
-2.12093e-12 -2.72434e-11 -1.2477

-6.1532 5.8143 3.77431e-11
5.8143 -0.387062 2.25322e-11
3.77431e-11 2.25322e-11 -0.786672

8.35582 0.065758 3.79348e-11
0.065758 -13.5015 3.31263e-14
3.79348e-11 3.31263e-14 -1.30909

5.95418 -5.81035 -6.16242e-11
-5.81035 1.31758 -1.65561e-11
-6.16242e-11 -1.65561e-11 2.29469

-8.46097 -6.20163 -1.6943e-11
-6.20163 -4.74015 -1.46308e-11
-1.6943e-11 -1.46308e-11 -2.39025

4.24558 -4.97018 -2.09828e-11
-4.97018 4.67777 3.23044e-11
-2.09828e-11 3.23044e-11 2.34249

8.26129 -4.81844 -4.62785e-12
-4.81844 8.39163 -4.12588e-12
-4.62785e-12 -4.12588e-12 5.85368

-2.31946 -7.17635 3.00375e-11
-7.17635 -2.50345 -6.03653e-11
3.00375e-11 -6.03653e-11 -0.819761

2.20737 -2.94302 3.15818e-11
-2.94302 10.8262 9.00346e-12
3.15818e-11 9.00346e-12 4.04551

2.12965 2.79192 1.53503e-12
2.79192 10.8664 -1.94544e-11
1.53503e-12 -1.94544e-11 4.00639

12.1069 1.68408 7.70658e-12
1.68408 2.43069 -7.44446e-11
7.70658e-12 -7.44446e-11 4.45964

4.17104 5.18281 -9.60417e-13
5.18281 4.63529 7.16915e-12
-9.60417e-13 7.16915e-12 2.32667

-2.67993 0.915985 1.19406e-11
0.915985 6.67937 2.27181e-11
1.19406e-11 2.27181e-11 1.02402

-2.67378 -0.196448 2.69813e-12
-0.196448 6.65061 -1.21344e-11
2.69813e-12 -1.21344e-11 1.04496

6.52898 -5.67483 3.27005e-12
-5.67483 9.41465 -1.55606e-11
3.27005e-12 -1.55606e-11 5.82318

6.89532 5.68502 9.82199e-12
5.68502 9.49636 -7.88688e-12
9.82199e-12 -7.88688e-12 5.94328

8.47761 0.455454 3.40837e-11
0.455454 -12.455 -8.92767e-12
3.40837e-11 -8.92767e-12 -1.21426

8.5978 -0.432075 -1.98332e-11
-0.432075 -12.5931 3.30888e-11
-1.98332e-11 3.30888e-11 -1.20112

-4.79719 6.67877 1.34825e-12
6.67877 3.57232 -2.05061e-11
1.34825e-12 -2.05061e-11 -0.33435

-15.4321 -6.51266 -2.42549e-11
-6.51266 -1.43892 -8.17975e-12
-2.42549e-11 -8.17975e-12 -3.47198

-0.300368 7.34556 -1.15826e-12
7.34556 -4.85301 -5.0154e-11
-1.15826e-12 -5.0154e-11 -1.33238

14.7578 3.40896 -3.38939e-11
3.40896 5.70753 4.00141e-11
-3.38939e-11 4.00141e-11 8.50345

-2.12964 4.43132 2.77262e-11
4.43132 8.4289 1.11718e-11
2.77262e-11 1.11718e-11 1.87587

-2.77281 0.437744 -4.96709e-11
0.437744 -7.07561 1.54549e-11
-4.96709e-11 1.54549e-11 -4.04858

-2.7704 -0.391673 -1.46318e-11
-0.391673 -6.9892 1.94404e-11
-1.46318e-11 1.94404e-11 -4.03495

3.03414 4.27923 3.06155e-11
4.27923 0.21789 -1.59287e-11
3.06155e-11 -1.59287e-11 0.563612

1.92949 -2.646 8.47056e-12
-2.646 -2.74943 4.2452e-11
8.47056e-12 4.2452e-11 -0.856781

1.90526 2.69683 -1.46335e-11
2.69683 -2.74434 -4.62066e-11
-1.46335e-11 -4.62066e-11 -0.860638

19.3392 -2.6832 2.32069e-12
-2.6832 13.2689 -2.92119e-11
2.32069e-12 -2.92119e-11 20.5429

11.6131 3.38226 1.4803e-16
3.38226 17.8716 4.25008e-12
1.4803e-16 4.25008e-12 20.2313

-2.50249 -4.3547 1.42528e-11
-4.3547 8.32203 3.6683e-11
1.42528e-11 3.6683e-11 1.76345

-9.12426 -0.982239 -9.62637e-12
-0.982239 -12.2935 -3.0416e-11
-9.62637e-12 -3.0416e-11 -11.6423

-9.05 1.11931 -3.34931e-11
1.11931 -12.164 5.77908e-13
-3.34931e-11 5.77908e-13 -11.5855

15.3333 2.93033 4.62356e-12
2.93033 5.51245 -3.63291e-11
4.62356e-12 -3.63291e-11 8.67374

-8.7639 -3.60968 3.08042e-11
-3.60968 2.00178 -1.37623e-11
3.08042e-11 -1.37623e-11 -1.41073

-7.64573 -3.52292 3.92829e-11
-3.52292 2.76115 1.7235e-11
3.92829e-11 1.7235e-11 -1.36406

4.80528 -7.09588 2.77291e-11
-7.09588 3.44088 -1.40513e-11
2.77291e-11 -1.40513e-11 2.77766

-7.34971 -7.71591 5.79721e-13
-7.71591 2.4484 -2.61869e-11
5.79721e-13 -2.61869e-11 -1.25057

-13.2731 9.20575 9.62193e-12
9.20575 -3.06443 -3.81255e-11
9.62193e-12 -3.81255e-11 -2.59809

-5.35616 4.16992 -1.42482e-11
4.16992 -2.28974 -7.41488e-12
-1.42482e-11 -7.41488e-12 -3.79933

-8.03745 5.75574 -4.23485e-11
5.75574 -2.56575 -2.79636e-12
-4.23485e-11 -2.79636e-12 -4.04899

-4.95313 -6.74507 -9.62541e-12
-6.74507 3.54668 7.60503e-12
-9.62541e-12 7.60503e-12 -0.382653

-2.89531 7.08118 -4.22854e-12
7.08118 -1.99366 2.46418e-11
-4.22854e-12 2.46418e-11 -0.582891

2.95112 -4.34447 2.48403e-11
-4.34447 0.248621 -9.23913e-12
2.48403e-11 -9.23913e-12 0.544473

9.11865 5.18486 2.6575e-11
5.18486 -1.22423 -1.79135e-11
2.6575e-11 -1.79135e-11 2.79707

10.1986 -0.159007 -4.67996e-11
-0.159007 -4.24315 -9.57371e-12
-4.67996e-11 -9.57371e-12 1.40365

-7.43525 8.04513 -2.11814e-12
8.04513 2.12912 2.31163e-12
-2.11814e-12 2.31163e-12 -1.15661

-5.22625 -4.84601 -1.96358e-11
-4.84601 1.97375 -1.92735e-13
-1.96358e-11 -1.92735e-13 -0.225108

-4.69892 1.76887 8.47111e-12
1.76887 6.14414 -2.09942e-11
8.47111e-12 -2.09942e-11 0.721559

-1.90395 4.9613 1.54188e-12
4.9613 -1.98778 -5.70884e-11
1.54188e-12 -5.70884e-11 -1.14087

-4.43355 2.19725 -9.24124e-12
2.19725 6.7837 -5.2068e-12
-9.24124e-12 -5.2068e-12 0.753155

-7.54975 -6.213 -3.85307e-12
-6.213 0.725198 2.45498e-11
-3.85307e-12 2.45498e-11 -2.13045

17.3029 -3.48567 1.42534e-11
-3.48567 18.053 6.73677e-11
1.42534e-11 6.73677e-11 16.3733

20.5233 -3.50793 -1.57948e-11
-3.50793 15.3626 1.31266e-11
-1.57948e-11 1.31266e-11 16.6579

6.90871 -1.40205 -4.14992e-11
-1.40205 -7.91266 5.77011e-12
-4.14992e-11 5.77011e-12 -0.311737

-1.93314 -4.97367 -1.40588e-11
-4.97367 -2.04244 2.97518e-11
-1.40588e-11 2.97518e-11 -1.15888

-9.35488 -6.65405 6.85326e-11
-6.65405 -21.1287 1.62586e-11
6.85326e-11 1.62586e-11 -19.4731

-9.13567 6.37348 1.48232e-10
6.37348 -20.5822 5.46829e-11
1.48232e-10 5.46829e-11 -19.2866

-4.98158 -7.2254 -1.52093e-11
-7.2254 3.75386 -2.7724e-11
-1.52093e-11 -2.7724e-11 -0.279548

-5.39533 -6.19302 3.38837e-11
-6.19302 -5.34898 -2.53171e-11
3.38837e-11 -2.53171e-11 -8.27464

-5.48426 6.29427 5.00573e-11
6.29427 -5.28776 3.82176e-11
5.00573e-11 3.82176e-11 -8.14668

4.01038 1.36176 2.34899e-11
1.36176 -8.60148 -3.2461e-11
2.34899e-11 -3.2461e-11 -0.539534

-13.4674 -9.21745 3.82416e-13
-9.21745 -3.31889 2.04126e-11
3.82416e-13 2.04126e-11 -2.67735

14.4346 -4.15037 9.25267e-12
-4.15037 14.0522 -2.06201e-11
9.25267e-12 -2.06201e-11 12.8534

14.9153 4.16604 -4.2375e-12
4.16604 11.965 3.00509e-11
-4.2375e-12 3.00509e-11 12.1136

9.02704 -3.09381 1.54149e-11
-3.09381 14.8485 9.67774e-12
1.54149e-11 9.67774e-12 9.70477

8.26933 2.87729 1.50267e-11
2.87729 15.0677 6.4091e-12
1.50267e-11 6.4091e-12 9.66727

16.3808 1.77305 3.39038e-11
1.77305 7.45952 1.87093e-11
3.39038e-11 1.87093e-11 9.95261

-7.37819 -8.10738 1.32835e-11
-8.10738 2.271 6.83339e-12
1.32835e-11 6.83339e-12 -1.12565

9.00759 0.921691 3.082e-11
0.921691 16.9561 5.56266e-12
3.082e-11 5.56266e-12 11.9848

19.137 -1.00316 1.19447e-11
-1.00316 9.09566 -2.80742e-11
1.19447e-11 -2.80742e-11 12.6983

-11.9702 -2.55629 -2.88727e-11
-2.55629 -1.73359 -5.9295e-11
-2.88727e-11 -5.9295e-11 -7.26289

-7.92521 -0.157341 -1.53992e-11
-0.157341 -4.99331 5.39369e-12
-1.53992e-11 5.39369e-12 -7.29164

3.17473 4.02729 -4.04416e-11
4.02729 -6.40889 -4.50546e-11
-4.04416e-11 -4.50546e-11 -1.19038

2.0292 -0.285283 1.57891e-11
-0.285283 -17.4298 -5.68026e-12
1.57891e-11 -5.68026e-12 -2.60493

2.14385 4.0899 1.9449e-11
4.0899 9.6315 6.83971e-12
1.9449e-11 6.83971e-12 3.9301

2.05635 -4.27994 -3.2722e-12
-4.27994 9.61813 4.85808e-11
-3.2722e-12 4.85808e-11 3.93687

4.76222 -0.767004 2.42641e-11
-0.767004 -8.37242 -1.19182e-11
2.42641e-11 -1.19182e-11 -0.331445

-5.27389 -5.48142 7.6991e-12
-5.48142 4.89892 -6.16233e-11
7.6991e-12 -6.16233e-11 -0.0291693

-5.20824 0.572797 6.74172e-12
0.572797 -10.0284 2.03086e-11
6.74172e-12 2.03086e-11 -7.89649

-5.23964 -0.49509 2.84885e-11
-0.49509 -9.99753 8.73008e-11
2.84885e-11 8.73008e-11 -7.88343

0.335113 6.11926 -4.23556e-11
6.11926 -3.94985 4.62304e-12
-4.23556e-11 4.62304e-12 -1.35074

-3.07673 -6.9062 4.42901e-11
-6.9062 -2.05979 -1.54676e-12
4.42901e-11 -1.54676e-12 -0.631171

3.73673 3.67234 -1.57859e-11
3.67234 -10.4788 3.17173e-11
-1.57859e-11 3.17173e-11 -1.50874

9.09644 5.40957 -5.31624e-11
5.40957 4.88321 -2.95622e-11
-5.31624e-11 -2.95622e-11 5.13535

-6.14834 -5.98667 1.67531e-11
-5.98667 -0.201032 -2.61933e-11
1.67531e-11 -2.61933e-11 -0.760385

34.6689 9.30993 -2.15803e-11
9.30993 32.6298 -5.23142e-11
-2.15803e-11 -5.23142e-11 34.546

-4.45715 -1.32217 2.88838e-11
-1.32217 6.01108 2.21364e-12
2.88838e-11 2.21364e-12 0.7186

-4.11389 -1.96825 -1.27032e-11
-1.96825 6.5285 -2.23377e-11
-1.27032e-11 -2.23377e-11 0.777371

-12.7478 2.72552 6.08189e-11
2.72552 -3.13683 -4.81163e-12
6.08189e-11 -4.81163e-12 -8.63986

-11.3093 -4.07572 2.92472e-11
-4.07572 -4.42329 1.67516e-11
2.92472e-11 1.67516e-11 -8.64068

5.52801 -0.216198 1.27089e-11
-0.216198 -13.5966 2.73347e-11
1.27089e-11 2.73347e-11 -2.63579

5.56714 0.201892 -3.04231e-11
0.201892 -13.6819 1.53765e-11
-3.04231e-11 1.53765e-11 -2.62203

-2.20576 -7.99413 -1.34761e-11
-7.99413 -6.66781 -6.64158e-12
-1.34761e-11 -6.64158e-12 -3.71333

-1.74404 8.06326 -4.81284e-11
8.06326 -7.28587 4.80616e-12
-4.81284e-11 4.80616e-12 -3.57445

-1.17988 -2.91262 6.62231e-11
-2.91262 -5.4859 6.73395e-12
6.62231e-11 6.73395e-12 -6.15449

-1.30584 2.90592 3.88845e-11
2.90592 -5.386 7.61012e-12
3.88845e-11 7.61012e-12 -6.10067

-12.3353 -2.54266 -1.28019e-10
-2.54266 -17.5193 3.37857e-11
-1.28019e-10 3.37857e-11 -16.7286

-12.2031 2.7366 1.48247e-11
2.7366 -17.0635 3.81119e-11
1.48247e-11 3.81119e-11 -16.5697

-8.21135 -7.65076 5.00607e-12
-7.65076 -0.455091 -2.04102e-11
5.00607e-12 -2.04102e-11 -2.57084

-8.18181 7.6114 -1.17443e-11
7.6114 -0.516619 -2.98471e-12
-1.17443e-11 -2.98471e-12 -2.5973

3.59896 -3.96829 3.62027e-11
-3.96829 -3.4731 8.473e-12
3.62027e-11 8.473e-12 -0.0198355

-4.39248 -3.35219 1.96389e-11
-3.35219 3.65084 4.92949e-11
1.96389e-11 4.92949e-11 0.148178

1.12039 6.45168 -4.37145e-11
6.45168 1.04713 -1.69555e-11
-4.37145e-11 -1.69555e-11 0.550178

-3.69359 -4.70016 2.65668e-11
-4.70016 5.40508 -4.19815e-11
2.65668e-11 -4.19815e-11 0.358281

10.6357 -4.99743 9.6397e-13
-4.99743 6.80731 -1.2519e-11
9.6397e-13 -1.2519e-11 6.12949

3.68955 3.91733 -1.92616e-12
3.91733 -3.43905 5.84411e-11
-1.92616e-12 5.84411e-11 0.0213467

-3.87986 3.33292 -2.55038e-11
3.33292 3.76708 -4.75639e-11
-2.55038e-11 -4.75639e-11 0.298938

-8.8331 -9.51208 8.47182e-12
-9.51208 -5.0438 -5.58324e-12
8.47182e-12 -5.58324e-12 -3.38937

-8.81227 9.51861 3.00349e-11
9.51861 -5.10905 1.05957e-11
3.00349e-11 1.05957e-11 -3.4037

2.69081 -3.82601 -4.38996e-11
-3.82601 -6.78227 1.36634e-11
-4.38996e-11 1.36634e-11 -1.63733

-11.3115 -7.1204 3.77232e-11
-7.1204 -5.35307 3.4629e-12
3.77232e-11 3.4629e-12 -16.8572

-15.902 7.28659 -3.77323e-11
7.28659 -20.4348 1.42339e-11
-3.77323e-11 1.42339e-11 -20.6814

-4.79128 -5.38924 2.02156e-11
-5.38924 2.58389 1.64596e-11
2.02156e-11 1.64596e-11 -0.904737

1.53094 6.73201 -5.18057e-11
6.73201 -6.52559 -3.26835e-11
-5.18057e-11 -3.26835e-11 -1.3479

0.532286 0.434009 5.19777e-11
0.434009 -7.05051 -2.4696e-11
5.19777e-11 -2.4696e-11 -4.03267

1.08266 -6.30909 1.271e-11
-6.30909 1.35027 -2.73478e-11
1.271e-11 -2.73478e-11 0.595584

16.5704 4.03906 3.86854e-12
4.03906 18.0304 -2.11397e-11
3.86854e-12 -2.11397e-11 15.274

18.4475 3.99454 -1.42479e-11
3.99454 14.4569 3.2121e-11
-1.42479e-11 3.2121e-11 14.9622

3.89442 0.795139 2.8891e-12
0.795139 -12.6494 1.91294e-11
2.8891e-12 1.91294e-11 -3.445

3.75835 -0.802653 -3.40811e-11
-0.802653 -12.6982 -1.9828e-11
-3.40811e-11 -1.9828e-11 -3.46115

0.636449 -0.704434 -2.6917e-12
-0.704434 -6.76833 -1.07356e-11
-2.6917e-12 -1.07356e-11 -4.11953

-3.43606 4.47644 1.15065e-11
4.47644 5.31578 -1.85829e-11
1.15065e-11 -1.85829e-11 0.402314

9.12307 -3.1517 -6.54602e-12
-3.1517 0.749615 1.82475e-11
-6.54602e-12 1.82475e-11 2.4119

-3.70446 -3.8276 3.67775e-11
-3.8276 -1.4473 -4.56337e-11
3.67775e-11 -4.56337e-11 -2.29366

-3.68602 3.83308 1.8095e-11
3.83308 -1.44204 2.7904e-12
1.8095e-11 2.7904e-12 -2.28837

-6.04895 -0.525773 -7.31268e-11
-0.525773 -0.6904 9.52469e-11
-7.31268e-11 9.52469e-11 -15.4396

-6.00113 0.518428 -8.84937e-12
0.518428 -0.814345 -1.42365e-11
-8.84937e-12 -1.42365e-11 -15.404

-7.30587 -6.53398 -1.34783e-11
-6.53398 2.46905 1.71409e-11
-1.34783e-11 1.71409e-11 -1.10311

5.03191 5.17747 2.04115e-11
5.17747 -4.51776 -1.1533e-12
2.04115e-11 -1.1533e-12 0.205414

0.336646 -0.632551 1.60797e-11
-0.632551 -8.24463 -7.06017e-11
1.60797e-11 -7.06017e-11 -3.77391

0.350326 0.689542 -6.41158e-11
0.689542 -8.26049 1.63899e-12
-6.41158e-11 1.63899e-12 -3.78265

-8.18113 -4.15056 -3.96701e-11
-4.15056 -0.27532 2.08888e-11
-3.96701e-11 2.08888e-11 -1.64538

-9.92238 -6.63037 -1.73289e-11
-6.63037 -3.53416 1.86774e-11
-1.73289e-11 1.86774e-11 -2.08421

34.6011 -9.65707 -2.42785e-11
-9.65707 34.8923 9.77759e-12
-2.42785e-11 9.77759e-12 34.9166

-7.92649 -6.19295 2.69538e-11
-6.19295 -2.55998 6.25431e-12
2.69538e-11 6.25431e-12 -4.08871

-7.83035 6.24749 3.2339e-11
6.24749 -2.59053 3.62025e-11
3.2339e-11 3.62025e-11 -4.03865

-8.95009 -6.37412 -1.00119e-11
-6.37412 -1.00385 2.40702e-11
-1.00119e-11 2.40702e-11 -1.50393

9.13523 3.3425 1.54336e-12
3.3425 0.522586 5.71921e-11
1.54336e-12 5.71921e-11 2.30837

0.514491 -5.87485 1.63666e-11
-5.87485 -4.34684 5.19725e-12
1.63666e-11 5.19725e-12 -1.54322

-1.19555 -6.52229 7.31045e-12
-6.52229 -6.39038 2.8971e-11
7.31045e-12 2.8971e-11 -3.1991

-0.867377 6.36441 1.00129e-11
6.36441 -6.50983 6.7224e-13
1.00129e-11 6.7224e-13 -3.1065

3.40598 -3.64705 -4.04409e-11
-3.64705 -11.1427 2.65166e-11
-4.04409e-11 2.65166e-11 -1.85002

-0.465193 1.59559 9.61527e-13
1.59559 -11.2657 -4.82235e-11
9.61527e-13 -4.82235e-11 -5.81977

-0.525167 -1.56541 -3.54211e-11
-1.56541 -11.1349 -2.51232e-11
-3.54211e-11 -2.51232e-11 -5.78905

-17.748 -2.52974 6.50592e-11
-2.52974 -4.26532 -7.1263e-12
6.50592e-11 -7.1263e-12 -15.3563

-15.151 5.52144 5.23599e-11
5.52144 -5.24888 -1.01981e-11
5.23599e-11 -1.01981e-11 -14.9784

21.0899 0.820556 -7.01225e-11
0.820556 11.6024 1.3024e-11
-7.01225e-11 1.3024e-11 20.9452

14.6154 1.53502 1.19416e-11
1.53502 19.2681 -3.98852e-11
1.19416e-11 -3.98852e-11 21.0609

-5.77417 6.1004 3.79992e-13
6.1004 1.60423 -1.67513e-11
3.79992e-13 -1.67513e-11 -1.52143

-5.75478 -6.10413 2.46381e-11
-6.10413 1.63136 5.7761e-11
2.46381e-11 5.7761e-11 -1.51083

-7.14637 -7.79363 -7.50941e-12
-7.79363 2.34475 1.36714e-11
-7.50941e-12 1.36714e-11 -1.11546

21.3329 -4.07252 -2.46508e-11
-4.07252 20.5138 -3.82228e-12
-2.46508e-11 -3.82228e-12 23.7105

22.2684 -3.36217 -6.74344e-11
-3.36217 20.956 4.26211e-11
-6.74344e-11 4.26211e-11 24.0621

-21.8888 5.3776 2.75492e-11
5.3776 -11.1619 1.66417e-10
2.75492e-11 1.66417e-10 -20.7585

-22.0348 -5.65249 9.9668e-11
-5.65249 -11.7307 2.56319e-10
9.9668e-11 2.56319e-10 -20.9039

-0.452061 -7.38724 -8.08686e-12
-7.38724 -4.89515 -4.14054e-12
-8.08686e-12 -4.14054e-12 -1.39126

-0.569388 -5.96874 3.67791e-11
-5.96874 3.11645 6.73713e-12
3.67791e-11 6.73713e-12 0.572728

-5.47652 5.88115 3.21524e-11
5.88115 -1.20133 5.10851e-12
3.21524e-11 5.10851e-12 -2.02208

-5.47529 -5.87869 5.00955e-12
-5.87869 -1.21176 -5.0641e-11
5.00955e-12 -5.0641e-11 -2.02246

-3.81141 -6.9456 5.00274e-12
-6.9456 2.0563 1.91564e-11
5.00274e-12 1.91564e-11 -0.484667

-0.421735 6.05194 -7.76712e-13
6.05194 3.04008 -4.67971e-11
-7.76712e-13 -4.67971e-11 0.589586

8.02771 -2.22554 2.54269e-11
-2.22554 14.3222 -5.49146e-12
2.54269e-11 -5.49146e-12 9.21836

8.46321 1.87181 2.81148e-11
1.87181 15.113 8.82035e-12
2.81148e-11 8.82035e-12 9.55924

15.8104 1.60138 2.83162e-11
1.60138 7.80679 -3.66993e-12
2.83162e-11 -3.66993e-12 9.66379

-3.74207 6.9284 2.40639e-11
6.9284 2.07733 -1.72314e-11
2.40639e-11 -1.72314e-11 -0.463385

10.8574 -1.0521 -4.04488e-11
-1.0521 17.7043 -4.39314e-11
-4.04488e-11 -4.39314e-11 12.9752

18.8032 -0.632402 1.23304e-11
-0.632402 8.93649 -4.29387e-11
1.23304e-11 -4.29387e-11 12.8913

-7.31019 -5.68386 -2.06044e-11
-5.68386 -2.18129 3.70632e-11
-2.06044e-11 3.70632e-11 -3.42246

-7.24461 5.65567 2.84885e-11
5.65567 -2.16521 -1.24137e-11
2.84885e-11 -1.24137e-11 -3.40757

-7.55682 -4.31854 -5.02466e-11
-4.31854 -2.87334 -3.18643e-11
-5.02466e-11 -3.18643e-11 -4.0698

-7.5183 4.31752 -1.75229e-11
4.31752 -2.9859 5.68157e-12
-1.75229e-11 5.68157e-12 -4.0844

23.2124 3.74117 7.71209e-12
3.74117 20.9471 4.84339e-11
7.71209e-12 4.84339e-11 24.9168

23.0975 3.56861 3.46982e-12
3.56861 21.3881 -8.60582e-12
3.46982e-12 -8.60582e-12 25.0764

-2.23185 5.4011 -2.50155e-12
5.4011 1.47889 8.47307e-12
-2.50155e-12 8.47307e-12 -0.509491

-2.22258 -5.43697 -4.85216e-11
-5.43697 1.52977 5.77716e-12
-4.85216e-11 5.77716e-12 -0.498246

-12.5829 -5.22839 4.31203e-11
-5.22839 -5.14224 -2.71447e-11
4.31203e-11 -2.71447e-11 -10.3814

-11.0054 2.35553 2.00186e-11
2.35553 -9.75836 2.50319e-11
2.00186e-11 2.50319e-11 -11.007

-9.26878 -5.8595 5.19725e-12
-5.8595 -0.404094 -1.25319e-12
5.19725e-12 -1.25319e-12 -3.66763

-9.31 5.86247 -1.07824e-11
5.86247 -0.604757 -4.44753e-11
-1.07824e-11 -4.44753e-11 -3.73623

-4.00604 0.375674 -5.19792e-12
0.375674 -13.4636 -1.35714e-11
-5.19792e-12 -1.35714e-11 -7.35258

-4.01689 -0.32098 7.27796e-11
-0.32098 -13.4111 -5.27468e-11
7.27796e-11 -5.27468e-11 -7.33107

-4.46876 -6.63882 -4.73686e-11
-6.63882 -3.86877 2.47487e-11
-4.73686e-11 2.47487e-11 -2.14877

-4.22536 6.7237 3.92767e-11
6.7237 -4.06064 -2.66587e-11
3.92767e-11 -2.66587e-11 -2.13507

-6.78681 1.61737 1.54151e-12
1.61737 -15.3072 1.15367e-12
1.54151e-12 1.15367e-12 -12.3417

-12.9232 0.281747 2.77214e-11
0.281747 -18.0822 -5.58282e-11
2.77214e-11 -5.58282e-11 -17.0208

-6.78687 -1.64002 1.96371e-11
-1.64002 -15.281 -4.38887e-11
1.96371e-11 -4.38887e-11 -12.3372

-12.9444 -0.444838 -2.10942e-12
-0.444838 -18.3977 -5.76548e-11
-2.10942e-12 -5.76548e-11 -17.0883

-14.9995 0.272448 1.92542e-12
0.272448 -7.74082 1.82894e-11
1.92542e-12 1.82894e-11 -13.2342

-4.15044 6.52335 1.84779e-11
6.52335 -8.95471 1.17419e-11
1.84779e-11 1.17419e-11 -11.7466

-4.13417 -6.49799 -3.77347e-11
-6.49799 -8.92628 5.47683e-11
-3.77347e-11 5.47683e-11 -11.7696

-17.8869 -3.49645 -2.11774e-11
-3.49645 -1.04205 1.19379e-11
-2.11774e-11 1.19379e-11 -12.3883

-18.2153 -3.08263 2.11386e-10
-3.08263 -16.4054 -2.98112e-10
2.11386e-10 -2.98112e-10 -18.0959

3.71224 -4.4677 1.83896e-09
-4.4677 -32.8748 6.47753e-10
1.83896e-09 6.47753e-10 -20.9376

-18.5331 3.24634 8.47025e-11
3.24634 -15.8252 -1.14544e-11
8.47025e-11 -1.14544e-11 -17.9573

3.77374 4.13106 1.33688e-10
4.13106 -31.5173 -2.62516e-10
1.33688e-10 -2.62516e-10 -20.5456

-10.9007 -4.22596 -9.22088e-11
-4.22596 -12.6799 4.36072e-11
-9.22088e-11 4.36072e-11 -13.3294

-8.75019 -2.95095 3.04161e-11
-2.95095 -4.27389 7.40998e-12
3.04161e-11 7.40998e-12 -6.86462

-16.9873 -0.247422 -9.37484e-11
-0.247422 -21.1347 -2.97951e-12
-9.37484e-11 -2.97951e-12 -20.1237

-11.0454 4.43594 3.2917e-11
4.43594 -12.6013 -1.5496e-11
3.2917e-11 -1.5496e-11 -13.299

-8.69487 3.05156 -8.08783e-12
3.05156 -4.46699 -5.25581e-11
-8.08783e-12 -5.25581e-11 -6.89839

-16.8654 0.278751 4.50459e-11
0.278751 -20.309 -5.59192e-11
4.50459e-11 -5.59192e-11 -19.8494

-11.8741 -2.43695 3.33029e-11
-2.43695 -8.30666 -9.4529e-11
3.33029e-11 -9.4529e-11 -9.496

-10.3916 -1.3686 1.07806e-11
-1.3686 -12.2722 -5.04371e-11
1.07806e-11 -5.04371e-11 -12.6042

-11.7538 2.55164 -2.06002e-11
2.55164 -8.29323 -3.30176e-11
-2.06002e-11 -3.30176e-11 -9.44885

-10.3184 1.43019 -3.25353e-11
1.43019 -12.2137 -5.53459e-11
-3.25353e-11 -5.53459e-11 -12.5514

0.2407 5.75105 -1.5594e-11
5.75105 6.88584 -1.17454e-11
-1.5594e-11 -1.17454e-11 1.78297

-8.01641 1.16204 -9.23895e-12
1.16204 4.21696 1.07844e-11
-9.23895e-12 1.07844e-11 -1.24197

-2.89616 3.09547 5.00462e-12
3.09547 1.8998 3.08063e-11
5.00462e-12 3.08063e-11 -0.921582

5.20758 -3.76555 -2.27255e-11
-3.76555 -7.305 1.42502e-11
-2.27255e-11 1.42502e-11 -0.0216452

7.23766 -2.30176 1.44376e-11
-2.30176 -4.17941 7.7538e-13
1.44376e-11 7.7538e-13 1.24857

-13.8249 1.76374 -1.65567e-11
1.76374 2.76788 -1.03991e-11
-1.65567e-11 -1.03991e-11 -4.24087

-9.5561 3.19655 2.71458e-11
3.19655 -3.77448 -2.61808e-11
2.71458e-11 -2.61808e-11 -4.72586

7.02024 -0.0214773 5.19747e-12
-0.0214773 -3.86072 -1.03944e-11
5.19747e-12 -1.03944e-11 1.24894

0.819839 1.45598 -1.69459e-11
1.45598 -12.505 -2.04103e-11
-1.69459e-11 -2.04103e-11 -2.11082

4.15457 4.97512 1.42543e-11
4.97512 11.4532 -3.65263e-12
1.42543e-11 -3.65263e-12 5.72068

2.98626 3.93792 2.25301e-11
3.93792 12.0107 6.55106e-12
2.25301e-11 6.55106e-12 6.06288

11.5596 3.94581 4.074e-11
3.94581 4.51832 1.54089e-11
4.074e-11 1.54089e-11 6.35186

-5.37944 -6.00794 3.07776e-12
-6.00794 -2.01791 3.46554e-11
3.07776e-12 3.46554e-11 -3.89176

-6.17328 -2.52537 2.30999e-11
-2.52537 0.491685 1.27083e-11
2.30999e-11 1.27083e-11 -3.46182

0.303156 -6.94495 1.92641e-11
-6.94495 -0.588109 1.54188e-12
1.92641e-11 1.54188e-12 0.111712

-4.54114 5.58155 -8.08679e-12
5.58155 4.21569 5.01036e-12
-8.08679e-12 5.01036e-12 -0.0259477

-6.33873 6.51776 -4.43047e-12
6.51776 1.80559 2.0216e-11
-4.43047e-12 2.0216e-11 -1.13528

-9.79699 -3.14988 3.04166e-11
-3.14988 -3.87013 1.0589e-11
3.04166e-11 1.0589e-11 -4.89402

-13.8437 -2.08898 -1.55933e-11
-2.08898 3.11669 4.73637e-11
-1.55933e-11 4.73637e-11 -4.24683

6.30513 1.75414 -4.1888e-11
1.75414 -7.3404 2.31059e-11
-4.1888e-11 2.31059e-11 -0.175479

2.90087 1.63442 1.75241e-11
1.63442 12.2424 -1.44428e-11
1.75241e-11 -1.44428e-11 4.5751

0.985513 0.723 1.17502e-11
0.723 12.1348 -5.01036e-12
1.17502e-11 -5.01036e-12 4.51295

12.95 0.679808 3.47337e-12
0.679808 2.92514 2.07972e-11
3.47337e-12 2.07972e-11 5.11146

-2.46396 3.93258 2.32998e-11
3.93258 7.09782 -1.03997e-11
2.32998e-11 -1.03997e-11 1.60851

0.0407503 6.42567 -2.11828e-11
6.42567 5.51679 -2.56127e-11
-2.11828e-11 -2.56127e-11 1.54101

4.12036 1.09423 8.28064e-12
1.09423 -7.93255 -1.34779e-11
8.28064e-12 -1.34779e-11 -0.334771

11.2396 2.97284 7.9039e-12
2.97284 16.8501 -1.56007e-11
7.9039e-12 -1.56007e-11 10.8143

3.02567 -4.02242 1.73298e-11
-4.02242 -10.6332 -2.2334e-11
1.73298e-11 -2.2334e-11 -1.37259

-7.47663 0.305136 -3.08012e-11
0.305136 1.4618 -5.00933e-12
-3.08012e-11 -5.00933e-12 -4.54816

-4.82985 0.0852209 -8.27941e-12
0.0852209 -3.57462 -1.76163e-11
-8.27941e-12 -1.76163e-11 -4.88858

-1.79857 2.69859 -4.58165e-11
2.69859 -16.9998 3.65482e-12
-4.58165e-11 3.65482e-12 -13.6616

-0.598928 -6.49526 -4.38928e-11
-6.49526 -11.4958 -2.30933e-11
-4.38928e-11 -2.30933e-11 -12.7959

-1.1845 -7.36949 -3.84663e-12
-7.36949 0.774222 -1.15549e-11
-3.84663e-12 -1.15549e-11 0.234767

-1.83514 -5.96157 4.81918e-12
-5.96157 4.78592 -2.46529e-11
4.81918e-12 -2.46529e-11 1.27774

11.9162 -2.05213 9.44074e-12
-2.05213 0.888681 8.4713e-12
9.44074e-12 8.4713e-12 4.60173

-1.09987 1.06056 -1.92542e-12
1.06056 -8.41861 -2.61831e-11
-1.92542e-12 -2.61831e-11 -5.12744

-0.109816 -3.84925 -3.08427e-12
-3.84925 -6.94385 2.81049e-11
-3.08427e-12 2.81049e-11 -4.72079

1.04802 -1.70968 -8.46945e-12
-1.70968 -12.3322 -1.77115e-11
-8.46945e-12 -1.77115e-11 -2.00159

1.81533 -0.507777 -1.86793e-11
-0.507777 -13.3634 -7.31783e-12
-1.86793e-11 -7.31783e-12 -1.68179

7.17688 -6.07865 2.27263e-11
-6.07865 1.21902 -6.54454e-12
2.27263e-11 -6.54454e-12 2.50835

8.89111 2.80972 1.61714e-11
2.80972 -1.26905 -7.12904e-12
1.61714e-11 -7.12904e-12 2.51223

8.25342 -4.96029 2.79194e-11
-4.96029 -1.55262 5.77886e-12
2.79194e-11 5.77886e-12 2.3339

-10.2622 4.08524 -1.40576e-11
4.08524 2.83263 -1.46326e-11
-1.40576e-11 -1.46326e-11 -1.19996

-1.86804 -4.93862 -9.04691e-12
-4.93862 6.65311 1.34805e-11
-9.04691e-12 1.34805e-11 1.62044

-2.26689 4.7492 2.34008e-11
4.7492 4.82233 -1.50203e-11
2.34008e-11 -1.50203e-11 1.24328

32.9953 -7.5441 1.07871e-11
-7.5441 33.3272 -1.44467e-11
1.07871e-11 -1.44467e-11 32.8705

30.8691 4.64059 1.02115e-11
4.64059 33.2834 -3.12124e-11
1.02115e-11 -3.12124e-11 32.4496

-12.2957 -5.64972 -1.80937e-11
-5.64972 0.453433 -9.62785e-12
-1.80937e-11 -9.62785e-12 -3.24835

-7.08654 3.75107 2.3878e-11
3.75107 4.69107 -4.62178e-12
2.3878e-11 -4.62178e-12 -0.0329223

18.914 0.784862 2.17642e-11
0.784862 19.603 -5.38917e-12
2.17642e-11 -5.38917e-12 21.5553

19.6337 -1.52781 -5.97433e-12
-1.52781 21.9658 4.03877e-12
-5.97433e-12 4.03877e-12 22.143

-7.27074 -2.24902 3.65854e-11
-2.24902 -3.89721 -1.92513e-11
3.65854e-11 -1.92513e-11 -5.71412

-7.75575 4.74989 -5.80366e-11
4.74989 -5.81293 2.00184e-11
-5.80366e-11 2.00184e-11 -5.81815

7.73912 0.0502796 2.08475e-11
0.0502796 -8.60937 -1.21282e-11
2.08475e-11 -1.21282e-11 -0.21556

-7.83021 -1.50894 5.26068e-11
-1.50894 -7.17742 -5.3711e-11
5.26068e-11 -5.3711e-11 -6.54418

-7.75729 4.43257 -5.20641e-11
4.43257 -5.75495 -1.77128e-11
-5.20641e-11 -1.77128e-11 -5.96635

-2.46134 4.86338 7.69579e-12
4.86338 -15.0911 -5.20228e-12
7.69579e-12 -5.20228e-12 -11.023

-3.13469 -5.95024 9.62154e-12
-5.95024 -9.7474 2.15571e-11
9.62154e-12 2.15571e-11 -10.5504

-4.09036 -3.59894 1.98327e-11
-3.59894 -3.57716 -3.90364e-11
1.98327e-11 -3.90364e-11 -2.86637

-4.1801 4.75112 -1.56488e-11
4.75112 -4.5113 -7.08122e-12
-1.56488e-11 -7.08122e-12 -2.68425

-12.7465 -0.376024 3.11826e-11
-0.376024 0.258939 -3.85321e-13
3.11826e-11 -3.85321e-13 -10.1293

-13.2255 1.70516 4.02322e-11
1.70516 -7.2851 -1.44262e-12
4.02322e-11 -1.44262e-12 -11.3798

-1.02898 -6.78984 3.82203e-11
-6.78984 6.71382 2.29137e-11
3.82203e-11 2.29137e-11 1.39462

9.03143 0.715267 1.30956e-11
0.715267 16.1798 -3.85499e-12
1.30956e-11 -3.85499e-12 11.0593

15.7043 0.921626 -1.02031e-11
0.921626 9.84438 -5.08536e-11
-1.02031e-11 -5.08536e-11 11.0758

-10.3154 3.56781 4.04402e-12
3.56781 3.6702 -2.81168e-11
4.04402e-12 -2.81168e-11 -1.29034

-6.37868 5.23519 1.67474e-11
5.23519 2.20545 3.85255e-12
1.67474e-11 3.85255e-12 -1.15753

-15.1314 -4.9579 -3.43234e-11
-4.9579 -23.982 -1.92433e-11
-3.43234e-11 -1.92433e-11 -22.9178

-15.7534 7.70304 -2.20863e-10
7.70304 -6.91048 2.19222e-11
-2.20863e-10 2.19222e-11 -19.6604

5.22598 4.80024 -2.61918e-11
4.80024 2.67001 -9.66412e-13
-2.61918e-11 -9.66412e-13 2.22695

-6.40396 8.09771 1.15348e-12
8.09771 1.72102 9.63082e-13
1.15348e-12 9.63082e-13 -1.17995

0.935092 3.08011 2.03556e-11
3.08011 -7.07115 4.42829e-11
2.03556e-11 4.42829e-11 -1.57978

1.17564 -2.4549 -3.85592e-11
-2.4549 -6.9923 -3.85395e-12
-3.85592e-11 -3.85395e-12 -1.75441

-5.79435 7.69283 -1.80996e-11
7.69283 -0.634596 -2.5416e-11
-1.80996e-11 -2.5416e-11 -1.6728

-8.47013 -7.58845 -2.95527e-11
-7.58845 -0.174163 -2.50037e-12
-2.95527e-11 -2.50037e-12 -2.95194

-0.101234 -6.49509 -1.03987e-11
-6.49509 -10.8291 2.42576e-11
-1.03987e-11 2.42576e-11 -4.5198

11.618 -0.58061 4.1398e-12
-0.58061 1.17674 -1.13625e-11
4.1398e-12 -1.13625e-11 4.61372

-2.34081 0.904369 4.31095e-11
0.904369 -7.10285 -8.0765e-12
4.31095e-11 -8.0765e-12 -14.7616

-2.01685 -0.560349 -6.54221e-12
-0.560349 -17.4037 -3.77242e-11
-6.54221e-12 -3.77242e-11 -16.2303

1.0785 5.90827 -1.77061e-11
5.90827 -1.53804 2.27213e-11
-1.77061e-11 2.27213e-11 0.0926963

6.18972 2.24769 -3.46626e-11
2.24769 -4.96884 -4.42856e-11
-3.46626e-11 -4.42856e-11 0.249259

6.95245 5.04134 -1.9643e-11
5.04134 9.26431 1.32895e-11
-1.9643e-11 1.32895e-11 5.1718

-15.7573 1.19645 1.21269e-11
1.19645 -12.0382 -3.65485e-12
1.21269e-11 -3.65485e-12 -15.026

-12.1263 3.48459 4.02277e-11
3.48459 -1.14682 -5.77449e-12
4.02277e-11 -5.77449e-12 -12.5904

-1.20673 3.22451 -7.31526e-12
3.22451 -13.1872 2.34857e-11
-7.31526e-12 2.34857e-11 -5.1757

-8.33666 -1.36517 -7.41342e-12
-1.36517 4.43069 7.31578e-12
-7.41342e-12 7.31578e-12 -1.46524

-3.27395 -2.91874 9.33865e-12
-2.91874 1.9992 -1.9275e-12
9.33865e-12 -1.9275e-12 -1.16978

4.84629 0.937444 3.29994e-11
0.937444 -10.8651 -1.91935e-12
3.29994e-11 -1.91935e-12 -1.43849

5.40333 -0.735028 2.46914e-11
-0.735028 -10.9311 7.6981e-13
2.46914e-11 7.6981e-13 -1.43301

10.2283 -5.05876 -3.0143e-11
-5.05876 7.87587 1.61748e-11
-3.0143e-11 1.61748e-11 5.66499

9.48379 0.0137678 4.29286e-13
0.0137678 -4.11576 2.36855e-11
4.29286e-13 2.36855e-11 1.39875

0.928709 -0.825789 5.67792e-11
-0.825789 -10.4533 -1.55923e-11
5.67792e-11 -1.55923e-11 -3.29919

-0.247626 1.66624 -1.80679e-11
1.66624 -9.21038 -1.69428e-11
-1.80679e-11 -1.69428e-11 -3.09504

6.57023 -2.10865 -1.38614e-11
-2.10865 -3.62188 -8.467e-12
-1.38614e-11 -8.467e-12 0.384532

-0.398602 -5.99298 -1.36671e-11
-5.99298 6.52153 -5.89292e-11
-1.36671e-11 -5.89292e-11 1.42812

5.29535 -0.485844 3.6682e-11
-0.485844 -7.58721 2.79171e-11
3.6682e-11 2.79171e-11 -1.16005

4.4677 1.07439 2.48883e-11
1.07439 -7.99969 4.04314e-11
2.48883e-11 4.04314e-11 -1.23081

3.68109 2.44336 7.89013e-12
2.44336 -6.03275 -3.27708e-12
7.89013e-12 -3.27708e-12 -0.251255

4.12313 -7.62952 1.81002e-11
-7.62952 3.11268 5.00666e-12
1.81002e-11 5.00666e-12 2.71014

-8.62874 7.35329 2.08849e-11
7.35329 -1.87155 -2.07961e-11
2.08849e-11 -2.07961e-11 -1.7088

-6.60473 7.22315 -1.07784e-11
7.22315 1.96432 3.56194e-11
-1.07784e-11 3.56194e-11 -1.27207

-10.4724 5.45118 -1.56905e-11
5.45118 -2.26554 3.8509e-11
-1.56905e-11 3.8509e-11 -2.17738

9.1925 2.66138 1.07847e-11
2.66138 -2.53089 2.65797e-11
1.07847e-11 2.65797e-11 2.08432

14.1601 -5.26166 -1.44479e-11
-5.26166 9.54264 1.69535e-11
-1.44479e-11 1.69535e-11 9.65905

-0.680608 4.44376 -1.63637e-11
4.44376 -6.849 -4.81933e-12
-1.63637e-11 -4.81933e-12 -1.94893

5.05693 -4.73317 -8.68357e-12
-4.73317 -4.64408 2.84993e-11
-8.68357e-12 2.84993e-11 0.293529

14.3985 -4.56047 -2.13841e-11
-4.56047 8.53862 -1.57873e-11
-2.13841e-11 -1.57873e-11 9.33608

2.33865 -7.60056 1.23202e-11
-7.60056 -2.75679 1.92424e-12
1.23202e-11 1.92424e-12 0.200185

-7.82644 0.192935 -2.07981e-11
0.192935 0.901442 8.8578e-12
-2.07981e-11 8.8578e-12 -1.99722

-11.3681 0.00053288 1.13599e-11
0.00053288 5.64199 -1.4247e-11
1.13599e-11 -1.4247e-11 -1.51887

3.19505 6.47898 -1.40492e-11
6.47898 3.76471 3.89041e-11
-1.40492e-11 3.89041e-11 2.22182

11.6065 -5.39884 -1.29085e-11
-5.39884 4.04817 -4.31393e-11
-1.29085e-11 -4.31393e-11 5.79261

-5.4067 -7.88284 8.84944e-12
-7.88284 -2.69613 2.00244e-11
8.84944e-12 2.00244e-11 -1.58326

3.11129 -7.05281 2.90763e-11
-7.05281 6.74574 -1.25189e-11
2.90763e-11 -1.25189e-11 2.65173

3.03964 -7.12978 -8.45916e-12
-7.12978 6.24453 -3.73593e-11
-8.45916e-12 -3.73593e-11 2.97113

3.45211 3.64831 9.82311e-12
3.64831 -3.41859 9.05476e-12
9.82311e-12 9.05476e-12 0.0362386

1.78523 2.30215 3.35055e-11
2.30215 -18.8368 3.46245e-12
3.35055e-11 3.46245e-12 -3.81782

1.57054 -3.62599 -3.54297e-11
-3.62599 -15.5819 3.00287e-11
-3.54297e-11 3.00287e-11 -3.41326

-1.43001 4.04876 1.52187e-11
4.04876 7.80083 5.78204e-13
1.52187e-11 5.78204e-13 1.78291

-4.08772 2.76646 8.64235e-13
2.76646 8.7584 -8.85795e-12
8.64235e-13 -8.85795e-12 1.72566

0.557074 -0.589138 1.96485e-11
-0.589138 12.7659 1.92675e-12
1.96485e-11 1.92675e-12 4.76458

-0.610972 -0.783246 -3.38926e-11
-0.783246 13.4996 -5.77775e-12
-3.38926e-11 -5.77775e-12 5.03793

14.1873 -0.519279 7.69281e-12
-0.519279 0.877302 3.12013e-11
7.69281e-12 3.12013e-11 5.51225

5.24714 -6.43019 4.0254e-11
-6.43019 1.50934 -2.06043e-11
4.0254e-11 -2.06043e-11 2.06386

-21.9708 -4.7316 -6.56397e-11
-4.7316 -14.8082 -1.44339e-11
-6.56397e-11 -1.44339e-11 -20.7569

-1.93391 -1.88117 -1.50136e-11
-1.88117 -1.87899 -1.42492e-11
-1.50136e-11 -1.42492e-11 -14.7548

7.36547 4.53024 -7.31607e-12
4.53024 -0.239049 1.15589e-11
-7.31607e-12 1.15589e-11 2.49899

9.20136 -3.092 8.76055e-12
-3.092 -2.80219 -2.06075e-11
8.76055e-12 -2.06075e-11 1.82857

13.725 2.83088 -3.62093e-11
2.83088 7.18692 1.11731e-11
-3.62093e-11 1.11731e-11 8.56935

-7.83448 4.64599 -2.09895e-11
4.64599 1.79297 -5.58446e-11
-2.09895e-11 -5.58446e-11 -0.659587

7.83857 0.0735085 5.29391e-12
0.0735085 -8.41394 2.54155e-11
5.29391e-12 2.54155e-11 -0.201864

-8.65682 7.07419 -1.07813e-11
7.07419 -0.351304 5.58368e-12
-1.07813e-11 5.58368e-12 -2.64551

-14.1632 5.62316 -2.0202e-12
5.62316 0.47052 2.73412e-11
-2.0202e-12 2.73412e-11 -3.27998

5.70541 3.64659 2.95606e-11
3.64659 9.63616 6.74024e-12
2.95606e-11 6.74024e-12 5.35017

9.13312 4.05869 3.80343e-11
4.05869 8.03801 1.1561e-11
3.80343e-11 1.1561e-11 5.7962

-6.81696 -8.55254 3.46641e-12
-8.55254 1.54598 1.92587e-13
3.46641e-12 1.92587e-13 -1.561

13.8382 2.28769 -2.19649e-11
2.28769 6.90754 -1.96403e-11
-2.19649e-11 -1.96403e-11 8.49048

-10.6473 6.31805 -1.34974e-12
6.31805 -4.28164 2.3087e-12
-1.34974e-12 2.3087e-12 -2.41988

-3.85181 7.69887 -2.25264e-11
7.69887 3.35896 9.81667e-12
-2.25264e-11 9.81667e-12 -0.106875

6.96341 -0.110513 1.40321e-11
-0.110513 -12.2979 -1.21291e-11
1.40321e-11 -1.21291e-11 -1.16966

-8.81723 -5.83649 1.67517e-11
-5.83649 -4.19109 2.46459e-11
1.67517e-11 2.46459e-11 -2.42209

0.835624 6.30114 2.17587e-11
6.30114 1.24457 -1.15582e-11
2.17587e-11 -1.15582e-11 0.509856

2.68733 -3.09039 -3.31265e-11
-3.09039 11.2897 2.59983e-11
-3.31265e-11 2.59983e-11 4.03824

0.533928 -2.94167 -1.7326e-11
-2.94167 11.625 -1.19395e-11
-1.7326e-11 -1.19395e-11 4.01727

11.7385 -2.19395 -1.153e-12
-2.19395 2.92558 -1.57935e-11
-1.153e-12 -1.57935e-11 4.47043

4.27439 -5.77423 4.29381e-11
-5.77423 5.1211 -3.46752e-12
4.29381e-11 -3.46752e-12 2.36513

-5.26987 -0.379913 3.85517e-12
-0.379913 7.9818 2.54207e-11
3.85517e-12 2.54207e-11 0.839179

-0.828104 -0.056561 6.73753e-12
-0.056561 6.9991 -2.70021e-12
6.73753e-12 -2.70021e-12 1.21478

7.0661 -6.1836 -1.71462e-11
-6.1836 9.90602 2.85111e-11
-1.71462e-11 2.85111e-11 5.99168

5.28983 -6.00733 -2.69732e-11
-6.00733 10.8489 4.3524e-11
-2.69732e-11 4.3524e-11 6.06174

6.68004 -0.305729 -6.18613e-12
-0.305729 -11.2845 -8.08542e-12
-6.18613e-12 -8.08542e-12 -1.14609

7.15189 0.316398 1.70656e-11
0.316398 -11.5095 -1.36681e-11
1.70656e-11 -1.36681e-11 -1.17039

-6.19479 5.88893 -6.84171e-12
5.88893 -0.494514 -1.65616e-11
-6.84171e-12 -1.65616e-11 -0.809924

-13.7319 -4.96052 1.84889e-11
-4.96052 0.16119 -1.54121e-12
1.84889e-11 -1.54121e-12 -3.13293

-0.619832 -7.62795 -1.30875e-11
-7.62795 -4.85814 -9.62682e-12
-1.30875e-11 -9.62682e-12 -1.40593

-4.2562 2.90806 1.28919e-11
2.90806 -7.3767 1.15471e-12
1.28919e-11 1.15471e-12 -4.16149

-3.19726 -0.891402 6.62062e-11
-0.891402 -6.09194 -2.10701e-11
6.62062e-11 -2.10701e-11 -3.98818

1.47357 -3.18676 -5.4881e-11
-3.18676 -2.03933 2.57974e-11
-5.4881e-11 2.57974e-11 -0.866876

0.847202 3.83124 1.77103e-11
3.83124 -4.27846 -2.69222e-12
1.77103e-11 -2.69222e-12 -1.07599

18.3293 -3.20092 1.56001e-11
-3.20092 11.3333 5.24e-11
1.56001e-11 5.24e-11 20.0227

1.88745 6.07104 1.27138e-11
6.07104 5.70456 4.24283e-12
1.27138e-11 4.24283e-12 2.56303

13.8951 2.20799 -8.66329e-12
2.20799 18.4885 -3.0827e-11
-8.66329e-12 -3.0827e-11 20.456

-3.00978 6.82574 5.39065e-12
6.82574 0.812139 -9.82044e-12
5.39065e-12 -9.82044e-12 -0.562535

-1.80205 -4.78457 -9.52901e-12
-4.78457 8.46009 -3.0622e-11
-9.52901e-12 -3.0622e-11 1.7438

-4.18951 -4.26542 6.73613e-12
-4.26542 8.32479 3.35099e-11
6.73613e-12 3.35099e-11 1.63169

-9.48062 -1.4679 -1.68432e-11
-1.4679 -11.1936 2.88739e-12
-1.68432e-11 2.88739e-12 -11.4772

-11.6632 4.01642 2.32096e-12
4.01642 -7.20814 1.77024e-11
2.32096e-12 1.77024e-11 -10.9866

2.37563 4.53179 -2.57989e-11
4.53179 -1.128 1.03985e-11
-2.57989e-11 1.03985e-11 0.484135

9.59347 -0.464645 -2.08051e-11
-0.464645 -3.48097 -2.48416e-11
-2.08051e-11 -2.48416e-11 1.49214

5.71918 5.07754 4.32276e-12
5.07754 1.02524 -2.88889e-11
4.32276e-12 -2.88889e-11 2.41602

-9.9962 -2.92922 -4.8118e-12
-2.92922 4.93482 -4.08232e-11
-4.8118e-12 -4.08232e-11 -1.21552

-6.71779 -4.828 1.92539e-11
-4.828 1.91447 -1.25152e-11
1.92539e-11 -1.25152e-11 -1.53416

-7.28406 -8.77341 -3.13335e-12
-8.77341 3.63234 4.64043e-11
-3.13335e-12 4.64043e-11 -1.23711

2.67856 -4.8829 -1.9358e-11
-4.8829 0.790236 6.16143e-11
-1.9358e-11 6.16143e-11 0.5314

-7.16526 8.16637 -9.04922e-12
8.16637 1.67009 6.16174e-12
-9.04922e-12 6.16174e-12 -1.19064

-6.04901 3.77252 1.88662e-11
3.77252 -0.661121 8.56811e-12
1.88662e-11 8.56811e-12 -3.62499

-5.70256 5.71088 1.94439e-11
5.71088 -2.75848 -2.11646e-12
1.94439e-11 -2.11646e-12 -3.92611

-4.84745 -7.68344 -6.92646e-12
-7.68344 4.11692 -2.25275e-11
-6.92646e-12 -2.25275e-11 -0.410592

-3.67477 6.97595 2.15633e-11
6.97595 3.00635 -2.30867e-12
2.15633e-11 -2.30867e-12 -0.207642

-14.4795 8.78628 -6.64219e-12
8.78628 -2.22035 4.50561e-11
-6.64219e-12 4.50561e-11 -2.59737

-6.79047 0.825965 -3.47533e-11
0.825965 8.38476 1.92553e-11
-3.47533e-11 1.92553e-11 0.768379

-4.14691 1.91208 2.48375e-11
1.91208 6.54972 -3.6201e-11
2.48375e-11 -3.6201e-11 0.609733

-2.13952 5.42202 -4.3997e-11
5.42202 -3.06632 2.92587e-11
-4.3997e-11 2.92587e-11 -1.03783

3.83749 4.55942 -1.45433e-11
4.55942 3.28011 1.50213e-11
-1.45433e-11 1.50213e-11 2.26198

-6.6472 -4.72196 -7.70302e-12
-4.72196 4.34535 2.3112e-11
-7.70302e-12 2.3112e-11 -0.0987917

-8.08153 -8.24468 -2.10822e-11
-8.24468 0.925839 1.11022e-15
-2.10822e-11 1.11022e-15 -2.41109

15.7559 2.73385 1.7334e-11
2.73385 19.6434 7.69755e-13
1.7334e-11 7.69755e-13 16.1793

18.686 2.8502 3.17968e-12
2.8502 16.463 -4.85614e-11
3.17968e-12 -4.85614e-11 16.0859

7.05152 -6.10808 3.69334e-13
-6.10808 8.56382 2.58004e-11
3.69334e-13 2.58004e-11 5.56106

-2.00993 -5.67762 8.27753e-12
-5.67762 -1.3054 4.33251e-11
8.27753e-12 4.33251e-11 -1.1132

6.3802 -1.69892 7.65787e-12
-1.69892 -7.26048 -1.63666e-11
7.65787e-12 -1.63666e-11 -0.244894

-14.7524 6.14165 -1.77659e-10
6.14165 -11.3247 5.35009e-11
-1.77659e-10 5.35009e-11 -18.5152

-9.89574 -6.68004 -1.71012e-11
-6.68004 -19.5412 5.44758e-11
-1.71012e-11 5.44758e-11 -19.1993

-4.60209 -8.38911 4.62438e-12
-8.38911 4.05476 -2.56108e-11
4.62438e-12 -2.56108e-11 -0.313496

-8.28802 1.55711 -1.92525e-11
1.55711 -11.9148 2.89013e-12
-1.92525e-11 2.89013e-12 -9.71698

-5.55477 -6.36891 4.04294e-11
-6.36891 -5.34121 -6.69924e-11
4.04294e-11 -6.69924e-11 -8.15757

3.62365 -2.21525 -2.09894e-11
-2.21525 -8.69315 1.57848e-11
-2.09894e-11 1.57848e-11 -0.521687

-12.8169 -8.70649 1.2712e-11
-8.70649 -2.65948 -2.31049e-12
1.2712e-11 -2.31049e-12 -2.58104

12.4869 -5.3351 -5.80203e-13
-5.3351 14.7751 4.93168e-11
-5.80203e-13 4.93168e-11 12.3835

13.8993 3.88731 3.46419e-12
3.88731 13.6905 3.36967e-12
3.46419e-12 3.36967e-12 12.2461

7.83935 -3.18068 2.02283e-11
-3.18068 15.5121 -1.54025e-12
2.02283e-11 -1.54025e-12 9.67716

7.67907 -3.48841 5.20265e-12
-3.48841 15.1554 1.11795e-11
5.20265e-12 1.11795e-11 9.38473

16.2832 -2.64968 -3.9782e-11
-2.64968 7.96244 -2.64889e-11
-3.9782e-11 -2.64889e-11 9.77064

7.7968 4.71793 -2.48465e-11
4.71793 6.84833 1.25252e-11
-2.48465e-11 1.25252e-11 5.11445

-7.51637 -9.32505 -9.91429e-14
-9.32505 2.99305 1.69441e-11
-9.91429e-14 1.69441e-11 -1.27405

8.79545 0.473035 1.40654e-11
0.473035 18.4488 1.07865e-11
1.40654e-11 1.07865e-11 12.2181

17.526 -1.41452 -1.96391e-11
-1.41452 8.32109 -1.57957e-11
-1.96391e-11 -1.57957e-11 12.006

-8.85548 0.72612 -1.98249e-11
0.72612 0.85605 -3.65824e-11
-1.98249e-11 -3.65824e-11 -6.5798

-9.29961 -3.79298 4.08106e-11
-3.79298 -5.68872 4.43726e-11
4.08106e-11 4.43726e-11 -7.81758

2.81519 -4.35603 1.17515e-11
-4.35603 -6.246 5.01095e-12
1.17515e-11 5.01095e-12 -1.17725

1.77257 -0.271662 -9.24231e-12
-0.271662 -19.0069 7.69431e-13
-9.24231e-12 7.69431e-13 -2.76046

0.679784 -4.6828 -1.67439e-11
-4.6828 9.34742 -5.23895e-11
-1.67439e-11 -5.23895e-11 3.87914

2.04571 -4.67189 -1.15589e-11
-4.67189 9.94517 3.79451e-11
-1.15589e-11 3.79451e-11 3.8563

4.18205 -0.258961 -2.36886e-11
-0.258961 -9.35849 8.08413e-12
-2.36886e-11 8.08413e-12 -0.494101

-4.8058 -6.41398 -6.67836e-13
-6.41398 4.67838 -7.70228e-12
-6.67836e-13 -7.70228e-12 -0.142243

-5.66932 0.0913453 -3.47224e-11
0.0913453 -8.85155 -3.71528e-11
-3.47224e-11 -3.71528e-11 -7.76344

-8.03221 1.9181 -2.46411e-11
1.9181 -6.86073 -1.27048e-11
-2.46411e-11 -1.27048e-11 -7.6484

0.0927088 -6.04412 2.13739e-11
-6.04412 -3.97889 -2.69695e-12
2.13739e-11 -2.69695e-12 -1.41405

-4.90711 -6.17395 1.05858e-11
-6.17395 -0.744218 3.69721e-11
1.05858e-11 3.69721e-11 -0.792524

3.43126 -4.34035 -7.7102e-12
-4.34035 -10.3584 1.11734e-11
-7.7102e-12 1.11734e-11 -1.46925

-6.58136 -5.43743 6.92553e-12
-5.43743 1.65915 1.84871e-11
6.92553e-12 1.84871e-11 -0.579441

33.6232 -10.3611 -5.3928e-12
-10.3611 34.6289 -2.92834e-11
-5.3928e-12 -2.92834e-11 34.595

-3.39861 -2.38484 1.46313e-11
-2.38484 6.20718 3.77328e-13
1.46313e-11 3.77328e-13 0.645601

-5.8501 -1.79664 1.34785e-12
-1.79664 8.36518 1.15553e-11
1.34785e-12 1.15553e-11 0.931295

-12.003 -0.875671 -1.36661e-11
-0.875671 3.04305 -1.73297e-11
-1.36661e-11 -1.73297e-11 -7.69122

-10.7217 -1.03562 -1.21287e-11
-1.03562 -8.248 -1.22231e-11
-1.21287e-11 -1.22231e-11 -9.36024

4.6287 -0.582939 -1.00629e-11
-0.582939 -12.5229 1.69376e-11
-1.00629e-11 1.69376e-11 -2.49143

3.41113 0.287001 7.21867e-13
0.287001 -11.7888 9.62475e-12
7.21867e-13 9.62475e-12 -2.45416

-4.75876 4.53052 -3.04149e-11
4.53052 -7.45031 1.7136e-11
-3.04149e-11 1.7136e-11 -4.24167

-2.0771 -8.13145 -3.85065e-11
-8.13145 -7.05853 1.88665e-11
-3.85065e-11 1.88665e-11 -3.59014

-4.88425 1.62046 1.69396e-11
1.62046 -5.74241 7.72882e-13
1.69396e-11 7.72882e-13 -6.69051

-1.34531 -2.90097 6.23703e-11
-2.90097 -5.44068 -8.6707e-12
6.23703e-11 -8.6707e-12 -6.13149

-12.4075 -3.16788 3.00178e-11
-3.16788 -15.9388 5.10144e-11
3.00178e-11 5.10144e-11 -16.4118

-11.351 9.50956 2.73778e-11
9.50956 -7.21357 8.43135e-11
2.73778e-11 8.43135e-11 -14.3783

-8.31355 -8.39796 -1.7808e-12
-8.39796 0.503237 9.24043e-12
-1.7808e-12 9.24043e-12 -2.65025

-11.9893 10.3966 6.83475e-12
10.3966 -5.04712 -1.07794e-11
6.83475e-12 -1.07794e-11 -3.49496

3.16171 4.20463 -1.30901e-11
4.20463 -3.64396 -1.46352e-11
-1.30901e-11 -1.46352e-11 0.10776

-6.29584 -3.58669 -1.81067e-11
-3.58669 5.38599 3.23466e-11
-1.81067e-11 3.23466e-11 0.0542052

-2.3367 -5.43955 5.39631e-12
-5.43955 5.43884 -3.42747e-11
5.39631e-12 -3.42747e-11 0.44484

3.34578 -4.42721 -2.19436e-11
-4.42721 -2.64489 -1.42458e-11
-2.19436e-11 -1.42458e-11 0.0668616

-1.95888 4.09206 4.09592e-11
4.09206 5.001 -2.17573e-11
4.09592e-11 -2.17573e-11 0.536552

-6.10318 2.4169 1.95353e-11
2.4169 5.95196 -9.24401e-12
1.95353e-11 -9.24401e-12 0.265668

0.377215 5.80986 -5.6873e-12
5.80986 0.0975049 1.61642e-11
-5.6873e-12 1.61642e-11 0.554022

-7.47248 6.9662 -8.08605e-12
6.9662 -1.58908 1.52096e-11
-8.08605e-12 1.52096e-11 -2.79704

-8.54001 -9.31083 -2.98396e-11
-9.31083 -4.77234 2.65747e-11
-2.98396e-11 2.65747e-11 -3.32252

1.11832 -7.11582 -1.26184e-11
-7.11582 1.70544 3.48589e-11
-1.26184e-11 3.48589e-11 0.590809

1.9259 2.06284 -2.82996e-11
2.06284 -6.9414 3.65685e-12
-2.82996e-11 3.65685e-12 -1.58147

-2.24259 -3.14045 8.87345e-11
-3.14045 -4.03209 3.0417e-11
8.87345e-11 3.0417e-11 -15.3401

-20.827 1.91051 -4.36949e-11
1.91051 -19.0029 1.54944e-11
-4.36949e-11 1.54944e-11 -21.4347

-4.43061 -7.04558 -1.76157e-11
-7.04558 2.52017 -1.86666e-13
-1.76157e-11 -1.86666e-13 -1.02079

1.10817 -6.98257 1.50221e-11
-6.98257 -6.34279 -7.32022e-12
1.50221e-11 -7.32022e-12 -1.38278

0.543699 -0.603953 -1.84834e-11
-0.603953 -7.04805 1.38591e-11
-1.84834e-11 1.38591e-11 -3.97066

16.1148 -4.90536 4.83051e-12
-4.90536 18.005 -1.1558e-11
4.83051e-12 -1.1558e-11 15.145

17.8867 -4.37873 -1.19349e-11
-4.37873 14.8905 -2.1082e-11
-1.19349e-11 -2.1082e-11 14.6338

3.17789 0.479573 -3.7256e-11
0.479573 -11.6985 -1.13591e-11
-3.7256e-11 -1.13591e-11 -3.34244

0.893116 -0.376626 3.48509e-11
-0.376626 -10.8699 -2.00198e-11
3.48509e-11 -2.00198e-11 -3.46595

0.339279 -0.0904258 1.42463e-11
-0.0904258 -11.4745 2.84865e-11
1.42463e-11 2.84865e-11 -4.65287

8.33061 2.97712 -6.74631e-12
2.97712 -0.139697 -3.04217e-11
-6.74631e-12 -3.04217e-11 2.29193

-3.96607 -4.49171 4.22561e-11
-4.49171 -0.525042 -1.3475e-11
4.22561e-11 -1.3475e-11 -2.26881

-4.65444 5.45316 -8.36131e-12
5.45316 -4.51203 3.54245e-11
-8.36131e-12 3.54245e-11 -2.68933

-11.8296 -4.98454 -2.00167e-11
-4.98454 -22.9661 -3.64241e-11
-2.00167e-11 -3.64241e-11 -20.357

-5.99777 -0.531497 -4.42639e-11
-0.531497 -0.760057 4.55311e-11
-4.42639e-11 4.55311e-11 -15.382

-7.05172 -7.91339 1.25229e-12
-7.91339 2.64426 -3.85055e-12
1.25229e-12 -3.85055e-12 -1.20451

4.44077 -5.55716 1.17454e-11
-5.55716 -4.06782 1.46355e-11
1.17454e-11 1.46355e-11 0.17738

-1.42074 1.21929 -4.652e-11
1.21929 -6.02308 4.92823e-11
-4.652e-11 4.92823e-11 -3.48199

-0.219609 0.185902 6.02357e-11
0.185902 -7.1761 -6.73994e-12
6.02357e-11 -6.73994e-12 -3.69302

-8.00929 -3.18385 -1.73277e-11
-3.18385 1.62109 -2.92715e-11
-1.73277e-11 -2.92715e-11 -1.45833

-9.77812 -5.83516 5.39771e-12
-5.83516 -2.71081 -2.75324e-11
5.39771e-12 -2.75324e-11 -2.10781

35.1417 8.76006 -4.52719e-11
8.76006 33.7486 -8.67528e-12
-4.52719e-11 -8.67528e-12 34.6791

-7.70966 4.67045 1.38625e-11
4.67045 -1.95055 2.00235e-11
1.38625e-11 2.00235e-11 -3.96862

-7.671 -6.07861 -3.8888e-11
-6.07861 -2.45943 2.31907e-12
-3.8888e-11 2.31907e-12 -3.98438

-9.47277 -5.52116 -2.40587e-11
-5.52116 0.78969 -5.39065e-12
-2.40587e-11 -5.39065e-12 -1.43285

8.64545 -3.73011 2.29227e-11
-3.73011 0.938999 -4.08226e-11
2.29227e-11 -4.08226e-11 2.25392

-1.01047 4.05122 -2.46459e-11
4.05122 -2.33768 -3.70074e-15
-2.46459e-11 -3.70074e-15 -1.41595

-3.97355 4.25237 -1.69467e-11
4.25237 -3.26954 -3.63859e-11
-1.69467e-11 -3.63859e-11 -3.18052

-1.05797 -6.54814 -5.89149e-11
-6.54814 -6.55854 -3.00247e-11
-5.89149e-11 -3.00247e-11 -3.14285

2.56108 1.63715 -2.38771e-11
1.63715 -11.5181 2.50422e-12
-2.38771e-11 2.50422e-12 -1.85854

-2.77535 -0.752829 3.58799e-11
-0.752829 -7.36218 4.81287e-11
3.58799e-11 4.81287e-11 -5.29309

-1.08735 1.17845 -5.4445e-11
1.17845 -10.1697 6.92949e-12
-5.4445e-11 6.92949e-12 -5.6784

-14.1657 2.16949 1.71301e-11
2.16949 0.393899 1.4627e-11
1.71301e-11 1.4627e-11 -14.2392

-16.8003 0.409929 -9.04703e-11
0.409929 -8.14376 -3.94635e-11
-9.04703e-11 -3.94635e-11 -15.945

19.8614 -2.24122 9.82888e-12
-2.24122 14.1287 -2.08069e-11
9.82888e-12 -2.08069e-11 20.9212

12.0234 -1.49001 -3.27587e-11
-1.49001 20.5269 8.85913e-12
-3.27587e-11 8.85913e-12 20.6722

-5.77436 -6.9708 -2.89013e-12
-6.9708 2.64424 -2.50192e-12
-2.89013e-12 -2.50192e-12 -1.4736

-6.93552 6.04649 2.45934e-11
6.04649 -3.12179 -1.77062e-11
2.45934e-11 -1.77062e-11 -2.08776

-6.89083 -9.32543 2.30966e-12
-9.32543 3.32335 5.0064e-12
2.30966e-12 5.0064e-12 -1.09503

21.9909 2.38852 -3.29401e-11
2.38852 21.6502 2.69503e-12
-3.29401e-11 2.69503e-12 24.0847

22.1263 3.60123 -5.19703e-12
3.60123 19.7661 -7.77045e-13
-5.19703e-12 -7.77045e-13 23.428

-30.8385 7.62789 7.80076e-11
7.62789 -6.55163 3.19453e-11
7.80076e-11 3.19453e-11 -21.5153

-22.536 -6.01184 1.06914e-10
-6.01184 -11.0859 2.35246e-10
1.06914e-10 2.35246e-10 -20.7733

-2.85451 5.63634 -2.92687e-11
5.63634 -2.61409 -1.86804e-11
-2.92687e-11 -1.86804e-11 -1.56806

-0.536337 -6.72745 -3.81297e-11
-6.72745 3.43312 3.77468e-11
-3.81297e-11 3.77468e-11 0.527178

-5.56134 -6.68285 2.92193e-11
-6.68285 -0.500136 -2.40674e-11
2.92193e-11 -2.40674e-11 -2.02618

-5.71061 6.72636 3.92226e-11
6.72636 -3.17138 7.70606e-12
3.92226e-11 7.70606e-12 -1.96128

-3.66819 -7.80357 -7.314e-12
-7.80357 2.55158 -2.13746e-11
-7.314e-12 -2.13746e-11 -0.489026

-1.17551 5.42475 2.9562e-11
5.42475 1.74661 -6.92557e-12
2.9562e-11 -6.92557e-12 0.585675

6.19495 -2.84589 -4.17917e-11
-2.84589 14.7156 1.96471e-11
-4.17917e-11 1.96471e-11 8.91316

8.35304 -2.44871 -1.14959e-12
-2.44871 15.2056 1.90514e-13
-1.14959e-12 1.90514e-13 9.43495

16.0104 -1.99358 -2.70578e-11
-1.99358 7.96442 1.92724e-12
-2.70578e-11 1.92724e-12 9.59519

-4.68617 6.08683 -1.37609e-11
6.08683 0.117858 -2.88835e-11
-1.37609e-11 -2.88835e-11 -0.551712

9.29208 -0.313793 3.1204e-11
-0.313793 18.4309 -3.3135e-11
3.1204e-11 -3.3135e-11 12.6585

18.2648 0.622868 -1.77363e-11
0.622868 10.4821 3.42932e-11
-1.77363e-11 3.42932e-11 12.8176

-7.41186 -6.37688 2.27682e-11
-6.37688 -1.28161 -4.35109e-11
2.27682e-11 -4.35109e-11 -3.41912

-7.58623 7.74648 -1.42978e-11
7.74648 -5.6727 -2.5029e-11
-1.42978e-11 -2.5029e-11 -3.63848

-7.65823 -5.08033 3.10379e-11
-5.08033 -1.83649 2.90691e-11
3.10379e-11 2.90691e-11 -4.00101

-7.69614 6.85178 5.61773e-14
6.85178 -3.24063 1.73367e-11
5.61773e-14 1.73367e-11 -3.77377

21.8129 -4.57371 1.67602e-11
-4.57371 22.4914 -3.15958e-11
1.67602e-11 -3.15958e-11 24.779

21.6569 -4.45941 1.48499e-11
-4.45941 22.8904 -5.08548e-11
1.48499e-11 -5.08548e-11 24.8607

-2.83822 5.67747 -3.51312e-11
5.67747 -1.58079 -4.08237e-11
-3.51312e-11 -4.08237e-11 -0.768138

-2.36206 -6.1613 4.79912e-13
-6.1613 2.12393 -2.69466e-12
4.79912e-13 -2.69466e-12 -0.525953

-9.92037 -1.60499 2.75326e-11
-1.60499 -2.73122 -2.34907e-11
2.75326e-11 -2.34907e-11 -9.84142

-11.7646 -1.92239 -6.3723e-11
-1.92239 -10.177 -3.42698e-11
-6.3723e-11 -3.42698e-11 -11.3208

-9.31944 -6.63503 7.45789e-12
-6.63503 0.760691 4.17791e-11
7.45789e-12 4.17791e-11 -3.63664

-11.4146 7.09549 -6.54691e-12
7.09549 -1.88308 1.03957e-11
-6.54691e-12 1.03957e-11 -3.83355

-4.50321 -0.0951626 -1.51868e-11
-0.0951626 -12.4341 4.29309e-11
-1.51868e-11 4.29309e-11 -7.23813

-6.859 1.50639 -5.20065e-11
1.50639 -11.0895 5.81375e-11
-5.20065e-11 5.81375e-11 -7.26083

-5.06168 6.31013 -8.86202e-12
6.31013 -0.564299 -4.04362e-11
-8.86202e-12 -4.04362e-11 -1.85016

-3.91085 -6.6874 -1.19359e-11
-6.6874 -3.67708 -1.80996e-11
-1.19359e-11 -1.80996e-11 -1.98027

-16.2318 -2.75566 3.61899e-11
-2.75566 -7.19899 -5.51575e-11
3.61899e-11 -5.51575e-11 -13.4671

-9.92762 2.6805 -2.57936e-11
2.6805 -13.5 -3.31157e-11
-2.57936e-11 -3.31157e-11 -13.4009

-4.15966 -6.52503 -9.23994e-12
-6.52503 -9.00951 2.23311e-11
-9.23994e-12 2.23311e-11 -11.7683

-14.856 -1.15108 -5.97233e-12
-1.15108 0.267049 4.92815e-11
-5.97233e-12 4.92815e-11 -12.0318

-10.529 1.83328 4.86585e-11
1.83328 -12.2851 -1.81877e-11
4.86585e-11 -1.81877e-11 -12.2941

-19.6819 0.236495 7.72029e-11
0.236495 -11.9506 1.34786e-11
7.72029e-11 1.34786e-11 -17.0075

-7.2567 -2.00845 2.90458e-11
-2.00845 -14.2627 -1.60737e-11
2.90458e-11 -1.60737e-11 -12.1358

-13.3449 -0.743766 3.84315e-11
-0.743766 -17.1368 1.25096e-11
3.84315e-11 1.25096e-11 -16.8367

-18.1719 -3.62918 -1.06398e-10
-3.62918 -14.494 -1.42262e-10
-1.06398e-10 -1.42262e-10 -17.7524

-13.2688 8.75069 1.59992e-10
8.75069 -5.77092 3.27341e-10
1.59992e-10 3.27341e-10 -14.8065

0.289245 2.51343 7.25262e-11
2.51343 -1.53178 3.96708e-11
7.25262e-11 3.96708e-11 -15.3554

3.39429 -4.17781 -6.60289e-10
-4.17781 -29.2764 -5.79521e-10
-6.60289e-10 -5.79521e-10 -20.2331

-10.8791 -4.72142 3.24406e-11
-4.72142 -11.3604 -3.98463e-11
3.24406e-11 -3.98463e-11 -13.1413

-8.85965 -3.47646 -4.2641e-11
-3.47646 -2.96217 1.9448e-11
-4.2641e-11 1.9448e-11 -6.76574

-7.39656 8.16762 -1.95391e-11
8.16762 -10.1956 -7.23828e-11
-1.95391e-11 -7.23828e-11 -11.9049

-8.08458 4.58399 -1.9637e-11
4.58399 -5.3732 7.69297e-12
-1.9637e-11 7.69297e-12 -6.58973

-13.7543 9.35387 -5.51936e-12
9.35387 -5.61704 -2.4832e-10
-5.51936e-12 -2.4832e-10 -16.3256

-16.8722 -1.0086 1.36633e-11
-1.0086 -19.0788 -4.54284e-11
1.36633e-11 -4.54284e-11 -19.6753

-11.9366 -3.09634 -5.26627e-11
-3.09634 -7.14993 1.13975e-10
-5.26627e-11 1.13975e-10 -9.34988

-10.7048 -1.85874 -5.32873e-11
-1.85874 -10.972 6.06417e-11
-5.32873e-11 6.06417e-11 -12.4175

-9.51595 7.66286 4.67858e-11
7.66286 -5.06118 7.81638e-11
4.67858e-11 7.81638e-11 -8.14573

-13.4792 5.08196 8.00471e-13
5.08196 -8.72446 1.11528e-11
8.00471e-13 1.11528e-11 -12.3707

-8.31945 1.79126 9.62857e-12
1.79126 4.41408 -4.00528e-11
9.62857e-12 -4.00528e-11 -1.21204

-1.1635 -0.688489 -2.69755e-12
-0.688489 2.46536 -1.02055e-11
-2.69755e-12 -1.02055e-11 -0.422616

7.35579 1.72128 4.05393e-11
1.72128 -6.75513 1.73308e-11
4.05393e-11 1.73308e-11 0.0422991

9.90973 0.417902 -1.99797e-11
0.417902 -3.15367 -4.03955e-12
-1.99797e-11 -4.03955e-12 1.6054

-14.0269 2.02729 -1.98258e-11
2.02729 2.85127 1.38589e-11
-1.98258e-11 1.38589e-11 -4.18442

-7.16142 0.531298 -1.5411e-12
0.531298 -1.9439 3.36768e-12
-1.5411e-12 3.36768e-12 -3.39381

9.8074 -0.661838 -2.9369e-11
-0.661838 -3.49615 -3.36768e-15
-2.9369e-11 -3.36768e-15 1.57645

5.74578 -0.396639 1.47564e-11
-0.396639 -9.78825 -1.03952e-11
1.47564e-11 -1.03952e-11 -1.18262

3.74066 -3.9769 -1.66592e-11
-3.9769 12.5452 -7.72567e-13
-1.66592e-11 -7.72567e-13 6.49103

5.53461 6.44303 1.88749e-11
6.44303 12.4084 3.23615e-11
1.88749e-11 3.23615e-11 5.93833

11.2025 6.09794 -4.02551e-11
6.09794 4.61263 -1.16159e-12
-4.02551e-11 -1.16159e-12 6.23428

-4.14399 7.36697 1.02004e-11
7.36697 0.292188 -2.88692e-11
1.02004e-11 -2.88692e-11 -2.70707

-6.77128 -2.49925 8.75914e-12
-2.49925 0.707258 -7.69237e-13
8.75914e-12 -7.69237e-13 -3.36931

0.533954 6.28052 -4.61971e-12
6.28052 3.85152 -2.61852e-11
-4.61971e-12 -2.61852e-11 0.450841

-8.16682 5.54368 9.53204e-12
5.54368 -0.708068 -1.34737e-11
9.53204e-12 -1.34737e-11 -3.54329

-14.6417 -1.994 -1.95425e-11
-1.994 3.19447 3.0036e-11
-1.95425e-11 3.0036e-11 -4.25498

5.67946 -1.2361 4.62549e-12
-1.2361 -7.83301 6.93268e-12
4.62549e-12 6.93268e-12 0.0720916

3.91267 2.93992 3.2442e-11
2.93992 12.9896 2.1958e-11
3.2442e-11 2.1958e-11 4.68112

0.986946 -0.769098 -1.24216e-11
-0.769098 12.9107 2.27303e-11
-1.24216e-11 2.27303e-11 4.70438

12.8883 2.99649 1.86777e-11
2.99649 2.86376 -2.38883e-11
1.86777e-11 -2.38883e-11 5.18158

8.72126 -3.10606 6.16233e-12
-3.10606 -1.75782 1.15097e-12
6.16233e-12 1.15097e-12 2.13205

-1.76777 5.34846 -1.19381e-11
5.34846 6.72832 -4.0446e-11
-1.19381e-11 -4.0446e-11 1.69353

3.13746 -4.05906 -3.6459e-12
-4.05906 6.18141 -3.04226e-11
-3.6459e-12 -3.04226e-11 2.02206

7.33326 -2.0003 -2.92251e-11
-2.0003 -7.47556 -3.82823e-13
-2.92251e-11 -3.82823e-13 -0.00270861

12.4583 4.04835 -3.37048e-11
4.04835 17.0994 -5.74046e-11
-3.37048e-11 -5.74046e-11 10.9864

5.69226 0.427063 -3.11216e-11
0.427063 -10.2659 1.35125e-12
-3.11216e-11 1.35125e-12 -1.30699

16.4059 4.37338 2.67718e-11
4.37338 12.1153 -9.61905e-12
2.67718e-11 -9.61905e-12 11.5347

-7.98841 0.481506 2.07907e-11
0.481506 1.66158 1.15542e-11
2.07907e-11 1.15542e-11 -4.48415

-3.81204 2.54115 -4.36928e-11
2.54115 -1.44965 -2.63765e-11
-4.36928e-11 -2.63765e-11 -3.50364

-11.9868 -6.52186 1.20809e-11
-6.52186 -11.3088 -9.62523e-12
1.20809e-11 -9.62523e-12 -14.3982

-9.38109 2.8379 8.40024e-12
2.8379 -13.9135 -3.04133e-11
8.40024e-12 -3.04133e-11 -14.4451

13.6753 -0.928288 4.43068e-12
-0.928288 3.44148 3.65966e-11
4.43068e-12 3.65966e-11 5.39086

-1.45877 7.64302 -4.97731e-11
7.64302 2.80334 1.53982e-11
-4.97731e-11 1.53982e-11 -0.0838416

-3.38967 1.14136 3.6795e-12
1.14136 -4.86891 -1.94406e-11
3.6795e-12 -1.94406e-11 -4.92773

-6.0209 -3.48041 -2.46262e-11
-3.48041 -6.73886 1.23239e-11
-2.46262e-11 1.23239e-11 -5.61921

6.99937 -0.453394 -1.47798e-11
-0.453394 -11.2568 2.65673e-11
-1.47798e-11 2.65673e-11 -1.22399

-2.0441 6.32094 -3.85344e-12
6.32094 4.31027 -3.5825e-11
-3.85344e-12 -3.5825e-11 1.19555

0.983452 -5.76144 -1.93919e-13
-5.76144 5.50655 -4.23395e-12
-1.93919e-13 -4.23395e-12 1.55926

7.58651 -4.0671 2.485e-11
-4.0671 0.827942 -1.09542e-14
2.485e-11 -1.09542e-14 2.37487

6.90031 -0.964389 1.08788e-11
-0.964389 -11.1543 3.38841e-11
1.08788e-11 3.38841e-11 -0.951172

0.519449 7.45459 -2.29115e-11
7.45459 8.06481 1.86731e-11
-2.29115e-11 1.86731e-11 1.73914

-1.91517 -5.1429 -1.13591e-11
-5.1429 4.69149 -3.15817e-11
-1.13591e-11 -3.15817e-11 1.30221

0.587837 6.8938 4.20743e-11
6.8938 7.8716 -2.23332e-11
4.20743e-11 -2.23332e-11 1.66963

-2.70412 -4.13234 2.51295e-11
-4.13234 7.41976 7.68866e-13
2.51295e-11 7.68866e-13 1.64818

-1.79646 -3.41246 7.69044e-12
-3.41246 1.07161 4.67821e-11
7.69044e-12 4.67821e-11 -0.426111

-9.34991 4.80484 2.21423e-11
4.80484 2.6846 -3.83249e-13
2.21423e-11 -3.83249e-13 -1.07385

5.83796 -5.99558 2.33977e-11
-5.99558 3.39295 3.47367e-12
2.33977e-11 3.47367e-12 3.04269

33.7461 -5.30686 3.12053e-11
-5.30686 32.9852 1.34791e-11
3.12053e-11 1.34791e-11 33.3066

32.0354 -5.70313 1.81055e-11
-5.70313 34.8967 1.65661e-11
1.81055e-11 1.65661e-11 33.7212

-7.45581 8.93193 -4.33342e-12
8.93193 2.02316 -1.82929e-11
-4.33342e-12 -1.82929e-11 -2.18225

-13.4674 -5.8241 2.25273e-11
-5.8241 0.411381 9.62837e-12
2.25273e-11 9.62837e-12 -3.29613

20.2201 -1.1467 -3.85344e-12
-1.1467 20.2747 -2.38907e-11
-3.85344e-12 -2.38907e-11 22.4484

19.9969 -1.23001 -8.67047e-12
-1.23001 20.8843 -3.84211e-13
-8.67047e-12 -3.84211e-13 21.9318

-1.28696 5.1127 2.50339e-11
5.1127 -6.71314 -2.65679e-11
2.50339e-11 -2.65679e-11 -4.96732

0.283606 -3.89672 2.30956e-12
-3.89672 -7.37632 2.12016e-12
2.30956e-12 2.12016e-12 -3.56215

3.04652 -0.176192 -1.44469e-11
-0.176192 -9.9134 3.15754e-11
-1.44469e-11 3.15754e-11 -0.699695

-2.3911 7.18331 1.11674e-11
7.18331 -7.65675 5.42793e-11
1.11674e-11 5.42793e-11 -5.48144

-0.206784 -5.18802 9.60387e-12
-5.18802 -10.6641 7.41155e-11
9.60387e-12 7.41155e-11 -4.30074

-6.33035 5.0742 -1.53226e-12
5.0742 4.41124 -7.3214e-12
-1.53226e-12 -7.3214e-12 0.0506853

-2.06613 -4.00052 -1.34418e-12
-4.00052 4.06581 -3.25377e-11
-1.34418e-12 -3.25377e-11 0.254917

-6.03659 2.50574 -5.5346e-11
2.50574 -13.6017 -3.57943e-11
-5.5346e-11 -3.57943e-11 -11.4796

-9.48167 -3.29495 1.19863e-11
-3.29495 -11.7142 -2.61742e-11
1.19863e-11 -2.61742e-11 -11.7316

-1.00203 7.74956 2.11738e-11
7.74956 -6.23328 1.73328e-12
2.11738e-11 1.73328e-12 -2.47985

1.22929 -6.12875 -1.84743e-11
-6.12875 -6.94494 -6.78842e-12
-1.84743e-11 -6.78842e-12 -1.76721

12.2949 -4.14323 2.86141e-13
-4.14323 5.64959 1.61794e-11
2.86141e-13 1.61794e-11 6.90004

-13.0091 -0.211397 1.75207e-11
-0.211397 0.306288 7.70073e-12
1.75207e-11 7.70073e-12 -10.0163

-9.89361 1.55798 -1.77086e-11
1.55798 -5.56676 1.83805e-11
-1.77086e-11 1.83805e-11 -8.00209

9.72284 -0.73062 3.7364e-11
-0.73062 17.4068 -5.27856e-11
3.7364e-11 -5.27856e-11 11.7556

17.3701 -0.907355 1.66625e-11
-0.907355 10.7786 6.54758e-12
1.66625e-11 6.54758e-12 11.9706

-10.1598 4.30378 -2.2908e-11
4.30378 3.42098 -3.46612e-12
-2.2908e-11 -3.46612e-12 -1.29141

-4.37053 -2.50955 3.32983e-11
-2.50955 2.40446 3.77414e-11
3.32983e-11 3.77414e-11 -0.782761

-3.89919 -1.48711 -1.31264e-10
-1.48711 1.18626 9.16095e-11
-1.31264e-10 9.16095e-11 -15.9232

-3.43492 -4.74269 -9.51422e-11
-4.74269 -17.748 1.32379e-10
-9.51422e-11 1.32379e-10 -14.4634

2.23146 6.88497 -1.21356e-11
6.88497 -7.61279 -2.04054e-11
-1.21356e-11 -2.04054e-11 -1.25967

3.24034 -4.54054 1.17505e-11
-4.54054 -8.21202 -2.32998e-11
1.17505e-11 -2.32998e-11 -0.934319

13.5748 0.116608 8.27442e-12
0.116608 2.43558 3.27482e-12
8.27442e-12 3.27482e-12 5.24729

7.98367 0.223915 -3.84996e-12
0.223915 -3.89754 1.92864e-12
-3.84996e-12 1.92864e-12 1.49515

10.7619 3.3486 -4.41959e-11
3.3486 -0.39145 -2.31245e-12
-4.41959e-11 -2.31245e-12 2.82999

-2.15937 1.22817 -1.73535e-12
1.22817 -10.3469 1.29021e-11
-1.73535e-12 1.29021e-11 -4.91838

-25.0374 -2.43568 -6.32146e-11
-2.43568 -10.5872 -7.08571e-11
-6.32146e-11 -7.08571e-11 -19.3084

-17.783 1.25057 -6.03676e-11
1.25057 -16.7248 3.04146e-11
-6.03676e-11 3.04146e-11 -19.0673

8.14829 5.80955 -8.9558e-12
5.80955 10.4567 3.0425e-11
-8.9558e-12 3.0425e-11 5.3265

0.887693 -5.03979 -2.20653e-12
-5.03979 -1.85662 -7.31422e-12
-2.20653e-12 -7.31422e-12 0.0979597

4.75118 5.52442 -4.22551e-12
5.52442 -5.56102 -3.42808e-11
-4.22551e-12 -3.42808e-11 0.0782772

-13.0662 2.3709 -1.61108e-10
2.3709 -8.49029 1.26906e-11
-1.61108e-10 1.26906e-11 -10.886

-12.5134 3.5021 6.08219e-11
3.5021 -1.15892 3.65815e-11
6.08219e-11 3.65815e-11 -12.473

-4.23914 -2.92162 -1.41483e-11
-2.92162 -9.48693 -2.34834e-11
-1.41483e-11 -2.34834e-11 -5.12423

-2.24585 4.53564 -2.3681e-11
4.53564 3.41279 -1.90642e-11
-2.3681e-11 -1.90642e-11 -0.646358

-9.05175 -0.824742 -1.26092e-11
-0.824742 4.8205 1.84817e-11
-1.26092e-11 1.84817e-11 -1.42534

2.74115 3.42259 1.00138e-11
3.42259 -12.5284 1.23252e-11
1.00138e-11 1.23252e-11 -1.55827

3.20845 -0.687595 1.15123e-12
-0.687595 -13.4841 3.1579e-11
1.15123e-12 3.1579e-11 -1.39756

11.0578 -4.50877 7.99553e-12
-4.50877 8.16204 4.21774e-11
7.99553e-12 4.21774e-11 6.00899

1.52596 6.17511 -1.02064e-11
6.17511 -10.8799 1.50149e-11
-1.02064e-11 1.50149e-11 -2.85996

2.16362 -3.89897 7.75927e-12
-3.89897 -13.3295 -2.17428e-11
7.75927e-12 -2.17428e-11 -2.49301

4.82358 -3.01584 1.0405e-11
-3.01584 -5.18094 9.65228e-13
1.0405e-11 9.65228e-13 0.244082

2.24252 4.48538 -4.23483e-12
4.48538 -9.02236 -5.19714e-12
-4.23483e-12 -5.19714e-12 -1.55235

1.80748 -2.28576 1.07803e-11
-2.28576 -9.97602 -5.86486e-12
1.07803e-11 -5.86486e-12 -1.40332

5.26347 -1.92021 -2.12269e-11
-1.92021 -5.30035 4.63081e-12
-2.12269e-11 4.63081e-12 -0.0777132

-6.6976 8.07366 -1.2325e-11
8.07366 -2.76051 -8.47411e-12
-1.2325e-11 -8.47411e-12 -1.65429

0.817892 -6.92537 7.74788e-13
-6.92537 -2.56079 -2.11726e-11
7.74788e-13 -2.11726e-11 -0.617083

6.74801 5.44416 -2.36908e-11
5.44416 4.81452 -2.50489e-12
-2.36908e-11 -2.50489e-12 2.57856

-4.00061 -5.06365 1.82929e-11
-5.06365 -0.24033 -3.67693e-11
1.82929e-11 -3.67693e-11 -1.04218

-10.3234 5.6273 1.09749e-11
5.6273 -2.51354 4.23706e-12
1.09749e-11 4.23706e-12 -2.2329

8.42813 4.96991 2.42628e-11
4.96991 -2.48865 3.89725e-13
2.42628e-11 3.89725e-13 2.14333

-1.66455 -4.4422 2.99411e-11
-4.4422 -6.10824 -6.19998e-11
2.99411e-11 -6.19998e-11 -1.96058

6.43582 1.86444 5.1957e-12
1.86444 -2.92632 -3.77393e-11
5.1957e-12 -3.77393e-11 0.451318

3.51923 7.08717 -3.34157e-11
7.08717 4.74304 -1.52149e-11
-3.34157e-11 -1.52149e-11 2.09051

2.20452 5.72285 3.75433e-12
5.72285 -0.976887 2.46508e-11
3.75433e-12 2.46508e-11 0.0280414

-6.19835 2.27929 2.1753e-11
2.27929 2.76149 -1.94489e-11
2.1753e-11 -1.94489e-11 -1.35025

-11.7633 0.638515 -7.31046e-12
0.638515 5.84651 -2.58075e-11
-7.31046e-12 -2.58075e-11 -1.49042

12.7113 -4.35499 1.63395e-12
-4.35499 3.86214 -3.26872e-12
1.63395e-12 -3.26872e-12 6.1848

-9.01426 -7.90717 -1.59884e-11
-7.90717 -2.59536 5.93015e-11
-1.59884e-11 5.93015e-11 -1.96146

-6.01106 8.6738 1.01112e-11
8.6738 2.25205 4.81366e-11
1.01112e-11 4.81366e-11 -1.49373

5.97039 -6.40464 -4.81008e-12
-6.40464 6.58343 -4.31319e-11
-4.81008e-12 -4.31319e-11 3.2015

2.74541 7.71491 -4.6303e-12
7.71491 6.65467 5.81551e-11
-4.6303e-12 5.81551e-11 2.96397

3.92302 -3.58949 4.85538e-13
-3.58949 -3.99388 -1.44373e-12
4.85538e-13 -1.44373e-12 -0.0191673

2.04798 -0.923618 -3.03383e-12
-0.923618 -12.4557 1.57857e-11
-3.03383e-12 1.57857e-11 -2.97634

4.08815 0.268213 2.93417e-12
0.268213 -12.7367 2.94557e-11
2.93417e-12 2.94557e-11 -2.69513

0.237149 -6.00998 4.43171e-12
-6.00998 1.29349 -4.91044e-11
4.43171e-12 -4.91044e-11 0.713316

1.65293 1.23209 -5.39339e-12
1.23209 13.8369 -8.08982e-12
-5.39339e-12 -8.08982e-12 5.04587

-0.605152 1.05629 -1.75291e-11
1.05629 13.8846 3.46684e-11
-1.75291e-11 3.46684e-11 5.16157

13.4925 1.11967 -1.92305e-12
1.11967 0.896837 -5.58971e-12
-1.92305e-12 -5.58971e-12 5.53122

9.24915 6.38514 -4.25563e-11
6.38514 7.76117 -3.85321e-12
-4.25563e-11 -3.85321e-12 5.74056

7.18653 -6.26719 3.15781e-11
-6.26719 1.05899 -5.20221e-12
3.15781e-11 -5.20221e-12 2.49035

-19.4616 7.14948 -1.75145e-11
7.14948 -10.5899 2.88618e-11
-1.75145e-11 2.88618e-11 -15.5482

-2.16214 -1.87872 -5.85189e-11
-1.87872 -1.7777 1.32414e-10
-5.85189e-11 1.32414e-10 -14.5316

9.19486 -2.1272 1.77186e-11
-2.1272 -3.0976 8.27405e-12
1.77186e-11 8.27405e-12 2.0605

-7.32503 5.64196 3.65596e-12
5.64196 1.09694 1.19388e-11
3.65596e-12 1.19388e-11 -0.745427

-0.548709 -6.37374 -7.65758e-13
-6.37374 1.63624 -3.00346e-11
-7.65758e-13 -3.00346e-11 0.0646458

4.09575 2.92207 2.07967e-11
2.92207 -9.49809 4.62576e-12
2.07967e-11 4.62576e-12 -0.479941

-0.389268 5.9593 1.54083e-11
5.9593 9.46955 -4.50617e-11
1.54083e-11 -4.50617e-11 2.00289

-4.38623 -2.65118 -1.47321e-11
-2.65118 8.77963 1.15546e-11
-1.47321e-11 1.15546e-11 1.69396

-14.1538 5.99542 -1.55942e-11
5.99542 0.417424 1.1533e-12
-1.55942e-11 1.1533e-12 -3.2704

-4.40278 -2.46721 1.48209e-11
-2.46721 -0.846006 -1.92631e-12
1.48209e-11 -1.92631e-12 -1.59456

-9.24534 6.06808 7.50659e-12
6.06808 -4.41868 4.38987e-11
7.50659e-12 4.38987e-11 -2.33375

-2.17253 -6.14411 9.82229e-12
-6.14411 -1.46048 -1.55908e-11
9.82229e-12 -1.55908e-11 -0.930889

2.27039 0.492898 -1.19402e-11
0.492898 -20.722 1.07785e-11
-1.19402e-11 1.07785e-11 -2.70225

5.74454 7.73964 3.37123e-11
7.73964 1.48049 2.65704e-11
3.37123e-11 2.65704e-11 2.56971

-6.51171 9.26116 5.48432e-12
9.26116 4.43048 -2.02173e-11
5.48432e-12 -2.02173e-11 -1.16809

-11.0606 -6.86588 -1.6301e-12
-6.86588 -4.92652 -1.50203e-11
-1.6301e-12 -1.50203e-11 -2.64099

3.63642 6.55516 4.33283e-11
6.55516 2.78758 -3.38883e-11
4.33283e-11 -3.38883e-11 2.14554

6.95573 -3.98328 -5.00637e-12
-3.98328 10.7145 3.66344e-12
-5.00637e-12 3.66344e-12 6.05555

-4.8432 -5.97728 3.08575e-12
-5.97728 -0.757102 -3.23469e-11
3.08575e-12 -3.23469e-11 -0.813617

4.59563 -1.27189 -5.9696e-11
-1.27189 12.0088 2.40557e-11
-5.9696e-11 2.40557e-11 4.45132

0.644917 3.39164 1.05899e-11
3.39164 12.0962 4.3529e-11
1.05899e-11 4.3529e-11 4.16391

11.7675 -1.30537 -5.57302e-12
-1.30537 2.91811 2.10081e-11
-5.57302e-12 2.10081e-11 4.72049

5.60046 -5.61895 2.96561e-11
-5.61895 4.20506 -1.88661e-11
2.96561e-11 -1.88661e-11 2.52531

-5.68355 0.925141 -8.65996e-12
0.925141 8.53959 -3.00435e-11
-8.65996e-12 -3.00435e-11 0.916194

0.618928 1.29384 2.92688e-11
1.29384 7.68067 3.697e-11
2.92688e-11 3.697e-11 1.45653

8.80594 -5.32184 -3.46566e-11
-5.32184 10.368 -9.579e-13
-3.46566e-11 -9.579e-13 6.45955

5.76265 6.61777 -2.29134e-11
6.61777 10.2219 -1.73367e-11
-2.29134e-11 -1.73367e-11 6.01206

-0.0923076 1.27436 2.54173e-11
1.27436 -13.6541 1.54465e-12
2.54173e-11 1.54465e-12 -2.15259

-0.45904 0.0125454 2.23338e-11
0.0125454 -14.9882 2.46452e-11
2.23338e-11 2.46452e-11 -2.21072

-4.49091 6.75102 1.5596e-11
6.75102 -1.08741 -2.58016e-11
1.5596e-11 -2.58016e-11 -0.679611

-0.19612 -5.60229 -5.58072e-12
-5.60229 1.27399 -2.17577e-11
-5.58072e-12 -2.17577e-11 0.0571596

-7.43126 9.14777 3.36742e-12
9.14777 2.87154 -4.42631e-12
3.36742e-12 -4.42631e-12 -1.84139

-15.0012 -5.198 -1.0977e-11
-5.198 0.165414 2.54143e-11
-1.0977e-11 2.54143e-11 -3.1527

-3.71927 6.02937 6.59428e-12
6.02937 -1.39603 -1.34748e-11
6.59428e-12 -1.34748e-11 -1.84363

14.8348 3.76662 1.3967e-11
3.76662 8.15128 -1.85037e-13
1.3967e-11 -1.85037e-13 8.71434

0.068292 -3.42491 -1.27002e-11
-3.42491 8.52872 -3.46689e-11
-1.27002e-11 -3.46689e-11 2.01394

-4.17207 4.62023 -1.79038e-11
4.62023 8.61126 -1.15629e-11
-1.79038e-11 -1.15629e-11 1.72517

0.563895 5.51585 -6.00731e-11
5.51585 -8.61211 -1.62855e-11
-6.00731e-11 -1.62855e-11 -3.54111

1.46776 -3.16939 1.77199e-11
-3.16939 -9.08321 -8.36864e-12
1.77199e-11 -8.36864e-12 -2.62012

4.21259 -5.24579 -2.8295e-11
-5.24579 -0.91706 -2.73405e-11
-2.8295e-11 -2.73405e-11 0.733398

2.28969 6.5162 -8.66729e-12
6.5162 -5.33113 -2.88794e-11
-8.66729e-12 -2.88794e-11 -1.00106

2.82198 -4.5526 2.09822e-11
-4.5526 -4.52161 2.15595e-11
2.09822e-11 2.15595e-11 -0.560959

19.8226 -1.73246 1.23214e-11
-1.73246 11.8231 7.14748e-11
1.23214e-11 7.14748e-11 20.753

11.9283 -2.1504 1.58031e-11
-2.1504 19.322 -6.16937e-12
1.58031e-11 -6.16937e-12 21.0301

-1.69702 7.34263 -9.23973e-11
7.34263 -8.41436 -3.50438e-11
-9.23973e-11 -3.50438e-11 -9.50094

-0.32612 -5.16375 -1.69169e-11
-5.16375 -14.153 -1.94374e-11
-1.69169e-11 -1.94374e-11 -7.77502

3.17243 7.162 -4.06287e-11
7.162 -1.83808 -7.24067e-11
-4.06287e-11 -7.24067e-11 0.508185

15.4772 3.40922 1.74355e-11
3.40922 7.29307 7.52343e-12
1.74355e-11 7.52343e-12 8.81906

-5.81139 6.38914 -2.0985e-11
6.38914 4.06473 -2.21455e-11
-2.0985e-11 -2.21455e-11 -1.00975

-11.1618 -2.47312 -7.69925e-12
-2.47312 5.20827 4.23513e-12
-7.69925e-12 4.23513e-12 -1.26474

2.775 -6.08109 -2.09764e-11
-6.08109 5.61068 -1.46406e-11
-2.09764e-11 -1.46406e-11 2.81034

-6.45382 3.9342 2.13684e-11
3.9342 -0.71287 3.08981e-11
2.13684e-11 3.08981e-11 -3.64282

-4.95857 -2.22281 -6.93113e-12
-2.22281 -2.15138 3.33957e-11
-6.93113e-12 3.33957e-11 -3.00509

9.50805 4.79009 -2.63792e-11
4.79009 1.21049 -1.92794e-12
-2.63792e-11 -1.92794e-12 2.94614

7.53031 2.58575 -1.92661e-12
2.58575 -4.57118 6.5461e-12
-1.92661e-12 6.5461e-12 1.27047

-13.6789 8.95222 1.05902e-11
8.95222 -2.36913 -1.03962e-11
1.05902e-11 -1.03962e-11 -2.57032

-0.559776 -4.59497 -1.02005e-11
-4.59497 -0.83465 -9.81659e-12
-1.02005e-11 -9.81659e-12 -0.324312

-4.1182 7.406 3.41743e-11
7.406 6.33526 1.88775e-11
3.41743e-11 1.88775e-11 0.099187

-7.72456 -3.96761 3.65879e-11
-3.96761 4.5864 -2.00286e-11
3.65879e-11 -2.00286e-11 -0.151691

-0.298603 8.0887 -1.05939e-11
8.0887 -4.00491 -3.61925e-11
-1.05939e-11 -3.61925e-11 -0.898796

2.49494 -6.88652 -8.85958e-12
-6.88652 -3.46914 -8.08894e-12
-8.85958e-12 -8.08894e-12 -0.336385

-6.20948 2.29417 -3.87019e-11
2.29417 8.54266 7.69858e-12
-3.87019e-11 7.69858e-12 0.946719

-1.49002 -0.170063 2.05984e-11
-0.170063 7.14928 -2.87844e-12
2.05984e-11 -2.87844e-12 1.06348

16.7443 -2.6225 3.96749e-11
-2.6225 20.998 2.61987e-11
3.96749e-11 2.61987e-11 17.0593

20.3542 -2.54452 1.06809e-11
-2.54452 17.5172 3.04364e-11
1.06809e-11 3.04364e-11 17.0822

4.82302 4.20055 3.1779e-12
4.20055 -7.49619 9.62344e-12
3.1779e-12 9.62344e-12 -0.103647

1.29119 1.27809 -3.19617e-11
1.27809 -8.52739 1.42427e-10
-3.19617e-11 1.42427e-10 -15.0333

-1.20767 -4.58103 -1.53265e-12
-4.58103 -17.7903 5.39465e-12
-1.53265e-12 5.39465e-12 -13.046

-10.91 -6.07486 1.35521e-11
-6.07486 -4.30798 -1.69477e-11
1.35521e-11 -1.69477e-11 -8.51426

-10.6717 1.9051 2.21862e-11
1.9051 -7.75249 -1.02038e-11
2.21862e-11 -1.02038e-11 -9.36937

8.61724 -0.35855 -2.45374e-12
-0.35855 -7.70185 3.79309e-11
-2.45374e-12 3.79309e-11 0.0779116

-7.09661 9.9533 -1.81951e-11
9.9533 4.2089 -2.31085e-11
-1.81951e-11 -2.31085e-11 -1.12295

-15.3278 -9.34497 2.91653e-11
-9.34497 -2.5699 7.31526e-12
2.91653e-11 7.31526e-12 -2.73255

13.4031 4.97399 2.27258e-11
4.97399 15.4931 3.0879e-12
2.27258e-11 3.0879e-12 13.0768

15.1329 5.22438 -4.71882e-11
5.22438 14.3975 -2.25437e-11
-4.71882e-11 -2.25437e-11 12.411

8.60701 -1.90723 3.08214e-11
-1.90723 16.5109 -5.22024e-11
3.08214e-11 -5.22024e-11 10.1083

7.92515 3.94487 2.71553e-11
3.94487 15.6204 -6.16055e-12
2.71553e-11 -6.16055e-12 9.72271

16.5875 -0.952845 8.47633e-12
-0.952845 8.24056 1.20384e-11
8.47633e-12 1.20384e-11 10.3447

9.90947 2.32543 -1.32899e-11
2.32543 19.2621 -6.97343e-11
-1.32899e-11 -6.97343e-11 12.6162

18.2943 2.72571 -1.81154e-11
2.72571 10.1951 -1.14416e-12
-1.81154e-11 -1.14416e-12 13.0182

-9.46414 0.695463 -1.53987e-11
0.695463 0.900187 3.4656e-12
-1.53987e-11 3.4656e-12 -6.50431

-7.61242 5.23631 -2.38725e-11
5.23631 -1.93161 4.51383e-11
-2.38725e-11 4.51383e-11 -5.64789

4.375 0.845252 5.20132e-12
0.845252 -4.19832 2.63777e-11
5.20132e-12 2.63777e-11 -0.814514

7.02234 -0.160021 -5.29377e-12
-0.160021 -12.2227 -1.0397e-11
-5.29377e-12 -1.0397e-11 -1.16327

3.38891 -3.16836 -3.06234e-11
-3.16836 10.2762 3.81294e-11
-3.06234e-11 3.81294e-11 4.15999

1.07485 4.75785 -1.161e-12
4.75785 9.42861 2.46591e-11
-1.161e-12 2.46591e-11 3.92538

8.16947 -0.236741 -1.78169e-11
-0.236741 -8.51316 4.81347e-11
-1.78169e-11 4.81347e-11 -0.129598

-1.3923 4.05837 3.92758e-11
4.05837 -7.96102 9.58678e-11
3.92758e-11 9.58678e-11 -6.74939

-0.229516 -2.88952 -4.69649e-11
-2.88952 -10.9714 1.52081e-11
-4.69649e-11 1.52081e-11 -5.26736

-0.898073 3.93475 -2.85549e-13
3.93475 0.232904 -4.35209e-11
-2.85549e-13 -4.35209e-11 -1.14667

-6.09926 -6.51605 2.72474e-11
-6.51605 -0.640758 2.81143e-11
2.72474e-11 2.81143e-11 -0.779063

-3.96028 8.36832 -5.31371e-11
8.36832 5.66578 1.52044e-11
-5.31371e-11 1.52044e-11 -0.128293

4.89796 0.834915 1.30989e-11
0.834915 -9.05381 -6.43001e-11
1.30989e-11 -6.43001e-11 -1.36263

9.26274 5.98548 2.16726e-11
5.98548 7.57392 3.50586e-11
2.16726e-11 3.50586e-11 5.31084

-8.34313 -4.95984 3.46652e-12
-4.95984 1.97553 3.00411e-11
3.46652e-12 3.00411e-11 -0.671504

-3.64662 8.94404 1.8676e-11
8.94404 5.05031 -1.84821e-11
1.8676e-11 -1.84821e-11 -0.134446

34.8271 10.4551 -1.25207e-11
10.4551 35.6119 3.12051e-11
-1.25207e-11 3.12051e-11 35.3563

-6.86978 -0.626331 -1.55942e-11
-0.626331 8.6983 2.00249e-11
-1.55942e-11 2.00249e-11 0.847061

-2.88217 3.40882 -4.23883e-12
3.40882 7.5747 4.37095e-11
-4.23883e-12 4.37095e-11 0.802162

-12.4435 -0.823568 2.12695e-12
-0.823568 3.06227 -2.2333e-11
2.12695e-12 -2.2333e-11 -7.61485

-8.63665 4.14016 -4.17773e-11
4.14016 -5.229 -5.46755e-11
-4.17773e-11 -5.46755e-11 -6.89695

1.74393 3.38188 2.50312e-11
3.38188 -17.4741 3.0866e-12
2.50312e-11 3.0866e-12 -3.35105

2.14736 -2.30313 3.46597e-11
-2.30313 -20.9477 2.5226e-11
3.46597e-11 2.5226e-11 -3.31809

-5.42683 4.53462 1.67452e-11
4.53462 -4.29541 -2.57977e-11
1.67452e-11 -2.57977e-11 -3.90567

-6.54114 -6.82631 -3.45053e-11
-6.82631 -5.16369 9.32587e-15
-3.45053e-11 9.32587e-15 -3.8713

-9.00037 3.83683 -2.03078e-11
3.83683 -3.31485 -2.50748e-12
-2.03078e-11 -2.50748e-12 -7.16747

-8.6684 -5.36315 3.97042e-11
-5.36315 -6.55837 2.31006e-11
3.97042e-11 2.31006e-11 -7.20637

-2.87218 7.03634 -3.00386e-11
7.03634 -6.70301 2.00232e-11
-3.00386e-11 2.00232e-11 -12.881

-1.21035 -4.97271 2.2717e-11
-4.97271 -15.1094 2.34988e-11
2.2717e-11 2.34988e-11 -10.4353

-9.57603 9.86367 8.85862e-12
9.86367 -5.14875 9.62942e-12
8.85862e-12 9.62942e-12 -3.28393

1.68369 -5.29341 -5.48617e-11
-5.29341 -4.27602 1.19291e-11
-5.48617e-11 1.19291e-11 -1.08598

3.65515 7.30928 -2.23395e-11
7.30928 -3.82673 -1.19479e-11
-2.23395e-11 -1.19479e-11 0.279146

-1.33295 6.31496 -3.00375e-11
6.31496 6.53908 2.1369e-11
-3.00375e-11 2.1369e-11 0.657502

-7.0582 -2.52377 -1.09656e-11
-2.52377 6.1749 -2.54222e-11
-1.09656e-11 -2.54222e-11 0.154518

3.81437 -7.40084 -3.06747e-12
-7.40084 0.13744 -1.82907e-11
-3.06747e-12 -1.82907e-11 0.938393

10.2175 -3.99084 9.63229e-12
-3.99084 8.62097 5.31542e-11
9.63229e-12 5.31542e-11 6.35235

5.542 -5.31926 -2.63756e-11
-5.31926 -3.48838 1.52139e-11
-2.63756e-11 1.52139e-11 0.663144

0.927653 8.05174 7.89058e-12
8.05174 -0.410403 -6.39269e-11
7.89058e-12 -6.39269e-11 0.548555

-12.9233 -10.7893 -1.43863e-11
-10.7893 -4.88189 -3.427e-11
-1.43863e-11 -3.427e-11 -3.72229

-8.36373 8.59619 3.46767e-12
8.59619 0.975145 1.82894e-11
3.46767e-12 1.82894e-11 -2.83976

2.55151 -1.90341 2.54878e-12
-1.90341 -5.8975 -5.65986e-11
2.54878e-12 -5.65986e-11 -1.40564

-2.45705 -3.17854 3.34791e-11
-3.17854 -3.99847 7.199e-11
3.34791e-11 7.199e-11 -15.1177

-15.9013 2.74327 -1.04132e-10
2.74327 -11.1756 -3.06038e-11
-1.04132e-10 -3.06038e-11 -15.7256

-0.48289 3.30282 1.19362e-11
3.30282 -4.95507 1.63641e-11
1.19362e-11 1.63641e-11 -1.83862

1.1806 -1.3109 9.72241e-12
-1.3109 -9.42326 7.12312e-12
9.72241e-12 7.12312e-12 -4.29257

17.7337 -3.72221 1.8104e-13
-3.72221 20.0698 3.65987e-11
1.8104e-13 3.65987e-11 16.1847

20.2359 -3.52954 -4.39155e-11
-3.52954 15.8573 -3.27368e-12
-4.39155e-11 -3.27368e-12 15.8617

1.65114 1.08458 5.39085e-11
1.08458 -12.6749 3.00354e-11
5.39085e-11 3.00354e-11 -3.40173

1.34272 0.276673 3.849e-12
0.276673 -15.5016 1.02095e-11
3.849e-12 1.02095e-11 -3.10227

-0.779303 0.103576 -2.57233e-11
0.103576 -7.75646 8.85366e-12
-2.57233e-11 8.85366e-12 -4.3064

0.484743 -2.92812 5.16901e-11
-2.92812 4.91744 1.73639e-12
5.16901e-11 1.73639e-12 0.83876

-6.08181 3.81096 -3.19073e-11
3.81096 5.71514 4.04336e-11
-3.19073e-11 4.04336e-11 0.238254

7.59657 5.87149 3.2215e-11
5.87149 -0.480455 2.388e-11
3.2215e-11 2.388e-11 2.202

-0.718899 6.70423 2.67697e-11
6.70423 -5.53594 -8.43167e-11
2.67697e-11 -8.43167e-11 -2.28265

1.07218 -5.24792 -3.89022e-13
-5.24792 -4.05104 3.81151e-11
-3.89022e-13 3.81151e-11 -1.35023

-16.9695 0.874017 9.19235e-12
0.874017 -20.4819 -5.61978e-12
9.19235e-12 -5.61978e-12 -20.7213

-15.7207 -7.42198 -4.35793e-11
-7.42198 -5.71487 1.71755e-11
-4.35793e-11 1.71755e-11 -17.5155

5.38339 2.94812 -1.19427e-11
2.94812 -0.755051 2.8488e-11
-1.19427e-11 2.8488e-11 0.568056

0.616455 4.72596 -6.625e-12
4.72596 -7.17786 -8.97065e-11
-6.625e-12 -8.97065e-11 -3.31175

0.927654 -3.5226 -1.07635e-11
-3.5226 -9.3384 -2.67609e-11
-1.07635e-11 -2.67609e-11 -2.71178

-9.0283 -2.86286 1.68478e-11
-2.86286 2.24216 2.23363e-11
1.68478e-11 2.23363e-11 -1.3527

-3.44653 8.1057 -1.10716e-11
8.1057 3.99228 -1.09754e-11
-1.10716e-11 -1.09754e-11 -0.606089

-5.68306 10.3197 1.52076e-11
10.3197 4.55323 -4.42664e-12
1.52076e-11 -4.42664e-12 -0.764228

-11.0532 -6.20199 -7.60603e-12
-6.20199 -2.89027 2.07945e-11
-7.60603e-12 2.07945e-11 -2.12873

38.1073 11.9357 -2.15817e-11
11.9357 38.4371 5.00052e-12
-2.15817e-11 5.00052e-12 37.0195

-8.38972 6.39446 -4.80949e-13
6.39446 1.11356 -1.55955e-11
-4.80949e-13 -1.55955e-11 -3.74199

-11.7345 -7.29289 1.87435e-12
-7.29289 -2.56298 2.40689e-11
1.87435e-12 2.40689e-11 -4.30653

-11.3491 -5.65734 -7.51292e-12
-5.65734 0.839983 1.80975e-11
-7.51292e-12 1.80975e-11 -1.56349

-6.41867 8.86194 1.42446e-11
8.86194 4.37781 -1.71347e-11
1.42446e-11 -1.71347e-11 -0.913357

8.4564 -3.92745 -1.366e-11
-3.92745 0.19977 -2.02285e-11
-1.366e-11 -2.02285e-11 2.33186

-2.22768 -4.75614 1.10793e-11
-4.75614 -3.18628 -5.23681e-11
1.10793e-11 -5.23681e-11 -1.60063

-6.33488 5.20504 -2.67129e-11
5.20504 -1.28562 8.27756e-12
-2.67129e-11 8.27756e-12 -3.47981

-6.85557 -7.08696 2.78592e-12
-7.08696 -5.78693 4.77457e-11
2.78592e-12 4.77457e-11 -3.74784

3.21573 -1.85912 1.31472e-11
-1.85912 -10.1743 -3.11853e-11
1.31472e-11 -3.11853e-11 -1.81956

-0.544407 1.95359 1.61713e-11
1.95359 -5.7918 -8.08376e-12
1.61713e-11 -8.08376e-12 -4.5015

-0.680714 -2.00083 -1.38773e-11
-2.00083 -11.3098 6.19898e-11
-1.38773e-11 6.19898e-11 -4.14396

-14.613 2.17484 1.30864e-11
2.17484 0.40875 7.96907e-11
1.30864e-11 7.96907e-11 -14.0972

-13.8441 2.88986 1.88637e-11
2.88986 -4.77841 3.19541e-11
1.88637e-11 3.19541e-11 -11.9238

20.5976 2.25635 -7.49445e-11
2.25635 14.6657 3.58193e-11
-7.49445e-11 3.58193e-11 21.6357

14.9475 2.24776 9.92806e-12
2.24776 21.6448 4.24596e-12
9.92806e-12 4.24596e-12 21.6399

-4.30534 6.51374 -3.31142e-11
6.51374 -4.11176 1.92505e-11
-3.31142e-11 1.92505e-11 -1.95284

-0.268958 -6.68893 -2.09668e-11
-6.68893 -1.93738 -6.39124e-11
-2.09668e-11 -6.39124e-11 -0.918938

23.8281 4.44708 -3.66581e-12
4.44708 23.2153 6.31847e-11
-3.66581e-12 6.31847e-11 25.2902

22.9382 4.86537 -1.55609e-12
4.86537 23.2157 -1.73448e-11
-1.55609e-12 -1.73448e-11 25.1332

-4.71376 -1.7467 -4.85009e-11
-1.7467 -9.32958 2.08959e-12
-4.85009e-11 2.08959e-12 -12.9377

-3.34681 -1.12412 1.88727e-11
-1.12412 -0.913924 -1.18188e-10
1.88727e-11 -1.18188e-10 -15.2034

-4.49671 -6.41311 -6.44129e-12
-6.41311 -3.37883 -2.00289e-11
-6.44129e-12 -2.00289e-11 -1.64476

-2.78893 8.26315 -4.04243e-11
8.26315 -4.56537 -6.16329e-12
-4.04243e-11 -6.16329e-12 -1.81073

1.33618 -6.94953 -5.21813e-11
-6.94953 -4.19284 4.40885e-11
-5.21813e-11 4.40885e-11 -1.01328

0.230318 7.27399 -2.5604e-11
7.27399 1.62513 -2.58143e-11
-2.5604e-11 -2.58143e-11 0.804193

3.42107 -5.76932 3.9284e-11
-5.76932 2.07023 -1.00078e-11
3.9284e-11 -1.00078e-11 1.10401

9.76162 -1.06781 -1.61723e-11
-1.06781 16.3706 -5.12381e-11
-1.61723e-11 -5.12381e-11 9.92836

6.49784 3.00104 -1.02061e-11
3.00104 15.3871 -1.7339e-11
-1.02061e-11 -1.7339e-11 9.28882

16.4293 -0.443786 2.13694e-11
-0.443786 8.79534 1.75242e-11
2.13694e-11 1.75242e-11 10.2257

-3.46925 7.7119 1.73787e-12
7.7119 -0.790796 -4.24172e-12
1.73787e-12 -4.24172e-12 -0.570476

1.10722 -7.58769 2.3484e-11
-7.58769 -0.175126 3.79297e-11
2.3484e-11 3.79297e-11 0.0274404

9.88741 0.482847 -4.46868e-11
0.482847 19.3236 -4.35384e-11
-4.46868e-11 -4.35384e-11 13.2699

19.0624 -0.0519545 9.68114e-13
-0.0519545 11.2134 -2.70213e-12
9.68114e-13 -2.70213e-12 13.2727

-3.14802 7.86543 2.11811e-11
7.86543 -6.42237 2.07981e-11
2.11811e-11 2.07981e-11 -3.14924

0.934398 -5.60654 -7.49541e-12
-5.60654 -5.21479 -3.33097e-11
-7.49541e-12 -3.33097e-11 -1.85488

-4.05008 7.77555 4.44844e-11
7.77555 -5.06331 -5.19714e-11
4.44844e-11 -5.19714e-11 -3.64648

-0.0154681 -6.81553 4.02641e-12
-6.81553 -6.31702 3.29164e-11
4.02641e-12 3.29164e-11 -2.50814

23.4093 4.55929 -7.31718e-12
4.55929 23.6173 4.46881e-11
-7.31718e-12 4.46881e-11 25.7504

23.4906 4.2093 -6.93504e-12
4.2093 24.2475 1.02102e-11
-6.93504e-12 1.02102e-11 25.8525

-0.638736 7.36848 -1.14575e-12
7.36848 -2.48551 -1.6937e-11
-1.14575e-12 -1.6937e-11 -0.614028

1.51776 -6.0892 -1.50176e-11
-6.0892 -0.772472 -7.69977e-12
-1.50176e-11 -7.69977e-12 -0.0855912

-9.37994 4.76555 2.90638e-11
4.76555 -5.95325 8.28804e-12
2.90638e-11 8.28804e-12 -8.31433

-10.3921 -1.53911 -2.30968e-11
-1.53911 -2.63882 5.37799e-12
-2.30968e-11 5.37799e-12 -9.72813

-8.76418 6.19951 -1.34951e-12
6.19951 -2.36472 4.23657e-12
-1.34951e-12 4.23657e-12 -3.6923

-0.3357 -7.05089 -5.46763e-11
-7.05089 -4.49819 2.55944e-11
-5.46763e-11 2.55944e-11 -2.11862

-0.712705 5.56342 2.81057e-11
5.56342 -11.7955 -3.69491e-11
2.81057e-11 -3.69491e-11 -6.26584

0.851051 -3.61269 -6.00563e-11
-3.61269 -14.8225 3.07843e-11
-6.00563e-11 3.07843e-11 -5.01045

-4.50272 7.48665 3.35495e-11
7.48665 2.40251 2.69977e-12
3.35495e-11 2.69977e-12 -1.44567

-7.64866 -6.27927 4.42609e-14
-6.27927 -2.65848 2.84947e-11
4.42609e-14 2.84947e-11 -2.19182

-13.3532 4.5531 -7.31422e-12
4.5531 -2.54209 1.39556e-11
-7.31422e-12 1.39556e-11 -10.0311

-12.2058 5.26768 -2.24053e-11
5.26768 -10.5623 -5.64038e-11
-2.24053e-11 -5.64038e-11 -13.3048

-9.3727 -9.38017 6.79508e-12
-9.38017 -9.64095 6.62171e-11
6.79508e-12 6.62171e-11 -12.2

-15.3943 -1.27916 -4.33217e-11
-1.27916 0.224274 7.8148e-11
-4.33217e-11 7.8148e-11 -11.9196

-2.49317 5.51805 2.11746e-11
5.51805 -10.3478 8.86069e-12
2.11746e-11 8.86069e-12 -10.4035

-1.13261 1.17085 1.21277e-10
1.17085 -9.86607 -3.84784e-11
1.21277e-10 -3.84784e-11 -13.1699

-0.95026 -5.09187 6.58402e-11
-5.09187 -16.1323 2.081e-11
6.58402e-11 2.081e-11 -8.68054

-0.931708 -1.67419 4.64782e-12
-1.67419 -16.5814 -2.32873e-11
4.64782e-12 -2.32873e-11 -11.0916

-9.8301 6.48142 -5.54683e-11
6.48142 -4.27341 2.16733e-10
-5.54683e-11 2.16733e-10 -14.0719

2.09761 -1.2967 -1.75226e-10
-1.2967 -1.49285 3.76409e-10
-1.75226e-10 3.76409e-10 -15.2118

-0.572 -4.53692 -2.76484e-10
-4.53692 -18.1579 1.63778e-10
-2.76484e-10 1.63778e-10 -13.3829

-0.367647 -5.58019 1.61286e-10
-5.58019 -14.0224 -7.40599e-11
1.61286e-10 -7.40599e-11 -9.63449

-3.36415 6.2352 -3.00271e-11
6.2352 -9.20642 -4.73529e-11
-3.00271e-11 -4.73529e-11 -11.1906

-2.42323 2.78757 7.314e-12
2.78757 -4.70705 -1.00141e-11
7.314e-12 -1.00141e-11 -5.64755

-6.80091 3.11992 -8.0833e-11
3.11992 -2.42342 1.9236e-11
-8.0833e-11 1.9236e-11 -14.5633

1.36858 -4.37553 2.15466e-11
-4.37553 -13.1112 3.59872e-11
2.15466e-11 3.59872e-11 -7.7396

-3.1803 -5.21199 -3.0807e-11
-5.21199 -15.3988 6.87062e-11
-3.0807e-11 6.87062e-11 -11.6839

0.0891192 -3.57048 3.1181e-11
-3.57048 -6.36272 1.94463e-11
3.1181e-11 1.94463e-11 -4.01143

-4.20828 7.26252 3.19589e-11
7.26252 -7.10633 -1.92454e-11
3.19589e-11 -1.92454e-11 -7.79307

-1.77349 3.51534 -4.54296e-11
3.51534 -8.75618 -2.38726e-11
-4.54296e-11 -2.38726e-11 -10.3424

-0.719206 -5.47739 9.25785e-12
-5.47739 -10.8494 -2.15547e-11
9.25785e-12 -2.15547e-11 -5.81652

-0.809228 -3.22465 2.88908e-11
-3.22465 -12.4548 -3.00163e-11
2.88908e-11 -3.00163e-11 -7.99361

-2.03591 0.588876 -2.73318e-11
0.588876 -1.74144 2.79161e-12
-2.73318e-11 2.79161e-12 -0.351571

1.30969 -0.313267 3.15699e-11
-0.313267 -0.957584 -5.09985e-11
3.15699e-11 -5.09985e-11 -0.634595

1.39517 1.12182 1.79004e-11
1.12182 -2.1379 9.52599e-12
1.79004e-11 9.52599e-12 -0.580081

-1.2954 -1.16707 -2.48308e-11
-1.16707 -5.9138 1.76307e-11
-2.48308e-11 1.76307e-11 -0.76756

-1.06693 0.199354 1.27041e-11
0.199354 -4.45116 1.83005e-11
1.27041e-11 1.83005e-11 -0.363217

0.607826 -1.66852 3.90699e-11
-1.66852 -1.25605 2.89058e-12
3.90699e-11 2.89058e-12 -1.63085

-0.184276 2.99248 1.69301e-11
2.99248 -3.8787 -3.54144e-11
1.69301e-11 -3.54144e-11 -2.07928

-0.987368 -0.281741 2.82951e-11
-0.281741 -4.95607 3.90697e-12
2.82951e-11 3.90697e-12 -0.452607

0.871603 1.34632 3.46552e-12
1.34632 -7.41877 -3.70496e-12
3.46552e-12 -3.70496e-12 -1.16909

-1.15158 0.281911 -2.34813e-11
0.281911 -2.11085 6.01575e-12
-2.34813e-11 6.01575e-12 -0.168549

-1.09506 -0.262589 -1.11645e-11
-0.262589 -1.95199 3.22388e-11
-1.11645e-11 3.22388e-11 -0.128852

-0.801182 0.15678 -5.77396e-12
0.15678 0.206421 2.03527e-11
-5.77396e-12 2.03527e-11 -0.0320184

3.59334 -1.6999 3.88853e-11
-1.6999 -4.28362 -2.23238e-11
3.88853e-11 -2.23238e-11 -1.55105

2.54394 0.120334 3.38734e-11
0.120334 -0.252332 5.28754e-12
3.38734e-11 5.28754e-12 -1.25497

-1.96797 2.20951 -4.27302e-11
2.20951 -2.73396 7.21954e-12
-4.27302e-11 7.21954e-12 -0.638305

-2.46451 3.13255 2.09813e-11
3.13255 -2.27026 1.64553e-11
2.09813e-11 1.64553e-11 -0.910479

-0.317347 -2.96398 -1.11636e-11
-2.96398 -3.97633 -5.96879e-12
-1.11636e-11 -5.96879e-12 -2.19402

0.454779 1.55078 -3.07619e-12
1.55078 -1.17855 2.67522e-11
-3.07619e-12 2.67522e-11 -1.59412

-0.464566 0.084638 -5.19616e-12
0.084638 0.956395 -3.20883e-12
-5.19616e-12 -3.20883e-12 -0.105956

-1.75511 0.300779 -2.50219e-11
0.300779 -0.911593 -1.11622e-11
-2.50219e-11 -1.11622e-11 -0.180886

-1.78087 -0.338613 -1.54012e-12
-0.338613 -0.873463 9.52745e-12
-1.54012e-12 9.52745e-12 -0.187795

-1.12784 -0.358518 3.54119e-11
-0.358518 0.571055 4.33051e-12
3.54119e-11 4.33051e-12 -0.0856491

-1.81788 0.986401 2.35762e-11
0.986401 -2.48811 -2.78137e-11
2.35762e-11 -2.78137e-11 -0.355827

-1.77564 0.805466 -2.34825e-11
0.805466 -4.31131 -2.72354e-11
-2.34825e-11 -2.72354e-11 -0.49374

-2.83261 0.773498 -8.66389e-12
0.773498 -2.37155 -2.94491e-11
-8.66389e-12 -2.94491e-11 -0.54799

-0.145375 -0.523942 1.65517e-11
-0.523942 -0.390984 2.9838e-12
1.65517e-11 2.9838e-12 -0.198724

-0.659213 0.979435 1.32818e-11
0.979435 -5.67524 -5.59336e-12
1.32818e-11 -5.59336e-12 -0.601431

-1.72916 0.172371 -3.041e-11
0.172371 -1.01718 7.98861e-12
-3.041e-11 7.98861e-12 -0.0702446

-0.191764 -1.33016 -3.04142e-11
-1.33016 -8.8245 -5.57565e-12
-3.04142e-11 -5.57565e-12 -1.43907

-1.20676 -0.355236 -2.77138e-11
-0.355236 -0.0558869 -4.39042e-12
-2.77138e-11 -4.39042e-12 -0.0973308

2.51935 -0.297379 1.61685e-11
-0.297379 -2.20267 -6.92903e-12
1.61685e-11 -6.92903e-12 -1.95414

2.57971 0.444194 -1.77074e-11
0.444194 -3.28402 4.4295e-12
-1.77074e-11 4.4295e-12 -2.11092

-6.85947 -1.49967 2.75245e-11
-1.49967 -9.12994 2.48271e-11
2.75245e-11 2.48271e-11 -9.35235

-6.89684 1.50804 3.46445e-12
1.50804 -9.06092 9.5272e-12
3.46445e-12 9.5272e-12 -9.38951

-1.15808 -0.347089 -1.67452e-11
-0.347089 -3.14976 -1.53497e-11
-1.67452e-11 -1.53497e-11 -0.137722

-3.28207 0.279314 -2.11847e-12
0.279314 -2.6721 -1.16452e-11
-2.11847e-12 -1.16452e-11 -0.814395

-4.83805 -2.40145 3.6585e-12
-2.40145 -4.81586 6.40477e-11
3.6585e-12 6.40477e-11 -3.60945

-5.17782 2.54652 -2.88727e-12
2.54652 -4.95427 4.1383e-12
-2.88727e-12 4.1383e-12 -3.84116

1.81689 -1.1734 1.19349e-11
-1.1734 -6.9925 1.85022e-11
1.19349e-11 1.85022e-11 -0.844432

-0.804348 -0.669519 6.35275e-12
-0.669519 0.736471 -2.7714e-11
6.35275e-12 -2.7714e-11 -0.0998741

-1.84593 0.0209429 -1.40512e-11
0.0209429 -2.8954 1.49887e-11
-1.40512e-11 1.49887e-11 -0.286147

1.49487 1.01948 4.81541e-13
1.01948 -7.37516 -3.11573e-11
4.81541e-13 -3.11573e-11 -0.789271

-1.78214 -0.917006 2.00183e-11
-0.917006 -2.3531 -7.79412e-12
2.00183e-11 -7.79412e-12 -0.318122

-2.13001 -0.602896 6.93046e-12
-0.602896 -1.68058 -2.4251e-11
6.93046e-12 -2.4251e-11 -0.36287

0.809729 -1.27487 -2.30812e-12
-1.27487 0.0449332 -9.33379e-12
-2.30812e-12 -9.33379e-12 -0.390502

-1.62544 0.0486593 -7.69607e-13
0.0486593 -3.17108 -9.43074e-12
-7.69607e-13 -9.43074e-12 -0.323898

-1.59223 0.494249 5.77449e-12
0.494249 -1.70408 2.01609e-11
5.77449e-12 2.01609e-11 -0.181997

-1.47774 0.638814 3.07937e-11
0.638814 -0.946421 2.79798e-11
3.07937e-11 2.79798e-11 -0.190965

0.331261 -4.67862 2.48349e-11
-4.67862 -5.39 -2.56945e-11
2.48349e-11 -2.56945e-11 -1.66012

-1.39206 -0.261319 2.3865e-11
-0.261319 -0.57238 1.69134e-11
2.3865e-11 1.69134e-11 -0.0901224

-1.65549 0.287297 7.69977e-13
0.287297 -1.33904 1.95361e-11
7.69977e-13 1.95361e-11 -0.0505901

0.0696505 0.850753 1.96291e-11
0.850753 0.691105 -1.55895e-11
1.96291e-11 -1.55895e-11 -0.769416

0.0692558 -0.847416 5.54241e-11
-0.847416 0.695118 2.82912e-11
5.54241e-11 2.82912e-11 -0.76804

-0.243139 -0.343101 -1.80905e-11
-0.343101 1.04011 2.20705e-11
-1.80905e-11 2.20705e-11 -0.100217

-0.123872 0.370755 3.00198e-11
0.370755 0.934427 -3.52191e-11
3.00198e-11 -3.52191e-11 -0.763097

-0.124795 -0.369118 3.04065e-11
-0.369118 0.935298 1.76097e-11
3.04065e-11 1.76097e-11 -0.76275

-0.310128 -1.05267 2.23262e-11
-1.05267 0.367398 -1.09698e-11
2.23262e-11 -1.09698e-11 -0.218632

-5.72815 -1.95784 8.27656e-12
-1.95784 -9.91779 2.06979e-12
8.27656e-12 2.06979e-12 -8.05836

-5.78842 2.0211 -3.13751e-11
2.0211 -9.96783 -2.79343e-12
-3.13751e-11 -2.79343e-12 -8.10679

-0.273287 0.492618 -1.07762e-11
0.492618 1.07771 4.62853e-11
-1.07762e-11 4.62853e-11 -0.358644

-0.272693 -0.493405 -3.92601e-11
-0.493405 1.08668 1.30853e-11
-3.92601e-11 1.30853e-11 -0.356758

-1.65122 0.322485 4.36919e-11
0.322485 -2.87199 -1.48191e-11
4.36919e-11 -1.48191e-11 -0.245784

-1.01956 2.79195 2.27203e-11
2.79195 -5.7959 2.17452e-11
2.27203e-11 2.17452e-11 -5.70814

1.96389 -2.26189 5.7756e-12
-2.26189 -0.838796 -7.69609e-12
5.7756e-12 -7.69609e-12 -3.62219

-0.832777 0.656995 -5.38869e-12
0.656995 0.748078 9.04518e-12
-5.38869e-12 9.04518e-12 -0.10768

-1.85012 -0.311012 8.4671e-12
-0.311012 -0.941761 6.13982e-11
8.4671e-12 6.13982e-11 -0.092086

-1.2879 -0.457112 -4.61948e-12
-0.457112 -1.96669 4.60741e-12
-4.61948e-12 4.60741e-12 -0.0278398

-0.078614 -1.05316 -1.96284e-11
-1.05316 0.575871 -2.14609e-11
-1.96284e-11 -2.14609e-11 -0.410055

-0.456254 2.85562 3.46538e-12
2.85562 -3.39145 3.07889e-12
3.46538e-12 3.07889e-12 -0.842899

-0.198946 0.593826 -1.97063e-10
0.593826 0.638326 -4.81075e-11
-1.97063e-10 -4.81075e-11 -2.62422

-0.203651 -0.589511 1.32787e-10
-0.589511 0.628309 5.29604e-12
1.32787e-10 5.29604e-12 -2.62768

0.744062 3.82718 1.5205e-11
3.82718 -2.90302 -4.81437e-12
1.5205e-11 -4.81437e-12 -0.484993

-0.349027 0.232182 1.50118e-11
0.232182 1.06904 4.37831e-11
1.50118e-11 4.37831e-11 -0.19706

-0.356816 -0.229025 -4.31091e-11
-0.229025 1.09624 -2.93575e-12
-4.31091e-11 -2.93575e-12 -0.1951

-5.14833 1.84095 -1.50126e-11
1.84095 -2.09006 3.62853e-11
-1.50126e-11 3.62853e-11 -1.3644

1.05291 1.2872 2.96378e-11
1.2872 1.17321 -3.46668e-12
2.96378e-11 -3.46668e-12 -0.690548

-1.44642 0.342086 -1.9055e-11
0.342086 -3.29754 4.35469e-12
-1.9055e-11 4.35469e-12 -0.219763

-1.32369 -0.579987 7.89169e-12
-0.579987 -4.48173 1.26553e-11
7.89169e-12 1.26553e-11 -0.428145

-4.1182 -2.85522 -1.5394e-12
-2.85522 -7.92265 2.40125e-11
-1.5394e-12 2.40125e-11 -3.49591

-13.6836 3.12893 1.04896e-10
3.12893 -9.46323 3.77384e-11
1.04896e-10 3.77384e-11 -12.546

-13.5412 -3.26522 -1.36638e-11
-3.26522 -9.68864 3.10875e-11
-1.36638e-11 3.10875e-11 -12.5308

-1.8308 0.531082 1.15486e-11
0.531082 -1.80625 9.335e-12
1.15486e-11 9.335e-12 -0.155685

-2.66836 0.781601 -1.5206e-11
0.781601 -4.10604 -1.26558e-11
-1.5206e-11 -1.26558e-11 -0.786119

-0.385216 -0.637374 -3.04083e-11
-0.637374 0.837802 2.98542e-11
-3.04083e-11 2.98542e-11 -0.140116

0.481749 -0.0467498 -9.62207e-11
-0.0467498 -0.453161 -4.15907e-11
-9.62207e-11 -4.15907e-11 -4.77595

2.32224 2.35825 -8.54448e-11
2.35825 -8.41366 3.48421e-11
-8.54448e-11 3.48421e-11 -6.68698

-4.49324 3.01131 -3.84937e-12
3.01131 -7.90693 -1.42915e-11
-3.84937e-12 -1.42915e-11 -3.74782

1.1113 -0.962715 -3.12766e-11
-0.962715 -2.08084 4.32673e-12
-3.12766e-11 4.32673e-12 -0.755551

1.09286 0.292179 -1.03938e-11
0.292179 -1.19824 -5.87045e-12
-1.03938e-11 -5.87045e-12 -0.732696

-0.281488 -0.00113072 -1.65509e-11
-0.00113072 1.22243 -1.02e-11
-1.65509e-11 -1.02e-11 -0.1568

-0.273878 0.0141008 -1.15473e-12
0.0141008 1.2079 1.65752e-11
-1.15473e-12 1.65752e-11 -0.158883

-0.998342 0.616313 -2.62721e-11
0.616313 0.195194 -4.78744e-11
-2.62721e-11 -4.78744e-11 -0.0972625

-0.671704 -0.392082 -2.54039e-11
-0.392082 0.839362 2.10483e-12
-2.54039e-11 2.10483e-12 -0.0864627

-0.109993 0.244107 -2.26606e-11
0.244107 1.086 -1.51594e-12
-2.26606e-11 -1.51594e-12 -0.357271

-0.107529 -0.239465 2.9253e-11
-0.239465 1.08789 -3.22598e-11
2.9253e-11 -3.22598e-11 -0.355605

-0.424915 0.643936 6.15918e-12
0.643936 0.839518 4.59246e-11
6.15918e-12 4.59246e-11 -0.147026

-0.178071 0.475822 5.39035e-12
0.475822 -0.366596 2.54043e-11
5.39035e-12 2.54043e-11 -0.205513

-0.130174 0.606695 -3.57961e-11
0.606695 0.921192 -7.6017e-12
-3.57961e-11 -7.6017e-12 -0.243494

-0.101686 -0.588139 1.84759e-11
-0.588139 0.912807 -2.40804e-11
1.84759e-11 -2.40804e-11 -0.240454

-1.26719 1.29466 -1.69385e-11
1.29466 -6.12374 1.35696e-11
-1.69385e-11 1.35696e-11 -0.939827

0.739278 -0.760549 3.84777e-12
-0.760549 0.704143 3.51231e-11
3.84777e-12 3.51231e-11 -0.158745

-1.69728 0.225581 1.5206e-11
0.225581 -2.74442 3.89724e-12
1.5206e-11 3.89724e-12 -0.243388

-2.6002 2.97819 -1.92476e-13
2.97819 -1.26298 8.27708e-12
-1.92476e-13 8.27708e-12 -0.763837

1.07802 -0.798599 -1.34721e-11
-0.798599 1.0339 1.08741e-11
-1.34721e-11 1.08741e-11 -0.262856

-0.705255 0.123085 1.92457e-11
0.123085 0.634682 -3.17795e-11
1.92457e-11 -3.17795e-11 -0.0696746

-4.06201 1.82578 3.0701e-11
1.82578 -5.62791 9.57766e-12
3.0701e-11 9.57766e-12 -1.78511

-1.31143 -1.02787 -4.23385e-12
-1.02787 -5.63562 -1.27506e-11
-4.23385e-12 -1.27506e-11 -0.81236

-2.30571 -0.216845 3.6572e-12
-0.216845 -2.85904 2.9833e-12
3.6572e-12 2.9833e-12 -0.457242

-2.96626 -0.746494 -1.7709e-11
-0.746494 -4.02771 -2.53096e-11
-1.7709e-11 -2.53096e-11 -0.817891

-0.688434 1.98545 -2.07872e-11
1.98545 -2.28286 -3.65621e-12
-2.07872e-11 -3.65621e-12 -0.987189

-0.362389 -1.79321 6.31347e-11
-1.79321 -1.78768 -4.2145e-11
6.31347e-11 -4.2145e-11 -0.872998

-0.946533 -0.141582 -1.56859e-11
-0.141582 0.275769 -2.2217e-11
-1.56859e-11 -2.2217e-11 -0.0560276

-5.27208 -1.96031 -5.77148e-12
-1.96031 -2.01973 -2.42524e-11
-5.77148e-12 -2.42524e-11 -1.3802

-0.620969 0.19411 1.7321e-11
0.19411 0.0241396 5.96532e-12
1.7321e-11 5.96532e-12 -0.123157

-0.647341 -0.189935 -3.46367e-12
-0.189935 -0.0254555 -1.19325e-11
-3.46367e-12 -1.19325e-11 -0.136404

-2.206 0.881035 -7.89152e-12
0.881035 -3.74687 -8.08423e-12
-7.89152e-12 -8.08423e-12 -0.701784

0.287722 2.50485 -4.61919e-12
2.50485 -10.1356 8.18079e-12
-4.61919e-12 8.18079e-12 -2.37883

0.423263 -2.16563 1.98284e-11
-2.16563 -10.0464 2.29043e-11
1.98284e-11 2.29043e-11 -2.27738

-0.705415 1.07776 6.161e-12
1.07776 -2.1964 3.18533e-11
6.161e-12 3.18533e-11 -0.264277

-3.12682 -0.67626 -9.04612e-12
-0.67626 -2.33188 -1.3185e-11
-9.04612e-12 -1.3185e-11 -0.604085

-1.06408 0.857645 2.88687e-11
0.857645 -1.05346 -1.98254e-11
2.88687e-11 -1.98254e-11 -0.162952

-1.00247 -0.840102 -5.77451e-12
-0.840102 -1.05087 9.43114e-12
-5.77451e-12 9.43114e-12 -0.157965

-0.623521 0.0572339 4.88842e-11
0.0572339 0.114537 -1.12468e-11
4.88842e-11 -1.12468e-11 -0.050998

-1.09595 -0.614337 -3.07928e-11
-0.614337 0.161195 -2.11231e-11
-3.07928e-11 -2.11231e-11 -0.120251

-0.771817 0.0790378 -2.77145e-11
0.0790378 0.584848 -1.45304e-11
-2.77145e-11 -1.45304e-11 -0.0648076

5.1266 0.900043 1.16499e-12
0.900043 -2.46693 -3.2125e-11
1.16499e-12 -3.2125e-11 -5.98212

4.60382 -4.48472 1.73316e-11
-4.48472 -5.23215 -9.62819e-12
1.73316e-11 -9.62819e-12 -7.38559

-0.619063 -0.0535703 4.46495e-11
-0.0535703 0.619499 1.1595e-11
4.46495e-11 1.1595e-11 -0.0634131

0.29432 -0.417097 -3.8472e-12
-0.417097 0.683009 -2.13632e-11
-3.8472e-12 -2.13632e-11 -0.145782

-0.296556 0.353272 -1.80906e-11
0.353272 1.03356 -1.17519e-11
-1.80906e-11 -1.17519e-11 -0.110748

-0.719427 -1.03584 2.11747e-11
-1.03584 -2.08435 -3.39699e-11
2.11747e-11 -3.39699e-11 -0.254841

2.30795 -2.00178 -1.15337e-12
-2.00178 0.875509 -9.61666e-13
-1.15337e-12 -9.61666e-13 -0.467982

-1.50635 5.29845 6.16492e-12
5.29845 -4.18604 2.80056e-11
6.16492e-12 2.80056e-11 -1.68277

0.772337 0.831315 3.34876e-11
0.831315 0.678509 2.07838e-11
3.34876e-11 2.07838e-11 -0.165758

0.615804 -0.975541 -1.23168e-11
-0.975541 1.04215 -1.92438e-12
-1.23168e-11 -1.92438e-12 -0.160117

-1.32383 1.79349 2.38729e-11
1.79349 -1.84842 4.40761e-11
2.38729e-11 4.40761e-11 -0.335855

-0.218748 -0.0100873 1.80902e-11
-0.0100873 1.62642 1.12358e-11
1.80902e-11 1.12358e-11 -0.0747954

-0.694189 -0.0607513 2.0785e-11
-0.0607513 0.43586 2.96392e-11
2.0785e-11 2.96392e-11 -0.0735668

-2.75971 -2.9804 -8.27869e-12
-2.9804 -1.18012 1.63521e-12
-8.27869e-12 1.63521e-12 -0.781566

-0.7746 -0.673183 1.19325e-11
-0.673183 0.82958 -3.31977e-12
1.19325e-11 -3.31977e-12 -0.0467902

-2.27771 -0.337827 3.00249e-11
-0.337827 -1.79337 2.1366e-11
3.00249e-11 2.1366e-11 -0.256392

-3.06367 -0.368824 -2.17507e-11
-0.368824 -2.6685 1.7996e-11
-2.17507e-11 1.7996e-11 -0.780934

-0.631842 0.251423 1.1545e-12
0.251423 -0.87547 -4.04202e-12
1.1545e-12 -4.04202e-12 -0.155467

-0.615466 -0.277528 -9.62208e-12
-0.277528 -0.907458 -1.1933e-11
-9.62208e-12 -1.1933e-11 -0.160195

-1.1289 0.321894 6.54349e-12
0.321894 0.668411 8.26375e-12
6.54349e-12 8.26375e-12 -0.0787603

-0.773499 0.691348 -4.5035e-11
0.691348 0.766401 3.03157e-12
-4.5035e-11 3.03157e-12 -0.0569298

0.00627023 -0.404889 4.77325e-11
-0.404889 -1.07045 -5.38516e-12
4.77325e-11 -5.38516e-12 -0.284324

0.0581251 0.479607 -2.38662e-11
0.479607 -1.04344 -1.34688e-12
-2.38662e-11 -1.34688e-12 -0.237128

-0.890753 -0.0688128 2.38647e-11
-0.0688128 -0.0951494 -1.78038e-11
2.38647e-11 -1.78038e-11 -0.0581073

-0.919525 0.0540265 -1.80906e-11
0.0540265 0.00629268 -1.8477e-11
-1.80906e-11 -1.8477e-11 -0.0484072

0.134617 0.199985 1.9245e-11
0.199985 1.22525 1.18596e-11
1.9245e-11 1.18596e-11 -0.10567

0.144395 -0.190395 1.77052e-11
-0.190395 1.2254 3.6133e-11
1.77052e-11 3.6133e-11 -0.103125

0.114466 -1.11626 -2.6927e-12
-1.11626 0.956265 -1.20286e-11
-2.6927e-12 -1.20286e-11 -0.131006

-1.62691 -4.81505 5.97204e-12
-4.81505 -3.19245 -1.31824e-11
5.97204e-12 -1.31824e-11 -1.42033

-5.44064 0.0673656 -3.46468e-11
0.0673656 -3.33162 -5.38852e-12
-3.46468e-11 -5.38852e-12 -1.59681

-1.78801 0.178304 -2.04028e-11
0.178304 -1.90354 -3.34417e-11
-2.04028e-11 -3.34417e-11 -0.102524

-1.03878 -0.494583 -1.80915e-11
-0.494583 0.0945798 9.33328e-12
-1.80915e-11 9.33328e-12 -0.153558

0.0973693 0.703337 3.84936e-12
0.703337 0.720211 3.17545e-11
3.84936e-12 3.17545e-11 -0.510902

0.0994152 -0.698474 2.00148e-11
-0.698474 0.726969 4.76311e-12
2.00148e-11 4.76311e-12 -0.509173

-0.24179 0.870249 2.44412e-11
0.870249 0.809603 7.31277e-12
2.44412e-11 7.31277e-12 -0.265119

-0.248456 -0.874003 7.69736e-13
-0.874003 0.81251 1.45299e-11
7.69736e-13 1.45299e-11 -0.26629

-1.60035 -0.13186 -2.38652e-11
-0.13186 -0.614402 4.27762e-11
-2.38652e-11 4.27762e-11 -0.0432174

-1.00117 -0.0868453 1.11626e-11
-0.0868453 -0.155241 1.80194e-11
1.11626e-11 1.80194e-11 -0.00839199

-1.03467 0.571557 -1.42423e-11
0.571557 0.136626 9.9122e-12
-1.42423e-11 9.9122e-12 -0.143753

0.0435245 0.0448365 3.15612e-11
0.0448365 0.672157 3.53126e-11
3.15612e-11 3.53126e-11 -1.3895

0.042662 -0.0432244 2.30933e-11
-0.0432244 0.666691 -1.91985e-13
2.30933e-11 -1.91985e-13 -1.39058

-0.327294 -0.765519 2.69553e-12
-0.765519 0.714838 -2.33354e-11
2.69553e-12 -2.33354e-11 -0.12724

-1.31305 -0.311321 2.5022e-11
-0.311321 -3.09836 -5.7381e-12
2.5022e-11 -5.7381e-12 -0.206226

-0.679868 0.403255 -5.27356e-16
0.403255 0.848249 -3.08851e-11
-5.27356e-16 -3.08851e-11 -0.0873053

-0.87283 -2.61489 -3.7339e-11
-2.61489 -2.75358 -1.06176e-12
-3.7339e-11 -1.06176e-12 -0.925631

0.127214 1.31832 3.96487e-11
1.31832 -0.361329 1.90504e-11
3.96487e-11 1.90504e-11 -0.600618

-2.39399 0.17068 1.96318e-11
0.17068 -2.26569 2.11732e-11
1.96318e-11 2.11732e-11 -0.36919

0.666386 0.968705 2.57876e-11
0.968705 1.00516 -1.52052e-11
2.57876e-11 -1.52052e-11 -0.166344

-0.366683 0.783214 -2.84838e-11
0.783214 0.730223 -5.09997e-12
-2.84838e-11 -5.09997e-12 -0.130599

-4.06319 4.76732 -9.0488e-12
4.76732 -2.11406 3.36916e-12
-9.0488e-12 3.36916e-12 -1.16556

2.65777 -0.059405 7.70439e-13
-0.059405 0.298406 3.75393e-12
7.70439e-13 3.75393e-12 -1.16308

3.81352 2.37909 4.81212e-11
2.37909 -5.26599 2.80701e-13
4.81212e-11 2.80701e-13 -1.66754

0.0640266 1.15986 -3.11758e-11
1.15986 0.927824 2.75224e-11
-3.11758e-11 2.75224e-11 -0.156913

-3.27134 2.30805 -5.00254e-12
2.30805 -2.22527 2.86795e-11
-5.00254e-12 2.86795e-11 -0.783989

-2.1307 -0.284127 1.55913e-11
-0.284127 -2.93758 2.27599e-11
1.55913e-11 2.27599e-11 -0.323208

1.91458 -1.46474 -7.31443e-12
-1.46474 0.781588 2.49223e-11
-7.31443e-12 2.49223e-11 -0.0242984

-1.73692 -2.2733 -3.54161e-11
-2.2733 -2.63647 1.76102e-11
-3.54161e-11 1.76102e-11 -0.592836

-1.35902 1.54808 2.19399e-11
1.54808 -1.674 -9.81747e-12
2.19399e-11 -9.81747e-12 -0.473584

-0.412794 -0.406338 1.77054e-11
-0.406338 1.03812 8.56485e-12
1.77054e-11 8.56485e-12 -0.173267

-0.36641 -1.13403 7.68866e-13
-1.13403 -0.853607 1.46269e-11
7.68866e-13 1.46269e-11 -0.322581

2.78438 1.74104 -4.65725e-11
1.74104 0.793121 2.73303e-11
-4.65725e-11 2.73303e-11 -0.324459

-1.7716 0.192616 1.46276e-11
0.192616 -1.65093 9.55152e-12
1.46276e-11 9.55152e-12 -0.170131

-1.49055 -0.104338 -1.57835e-11
-0.104338 -2.26161 2.36077e-11
-1.57835e-11 2.36077e-11 -0.184079

-0.40807 0.411182 -4.11844e-11
0.411182 1.03749 2.30954e-11
-4.11844e-11 2.30954e-11 -0.17231

-0.460238 -0.0563566 -7.21701e-12
-0.0563566 0.979914 -7.99891e-13
-7.21701e-12 -7.99891e-13 -0.0999756

0.374654 0.420965 -1.92446e-10
0.420965 -0.00650665 -4.96469e-11
-1.92446e-10 -4.96469e-11 -2.3671

0.370702 -0.416446 3.38696e-11
-0.416446 -0.0134331 5.22497e-11
3.38696e-11 5.22497e-11 -2.36963

0.321592 0.499845 -3.73348e-11
0.499845 0.609896 3.42586e-11
-3.73348e-11 3.42586e-11 -0.180566

-8.53368 -2.74984 -2.75244e-11
-2.74984 -6.67533 -3.14689e-11
-2.75244e-11 -3.14689e-11 -6.46097

-8.66835 2.79836 3.27199e-12
2.79836 -6.65805 9.91319e-12
3.27199e-12 9.91319e-12 -6.5511

0.598488 -0.360743 -1.98268e-11
-0.360743 -6.17449 -1.06837e-11
-1.98268e-11 -1.06837e-11 -0.500486

-4.13217 -4.69503 -1.5403e-11
-4.69503 -1.9302 1.95374e-11
-1.5403e-11 1.95374e-11 -1.14111

-1.12789 0.280085 2.50198e-11
0.280085 -0.196389 -3.63207e-12
2.50198e-11 -3.63207e-12 -0.0446339

-1.42386 0.0215762 -2.38675e-11
0.0215762 -2.30637 -3.05778e-11
-2.38675e-11 -3.05778e-11 -0.189548

-1.18152 0.535216 2.27094e-11
0.535216 -0.568539 -2.54062e-11
2.27094e-11 -2.54062e-11 -0.118167

-1.19778 -0.545431 2.29025e-11
-0.545431 -0.628173 2.72826e-11
2.29025e-11 2.72826e-11 -0.144855

-0.864503 0.240636 -4.31115e-11
0.240636 -0.136021 -2.31434e-11
-4.31115e-11 -2.31434e-11 -0.0560597

1.9408 1.41353 1.50103e-11
1.41353 0.819476 -8.18064e-12
1.50103e-11 -8.18064e-12 -0.0156297

-1.45096 0.486897 -2.04006e-11
0.486897 -1.28507 3.57994e-11
-2.04006e-11 3.57994e-11 -0.152625

-0.854102 0.140092 -4.23414e-11
0.140092 -0.314106 2.40452e-13
-4.23414e-11 2.40452e-13 -0.0664883

1.37979 -1.64595 8.36368e-15
-1.64595 -4.31889 -6.06266e-11
8.36368e-15 -6.06266e-11 -3.39322

3.18165 1.78481 1.80915e-11
1.78481 -1.1015 7.50347e-12
1.80915e-11 7.50347e-12 -2.41956

-1.21757 -1.95484 -1.73237e-11
-1.95484 -4.4936 -2.61751e-11
-1.73237e-11 -2.61751e-11 -1.02776

2.18576 -0.326618 1.52083e-11
-0.326618 -10.1245 -1.75395e-11
1.52083e-11 -1.75395e-11 -1.36727

-1.05946 -0.72194 -3.04095e-11
-0.72194 0.0578586 7.60133e-12
-3.04095e-11 7.60133e-12 -0.0987278

-1.09244 0.713952 2.38671e-11
0.713952 0.105008 5.10023e-11
2.38671e-11 5.10023e-11 -0.0974682

0.321051 -0.24818 -1.001e-11
-0.24818 -7.54203 -1.94777e-11
-1.001e-11 -1.94777e-11 -0.832047

-0.319033 1.0944 4.23385e-11
1.0944 0.459258 -3.58965e-11
4.23385e-11 -3.58965e-11 -0.220789

-0.216159 0.65917 9.62199e-12
0.65917 0.660359 -8.7091e-12
9.62199e-12 -8.7091e-12 -1.05271

-0.214095 -0.65569 1.27014e-11
-0.65569 0.658892 2.67507e-11
1.27014e-11 2.67507e-11 -1.05231

-3.37195 -0.746146 -1.36654e-11
-0.746146 -3.1834 2.31948e-11
-1.36654e-11 2.31948e-11 -1.26198

-3.37595 -2.35616 -3.2914e-11
-2.35616 -2.23664 -4.42853e-12
-3.2914e-11 -4.42853e-12 -0.810729

-1.21679 -2.05625 -1.82863e-11
-2.05625 -6.40622 -9.28566e-12
-1.82863e-11 -9.28566e-12 -1.1872

-1.54721 0.0561132 1.34827e-12
0.0561132 -3.11628 3.96494e-11
1.34827e-12 3.96494e-11 -0.285498

-1.65064 -1.75326 1.77058e-11
-1.75326 -1.82069 2.08858e-11
1.77058e-11 2.08858e-11 -0.416018

-1.85213 -0.3776 -2.07868e-11
-0.3776 -1.84588 -3.50025e-12
-2.07868e-11 -3.50025e-12 -0.249993

-1.45688 -1.45632 3.27231e-11
-1.45632 -1.45156 -3.0697e-11
3.27231e-11 -3.0697e-11 -0.467165

-0.284756 1.10821 -2.54056e-11
1.10821 -1.21697 3.27218e-12
-2.54056e-11 3.27218e-12 -0.35813

1.77858 -1.72198 -2.61814e-11
-1.72198 -2.11297 2.25124e-11
-2.61814e-11 2.25124e-11 -3.26975

0.998273 1.24995 -5.38883e-11
1.24995 -2.41175 1.23259e-11
-5.38883e-11 1.23259e-11 -3.48384

-0.154342 0.0382767 -1.0392e-11
0.0382767 1.39701 1.42412e-11
-1.0392e-11 1.42412e-11 -0.248641

-0.169677 -0.0412546 -3.69497e-11
-0.0412546 1.38842 -5.26855e-12
-3.69497e-11 -5.26855e-12 -0.252679

-5.95046 -1.27902 1.23198e-11
-1.27902 -4.77767 2.91605e-11
1.23198e-11 2.91605e-11 -2.84028

-6.2237 1.34509 1.44363e-11
1.34509 -4.73276 -8.18028e-12
1.44363e-11 -8.18028e-12 -2.99279

-7.43754 -0.685968 -2.79106e-11
-0.685968 -3.92513 -1.05826e-12
-2.79106e-11 -1.05826e-12 -5.02146

-7.52201 0.765674 2.46382e-11
0.765674 -4.03433 -2.72344e-11
2.46382e-11 -2.72344e-11 -5.08688

0.069191 0.0406306 -4.00273e-11
0.0406306 0.425756 7.12194e-12
-4.00273e-11 7.12194e-12 -1.95857

0.0650853 -0.0379651 -3.61809e-11
-0.0379651 0.419498 3.28109e-11
-3.61809e-11 3.28109e-11 -1.96068

1.29294 0.942986 -3.08018e-12
0.942986 0.55854 -6.63899e-12
-3.08018e-12 -6.63899e-12 -0.210567

1.29048 -0.953544 -1.38553e-11
-0.953544 0.576698 -1.48193e-11
-1.38553e-11 -1.48193e-11 -0.204787

-0.683604 -0.205338 -7.69766e-12
-0.205338 0.971093 -1.44825e-11
-7.69766e-12 -1.44825e-11 -0.115846

-0.0384689 -1.04189 -1.34739e-11
-1.04189 -1.90893 2.10745e-11
-1.34739e-11 2.10745e-11 -0.288337

0.0158593 0.240984 -1.92853e-12
0.240984 -0.176204 -5.1099e-11
-1.92853e-12 -5.1099e-11 -0.287279

-1.46382 -0.487573 2.59848e-11
-0.487573 -2.63563 -2.40104e-11
2.59848e-11 -2.40104e-11 -0.189477

-0.666918 0.218649 -1.80894e-11
0.218649 0.983082 6.0143e-11
-1.80894e-11 6.0143e-11 -0.109674

-0.483164 0.864709 2.51618e-11
0.864709 -1.53555 -3.87862e-11
2.51618e-11 -3.87862e-11 -0.26952

-0.790682 -0.362463 -4.27244e-11
-0.362463 0.825786 -5.29371e-12
-4.27244e-11 -5.29371e-12 -0.142529

-6.91501 -2.98621 3.4836e-11
-2.98621 -1.93262 2.21356e-12
3.4836e-11 2.21356e-12 -2.22599

-6.90322 2.99617 3.06073e-11
2.99617 -2.03215 8.27723e-12
3.06073e-11 8.27723e-12 -2.24954

-0.81126 0.373475 -8.46802e-11
0.373475 0.816231 4.52491e-12
-8.46802e-11 4.52491e-12 -0.146547

-1.60995 2.20641 2.65628e-11
2.20641 -4.64851 -1.74175e-11
2.65628e-11 -1.74175e-11 -1.31195

5.58271 0.49931 -1.92557e-12
0.49931 -12.7165 3.07835e-12
-1.92557e-12 3.07835e-12 -8.78311

4.61429 -1.05981 -1.57932e-11
-1.05981 0.463597 -6.62002e-11
-1.57932e-11 -6.62002e-11 -5.50644

1.2581 0.476372 1.77061e-11
0.476372 0.0749159 4.78774e-13
1.77061e-11 4.78774e-13 -0.449009

-3.93061 -1.69667 -3.54172e-11
-1.69667 -5.48968 -4.90596e-12
-3.54172e-11 -4.90596e-12 -1.6099

-1.67984 -3.22429 1.07797e-11
-3.22429 -6.44554 1.86687e-11
1.07797e-11 1.86687e-11 -3.05599

-1.07641 -0.179712 3.61836e-11
-0.179712 -0.669859 3.18279e-11
3.61836e-11 3.18279e-11 -0.0981684

-1.46203 0.0534701 -1.73218e-11
0.0534701 0.050029 -1.13072e-11
-1.73218e-11 -1.13072e-11 -0.0752734

0.36689 0.349933 -3.46414e-12
0.349933 0.959221 1.27521e-12
-3.46414e-12 1.27521e-12 -0.35031

0.37725 -0.334268 1.3472e-11
-0.334268 0.956627 -2.99984e-11
1.3472e-11 -2.99984e-11 -0.34754

-1.7823 3.21994 -1.9441e-11
3.21994 -6.44545 -2.84091e-12
-1.9441e-11 -2.84091e-12 -3.17056

0.049398 -0.339929 -2.19648e-11
-0.339929 -0.362543 4.23241e-12
-2.19648e-11 4.23241e-12 -0.318461

-0.778539 -0.645998 3.81063e-11
-0.645998 0.737688 8.17981e-12
3.81063e-11 8.17981e-12 -0.0906779

-0.106504 0.986957 -1.00134e-11
0.986957 0.83264 -1.14028e-10
-1.00134e-11 -1.14028e-10 -0.394786

-0.105208 -0.98445 -1.88568e-11
-0.98445 0.840339 -4.898e-11
-1.88568e-11 -4.898e-11 -0.392665

-12.3456 -4.73016 9.62597e-12
-4.73016 -14.7781 3.98137e-12
9.62597e-12 3.98137e-12 -14.022

-12.4735 4.81736 -1.13539e-11
4.81736 -14.764 9.41354e-12
-1.13539e-11 9.41354e-12 -14.0495

0.677859 1.40824 -4.27252e-11
1.40824 0.762445 1.3185e-11
-4.27252e-11 1.3185e-11 -0.24647

-1.84094 -0.597438 -1.90555e-11
-0.597438 -3.5833 9.09557e-12
-1.90555e-11 9.09557e-12 -0.549345

-0.326581 0.742084 -3.56982e-11
0.742084 1.04974 3.97891e-11
-3.56982e-11 3.97891e-11 -0.546419

-0.321713 -0.739378 6.40866e-11
-0.739378 1.04906 -1.18355e-11
6.40866e-11 -1.18355e-11 -0.545436

1.12414 -2.08338 -5.57798e-12
-2.08338 -2.37153 -2.95469e-11
-5.57798e-12 -2.95469e-11 -0.465429

0.388672 -4.03472 5.00407e-12
-4.03472 -2.36114 5.00555e-12
5.00407e-12 5.00555e-12 -0.375874

-1.72992 -0.584785 2.92544e-11
-0.584785 -0.828588 -4.57523e-13
2.92544e-11 -4.57523e-13 -0.195665

-6.24245 0.282449 4.29221e-11
0.282449 -1.34662 7.02253e-12
4.29221e-11 7.02253e-12 -2.58112

-6.32215 -0.283396 1.78999e-11
-0.283396 -1.40229 -9.43438e-12
1.78999e-11 -9.43438e-12 -2.62509

-2.40592 -3.98788 2.04063e-11
-3.98788 -3.17247 -2.50208e-11
2.04063e-11 -2.50208e-11 -1.02923

-0.746687 0.647389 4.13777e-11
0.647389 0.662234 7.89013e-12
4.13777e-11 7.89013e-12 -0.106039

-3.48276 0.794937 1.97286e-11
0.794937 -3.19091 -7.02447e-12
1.97286e-11 -7.02447e-12 -1.38282

-6.25282 0.24839 4.38865e-11
0.24839 -3.28534 1.24138e-11
4.38865e-11 1.24138e-11 -2.65907

-6.38427 -0.295193 1.69396e-11
-0.295193 -3.22955 -1.2413e-11
1.69396e-11 -1.2413e-11 -2.70164

-1.6055 2.52429 3.38784e-11
2.52429 -7.10077 3.32258e-12
3.38784e-11 3.32258e-12 -1.50287

-0.21104 0.472221 -2.00147e-11
0.472221 1.15563 -7.9577e-11
-2.00147e-11 -7.9577e-11 -0.723042

-0.207306 -0.468409 2.07836e-11
-0.468409 1.14933 1.53968e-12
2.07836e-11 1.53968e-12 -0.722949

1.0933 -0.11412 2.85042e-11
-0.11412 -2.19298 -6.06157e-11
2.85042e-11 -6.06157e-11 -5.95474

0.16449 2.27702 -3.84971e-11
2.27702 -2.74922 -3.13601e-11
-3.84971e-11 -3.13601e-11 -6.14581

-1.54067 0.160959 -2.27113e-11
0.160959 -0.564409 3.32245e-11
-2.27113e-11 3.32245e-11 -0.0425406

-0.417776 -0.101887 -5.77413e-12
-0.101887 -2.10197 -5.17239e-12
-5.77413e-12 -5.17239e-12 0.0835641

-0.0079901 0.920088 6.16004e-12
0.920088 1.09721 3.64691e-11
6.16004e-12 3.64691e-11 -0.262151

0.0111312 -0.916323 -1.34729e-11
-0.916323 1.10271 3.29094e-11
-1.34729e-11 3.29094e-11 -0.255512

0.988572 1.01349 -6.46649e-11
1.01349 1.00974 9.14392e-12
-6.46649e-11 9.14392e-12 -0.237522

-1.34067 0.230068 3.15645e-11
0.230068 -0.688846 2.31436e-11
3.15645e-11 2.31436e-11 -0.0740105

-0.870085 -0.0850396 -6.92887e-12
-0.0850396 -0.87133 -4.14998e-11
-6.92887e-12 -4.14998e-11 -0.104852

-0.445906 -0.515325 -5.88864e-11
-0.515325 0.471337 -2.01109e-11
-5.88864e-11 -2.01109e-11 -2.54338

-0.441595 0.519508 -2.61666e-11
0.519508 0.477333 2.06012e-10
-2.61666e-11 2.06012e-10 -2.54087

-5.56551 -0.0866711 2.29066e-11
-0.0866711 -3.40922 -2.57916e-11
2.29066e-11 -2.57916e-11 -1.65654

-0.073443 0.704015 -1.61663e-11
0.704015 0.354356 1.03933e-11
-1.61663e-11 1.03933e-11 -0.127726

0.122578 0.622011 5.15739e-11
0.622011 0.906247 -6.42815e-11
5.15739e-11 -6.42815e-11 -0.232395

0.124488 -0.617864 1.07804e-11
-0.617864 0.912052 -5.77364e-11
1.07804e-11 -5.77364e-11 -0.229699

-0.25374 0.444364 -2.3866e-11
0.444364 0.859346 -1.84752e-11
-2.3866e-11 -1.84752e-11 -0.157131

-0.0723715 -0.670201 -7.31328e-12
-0.670201 0.326507 5.87022e-12
-7.31328e-12 5.87022e-12 -0.131495

-1.44474 -0.036526 8.08228e-12
-0.036526 -0.442153 -3.29128e-11
8.08228e-12 -3.29128e-11 -0.0703518

-1.44642 -0.047937 -6.54412e-12
-0.047937 -0.321449 1.82846e-11
-6.54412e-12 1.82846e-11 -0.0580426

-1.18162 -0.17227 -3.61823e-11
-0.17227 0.331899 -2.70167e-11
-3.61823e-11 -2.70167e-11 -0.0456898

-0.262515 -0.433559 -4.1185e-11
-0.433559 0.873439 -1.73265e-12
-4.1185e-11 -1.73265e-12 -0.152713

-1.3006 -0.440643 -2.31013e-12
-0.440643 -1.30544 1.91264e-11
-2.31013e-12 1.91264e-11 -0.149234

-1.53783 0.255432 1.53977e-11
0.255432 -2.22633 -2.43234e-11
1.53977e-11 -2.43234e-11 -0.117004

0.398334 0.854569 -1.5349e-12
0.854569 0.666052 8.25625e-11
-1.5349e-12 8.25625e-11 -0.424228

0.401593 -0.859 1.30865e-11
-0.859 0.669121 1.39537e-11
1.30865e-11 1.39537e-11 -0.421874

-0.0234305 0.576337 -7.62123e-11
0.576337 1.11995 -5.6579e-11
-7.62123e-11 -5.6579e-11 -0.472254

-0.0201455 -0.573663 3.61791e-11
-0.573663 1.12459 4.56122e-11
3.61791e-11 4.56122e-11 -0.47005

-1.82753 -0.447499 -7.89134e-12
-0.447499 -1.03428 2.33851e-11
-7.89134e-12 2.33851e-11 -0.119208

-1.33769 -0.403022 -4.23449e-12
-0.403022 -1.35026 1.99566e-11
-4.23449e-12 1.99566e-11 0.0176127

-0.239849 -0.979049 3.84924e-11
-0.979049 0.894635 -2.04956e-11
3.84924e-11 -2.04956e-11 -0.204773

-0.249711 0.988303 -4.96529e-11
0.988303 0.879073 1.15487e-11
-4.96529e-11 1.15487e-11 -0.210927

2.2923 -0.551966 6.85347e-11
-0.551966 -7.13075 -7.83139e-11
6.85347e-11 -7.83139e-11 -4.88243

1.32065 -0.0482209 1.42391e-11
-0.0482209 -1.88394 -2.25196e-11
1.42391e-11 -2.25196e-11 -3.91614

0.486164 0.598353 5.38782e-12
0.598353 1.13577 6.73161e-13
5.38782e-12 6.73161e-13 -0.368879

0.514566 -0.585764 -1.96265e-11
-0.585764 1.13582 -4.28206e-11
-1.96265e-11 -4.28206e-11 -0.361639

-0.00595593 0.314494 2.77125e-11
0.314494 0.84994 -1.86682e-11
2.77125e-11 -1.86682e-11 -0.807716

-0.00325037 -0.313568 4.65735e-11
-0.313568 0.848149 -5.29223e-11
4.65735e-11 -5.29223e-11 -0.807028

-4.16291 -0.712196 3.09911e-11
-0.712196 -1.79 -1.56843e-11
3.09911e-11 -1.56843e-11 -1.27912

-4.03746 0.716531 4.81086e-12
0.716531 -1.91576 -1.63603e-11
4.81086e-12 -1.63603e-11 -1.27203

-1.07677 -4.00437 2.46336e-11
-4.00437 -6.50808 1.8864e-11
2.46336e-11 1.8864e-11 -6.64057

-11.0831 0.201045 3.65759e-12
0.201045 -7.5543 -1.78018e-11
3.65759e-12 -1.78018e-11 -9.38576

-0.240098 0.112777 5.08054e-11
0.112777 0.556432 1.95341e-11
5.08054e-11 1.95341e-11 -1.52921

0.151087 -0.35804 3.46462e-12
-0.35804 0.0543601 -3.2699e-12
3.46462e-12 -3.2699e-12 -2.00703

-0.242628 -0.110369 -8.39073e-11
-0.110369 0.567071 -3.01173e-11
-8.39073e-11 -3.01173e-11 -1.52765

0.153354 0.360305 -8.15967e-11
0.360305 0.0610777 2.69544e-12
-8.15967e-11 2.69544e-12 -2.0051

1.36814 2.4416 2.2695e-11
2.4416 -0.367338 -7.37109e-11
2.2695e-11 -7.37109e-11 -4.23126

-11.0548 -0.176757 1.34621e-12
-0.176757 -7.57735 -1.2992e-11
1.34621e-12 -1.2992e-11 -9.38204

0.00385673 -0.00254349 2.87894e-10
-0.00254349 0.00167888 2.78769e-10
2.87894e-10 2.78769e-10 -2.12326

0.403666 -0.378916 5.15761e-10
-0.378916 -0.067469 -9.55248e-11
5.15761e-10 -9.55248e-11 -2.64409

0.404249 0.381816 -3.59875e-10
0.381816 -0.0590106 -2.50176e-10
-3.59875e-10 -2.50176e-10 -2.64177

0.0114407 0.0075464 -4.42597e-11
0.0075464 0.00497911 -6.34075e-11
-4.42597e-11 -6.34075e-11 -2.12125

0.466032 -0.252633 -2.57848e-11
-0.252633 -0.100115 -6.0718e-11
-2.57848e-11 -6.0718e-11 -1.66713

0.387998 -0.927355 4.23415e-11
-0.927355 0.380055 -3.32927e-11
4.23415e-11 -3.32927e-11 -0.925937

-0.415932 -0.276678 -4.61489e-12
-0.276678 0.585649 -9.40113e-11
-4.61489e-12 -9.40113e-11 -2.2896

0.470643 0.258921 -1.53961e-11
0.258921 -0.0972798 1.95321e-11
-1.53961e-11 1.95321e-11 -1.66611

-0.411351 0.279352 -4.23375e-11
0.279352 0.593062 2.66548e-11
-4.23375e-11 2.66548e-11 -2.28699

0.389092 0.932935 -2.73285e-11
0.932935 0.383619 -3.17595e-12
-2.73285e-11 -3.17595e-12 -0.926037

0.218155 0.321476 2.07834e-11
0.321476 0.714332 -1.84768e-11
2.07834e-11 -1.84768e-11 -1.0687

-0.0414954 0.643343 -1.50111e-11
0.643343 0.1368 -4.04164e-12
-1.50111e-11 -4.04164e-12 -1.63002

0.216508 -0.319568 3.5025e-11
-0.319568 0.713909 2.00153e-11
3.5025e-11 2.00153e-11 -1.06853

-0.0425318 -0.639056 5.69632e-11
-0.639056 0.133909 3.4353e-11
5.69632e-11 3.4353e-11 -1.63062

-2.64893 4.43507 1.57998e-11
4.43507 7.3676 4.15946e-11
1.57998e-11 4.15946e-11 1.65998

-1.12009 0.717269 -3.07539e-12
0.717269 2.41495 4.69758e-11
-3.07539e-12 4.69758e-11 -0.429928

-8.58242 1.25075 8.85507e-12
1.25075 4.54374 8.08346e-12
8.85507e-12 8.08346e-12 -1.20248

6.92557 2.27507 -4.5058e-11
2.27507 -6.88653 8.47942e-12
-4.5058e-11 8.47942e-12 0.0817476

9.6643 0.653585 -2.42621e-11
0.653585 -3.84205 1.38661e-11
-2.42621e-11 1.38661e-11 1.50855

-7.10949 -0.495057 -8.8558e-12
-0.495057 -1.93999 -4.18699e-11
-8.8558e-12 -4.18699e-11 -3.39079

-14.4027 1.89926 1.25089e-11
1.89926 2.87902 -1.16055e-12
1.25089e-11 -1.16055e-12 -4.2138

9.8806 -0.630359 -3.33693e-11
-0.630359 -2.56618 6.16196e-12
-3.33693e-11 6.16196e-12 1.66891

6.25864 0.513044 1.3816e-11
0.513044 -10.0887 9.04558e-12
1.3816e-11 9.04558e-12 -1.27568

2.92843 3.98176 2.40622e-12
3.98176 11.6112 9.62756e-12
2.40622e-12 9.62756e-12 5.67788

6.35553 -6.43964 -3.63956e-11
-6.43964 13.2563 -3.0234e-11
-3.63956e-11 -3.0234e-11 6.75731

12.6019 4.01038 -1.30989e-11
4.01038 4.31894 -4.24098e-12
-1.30989e-11 -4.24098e-12 6.31578

-4.11732 -7.34953 3.17539e-12
-7.34953 0.360753 -3.44602e-11
3.17539e-12 -3.44602e-11 -2.70159

-6.7084 -2.56927 -4.23417e-12
-2.56927 0.578377 1.07805e-11
-4.23417e-12 1.07805e-11 -3.42699

-7.37053 3.812 -1.69574e-11
3.812 4.6107 -8.12668e-11
-1.69574e-11 -8.12668e-11 -0.056298

-10.7818 4.42272 -5.87116e-12
4.42272 2.9171 3.23493e-11
-5.87116e-12 3.23493e-11 -1.19919

-14.4736 -2.10389 -3.06074e-11
-2.10389 3.17746 -3.07991e-12
-3.06074e-11 -3.07991e-12 -4.25616

-8.14066 -5.50345 -7.70306e-12
-5.50345 -0.67349 -3.36913e-11
-7.70306e-12 -3.36913e-11 -3.54297

4.98546 -3.9202 -2.40673e-11
-3.9202 -7.56415 1.17488e-11
-2.40673e-11 1.17488e-11 -0.0701519

0.877635 1.25798 -3.3219e-11
1.25798 13.0827 1.46395e-11
-3.3219e-11 1.46395e-11 4.60332

3.88253 -2.51179 -2.38754e-11
-2.51179 12.835 -1.40531e-11
-2.38754e-11 -1.40531e-11 4.7641

12.9949 0.943182 -1.55967e-11
0.943182 3.37084 -2.92671e-11
-1.55967e-11 -2.92671e-11 5.23792

-1.75412 5.14042 8.38648e-12
5.14042 4.34919 2.00249e-11
8.38648e-12 2.00249e-11 1.26116

9.38597 -3.53356 -1.63617e-12
-3.53356 -1.51846 -1.9829e-11
-1.63617e-12 -1.9829e-11 2.10816

-0.0666384 5.64562 -2.59854e-11
5.64562 0.993281 4.25553e-11
-2.59854e-11 4.25553e-11 0.600572

3.18069 3.99864 1.73239e-12
3.99864 6.00507 2.69074e-12
1.73239e-12 2.69074e-12 1.99303

7.6988 -1.20964 1.57424e-11
-1.20964 -7.362 -3.54274e-11
1.57424e-11 -3.54274e-11 -0.0496032

11.0583 2.70097 -1.00106e-11
2.70097 17.2825 2.69236e-12
-1.00106e-11 2.69236e-12 11.006

5.11579 1.35392 3.15073e-11
1.35392 -9.94841 2.69362e-12
3.15073e-11 2.69362e-12 -1.22791

17.1079 2.51868 1.57869e-11
2.51868 12.5744 2.73398e-11
1.57869e-11 2.73398e-11 11.6459

-3.77593 -2.50578 -2.27155e-11
-2.50578 -1.43923 -4.16767e-11
-2.27155e-11 -4.16767e-11 -3.50481

-8.04908 0.318818 -1.65547e-11
0.318818 1.71316 1.80983e-11
-1.65547e-11 1.80983e-11 -4.47775

-9.38051 -2.68547 -3.86226e-11
-2.68547 -13.8935 3.33038e-11
-3.86226e-11 3.33038e-11 -14.5793

-12.0561 6.497 -9.04454e-11
6.497 -11.3756 4.34993e-11
-9.04454e-11 4.34993e-11 -14.3244

13.779 -1.714 2.89546e-13
-1.714 4.33386 -5.38799e-12
2.89546e-13 -5.38799e-12 5.47027

-4.6702 5.98876 -3.79273e-11
5.98876 -0.811337 2.96059e-16
-3.79273e-11 2.96059e-16 -0.786383

-5.42855 3.42455 -3.53621e-12
3.42455 -6.46304 1.96336e-11
-3.53621e-12 1.96336e-11 -5.23674

-3.9361 -0.96565 2.91296e-11
-0.96565 -5.29375 2.77195e-11
2.91296e-11 2.77195e-11 -5.33308

6.45586 0.517734 -5.03072e-12
0.517734 -10.9773 -1.15522e-12
-5.03072e-12 -1.15522e-12 -1.17784

1.08573 5.64155 1.33227e-15
5.64155 5.43094 1.03963e-11
1.33227e-15 1.03963e-11 1.55953

8.27459 -4.4718 -2.56179e-11
-4.4718 2.48453 -6.35492e-12
-2.56179e-11 -6.35492e-12 2.44747

7.54558 -0.0531862 8.39921e-12
-0.0531862 -11.2964 -1.96373e-11
8.39921e-12 -1.96373e-11 -0.903139

0.453667 -7.69028 -1.05883e-11
-7.69028 7.72141 1.15539e-11
-1.05883e-11 1.15539e-11 1.6874

0.707092 -6.70455 1.82883e-12
-6.70455 8.07326 3.7163e-11
1.82883e-12 3.7163e-11 1.73081

-1.78555 3.39347 -2.07956e-11
3.39347 1.00234 -1.46267e-11
-2.07956e-11 -1.46267e-11 -0.440534

7.14592 -7.6994 -3.96737e-11
-7.6994 4.7773 -9.64266e-13
-3.96737e-11 -9.64266e-13 3.14437

33.903 -7.67453 -1.98467e-11
-7.67453 33.3161 -1.69452e-11
-1.98467e-11 -1.69452e-11 33.3267

33.7213 -8.13298 -3.35184e-11
-8.13298 35.8371 -2.92743e-11
-3.35184e-11 -2.92743e-11 34.3294

-7.43913 -8.93211 4.01399e-11
-8.93211 2.10609 -1.63719e-11
4.01399e-11 -1.63719e-11 -2.1744

21.6287 -3.03721 -2.21553e-11
-3.03721 20.9956 2.17693e-11
-2.21553e-11 2.17693e-11 22.8998

19.6467 -2.48828 -5.52866e-11
-2.48828 21.3211 -2.04132e-11
-5.52866e-11 -2.04132e-11 22.0142

0.369858 3.88037 1.14671e-12
3.88037 -7.39584 -5.58043e-12
1.14671e-12 -5.58043e-12 -3.5428

-1.27365 -5.13441 -2.04114e-11
-5.13441 -6.71253 -6.12069e-11
-2.04114e-11 -6.12069e-11 -4.95894

3.426 -2.68157 2.96571e-11
-2.68157 -9.78371 1.96341e-11
2.96571e-11 1.96341e-11 -0.660133

-0.110142 5.2227 -5.7751e-11
5.2227 -10.5813 9.64036e-12
-5.7751e-11 9.64036e-12 -4.25539

-2.39112 -7.20134 -3.46782e-12
-7.20134 -7.72189 3.85062e-12
-3.46782e-12 3.85062e-12 -5.48878

-1.99181 3.94716 -2.50141e-12
3.94716 3.99004 -7.12615e-12
-2.50141e-12 -7.12615e-12 0.253861

-6.00282 -2.4925 -1.26805e-11
-2.4925 -13.7258 4.01294e-12
-1.26805e-11 4.01294e-12 -11.5724

-9.47523 3.35078 1.34805e-12
3.35078 -11.6207 1.91758e-12
1.34805e-12 1.91758e-12 -11.6427

1.28143 6.11634 3.04243e-11
6.11634 -6.94212 1.16938e-11
3.04243e-11 1.16938e-11 -1.75392

-0.967307 -7.77798 8.85344e-12
-7.77798 -6.27616 -3.51885e-12
8.85344e-12 -3.51885e-12 -2.47928

13.1176 -5.31332 7.776e-13
-5.31332 5.82376 -1.07887e-11
7.776e-13 -1.07887e-11 6.90481

-9.85966 -1.51913 -2.82946e-11
-1.51913 -5.56421 7.31533e-12
-2.82946e-11 7.31533e-12 -8.00479

-13.1825 -0.249046 -6.15482e-12
-0.249046 0.294138 3.88857e-11
-6.15482e-12 3.88857e-11 -10.017

-2.28124 -6.49585 4.06296e-11
-6.49585 4.21778 2.54077e-11
4.06296e-11 2.54077e-11 1.11402

10.9619 -2.23934 -1.98582e-13
-2.23934 17.5353 -9.68936e-11
-1.98582e-13 -9.68936e-11 11.7908

17.479 -2.09553 1.34914e-12
-2.09553 11.3088 1.348e-11
1.34914e-12 1.348e-11 11.9823

-4.30604 2.51604 3.21509e-11
2.51604 2.37669 1.1549e-11
3.21509e-11 1.1549e-11 -0.778689

-10.7989 3.79111 -9.65764e-13
3.79111 3.64668 2.4648e-11
-9.65764e-13 2.4648e-11 -1.31389

-3.28936 4.9489 -4.28409e-12
4.9489 -17.704 3.13555e-11
-4.28409e-12 3.13555e-11 -14.3534

-3.91371 1.47042 -1.80941e-10
1.47042 1.17817 -7.50396e-11
-1.80941e-10 -7.50396e-11 -15.9232

-11.0117 5.70362 2.33894e-11
5.70362 -2.45402 3.84892e-12
2.33894e-11 3.84892e-12 -2.2257

3.39612 4.51362 -4.46711e-11
4.51362 -8.20196 -5.39176e-12
-4.46711e-11 -5.39176e-12 -0.907645

2.13855 -6.87197 -1.75207e-11
-6.87197 -7.5612 -1.07701e-11
-1.75207e-11 -1.07701e-11 -1.26431

-8.90364 7.82783 -2.50333e-11
7.82783 -2.46705 -2.23293e-11
-2.50333e-11 -2.23293e-11 -1.9223

-12.484 -5.95193 2.19478e-11
-5.95193 0.379937 -1.15552e-12
2.19478e-11 -1.15552e-12 -3.16349

13.5818 -0.564523 -2.21171e-12
-0.564523 1.92082 7.32259e-12
-2.21171e-12 7.32259e-12 5.18091

8.24528 -2.27778 9.81985e-12
-2.27778 -4.39268 -2.92639e-11
9.81985e-12 -2.92639e-11 1.46051

10.2099 2.79591 1.45453e-11
2.79591 -0.496329 1.77168e-11
1.45453e-11 1.77168e-11 2.84641

-3.6243 3.10372 1.86982e-11
3.10372 -9.63078 -1.27041e-11
1.86982e-11 -1.27041e-11 -4.776

-24.9451 2.11393 -8.34351e-11
2.11393 -11.0438 2.88857e-11
-8.34351e-11 2.88857e-11 -19.2929

-17.8514 -1.55646 4.66068e-11
-1.55646 -16.9832 2.94449e-11
4.66068e-11 2.94449e-11 -19.243

7.05256 4.49118 4.69897e-11
4.49118 9.65082 -1.48231e-11
4.69897e-11 -1.48231e-11 5.37647

2.26633 -5.77378 -2.94667e-11
-5.77378 -0.0296003 1.81025e-11
-2.94667e-11 1.81025e-11 0.223181

4.82678 3.12476 2.00301e-11
3.12476 -5.13487 2.67624e-11
2.00301e-11 2.67624e-11 0.240163

-12.5344 3.4816 -1.05786e-11
3.4816 -1.14814 3.54239e-11
-1.05786e-11 3.54239e-11 -12.4545

-13.0251 -2.3327 -1.05866e-10
-2.3327 -8.48172 -5.56732e-12
-1.05866e-10 -5.56732e-12 -10.8856

-2.75403 -0.852972 1.81023e-11
-0.852972 -10.3398 1.44392e-11
1.81023e-11 1.44392e-11 -5.29381

-2.20352 -4.491 1.34962e-12
-4.491 3.46887 1.69444e-11
1.34962e-12 1.69444e-11 -0.637909

-8.91121 -1.45231 -2.90698e-11
-1.45231 4.81389 3.73532e-11
-2.90698e-11 3.73532e-11 -1.42819

3.18512 0.995565 2.61805e-11
0.995565 -13.2728 -1.75178e-11
2.61805e-11 -1.75178e-11 -1.37395

2.7526 -3.13073 -8.47078e-12
-3.13073 -12.8156 4.81294e-11
-8.47078e-12 4.81294e-11 -1.59471

9.92785 -6.37955 3.2372e-11
-6.37955 7.20334 1.23104e-11
3.2372e-11 1.23104e-11 5.82786

2.19459 3.93699 5.1352e-11
3.93699 -13.3546 5.57406e-12
5.1352e-11 5.57406e-12 -2.49827

1.52287 -6.12343 -1.2949e-11
-6.12343 -10.7694 -1.77116e-11
-1.2949e-11 -1.77116e-11 -2.82237

4.81307 -5.45402 -2.34951e-11
-5.45402 -5.66785 1.80972e-11
-2.34951e-11 1.80972e-11 0.0807297

-2.07474 -5.43277 -8.08694e-12
-5.43277 6.75268 -1.11711e-11
-8.08694e-12 -1.11711e-11 1.61156

1.88368 2.36822 5.38236e-12
2.36822 -9.56513 -2.73327e-11
5.38236e-12 -2.73327e-11 -1.32087

2.1822 -4.39261 -6.93171e-12
-4.39261 -9.41418 1.25044e-12
-6.93171e-12 1.25044e-12 -1.62759

5.87065 -1.43801 -1.97412e-12
-1.43801 -4.41311 -1.67495e-11
-1.97412e-12 -1.67495e-11 -0.037615

0.78085 6.84653 -1.74416e-12
6.84653 -2.61129 -1.42449e-11
-1.74416e-12 -1.42449e-11 -0.638458

5.84478 4.54192 -1.02959e-11
4.54192 2.75759 -2.08069e-11
-1.02959e-11 -2.08069e-11 2.44347

-10.9541 6.80291 -5.58146e-12
6.80291 -4.77562 3.92814e-11
-5.58146e-12 3.92814e-11 -2.59407

-3.97388 5.0575 -2.46429e-11
5.0575 -0.250688 -7.11816e-12
-2.46429e-11 -7.11816e-12 -1.04283

9.3107 2.52701 -1.21402e-11
2.52701 -2.78278 -2.69583e-11
-1.21402e-11 -2.69583e-11 2.20693

-0.966779 -3.38671 -4.69254e-14
-3.38671 -5.08869 2.69552e-11
-4.69254e-14 2.69552e-11 -2.0959

5.54665 2.11555 -2.84035e-11
2.11555 -4.30591 -2.1947e-11
-2.84035e-11 -2.1947e-11 0.263842

1.91204 5.43734 -6.34707e-12
5.43734 3.8719 -3.85795e-12
-6.34707e-12 -3.85795e-12 2.15389

0.638448 5.13623 -2.34984e-11
5.13623 -1.72908 -4.58242e-11
-2.34984e-11 -4.58242e-11 0.115543

-11.9169 0.060844 3.25338e-11
0.060844 5.88102 1.7326e-11
3.25338e-11 1.7326e-11 -1.5081

-6.11968 -2.21493 -3.36871e-11
-2.21493 2.78147 3.37022e-11
-3.36871e-11 3.37022e-11 -1.33821

11.3698 -6.40436 3.65949e-11
-6.40436 4.13549 3.6968e-11
3.65949e-11 3.6968e-11 6.11234

-6.37626 -8.7345 3.06108e-11
-8.7345 1.94845 -2.15695e-11
3.06108e-11 -2.15695e-11 -1.66818

2.72258 -7.70452 -3.29122e-12
-7.70452 6.66906 4.99822e-12
-3.29122e-12 4.99822e-12 2.95621

5.97536 6.25046 -1.92693e-11
6.25046 6.17224 -5.60399e-11
-1.92693e-11 -5.60399e-11 3.10617

4.62809 -2.85604 4.43097e-12
-2.85604 -1.9541 2.24303e-11
4.43097e-12 2.24303e-11 0.10118

3.78184 -0.222964 -9.13751e-13
-0.222964 -13.2453 3.21486e-11
-9.13751e-13 3.21486e-11 -2.93468

2.59948 0.917406 1.78183e-12
0.917406 -11.9472 3.46345e-12
1.78183e-12 3.46345e-12 -2.69449

-4.29557 2.86554 2.31396e-12
2.86554 8.7333 3.35126e-11
2.31396e-12 3.35126e-11 1.70933

1.31305 -6.88228 -4.90955e-12
-6.88228 3.63703 1.15502e-11
-4.90955e-12 1.15502e-11 0.68399

-0.992968 -0.944152 -9.04955e-12
-0.944152 13.7214 1.92643e-11
-9.04955e-12 1.92643e-11 4.93628

2.08369 -1.19646 3.89003e-11
-1.19646 13.9871 -1.38735e-11
3.89003e-11 -1.38735e-11 5.27659

13.5765 -1.58289 -1.23201e-11
-1.58289 0.860637 -4.24329e-12
-1.23201e-11 -4.24329e-12 5.54706

10.3739 4.55133 -2.40673e-11
4.55133 8.42703 2.29206e-11
-2.40673e-11 2.29206e-11 5.86147

5.25076 -7.90469 -1.14871e-12
-7.90469 0.924529 1.00103e-11
-1.14871e-12 1.00103e-11 2.31484

-2.16252 -1.87546 -5.94698e-11
-1.87546 -1.78623 8.09345e-12
-5.94698e-11 8.09345e-12 -14.517

-19.3791 -7.11897 -7.41066e-11
-7.11897 -10.5685 -1.13475e-11
-7.41066e-11 -1.13475e-11 -15.5374

8.34836 -4.68138 1.69475e-11
-4.68138 -2.9485 -3.00275e-11
1.69475e-11 -3.00275e-11 1.97722

-0.52324 6.32338 -3.34988e-11
6.32338 1.57284 1.54277e-12
-3.34988e-11 1.54277e-12 0.0556759

3.72094 0.420852 3.8132e-11
0.420852 -9.6327 2.73326e-11
3.8132e-11 2.73326e-11 -0.510658

-0.190905 -5.7366 -3.06176e-11
-5.7366 9.61482 4.67986e-11
-3.06176e-11 4.67986e-11 2.08074

-14.8021 5.9703 1.06796e-11
5.9703 0.407464 8.47019e-12
1.06796e-11 8.47019e-12 -3.3086

-4.3914 2.48258 3.4629e-12
2.48258 -0.875122 -3.29174e-11
3.4629e-12 -3.29174e-11 -1.60534

-6.55296 -8.13358 -1.69444e-11
-8.13358 -2.86744 -1.77132e-11
-1.69444e-11 -1.77132e-11 -1.64641

-2.19795 6.08824 -8.14164e-16
6.08824 -1.43655 -2.2328e-11
-8.14164e-16 -2.2328e-11 -0.939037

-8.50393 4.82405 2.01091e-11
4.82405 1.63421 -6.62415e-11
2.01091e-11 -6.62415e-11 -0.760104

2.28987 -0.575209 -4.81432e-11
-0.575209 -20.7531 -3.7594e-13
-4.81432e-11 -3.7594e-13 -2.69999

7.73658 5.94976 -2.77356e-11
5.94976 1.35826 1.29114e-11
-2.77356e-11 1.29114e-11 2.71106

-6.48074 -9.24235 3.60674e-12
-9.24235 4.49035 3.58099e-11
3.60674e-12 3.58099e-11 -1.17265

5.53119 5.35594 -5.75096e-13
5.35594 4.15471 -1.21341e-11
-5.75096e-13 -1.21341e-11 2.48502

8.28772 -5.25709 1.38713e-11
-5.25709 11.4533 -4.2452e-12
1.38713e-11 -4.2452e-12 6.05015

-2.85326 -7.56705 2.98532e-12
-7.56705 3.12062 4.04069e-12
2.98532e-12 4.04069e-12 -0.487113

0.56962 -3.41497 1.84874e-11
-3.41497 12.2337 8.86017e-12
1.84874e-11 8.86017e-12 4.14891

4.66938 1.30281 2.00281e-11
1.30281 11.8016 -3.85603e-12
2.00281e-11 -3.85603e-12 4.42589

11.4993 -3.21523 5.96219e-12
-3.21523 2.34455 -2.04213e-11
5.96219e-12 -2.04213e-11 4.62482

3.93538 -6.89425 6.92602e-12
-6.89425 2.91498 1.42437e-11
6.92602e-12 1.42437e-11 2.25487

-5.73741 -0.326641 1.01982e-11
-0.326641 8.6539 -3.46715e-12
1.01982e-11 -3.46715e-12 0.927063

0.680922 -1.23731 -2.4069e-11
-1.23731 7.59201 2.56117e-11
-2.4069e-11 2.56117e-11 1.45128

6.25651 -6.89842 -1.54328e-12
-6.89842 10.4831 -1.9639e-11
-1.54328e-12 -1.9639e-11 6.29064

8.50297 5.11471 9.64658e-12
5.11471 10.1902 4.81126e-12
9.64658e-12 4.81126e-12 6.23351

-0.307888 0.024206 8.46617e-12
0.024206 -14.8389 -1.67497e-11
8.46617e-12 -1.67497e-11 -2.15595

-0.252754 -1.22371 -2.54159e-11
-1.22371 -13.7783 1.65593e-11
-2.54159e-11 1.65593e-11 -2.19341

-0.187582 5.52641 2.75296e-11
5.52641 1.22743 -5.1994e-12
2.75296e-11 -5.1994e-12 0.0480551

-7.38021 -9.13017 9.04869e-12
-9.13017 2.94801 1.9155e-13
9.04869e-12 1.9155e-13 -1.82972

-4.3229 6.26512 1.8827e-11
6.26512 -3.28653 7.12104e-12
1.8827e-11 7.12104e-12 -1.58201

14.3329 2.87904 1.84956e-11
2.87904 7.8987 3.19672e-11
1.84956e-11 3.19672e-11 8.75281

0.130169 3.43914 1.96464e-11
3.43914 8.39136 5.78796e-13
1.96464e-11 5.78796e-13 2.00132

1.52724 3.17506 -2.1171e-11
3.17506 -9.01694 2.06104e-11
-2.1171e-11 2.06104e-11 -2.58955

0.55038 -5.53665 -5.69909e-11
-5.53665 -8.71087 -1.72097e-11
-5.69909e-11 -1.72097e-11 -3.56101

2.82253 4.52639 -3.83163e-11
4.52639 -4.53752 -6.73173e-12
-3.83163e-11 -6.73173e-12 -0.562462

2.31488 -6.54279 -2.44578e-11
-6.54279 -5.37739 -2.30549e-12
-2.44578e-11 -2.30549e-12 -1.00434

18.1326 -3.27249 9.24337e-12
-3.27249 12.0083 -4.00679e-11
9.24337e-12 -4.00679e-11 20.4323

11.835 -3.82872 -4.23787e-11
-3.82872 19.5535 -2.61877e-11
-4.23787e-11 -2.61877e-11 21.0456

-4.69789 -4.34516 2.71485e-11
-4.34516 8.44838 -1.96455e-11
2.71485e-11 -1.96455e-11 1.55531

-0.265914 5.19096 1.7681e-11
5.19096 -14.1256 -8.27699e-11
1.7681e-11 -8.27699e-11 -7.73092

-1.68877 -7.34137 1.50285e-11
-7.34137 -8.42456 -6.54373e-12
1.50285e-11 -6.54373e-12 -9.49518

4.15865 5.26381 2.11868e-11
5.26381 -0.983497 -3.09116e-12
2.11868e-11 -3.09116e-12 0.704178

15.076 2.12632 4.1402e-11
2.12632 7.43127 -1.11687e-11
4.1402e-11 -1.11687e-11 8.83914

-5.79561 -6.34143 2.67649e-11
-6.34143 4.13982 2.84926e-11
2.67649e-11 2.84926e-11 -1.00455

-10.598 -3.04446 -9.05107e-12
-3.04446 5.18866 4.31307e-11
-9.05107e-12 4.31307e-11 -1.21548

4.47795 -7.55353 2.86882e-13
-7.55353 6.45474 1.05868e-11
2.86882e-13 1.05868e-11 2.78355

-9.39066 -6.11626 6.92398e-12
-6.11626 -4.41908 -4.15911e-11
6.92398e-12 -4.15911e-11 -2.35949

3.25116 -7.10799 1.36751e-11
-7.10799 -1.86024 2.00195e-11
1.36751e-11 2.00195e-11 0.530532

-15.0951 9.25659 3.11903e-11
9.25659 -2.16905 8.08842e-12
3.11903e-11 8.08842e-12 -2.63024

-4.92369 2.25282 2.05945e-11
2.25282 -2.17141 -2.05043e-11
2.05945e-11 -2.05043e-11 -3.0111

-6.57335 3.88197 2.00176e-11
3.88197 -0.612631 -2.79732e-12
2.00176e-11 -2.79732e-12 -3.58963

-4.67994 -6.80881 -2.81142e-11
-6.80881 -1.11563 -9.62334e-12
-2.81142e-11 -9.62334e-12 -0.717686

-5.90951 6.64569 -2.82051e-11
6.64569 -0.505518 -4.89093e-11
-2.82051e-11 -4.89093e-11 -0.721708

8.64173 4.42253 -4.62119e-12
4.42253 0.694653 7.31156e-12
-4.62119e-12 7.31156e-12 2.96002

7.29532 -0.0125716 2.0601e-11
-0.0125716 -4.07002 -6.93738e-12
2.0601e-11 -6.93738e-12 1.3227

-0.631408 4.58425 1.90144e-13
4.58425 -0.897977 -1.30881e-11
1.90144e-13 -1.30881e-11 -0.35795

-4.04089 -7.35394 -1.19377e-11
-7.35394 6.53393 -1.00107e-11
-1.19377e-11 -1.00107e-11 0.142613

-7.13515 1.11592 1.77038e-11
1.11592 8.88378 -3.197e-11
1.77038e-11 -3.197e-11 0.839316

2.48588 6.87183 2.21476e-11
6.87183 -3.51428 -1.03999e-11
2.21476e-11 -1.03999e-11 -0.348114

-1.41279 0.191068 2.46454e-11
0.191068 7.08353 -1.05933e-11
2.46454e-11 -1.05933e-11 1.06925

-14.4331 -5.12295 5.96589e-12
-5.12295 -0.0637305 -1.15426e-12
5.96589e-12 -1.15426e-12 -3.15878

18.1531 -4.32715 7.70487e-12
-4.32715 20.6441 5.50865e-11
7.70487e-12 5.50865e-11 17.146

20.878 -4.42432 -1.29032e-11
-4.42432 17.918 1.34761e-11
-1.29032e-11 1.34761e-11 17.1608

5.52718 1.5175 1.24463e-12
1.5175 -7.75328 -1.72077e-12
1.24463e-12 -1.72077e-12 0.047942

-0.234021 -8.09983 -1.406e-11
-8.09983 -4.01934 1.30987e-11
-1.406e-11 1.30987e-11 -0.884707

-1.27959 4.59412 -5.77986e-12
4.59412 -17.7392 4.9837e-11
-5.77986e-12 4.9837e-11 -12.9949

1.27426 -1.29236 -2.09046e-10
-1.29236 -8.54352 3.54339e-11
-2.09046e-10 3.54339e-11 -15.0353

-7.36712 -5.70745 -7.70273e-12
-5.70745 1.14949 -2.4645e-11
-7.70273e-12 -2.4645e-11 -0.749343

-10.7084 -1.73162 -7.24413e-12
-1.73162 -7.85292 -1.71341e-11
-7.24413e-12 -1.71341e-11 -9.54621

-10.9007 5.98342 5.23886e-11
5.98342 -4.28069 4.85188e-11
5.23886e-11 4.85188e-11 -8.38176

8.41282 0.537819 1.98829e-11
0.537819 -8.41127 -1.9252e-12
1.98829e-11 -1.9252e-12 -0.0353569

-7.07087 -9.90552 -3.73467e-11
-9.90552 4.27042 -1.61683e-11
-3.73467e-11 -1.61683e-11 -1.12427

15.3449 3.32953 -3.79696e-13
3.32953 15.618 6.12575e-11
-3.79696e-13 6.12575e-11 13.3328

13.832 3.21009 -6.7355e-12
3.21009 13.908 3.77527e-11
-6.7355e-12 3.77527e-11 12.222

7.1086 -3.85507 -3.29398e-11
-3.85507 16.0913 4.4302e-11
-3.29398e-11 4.4302e-11 9.97635

9.43719 1.91809 -1.90772e-11
1.91809 15.9898 -9.43068e-12
-1.90772e-11 -9.43068e-12 9.84031

16.0481 -3.27532 3.21707e-11
-3.27532 7.97332 -1.1844e-11
3.21707e-11 -1.1844e-11 10.2917

-13.9423 -9.09394 4.11993e-11
-9.09394 -2.81636 1.34682e-11
4.11993e-11 1.34682e-11 -2.68708

8.33127 0.183238 1.48302e-11
0.183238 18.8607 1.65629e-11
1.48302e-11 1.65629e-11 12.4373

18.9748 0.270906 4.41108e-11
0.270906 10.0241 -1.77161e-11
4.41108e-11 -1.77161e-11 13.0865

-9.33077 0.610638 2.36787e-11
0.610638 0.912357 3.15749e-11
2.36787e-11 3.15749e-11 -6.49033

-7.59424 -5.21763 1.23161e-11
-5.21763 -1.90473 -6.06197e-12
1.23161e-11 -6.06197e-12 -5.65175

3.33121 2.09416 -1.35771e-11
2.09416 -5.47988 -1.30981e-11
-1.35771e-11 -1.30981e-11 -0.937249

6.73682 0.347843 5.91893e-12
0.347843 -12.2317 -4.42793e-11
5.91893e-12 -4.42793e-11 -1.20953

0.832871 -4.92148 1.92554e-11
-4.92148 9.38088 2.00309e-11
1.92554e-11 2.00309e-11 3.85663

3.50056 3.14826 3.86654e-13
3.14826 10.1162 -1.3288e-11
3.86654e-13 -1.3288e-11 4.13744

8.17418 0.411876 3.51449e-11
0.411876 -8.25419 -1.5405e-11
3.51449e-11 -1.5405e-11 -0.104657

-6.74133 -5.00729 -6.93097e-12
-5.00729 4.23699 -2.81101e-11
-6.93097e-12 -2.81101e-11 -0.077646

-0.207501 2.92127 3.00181e-11
2.92127 -10.8782 -1.02064e-11
3.00181e-11 -1.02064e-11 -5.22835

-1.3827 -4.05025 4.08076e-11
-4.05025 -8.00904 3.23358e-11
4.08076e-11 3.23358e-11 -6.75111

-2.2367 4.76805 1.79116e-12
4.76805 -2.59429 2.73403e-11
1.79116e-12 2.73403e-11 -1.3584

-4.04702 -8.36785 -2.60894e-11
-8.36785 5.48538 -2.69303e-12
-2.60894e-11 -2.69303e-12 -0.219724

3.9921 2.16084 -1.68421e-11
2.16084 -9.31968 1.00095e-11
-1.68421e-11 1.00095e-11 -1.36076

7.91555 4.37427 6.73743e-12
4.37427 6.48277 2.42724e-11
6.73743e-12 2.42724e-11 5.11803

-3.64476 -9.02536 -1.40544e-11
-9.02536 5.3062 2.00264e-11
-1.40544e-11 2.00264e-11 -0.103562

34.8237 8.00641 -1.88737e-11
8.00641 34.9616 4.00668e-11
-1.88737e-11 4.00668e-11 35.3242

-2.95092 -3.30123 -4.28398e-11
-3.30123 7.66345 3.23531e-11
-4.28398e-11 3.23531e-11 0.808105

-6.13339 -1.9504 -5.59219e-12
-1.9504 8.77392 -3.0432e-11
-5.59219e-12 -3.0432e-11 0.998595

-12.5604 -0.873417 -2.07853e-11
-0.873417 3.07595 3.92769e-11
-2.07853e-11 3.92769e-11 -7.62598

-8.60187 -4.10504 -1.07747e-11
-4.10504 -5.2091 2.19461e-11
-1.07747e-11 2.19461e-11 -6.89695

2.03878 2.28422 -1.61733e-11
2.28422 -20.8449 1.15622e-11
-1.61733e-11 1.15622e-11 -3.32433

1.81408 -3.37665 4.2372e-12
-3.37665 -17.5972 -2.0019e-11
4.2372e-12 -2.0019e-11 -3.34649

-6.03986 6.90169 1.15066e-11
6.90169 -5.7263 3.91983e-13
1.15066e-11 3.91983e-13 -3.7339

-6.11428 -4.42263 -5.89138e-11
-4.42263 -4.28411 -1.75121e-11
-5.89138e-11 -1.75121e-11 -4.21076

-8.77317 5.30879 3.84034e-11
5.30879 -6.45326 1.9223e-12
3.84034e-11 1.9223e-12 -7.15268

-8.94305 -3.69348 1.47025e-11
-3.69348 -3.32315 -9.43372e-12
1.47025e-11 -9.43372e-12 -7.21218

-0.978461 5.05022 -2.61967e-11
5.05022 -15.0005 -6.53559e-12
-2.61967e-11 -6.53559e-12 -10.3202

-2.88388 -7.05724 -4.00234e-11
-7.05724 -6.71901 1.15887e-10
-4.00234e-11 1.15887e-10 -12.8814

1.53922 5.20967 -3.29189e-11
5.20967 -4.29231 -2.07855e-11
-3.29189e-11 -2.07855e-11 -1.13713

-9.59148 -9.84449 1.15474e-11
-9.84449 -5.21089 -6.23855e-11
1.15474e-11 -6.23855e-11 -3.29318

5.36864 5.44976 2.69675e-11
5.44976 -3.60779 3.17624e-11
2.69675e-11 3.17624e-11 0.594697

-1.14787 -6.167 -1.67462e-11
-6.167 6.75081 -1.15256e-12
-1.67462e-11 -1.15256e-12 0.729228

-6.95022 -3.72549 -1.88743e-11
-3.72549 5.66734 -2.6962e-11
-1.88743e-11 -2.6962e-11 0.0417071

11.1194 -5.47808 4.49722e-11
-5.47808 9.87844 -2.60094e-11
4.49722e-11 -2.60094e-11 6.46406

3.83673 -7.23368 -1.92541e-11
-7.23368 -3.73595 1.73284e-11
-1.92541e-11 1.73284e-11 0.349185

-6.41548 2.49067 -2.98493e-11
2.49067 6.30624 -4.4677e-11
-2.98493e-11 -4.4677e-11 0.330098

3.69045 7.24453 1.46409e-11
7.24453 0.306221 -1.17481e-11
1.46409e-11 -1.17481e-11 0.939719

-12.8829 10.7484 4.27477e-11
10.7484 -4.88688 5.9693e-11
4.27477e-11 5.9693e-11 -3.72679

-8.47472 -8.73018 -3.41758e-11
-8.73018 1.0626 6.56589e-11
-3.41758e-11 6.56589e-11 -2.83419

0.968223 -8.23988 -1.88685e-11
-8.23988 -0.563968 1.42542e-11
-1.88685e-11 1.42542e-11 0.539774

3.75232 -0.591659 -8.95573e-12
-0.591659 -4.38309 -1.92461e-12
-8.95573e-12 -1.92461e-12 -1.20073

-15.8429 -2.72485 -1.55954e-11
-2.72485 -11.1626 5.64018e-11
-1.55954e-11 5.64018e-11 -15.723

-2.46168 -3.16587 -3.09837e-11
-3.16587 -4.00224 -1.4625e-11
-3.09837e-11 -1.4625e-11 -15.1088

-8.84088 -3.20595 -8.66226e-12
-3.20595 2.0472 -1.23226e-11
-8.66226e-12 -1.23226e-11 -1.42802

-1.387 4.4497 -7.98295e-12
4.4497 -5.70909 4.23306e-12
-7.98295e-12 4.23306e-12 -1.66481

-0.565844 -0.327177 -4.35574e-12
-0.327177 -7.98588 -5.77612e-12
-4.35574e-12 -5.77612e-12 -4.16828

15.8169 -5.60394 2.49837e-12
-5.60394 19.7574 -7.01181e-11
2.49837e-12 -7.01181e-11 15.8769

18.8727 -5.03401 4.0461e-12
-5.03401 15.467 2.11512e-12
4.0461e-12 2.11512e-12 15.6114

1.36058 -0.210851 -1.88697e-11
-0.210851 -15.0578 2.12726e-12
-1.88697e-11 2.12726e-12 -3.01572

1.63244 -1.04301 1.54277e-12
-1.04301 -13.144 -8.85492e-12
1.54277e-12 -8.85492e-12 -3.48009

0.980775 1.1201 -1.8964e-11
1.1201 -9.43972 -2.36795e-11
-1.8964e-11 -2.36795e-11 -4.48766

0.521336 2.92542 6.65209e-12
2.92542 4.78096 4.38993e-11
6.65209e-12 4.38993e-11 0.817267

8.08366 3.789 2.88229e-12
3.789 0.502405 9.04491e-12
2.88229e-12 9.04491e-12 2.37307

1.11474 5.18301 1.75301e-11
5.18301 -4.08139 3.50292e-11
1.75301e-11 3.50292e-11 -1.34798

-0.691604 -6.78325 5.80573e-13
-6.78325 -5.61752 5.38828e-12
5.80573e-13 5.38828e-12 -2.2866

-17.1435 -0.860542 -2.0887e-12
-0.860542 -21.4978 1.42519e-11
-2.0887e-12 1.42519e-11 -21.0903

-15.8299 7.43376 -7.25079e-11
7.43376 -5.78189 -7.32764e-12
-7.25079e-11 -7.32764e-12 -17.505

-9.81883 -5.80274 -6.54495e-12
-5.80274 0.546072 3.84803e-13
-6.54495e-12 3.84803e-13 -1.41968

4.68217 3.81026 -2.53285e-11
3.81026 -2.89119 -2.96508e-11
-2.53285e-11 -2.96508e-11 0.441843

0.991778 3.52018 4.26406e-11
3.52018 -9.24349 -3.65802e-11
4.26406e-11 -3.65802e-11 -2.67486

0.573028 -4.74595 7.70783e-12
-4.74595 -7.24407 -1.23237e-11
7.70783e-12 -1.23237e-11 -3.32806

-3.41637 -8.08804 3.49442e-11
-8.08804 4.15226 -1.50232e-11
3.49442e-11 -1.50232e-11 -0.580199

-5.73126 -10.3494 2.0234e-12
-10.3494 4.62476 -2.84968e-11
2.0234e-12 -2.84968e-11 -0.776613

36.2842 9.5685 -5.68434e-13
9.5685 37.313 4.08431e-11
-5.68434e-13 4.08431e-11 36.3367

-11.6169 7.30725 4.24473e-11
7.30725 -2.52592 1.30969e-11
4.24473e-11 1.30969e-11 -4.24454

-8.57457 -6.45128 -5.19781e-11
-6.45128 1.14931 -5.19146e-12
-5.19781e-11 -5.19146e-12 -3.79833

-6.41973 -8.90174 -2.13675e-11
-8.90174 4.50819 -2.57988e-11
-2.13675e-11 -2.57988e-11 -0.903047

7.96345 -6.05297 -3.08242e-12
-6.05297 -0.704146 -2.30201e-12
-3.08242e-12 -2.30201e-12 2.17935

-0.967166 -3.99927 -9.39989e-14
-3.99927 0.480762 -5.71831e-11
-9.39989e-14 -5.71831e-11 -1.23693

-6.59182 6.90887 2.69488e-11
6.90887 -5.85889 -2.5794e-11
2.69488e-11 -2.5794e-11 -3.66649

-6.41215 -5.53552 -7.1761e-11
-5.53552 -0.660137 6.93912e-12
-7.1761e-11 6.93912e-12 -3.45077

4.19417 -0.557498 -4.86085e-12
-0.557498 -10.0009 1.23204e-11
-4.86085e-12 1.23204e-11 -1.81614

-0.764754 2.03224 -4.46679e-11
2.03224 -11.2793 1.53211e-14
-4.46679e-11 1.53211e-14 -4.14461

-0.437512 -1.95634 8.08513e-12
-1.95634 -5.81794 -3.46501e-11
8.08513e-12 -3.46501e-11 -4.47629

-13.8183 -2.85978 -9.43453e-12
-2.85978 -4.76931 4.71378e-12
-9.43453e-12 4.71378e-12 -11.928

-14.58 2.17977 -6.1203e-11
2.17977 0.398968 1.16126e-12
-6.1203e-11 1.16126e-12 -14.0826

22.1404 0.733324 -3.04409e-11
0.733324 14.6051 -1.09739e-11
-3.04409e-11 -1.09739e-11 21.9553

14.9348 0.662253 -3.21691e-11
0.662253 21.6102 -2.19637e-11
-3.21691e-11 -2.19637e-11 21.6401

-0.244842 6.58801 1.96376e-11
6.58801 -1.98809 1.57772e-11
1.96376e-11 1.57772e-11 -0.928257

-4.36311 -6.58261 3.13821e-11
-6.58261 -4.19068 -2.32029e-12
3.13821e-11 -2.32029e-12 -1.97525

-10.1104 -6.30337 1.00126e-11
-6.30337 -2.76119 2.3096e-12
1.00126e-11 2.3096e-12 -2.03754

22.4699 2.3471 -2.48534e-11
2.3471 22.5722 -4.93111e-11
-2.48534e-11 -4.93111e-11 24.8453

22.4366 2.55797 -3.69728e-11
2.55797 22.5361 4.00738e-11
-3.69728e-11 4.00738e-11 24.9312

-3.36848 1.10971 4.27357e-11
1.10971 -0.927501 1.8553e-10
4.27357e-11 1.8553e-10 -15.2064

-4.75847 1.78841 1.96624e-11
1.78841 -9.37816 6.75509e-11
1.96624e-11 6.75509e-11 -12.9054

-3.95573 -5.91973 7.63914e-11
-5.91973 -0.400735 -2.46595e-11
7.63914e-11 -2.46595e-11 -1.74034

0.218336 -7.33801 3.23435e-11
-7.33801 1.71476 -9.63289e-12
3.23435e-11 -9.63289e-12 0.828231

1.38234 6.89101 8.86676e-12
6.89101 -4.23997 6.56399e-11
8.86676e-12 6.56399e-11 -1.01482

-2.75517 -8.30002 2.83051e-11
-8.30002 -4.59738 2.00182e-11
2.83051e-11 2.00182e-11 -1.80233

-3.5297 -7.78727 1.54131e-11
-7.78727 -0.871682 1.57889e-11
1.54131e-11 1.57889e-11 -0.590416

3.3605 5.64884 -1.23248e-11
5.64884 1.94875 -2.50703e-12
-1.23248e-11 -2.50703e-12 1.06405

6.92538 -2.54877 -3.39004e-11
-2.54877 16.0848 5.78397e-12
-3.39004e-11 5.78397e-12 9.60993

9.27911 1.51381 1.63731e-11
1.51381 15.8503 1.54058e-11
1.63731e-11 1.54058e-11 9.62881

15.681 -2.35781 8.99569e-11
-2.35781 8.88091 -2.58259e-11
8.99569e-11 -2.58259e-11 10.1138

1.11257 7.50636 8.28241e-12
7.50636 -0.218406 1.30956e-11
8.28241e-12 1.30956e-11 0.0182741

11.4385 -1.83217 -1.77289e-11
-1.83217 19.6159 -6.95346e-11
-1.77289e-11 -6.95346e-11 13.4289

19.2772 -1.25471 -4.6283e-12
-1.25471 10.9799 -3.75581e-11
-4.6283e-12 -3.75581e-11 13.2652

1.03322 5.50534 -6.18088e-11
5.50534 -5.2446 -3.36738e-11
-6.18088e-11 -3.36738e-11 -1.84497

-3.20475 -8.00979 6.46843e-11
-8.00979 -6.42858 -4.0448e-11
6.46843e-11 -4.0448e-11 -3.15866

0.0580747 6.76417 -3.23557e-11
6.76417 -6.32993 -3.84985e-11
-3.23557e-11 -3.84985e-11 -2.49659

-4.05973 -7.83572 4.75535e-11
-7.83572 -5.0812 -3.15806e-11
4.75535e-11 -3.15806e-11 -3.64486

23.5763 2.88099 2.31211e-11
2.88099 23.8866 9.82755e-12
2.31211e-11 9.82755e-12 25.9075

23.6237 2.81647 -3.2546e-11
2.81647 23.7728 3.37109e-11
-3.2546e-11 3.37109e-11 25.7569

1.5188 6.02356 2.48352e-11
6.02356 -0.83257 2.96427e-11
2.48352e-11 2.96427e-11 -0.0986992

-0.601127 -7.43914 2.71529e-11
-7.43914 -2.44691 6.55009e-12
2.71529e-11 6.55009e-12 -0.592292

-9.34531 -4.73159 -1.42445e-11
-4.73159 -5.92526 3.52312e-11
-1.42445e-11 3.52312e-11 -8.31342

-10.4101 -1.62141 -2.63727e-11
-1.62141 -2.65127 4.90904e-11
-2.63727e-11 4.90904e-11 -9.73482

-0.379778 6.86568 -2.96439e-11
6.86568 -4.55534 6.5498e-12
-2.96439e-11 6.5498e-12 -2.15379

-8.55645 -6.12863 3.60062e-11
-6.12863 -2.34625 3.77247e-11
3.60062e-11 3.77247e-11 -3.64564

0.872783 3.61037 1.92308e-11
3.61037 -14.7465 -2.04015e-11
1.92308e-11 -2.04015e-11 -4.98045

-0.704876 -5.58246 3.54242e-11
-5.58246 -11.8428 -3.81286e-11
3.54242e-11 -3.81286e-11 -6.26485

-7.38989 6.29829 9.04269e-12
6.29829 -2.75286 -3.19558e-11
9.04269e-12 -3.19558e-11 -2.16272

-5.17236 -7.3185 3.17664e-11
-7.3185 2.70435 -2.1256e-12
3.17664e-11 -2.1256e-12 -1.58079

-11.9315 -5.08608 -8.61615e-12
-5.08608 -10.6285 1.88682e-11
-8.61615e-12 1.88682e-11 -13.3404

-13.3384 -4.54588 -2.09797e-11
-4.54588 -2.52851 2.50289e-11
-2.09797e-11 2.50289e-11 -10.0383

-0.934137 5.09995 -2.46537e-11
5.09995 -16.1599 -3.00171e-11
-2.46537e-11 -3.00171e-11 -8.65575

-0.927641 1.66354 5.04018e-11
1.66354 -16.5285 -5.87247e-11
5.04018e-11 -5.87247e-11 -11.0421

-2.47018 -5.51587 -1.15512e-11
-5.51587 -10.3674 -2.14643e-15
-1.15512e-11 -2.14643e-15 -10.3978

-1.14744 -1.17876 -1.38515e-11
-1.17876 -9.88775 8.06955e-12
-1.38515e-11 8.06955e-12 -13.1721

-15.2732 -1.27011 4.17704e-11
-1.27011 0.232734 -2.69545e-11
4.17704e-11 -2.69545e-11 -11.8987

-9.40825 9.36941 -5.01559e-11
9.36941 -9.60503 -5.23592e-11
-5.01559e-11 -5.23592e-11 -12.1717

0.47862 5.60223 1.75906e-10
5.60223 -14.0316 -2.00524e-11
1.75906e-10 -2.00524e-11 -9.4044

-0.757794 4.63726 1.3864e-10
4.63726 -17.7477 3.83286e-11
1.3864e-10 3.83286e-11 -13.25

2.09162 1.28996 1.46652e-10
1.28996 -1.48203 -2.12067e-11
1.46652e-10 -2.12067e-11 -15.206

-9.87247 -6.50935 -2.97156e-10
-6.50935 -4.29182 3.4118e-10
-2.97156e-10 3.4118e-10 -14.0786

1.91208 4.24596 -1.69521e-11
4.24596 -13.1011 -2.88631e-11
-1.69521e-11 -2.88631e-11 -7.59374

0.288873 3.41169 4.5814e-11
3.41169 -6.36385 -5.78552e-12
4.5814e-11 -5.78552e-12 -3.97239

-2.82076 5.49514 -6.26989e-11
5.49514 -15.2783 8.91306e-11
-6.26989e-11 8.91306e-11 -11.5191

-3.39233 -6.26753 1.30904e-11
-6.26753 -9.25609 -8.85358e-12
1.30904e-11 -8.85358e-12 -11.2005

-6.81187 -3.14135 -3.06577e-12
-3.14135 -2.4336 1.22422e-10
-3.06577e-12 1.22422e-10 -14.5624

-2.42959 -2.80737 5.39761e-12
-2.80737 -4.78633 4.73547e-11
5.39761e-12 4.73547e-11 -5.65926

-0.449459 5.53877 5.62283e-11
5.53877 -10.7827 8.14103e-11
5.62283e-11 8.14103e-11 -5.73228

-0.735466 3.25116 1.81159e-11
3.25116 -12.3788 8.12219e-11
1.81159e-11 8.12219e-11 -7.93247

-4.20418 -7.2705 -1.07829e-11
-7.2705 -7.14864 -3.54168e-11
-1.07829e-11 -3.54168e-11 -7.7952

-1.78017 -3.52827 6.39087e-11
-3.52827 -8.80219 1.27003e-11
6.39087e-11 1.27003e-11 -10.3471

VECTORS fluid_flux_TPM float
-0.00012054 -0.000361605 -1.04289e-19
-3.71918e-05 0.000296665 1.21266e-21
5.90307e-05 -0.000296864 -1.15203e-19
-0.000269467 -5.12527e-05 6.66963e-20
-0.000338464 -8.92319e-05 2.54659e-20
-4.45696e-05 0.000382384 -1.69772e-20
6.64123e-05 -0.000382692 -1.5037e-19
-0.000363631 9.1326e-05 -6.0633e-21
-0.000113823 0.000183326 3.15291e-20
-0.000191128 -0.000444101 -9.33748e-20
-0.000183209 0.000475109 1.81899e-20
0.000497171 0.000202468 4.85064e-21
0.00026286 0.000254608 -5.3357e-20
-0.000242216 -0.000253744 -7.76102e-20
-0.000119852 -0.000250875 -8.12482e-20
-3.70298e-05 -0.000237775 -3.27418e-20
3.85293e-05 0.000390958 -2.30405e-20
-1.73542e-05 -0.00039116 -5.82077e-20
0.000344313 3.45821e-05 2.42532e-21
-0.000143846 -0.000535867 -1.29755e-19
-0.000145225 0.000548025 -2.06152e-20
0.000597234 0.000137882 3.63798e-20
-0.000231051 -0.000239469 -1.10352e-19
-0.000372774 8.73039e-05 1.33393e-20
-0.000265374 -0.00024126 -1.09139e-19
0.000159726 0.000353036 1.81899e-20
-0.000255677 4.82492e-05 3.39545e-20
-0.000387258 -0.000807473 -8.06419e-20
-0.000221984 -0.000112307 3.51671e-20
0.000860435 0.000407089 -3.94114e-20
-1.20336e-06 0.000365529 -4.36557e-20
2.25332e-05 -0.000365635 -8.48862e-20
-0.000838877 -0.000426231 -7.27596e-20
-0.00084181 0.00041014 -1.84324e-19
-0.000547489 0.000179059 1.21266e-21
-0.000194521 -0.000157441 -8.97368e-20
-0.000340568 -0.000171384 -2.91038e-20
-0.000356601 0.000174444 -5.57823e-20
-5.90032e-05 -0.000119506 1.45519e-20
0.000240454 0.000245449 5.57823e-20
-0.000350647 0.000234403 2.06152e-20
-0.000103244 1.67911e-06 6.54836e-20
-0.000226793 0.000247812 6.18456e-20
-0.000122447 0.000359846 1.69772e-20
5.57024e-05 0.000237741 -3.88051e-20
-0.000355159 0.000234013 -7.27596e-21
-0.000879316 -0.000879316 -4.42621e-20
0.000910881 0.000910881 -3.03165e-20
8.06284e-05 0.000185607 8.60988e-20
0.000914152 0.000966264 -3.75924e-20
-0.000933695 -0.000881933 -5.03254e-20
0.000421226 -4.35394e-05 2.91038e-20
0.00042092 4.33013e-05 -8.48862e-20
0.000296263 5.23766e-05 -7.76102e-20
0.000401363 -0.000183241 -2.42532e-21
0.00040102 0.000183261 -1.52795e-19
0.000151268 0.00024686 4.24431e-20
-0.000353015 -0.00066176 -4.85064e-21
-0.00035408 0.000664387 -7.03343e-20
0.000321279 -0.000122646 -3.39545e-20
0.000320774 0.000121929 -3.88051e-20
-0.000481231 0.000210571 3.27418e-20
-0.000382673 0.000603902 7.76102e-20
0.000407018 -0.000608874 -7.27596e-20
0.000234763 -0.000242394 -8.48862e-20
-0.000425529 0.000815695 9.70128e-21
-0.000815586 0.000432087 -3.15291e-20
4.75195e-05 0.000236002 1.21266e-21
-2.68104e-05 -0.000235385 -1.15203e-19
0.000714634 -0.00029601 2.88613e-19
0.000714841 0.000296096 -2.76486e-19
5.08862e-05 -7.50202e-05 -6.18456e-20
0.00032696 0.000112828 -6.79089e-20
0.000327664 -0.000112989 -9.94381e-20
-0.000172089 -0.000118362 -5.21444e-20
-5.97331e-05 -0.000182495 1.94026e-20
-0.00050609 -0.000107982 -7.27596e-21
-0.000436729 -6.39113e-05 1.57646e-20
-0.000318436 -0.000268993 2.91038e-20
-0.000372246 0.000644728 -1.21266e-20
-0.000371347 -0.000643162 -2.42532e-21
-0.000384033 -0.000430727 -6.0633e-20
-0.00028136 0.000166228 2.54659e-20
0.000339096 0.000123128 -4.72937e-20
-5.80597e-05 0.000682867 4.85064e-20
7.42617e-05 -0.000689797 -4.12304e-20
-0.000329463 0.000296172 1.45519e-20
3.4087e-05 0.000315019 1.57646e-20
-1.1549e-05 -0.00031497 -1.1399e-19
0.000288276 -4.80309e-05 -7.76102e-20
0.000285234 4.49253e-05 -7.51849e-20
0.000507959 -0.000348994 -3.63798e-20
0.000409166 6.70728e-05 4.60811e-20
0.000304569 -0.000151755 -7.03343e-20
0.000302984 0.000152033 -9.45875e-20
0.000343176 -0.000125612 -5.82077e-20
0.000150628 -0.000350705 -6.79089e-20
0.00027451 -0.000120202 -7.03343e-20
0.000270347 0.000117612 -9.21621e-20
-0.000295125 0.000134802 0
0.000167653 0.000103449 1.69772e-20
-0.000353695 -0.000246946 -5.57823e-20
-0.000126074 2.98923e-05 -3.51671e-20
-3.23345e-05 7.18467e-05 -2.66785e-20
0.000422807 5.98659e-05 1.21266e-20
-0.000288755 0.000173657 2.66785e-20
-0.000304675 -0.000141971 3.63798e-21
-0.000233626 -0.000292573 -1.10352e-19
-0.000269899 -0.000180922 -3.03165e-20
6.06362e-06 -0.000324122 -5.82077e-20
1.63617e-05 0.000324228 -3.88051e-20
0.000502202 -0.000198052 -5.6995e-20
-0.000171726 0.000117397 6.0633e-20
0.000253083 -0.000357625 -5.94203e-20
0.000254302 0.000360941 1.21266e-20
-0.000280787 0.000166259 -1.09139e-20
-0.000111131 0.000180679 5.21444e-20
-0.000113706 -0.000187341 -4.60811e-20
-6.12945e-05 -0.000336421 -1.30967e-19
-0.000262945 0.00025269 5.82077e-20
5.48686e-05 -0.000471433 -1.35818e-19
7.88205e-05 0.000482901 -1.57646e-20
0.000533884 -2.54704e-05 7.27596e-21
0.000520414 0.00034673 -2.42532e-20
0.000359867 -0.000209257 -5.82077e-20
0.000470772 -0.000815546 -5.09317e-20
-0.00046958 0.000813346 -1.35818e-19
0.000411843 -7.3381e-05 -7.27596e-21
7.23993e-05 0.000182362 1.81899e-20
0.000300079 -5.68211e-05 -5.57823e-20
-5.77154e-05 0.000341026 -3.39545e-20
-8.72359e-05 0.000190833 7.27596e-21
0.000103983 -0.000190118 -1.18841e-19
0.000171143 -0.000106553 5.82077e-20
0.00012817 -3.83753e-05 2.66785e-20
-5.21696e-05 -0.000183268 -4.9719e-20
0.000222881 2.09073e-06 -4.60811e-20
0.00035312 0.000225889 7.27596e-21
-0.000119748 -3.83388e-05 6.4271e-20
0.000353565 0.000230611 3.51671e-20
-0.000372147 0.000462713 -4.24431e-20
-0.000193405 0.00015011 3.88051e-20
0.000146573 -0.000523649 -1.40669e-19
0.000154371 0.000523476 -2.78912e-20
0.000582581 -0.000133614 -1.45519e-20
0.000360941 -0.000239292 -5.57823e-20
1.36783e-05 0.00037807 -1.21266e-20
8.72263e-06 -0.000377532 -1.17628e-19
0.000286346 -0.000479611 -5.94203e-20
0.000281856 0.000459592 -3.27418e-20
0.000182292 -6.48679e-05 -8.73115e-20
0.000183002 6.25681e-05 -4.85064e-20
0.000201341 0.000125954 -3.63798e-21
0.000121458 0.000171027 9.21621e-20
-0.000270395 -0.000163138 -8.24609e-20
-0.000540561 -0.000426347 -3.45608e-20
8.49858e-05 0.000349532 6.0633e-21
0.00035958 0.000120965 -1.38243e-19
0.000360276 -0.000121496 -1.45519e-20
0.000326358 -0.00012789 -7.03343e-20
0.000325745 0.000127078 -4.48684e-20
-0.000164911 -0.00159354 -2.12215e-20
0.00163642 0.000251831 -5.94203e-20
8.50058e-05 -0.000341355 -1.72198e-19
0.000494362 -0.000327537 7.03343e-20
0.000494104 0.000328305 -1.67347e-19
0.000333382 0.000174266 9.70128e-21
-0.000675031 -4.29498e-05 1.00309e-36
0.000409747 -7.4604e-05 2.42532e-21
-1.42452e-05 0.000290742 5.94203e-20
3.55572e-05 -0.000292068 -7.51849e-20
-0.000240792 0.000362688 -4.48684e-20
0.000121399 3.95179e-05 6.0633e-20
0.000334773 -0.00017515 -6.66963e-20
-4.98524e-05 -8.67555e-05 -5.45697e-20
-0.000244828 0.000201146 1.21266e-20
0.000267395 -0.000200821 -1.30967e-19
0.000200244 -0.000123793 2.18279e-20
-0.000197757 -0.000134842 -8.24609e-20
-0.000347951 -0.000224073 -6.0633e-21
5.73208e-05 7.99802e-05 -2.18279e-20
-0.000114146 0.000245214 4.60811e-20
-5.99212e-05 -0.000340303 -1.35818e-19
0.000285421 0.000132929 3.15291e-20
8.75486e-05 0.000343291 0
-0.000106724 -0.000166031 5.09317e-20
-0.000428381 0.000783603 1.81899e-21
-0.000769011 0.000436683 -1.27329e-20
0.000286276 -0.000133682 -8.60988e-20
0.000346487 -4.01921e-05 -4.9719e-20
0.000723788 0.000317638 -3.12866e-19
0.000723458 -0.000317258 2.74061e-19
7.27445e-05 -0.00018605 -3.63798e-21
-0.000475794 -0.000344238 8.73115e-20
-0.000486704 0.000335754 -8.73115e-20
-0.000202908 -9.00031e-05 4.24431e-20
-4.26137e-05 7.48851e-05 1.24904e-19
0.000462547 0.000566143 -6.48773e-20
-0.000516771 -0.000425239 -7.09406e-20
0.000460217 -0.000631236 -4.12304e-20
0.000467656 0.000638845 -5.21444e-20
0.000712927 -0.000392849 -5.57823e-20
5.6443e-05 -6.65385e-05 4.9719e-20
-4.71794e-05 -0.000704161 -7.15469e-20
0.00075529 5.48377e-05 -4.24431e-20
0.00038787 0.000510451 -1.30967e-19
-0.000366113 -0.000507259 -9.94381e-20
-0.00023439 -0.000188941 -6.4271e-20
-0.000101295 4.03591e-06 6.0633e-21
0.000272085 -0.000373651 -9.09495e-20
0.000273749 0.000379644 1.21266e-21
-0.000231779 6.76081e-05 4.85064e-20
0.0001431 -0.000240953 -4.85064e-20
0.000379047 -0.000191631 4.36557e-20
0.000378265 0.000191783 -1.38243e-19
-0.000283082 -0.000151787 -4.72937e-20
-0.000197133 0.000132636 5.82077e-20
-0.000226395 -0.000107101 -4.85064e-21
-0.000431565 -0.000242634 -5.09317e-20
-5.32756e-05 0.000197092 9.58001e-20
-0.000901535 0.000901535 -6.36646e-21
-5.47435e-05 0.00034884 -2.66785e-20
8.0026e-05 -0.00035242 -1.07927e-19
7.7168e-05 -0.000686029 -6.30583e-20
-5.58328e-05 0.000685754 -7.03343e-20
0.000215223 -0.000107895 -1.26117e-19
0.000215028 0.000104319 -6.30583e-20
-0.000337591 0.000179867 -6.0633e-20
-0.00033382 -0.000174136 -3.15291e-20
-0.000591023 -0.000107841 -9.21621e-20
-0.000581656 0.000110105 7.27596e-21
0.000685189 0.000319898 -3.0074e-19
0.000685164 -0.0003195 1.5522e-19
0.000217614 2.01258e-05 8.97368e-20
0.000217956 -1.8808e-05 7.27596e-20
0.00034629 0.000122033 -3.51671e-20
-1.15882e-05 0.000309022 -1.21266e-21
3.38189e-05 -0.000302215 -1.03076e-19
-0.000489966 0.00033948 -2.66785e-20
0.000345186 -0.000125296 -3.39545e-20
-2.85096e-05 -0.000325389 -6.66963e-20
0.000295916 0.000179442 2.78912e-20
-0.000216963 -6.75564e-06 3.75924e-20
-0.000214463 1.70794e-06 1.94026e-20
0.000295158 -0.000182072 -1.09139e-20
-0.000223256 0.000196741 6.66963e-20
0.000385649 0.000668064 -1.04289e-19
-0.000379332 -0.000657016 -8.48862e-20
-5.8619e-05 -0.000227806 -4.48684e-20
-0.000284535 -0.00017134 -3.88051e-20
-3.18944e-05 -0.000380599 -6.0633e-21
0.000479994 -0.000819275 -6.66963e-21
0.000827794 -0.000387878 -4.66874e-20
0.000181455 -0.000149825 -7.03343e-20
0.000179022 0.000146674 -3.88051e-20
-4.76368e-05 0.000398689 4.72937e-20
4.82714e-05 0.00031402 3.15291e-20
0.000426994 0.000182239 -6.0633e-21
0.00032732 -7.4177e-05 1.21266e-20
0.000326958 7.27324e-05 3.88051e-20
-0.000771013 -5.7066e-09 -3.88051e-20
-0.000771223 3.01107e-09 -5.82077e-20
7.48195e-05 -0.000174008 -3.63798e-21
-0.00029229 -0.000177721 6.0633e-21
0.000302242 0.00018207 -1.23691e-19
0.000303886 -0.000182149 -7.03343e-20
8.32414e-05 0.000222971 1.15203e-19
3.75804e-05 6.14132e-05 1.51582e-19
0.000898103 -0.000898103 -3.03165e-21
-0.000253456 8.02394e-05 4.48684e-20
-0.000255964 -8.59145e-05 -3.27418e-20
-5.62503e-05 0.000178388 1.21266e-19
0.000419063 -0.000185198 -4.36557e-20
-0.000287232 0.000146458 8.48862e-21
-0.000370681 -4.96916e-05 -3.75924e-20
-0.000372423 4.85886e-05 3.63798e-21
-0.000223034 0.000107193 8.48862e-21
0.000213091 0.000316065 -7.03343e-20
0.000214724 -0.000315245 0
0.00015923 0.000898 -1.1399e-19
-0.00014206 -0.000898008 -1.5037e-19
-8.09834e-05 0.00162521 -2.06152e-20
-0.00158767 8.31461e-05 -1.94026e-20
0.000245743 -1.75127e-05 4.36557e-20
0.000247064 1.47484e-05 1.43094e-19
-1.06492e-05 -5.71268e-05 9.33748e-20
0.000881748 -0.00107237 -1.15203e-20
0.00112149 -0.000863349 -6.66963e-21
0.000293264 -0.00070807 1.64922e-19
0.000293468 0.000708564 -1.916e-19
-0.000269922 0.000161224 1.45519e-20
0.000257871 -0.00024582 -1.94026e-20
0.000261795 -0.000108277 9.70128e-21
0.000261485 0.000106776 8.73115e-20
0.00019439 -0.000161581 4.60811e-20
0.000256011 0.000248183 4.12304e-20
1.74506e-06 -0.000755412 -9.09495e-20
2.94695e-05 0.000695379 -2.30405e-20
0.000806567 6.68244e-06 -2.91038e-20
0.000195103 0.000159905 4.9719e-20
8.88867e-05 0.000766223 5.45697e-21
-0.000748879 -0.000101047 -2.48595e-20
0.000327517 -3.48471e-05 7.03343e-20
0.000328938 3.0565e-05 2.18279e-20
0.000318932 -6.41418e-05 7.27596e-20
0.000319359 6.3756e-05 -2.00618e-36
-0.000886688 0.00109745 -6.0633e-22
-0.00108833 0.00088661 -3.81988e-20
0.000286363 0.000124628 7.03343e-20
0.000287068 -0.000126192 0
9.9592e-05 0.000527219 -1.43094e-19
-8.18451e-05 -0.000523812 -1.09139e-19
0.000246725 0.000103375 1.16415e-19
0.000244859 -0.000102756 4.85064e-20
0.000375202 -0.000226673 1.69772e-20
0.000374377 0.000227047 -1.72198e-19
-0.000219223 -5.43313e-05 -5.21444e-20
-0.000214751 5.0935e-05 1.81899e-20
-0.000349893 -0.000664659 -5.09317e-20
0.000344798 -0.000412138 8.00355e-20
0.000413361 -0.000348696 1.916e-19
0.000344057 0.000413623 -1.69772e-20
0.00041351 0.000349358 -9.70128e-20
0.00037123 0.000671806 -1.06714e-19
-0.000766211 1.23003e-05 -2.66785e-20
-0.000765442 -1.43922e-05 4.85064e-21
0.000555969 0.000230305 6.30583e-20
0.00133722 0.000176025 2.66785e-19
0.00133761 -0.000176076 -2.86188e-19
0.000555831 -0.000230247 2.91038e-20
0.000697876 1.5184e-05 6.0633e-20
0.00049436 0.000149943 8.73115e-20
0.000654805 -0.000184188 1.38243e-19
0.00069784 -1.49725e-05 -2.91038e-20
0.000654778 0.000184356 -3.0559e-19
0.000494398 -0.000149682 -7.76102e-20
0.000518522 -0.000146467 6.79089e-20
0.000515304 -0.000147469 1.16415e-19
0.000518547 0.00014658 -2.03727e-19
0.000515114 0.00014765 -2.37681e-19
-4.77909e-05 0.00030256 4.24431e-20
-5.08605e-05 -0.000304071 2.30405e-20
-0.000272732 4.98126e-05 -5.21444e-20
-0.000348522 9.06642e-05 1.21266e-21
-5.55708e-05 0.000393006 6.30583e-20
-5.85847e-05 -0.000393877 -2.18279e-20
-0.000348772 -8.96034e-05 1.79474e-19
-0.000116991 -0.000183403 5.57823e-20
-0.000195791 -0.000441133 5.82077e-20
0.000200931 0.00045451 5.45697e-20
0.00046132 0.000209819 6.79089e-20
0.000254956 -0.000264902 -1.21266e-19
0.000261146 0.000261149 -6.4271e-20
-0.000280166 0.000167491 -2.99527e-19
2.9226e-05 -0.000402082 -2.25555e-19
3.1887e-05 0.000400649 -1.12777e-19
0.000284664 4.45194e-05 -6.79089e-20
-0.000147032 -0.000535029 5.45697e-20
0.000144863 0.00054033 2.00618e-36
0.00055949 0.000149501 1.00651e-19
0.000134339 0.000362248 -5.3357e-20
0.000138839 -0.000356878 1.67347e-19
-0.000256519 -5.24522e-05 1.28542e-19
-0.000383011 -0.000796006 5.45697e-21
-0.000226609 0.000114002 1.45519e-20
-8.59249e-06 0.000374744 2.66785e-20
-1.19298e-05 -0.000375744 -5.09317e-20
-0.000845771 -0.000409016 2.74061e-19
-0.00084211 0.000424139 -4.85064e-21
-0.000183111 0.000247565 -1.90388e-19
-0.000221343 0.000262103 -1.62496e-19
-0.000511167 0.000165027 -3.63798e-20
-0.000360827 -0.000173867 -2.42532e-20
-0.000345285 0.000169278 -1.74623e-19
-5.92053e-05 0.000121399 5.21444e-20
0.000214774 -0.00025567 1.11565e-19
-0.000106513 -3.62084e-06 1.24904e-19
-0.000367719 0.000240194 -2.20704e-19
-0.000241745 -0.000244639 8.00355e-20
-0.000424672 -6.65205e-05 1.38243e-19
-0.000387382 7.79298e-05 -1.1399e-19
-0.000133203 -0.000362002 -3.63798e-21
3.90075e-05 -0.000246718 -1.05501e-19
4.21504e-05 0.000245064 -8.48862e-21
-0.000120273 0.000364182 -6.18456e-20
0.000222347 0.000258658 -2.78912e-20
-0.000860594 -0.000860471 -3.68042e-19
-0.000847376 0.000847418 1.21266e-20
7.59265e-05 -0.000197105 -6.91216e-20
7.61713e-05 0.000191061 -1.12777e-19
0.000129953 0.000255867 1.81899e-20
-0.000849861 0.000924811 -1.98876e-19
-0.000896447 -0.000862201 -4.77788e-19
0.000441169 -8.07215e-05 -1.5522e-19
0.000437419 8.74692e-05 -3.63798e-20
0.00020766 7.30489e-05 -5.09317e-20
0.000413298 -0.000276673 -1.69772e-19
0.000410221 0.000278899 2.42532e-20
0.000130737 -0.000255292 2.06152e-20
-0.000358037 -0.000661277 4.1473e-19
-0.000357778 0.000656213 -6.54836e-20
0.000303465 -0.000174538 -1.7341e-19
0.000303601 0.000177407 4.12304e-20
-0.000400045 -0.000620601 -5.11742e-19
-0.000398752 0.000620702 -1.45519e-20
0.000417077 0.000787221 1.86143e-19
0.000790449 0.000417421 2.44351e-19
3.46392e-05 0.000243487 2.66785e-20
3.14678e-05 -0.000245116 -6.4271e-20
0.000864681 -0.000358085 1.23691e-19
0.00085504 0.000354172 3.88051e-20
-0.000351481 -0.000244864 2.17066e-19
0.000287688 0.000158038 2.00618e-36
0.000287778 -0.000154907 -2.54659e-20
-0.000322644 0.000269139 -1.10352e-19
-0.000493021 -0.000111378 -4.00178e-20
-0.000371056 0.00064274 3.63798e-20
-0.000372708 -0.000645397 6.28158e-19
-0.0002773 -0.000171255 1.87962e-19
0.000278419 0.000150171 4.9719e-20
-0.000394061 -0.000428598 -2.54659e-20
-6.78581e-05 -0.000701375 -2.86188e-19
-6.51515e-05 0.000701836 4.85064e-21
-0.000333716 -0.000295476 6.18456e-20
2.71643e-05 0.000321121 -7.63976e-20
2.44705e-05 -0.000320764 -6.18456e-20
0.000206984 -7.26599e-05 -1.81899e-20
0.00020341 7.01772e-05 -4.12304e-20
0.000465224 -0.00035499 -4.72937e-20
0.000350104 7.7368e-05 -5.21444e-20
0.000249102 0.00023589 5.57823e-20
0.000251224 -0.000233948 -8.48862e-21
0.00028299 -0.00015101 -3.51671e-20
0.000188732 -0.000168342 -5.21444e-20
0.000183621 0.000166836 3.51671e-20
-0.000300384 -0.000134062 2.17066e-19
-0.000315369 0.000248382 -1.6856e-19
0.000158947 0.000122107 1.00309e-36
0.000154089 -0.000118413 -1.81899e-19
-4.83373e-05 -8.21566e-05 -5.94203e-20
-4.54105e-05 8.03316e-05 6.0633e-21
0.000375512 6.3964e-05 4.24431e-20
-0.000529681 0.000516277 -2.40107e-19
-0.000292474 -0.00017462 1.58858e-19
-0.00030247 0.000143372 -9.58001e-20
-0.000720276 0.000117878 -1.21266e-19
-0.000280366 0.000171133 -2.37681e-19
3.12458e-06 -0.000331854 4.36557e-20
7.84778e-06 0.000331159 -2.30405e-20
-0.000247063 -0.000296088 2.11003e-19
0.000459202 -0.000197113 -8.00355e-20
-0.000174504 -0.000119821 -1.43094e-19
-0.000174917 0.000129616 -1.49157e-19
0.000227598 -0.000362097 1.00651e-19
-0.000239708 0.000387228 -2.11003e-19
-0.000287947 -0.000170429 1.6856e-19
-0.000116156 -0.000182582 7.27596e-20
-0.000118719 0.000195193 -6.79089e-20
6.78684e-05 0.000348506 -2.18279e-20
-0.000261908 -0.000248687 -2.18279e-20
4.0538e-05 -0.000469579 2.26767e-19
-6.12354e-05 0.000483743 6.0633e-20
0.000490138 -5.20807e-05 5.94203e-20
0.000321236 -0.000218772 -1.09139e-20
-0.000481329 0.000833819 -1.21266e-19
-0.000480419 -0.00083221 -3.90476e-19
-0.000345304 -0.000207846 1.10352e-19
0.000362643 -7.83615e-05 5.82077e-20
-0.000548044 -0.000434589 -9.45875e-20
5.5073e-05 -0.000193421 -8.97368e-20
5.71885e-05 0.000195968 -5.45697e-20
0.000212903 -7.70685e-05 -9.82254e-20
-6.97649e-05 -0.000340449 1.35818e-19
-0.000103281 -0.000201265 -1.18841e-19
-0.00010033 0.000199379 8.48862e-21
0.000325837 0.000458493 -5.21444e-20
0.000483576 0.000326263 3.39545e-20
-0.000690954 -3.09322e-05 -8.48862e-20
0.000118721 -2.27146e-05 -9.70128e-21
0.000113312 2.8062e-05 -1.95238e-19
9.86048e-05 6.06796e-06 -5.21444e-20
-0.000123237 3.38563e-05 -1.63709e-19
-0.000113596 -3.27899e-05 -1.60071e-19
-0.000199855 -0.000149745 -5.3357e-20
0.000133545 -0.000519533 2.29193e-19
-0.000122249 0.000518488 3.51671e-20
0.000530685 -0.000137654 4.00178e-20
0.000322785 -0.000246167 -7.27596e-21
5.51914e-06 0.000378 -4.9719e-20
7.22394e-07 -0.000380064 4.85064e-20
-0.000247665 0.000495773 -1.18841e-19
0.000257859 -0.000466418 9.70128e-20
3.74534e-05 9.88265e-05 -2.91038e-20
3.42514e-05 -0.000100094 -3.27418e-20
0.000182759 -0.000137567 -3.15291e-20
0.000186637 0.000140627 -4.00178e-20
0.000124433 -0.000179788 4.36557e-20
0.000118944 0.000176178 -1.43094e-19
-0.000269403 0.000164882 -3.08016e-19
6.7323e-05 -0.000353522 1.5522e-19
0.000342062 0.00017645 2.91038e-20
0.000344539 -0.000173329 -4.12304e-20
0.000297462 -0.000192409 4.00178e-20
0.000287503 -0.000158042 -7.03343e-20
0.000287463 0.00016069 5.94203e-20
-0.000167368 -0.00155378 -2.06758e-19
0.000229885 0.000358219 -3.27418e-20
-0.00160091 0.000187799 -2.02514e-19
-5.91537e-05 0.000355888 4.85064e-21
0.000550994 -0.000497816 -1.30967e-19
0.00054498 0.000497381 1.62496e-19
0.000299824 0.000195171 5.21444e-20
0.000350759 -8.52951e-05 3.15291e-20
0.000326976 0.000227896 1.12777e-19
-2.22995e-05 -0.000297273 -8.73115e-20
-2.03446e-05 0.000297282 -1.39456e-19
-0.000258117 0.000209713 6.79089e-20
-0.000260098 -0.000211536 -2.08577e-19
5.16949e-05 8.91167e-05 -3.15291e-20
4.24095e-05 -9.03886e-05 -1.28542e-19
-0.000121425 -0.000247398 8.48862e-20
6.97997e-05 0.000343163 1.69772e-20
0.000261957 -0.000161742 -2.91038e-20
0.000263808 0.000164123 6.66963e-20
0.000328447 0.000249555 1.45519e-20
-0.000114873 0.000249824 -7.03343e-20
6.97729e-05 -0.000347556 1.34605e-19
0.00041994 0.000760883 1.43094e-19
0.000771867 0.000419164 3.13473e-19
-0.00047905 0.000358518 -1.90388e-19
0.000286886 -5.0551e-05 -7.76102e-20
0.00089623 -0.00043403 1.38243e-19
0.00088776 0.000432941 1.47944e-19
-0.000490467 -0.000334607 -1.60071e-19
-0.000480832 0.000342551 -4.12304e-20
-0.000203756 8.72839e-05 4.9719e-20
-4.76717e-05 7.76963e-05 -1.29755e-19
-4.81739e-05 -7.63287e-05 -1.58858e-19
-0.000403245 0.000538623 -2.18279e-19
-0.000506448 -0.000432935 -4.12304e-20
0.00043403 -0.000620058 1.79474e-19
-0.000394244 0.00064462 -1.05501e-19
0.000649758 -0.000378542 -4.12304e-20
-0.000442395 -0.000239216 1.45519e-20
-5.35741e-05 -0.000694692 1.63103e-19
-0.000657892 6.01723e-06 -8.12482e-20
0.000380772 -0.000522445 1.1399e-19
0.000388721 0.00052222 4.36557e-20
-0.000235879 0.0001865 -1.37031e-19
-0.000103325 -7.47576e-06 1.22479e-19
-0.000234444 0.000383302 -4.36557e-20
0.000247956 -0.000381683 1.57646e-19
-0.000235027 -6.95268e-05 9.58001e-20
0.000375436 -0.000290906 -2.18279e-20
0.000371791 0.000293293 5.57823e-20
-0.000288862 0.000151773 -2.80124e-19
-0.000203012 -0.000136921 -1.27329e-19
-0.00017958 0.000131811 -1.26117e-19
-0.000231911 0.000107746 -6.79089e-20
-5.90747e-05 -0.000200684 -6.0633e-21
-5.28037e-05 0.000215264 -7.15469e-20
0.000891233 0.000891185 4.32616e-19
-6.54498e-05 -0.000351794 3.51671e-20
-5.95215e-05 0.000355093 -4.24431e-20
-6.75476e-05 -0.000701777 -1.57646e-19
-6.45173e-05 0.000702658 -5.09317e-20
9.96138e-05 -0.000185505 7.76102e-20
0.000100717 0.000181298 8.12482e-20
-0.000341201 -0.000179468 -8.48862e-21
-0.000335397 0.000173311 -3.10441e-19
-0.000595059 0.000110071 -3.49246e-19
-0.000586166 -0.000109572 -5.3357e-20
0.000787502 0.000438815 1.69772e-20
0.000798665 -0.000439742 -6.54836e-20
0.000212428 -2.30248e-06 -5.6995e-20
0.000205378 7.99081e-06 -3.49246e-19
0.000310734 0.000145218 2.42532e-20
-2.04146e-05 -0.000310244 9.21621e-20
0.000267002 -0.000197878 1.1399e-19
-1.79312e-05 0.000313367 -7.39722e-20
0.000306767 -0.000147274 1.33393e-20
3.59521e-05 0.000322919 2.42532e-20
0.000269584 0.00020089 8.85242e-20
-0.00021552 3.86132e-06 -2.67998e-19
-0.000222012 -4.70434e-06 -1.18841e-19
-0.000229205 -0.000197642 9.21621e-20
0.000390248 -0.000676133 4.60811e-19
0.000392669 0.00068018 1.81899e-19
-0.000287678 0.000168242 -2.47383e-19
-4.09754e-05 0.000378864 -1.63709e-19
0.00045274 -0.000797635 -1.70985e-19
0.000785844 -0.000373366 -1.48551e-19
6.29852e-05 -0.000230987 6.91216e-20
6.12174e-05 0.000227775 9.45875e-20
-5.36082e-05 -0.000397402 4.48684e-20
3.21886e-05 -0.000319548 -7.63976e-20
0.000379496 0.000199253 7.27596e-20
0.000312858 -9.97546e-05 -1.67347e-19
0.000312746 0.000104598 -1.21266e-21
-0.000775183 -3.97141e-08 1.77048e-19
-0.000774802 1.00532e-07 -4.36557e-20
-0.000289729 0.000169835 -1.60071e-19
0.0002481 0.000276602 7.27596e-20
0.000250308 -0.000274678 4.85064e-21
7.90988e-05 0.000227827 -1.33393e-19
7.80508e-05 -0.000227517 -1.45519e-20
3.46316e-05 -6.24175e-05 -7.27596e-20
3.87122e-05 6.75637e-05 -1.61284e-19
0.000863991 -0.000864064 -3.31662e-19
-0.000256953 8.79709e-05 -1.94026e-19
-0.000258074 -7.97296e-05 -1.29755e-19
-6.19213e-05 -0.00018278 1.45519e-20
-5.85307e-05 0.000185999 -9.70128e-20
0.00037043 -0.000198993 1.21266e-20
-0.000290438 -0.000145959 -2.42532e-21
-0.000375349 -4.87633e-05 -1.38243e-19
-0.000373268 6.21164e-05 -2.93464e-19
-0.000227378 -0.000106443 1.64922e-19
0.000114901 -0.00048911 -1.11565e-19
0.000113749 0.000488842 2.35256e-19
0.000156838 0.000919699 4.60811e-20
0.000152634 -0.000917422 4.43833e-19
7.19786e-05 0.00154327 7.15469e-20
0.00155564 0.000107927 4.15942e-19
0.000236115 3.58834e-05 -3.15291e-20
0.000233532 -2.9676e-05 -2.2798e-19
0.000842925 -0.00105009 -1.72198e-19
0.00102571 -0.000839124 -1.57039e-19
0.000375774 -0.000906829 1.81899e-19
0.000373158 0.000900523 2.23129e-19
-0.00027341 -0.000160726 -4.85064e-21
0.000251857 0.000136264 3.88051e-20
0.000249663 -0.000132631 -2.11003e-19
0.000234343 0.000260752 1.69772e-20
0.000231761 -0.000258651 9.70128e-20
-9.99279e-06 -0.000740114 2.18279e-19
-1.78878e-05 0.000682638 7.51849e-20
0.000708372 -2.20506e-05 1.11565e-19
0.000179016 0.000179718 -1.21266e-21
0.000175467 -0.000177249 -1.33393e-20
-7.40796e-05 0.000755109 1.54008e-19
0.000746047 -5.44256e-05 2.23736e-19
0.000334073 -4.91021e-05 -2.58297e-19
0.000334815 5.49507e-05 -3.03165e-20
0.000317777 -0.000105566 -3.03165e-19
0.000318522 0.000111421 -2.06152e-20
0.00087419 0.00107541 1.90388e-19
0.00108022 0.000875022 4.86276e-19
0.00026586 0.000146311 4.9719e-20
0.000264113 -0.000142999 -5.57823e-20
9.18091e-05 -0.000539246 -5.09317e-20
9.56346e-05 0.000539283 -5.57823e-20
0.00023662 0.000105454 -3.72286e-19
0.000241503 -9.30247e-05 -1.01863e-19
0.000369078 -0.000348838 -7.76102e-20
0.000365563 0.000349838 1.30967e-19
-0.000219049 -5.10283e-05 -2.91038e-20
-0.000233733 5.71171e-05 -2.51021e-19
0.000341606 0.000658561 3.03165e-19
0.000504265 0.000508019 1.1399e-19
0.000344905 -0.000660452 -3.63798e-20
0.000508754 -0.000508848 -3.15291e-20
0.000364207 -0.000682888 1.43094e-19
-0.000771043 -1.06479e-05 -2.83762e-19
-0.000769081 1.43487e-05 2.42532e-20
0.000371881 0.000685576 1.52795e-19
0.000612155 -0.000253606 -7.27596e-21
0.00159981 -0.000210544 5.57823e-20
0.00161794 0.000212946 8.24609e-20
0.000627643 0.000259897 -1.67347e-19
0.000791484 1.81921e-05 -8.24609e-20
0.000538982 -0.00014898 -9.45875e-20
0.00074324 0.00024162 -3.63798e-20
0.000805002 -9.03559e-06 -2.32831e-19
0.000754483 -0.000242761 -1.04289e-19
0.000544712 0.000163359 -2.74061e-19
0.000576225 -0.000223616 -3.37119e-19
0.000583143 -0.000221461 -1.74623e-19
0.0005697 0.00022739 -3.39545e-20
0.0005766 0.000225241 1.69772e-20
-0.000127831 -0.000360868 -1.62496e-19
-5.1406e-05 0.000302663 -6.66963e-20
4.97626e-05 -0.000303243 -1.81899e-19
-0.00027298 -5.04275e-05 1.44306e-19
-0.000341103 -8.79246e-05 3.03165e-20
-5.91197e-05 0.000392315 -4.60811e-20
5.75373e-05 -0.000393669 -2.11003e-19
-0.00036612 9.15564e-05 -2.66785e-20
-0.000117362 0.000183867 1.20053e-19
-0.000198756 -0.000442228 -1.78261e-19
-0.000192291 0.000468313 2.84975e-19
0.000460226 -0.000199338 2.02514e-19
0.000254218 0.000264254 -3.39545e-20
-0.000257597 -0.000263998 -8.36735e-20
-0.000127169 -0.00025447 -9.33748e-20
-4.13116e-05 -0.000243623 -1.07927e-19
2.87055e-05 0.000401306 -1.16415e-19
-3.06848e-05 -0.000402667 -1.23691e-19
0.000286012 4.19234e-05 3.63798e-20
-0.00015313 -0.000530787 -1.58858e-19
-0.00015418 0.000541477 2.53446e-19
0.00054498 -0.00014473 2.02514e-19
-0.000237502 -0.000239656 -2.19491e-19
-0.000374872 8.77064e-05 2.78912e-20
-0.000270026 -0.000241354 -9.45875e-20
0.000138675 0.000355825 1.1399e-19
-0.000258631 4.86667e-05 8.48862e-20
-0.000397207 -0.000809914 -2.03727e-19
-0.000225412 -0.000113099 1.67347e-19
0.000811596 -0.000399026 2.25555e-19
-1.32171e-05 0.000374476 -5.57823e-20
1.14048e-05 -0.000375734 -1.916e-19
-0.00084412 0.000408404 -4.80213e-19
-0.000842026 -0.000423722 -2.57084e-19
-0.000548082 0.000178673 9.70128e-20
-0.000198998 -0.00015732 -1.09139e-19
-0.000359907 0.000173533 2.42532e-19
-0.000345348 -0.000170041 -4.85064e-20
-5.90558e-05 -0.000120457 1.5037e-19
0.000213532 0.000256049 8.85242e-20
-0.000353004 0.000233071 1.66134e-19
-0.000106817 2.87092e-06 1.23691e-19
-0.000232126 0.000247086 1.90388e-19
-0.000129154 0.000357649 1.51582e-19
4.04455e-05 0.000245145 1.21266e-20
-0.000357574 0.000232677 3.17717e-19
-0.000855444 -0.000855447 -4.82032e-19
0.000866098 -0.00086619 1.35212e-19
7.56297e-05 0.000196625 4.24431e-20
0.000869237 -0.000919973 3.46214e-19
-0.000933197 -0.000859203 -2.79518e-19
0.00043981 -8.49982e-05 4.12304e-20
0.000438899 8.55018e-05 1.5037e-19
0.000203874 7.15248e-05 5.45697e-20
0.000412243 -0.000278975 3.39545e-20
0.0004113 0.0002797 1.04289e-19
0.000130586 0.000254381 5.3357e-20
-0.000357274 0.000660255 3.97752e-19
-0.000357722 -0.00065573 1.79474e-19
0.000303849 -0.000176762 5.45697e-20
0.000303058 0.000176826 2.78912e-20
-0.000480942 0.000210602 2.81337e-19
0.000398908 -0.000620037 -4.22006e-19
-0.000403629 0.00062052 2.20704e-19
0.000212154 -0.000252073 1.03076e-19
-0.00041774 0.0007852 4.38983e-19
-0.000812143 0.000430037 8.73115e-20
3.15508e-05 0.000243255 -3.63798e-21
-3.541e-05 -0.000242243 -1.17628e-19
0.000861123 -0.000356764 -2.18279e-20
0.000861201 0.000356794 2.13428e-19
4.60723e-05 -8.1858e-05 -9.82254e-20
0.000286982 0.000160641 -2.42532e-21
0.000287769 -0.000155435 -4.60811e-20
-0.000174246 -0.000119209 -6.30583e-20
-7.51501e-05 -0.000192762 -7.51849e-20
-0.000507148 -0.000105139 -2.2798e-19
0.000354939 7.88977e-05 1.17628e-19
-0.000439961 -6.24508e-05 -6.4271e-20
-0.000322982 -0.000268669 7.63976e-20
-0.000370916 -0.000642343 -9.70128e-20
-0.000372035 0.000644278 1.1399e-19
-0.000390303 -0.000428951 -3.10441e-19
-0.000284677 0.000165837 7.63976e-20
0.00028096 -0.000149951 -9.70128e-21
6.7124e-05 -0.000700687 -2.30405e-19
-6.88729e-05 0.000701962 2.93464e-19
-0.000332749 0.000295334 2.12215e-19
2.39375e-05 0.000319787 -6.79089e-20
-2.45759e-05 -0.000322474 -1.27329e-19
0.000205934 -7.27797e-05 1.33393e-20
0.000198856 6.83672e-05 4.36557e-20
0.00046455 0.000356544 2.72848e-19
0.000250294 -0.000235408 -4.12304e-20
0.000247764 0.000237632 8.12482e-20
0.000277188 0.000151838 1.81899e-20
0.000131557 -0.000355833 4.00178e-20
0.00018727 -0.000169426 -2.78912e-20
0.00018092 0.000166775 4.85064e-20
-0.000297948 0.000134934 8.24609e-20
0.000157154 0.000119779 3.27418e-20
-0.000358406 -0.000245869 -2.15853e-19
-0.000127799 3.04701e-05 3.63798e-20
-4.76521e-05 7.91492e-05 2.06152e-20
0.000374049 -6.55674e-05 1.33393e-19
-0.000291883 0.000173349 1.74623e-19
-0.00030834 -0.00014154 7.63976e-20
-0.000239984 -0.00029087 -3.34694e-19
-0.000274639 -0.000179863 -1.33393e-20
-6.18078e-06 -0.000332032 -1.21266e-19
3.00044e-06 0.000330665 -3.03165e-20
0.000458106 0.000198058 2.4617e-19
-0.000174341 0.000118406 4.36557e-20
0.000229844 -0.000363729 1.90388e-19
0.000226486 0.000363538 2.2798e-19
-0.000283841 0.000165883 8.85242e-20
-0.000115953 0.000182482 2.57084e-19
-0.000118869 -0.000194616 1.98876e-19
-7.31877e-05 -0.000337639 -9.33748e-20
-0.000266386 0.00025171 2.03727e-19
3.4348e-05 -0.000469992 -1.21266e-21
6.26476e-05 0.000478446 2.66785e-19
0.000485199 2.73756e-05 3.45608e-19
0.000483068 -0.000349861 2.08577e-19
0.000320564 0.000220787 7.51849e-20
-0.000480468 0.000832463 3.85626e-19
0.000480189 -0.000831713 -2.76486e-19
0.000361441 7.51992e-05 7.27596e-20
5.60372e-05 0.000193424 2.30405e-20
0.000212783 -7.77865e-05 3.03165e-20
-6.90851e-05 0.000340183 1.16415e-19
0.000101006 -0.000200951 -2.84975e-19
-0.000102361 0.000197734 3.27418e-20
0.000160115 -0.000121143 -2.42532e-20
0.000116626 -2.5771e-05 4.60811e-20
-5.76e-05 -0.000184975 -6.0633e-20
9.76399e-05 4.03559e-06 4.48684e-20
0.00032007 -0.000231762 1.66134e-19
-0.000123492 -3.3985e-05 9.21621e-20
0.000321292 -0.000244702 2.06152e-19
-0.000374183 0.000456382 3.40757e-19
-0.000197595 0.000150223 8.73115e-20
0.00012708 -0.000522797 2.66785e-20
0.000132268 0.000515838 2.44957e-19
0.000537952 0.000134922 1.84324e-19
0.000322207 0.00024701 1.37031e-19
6.0095e-07 0.000378816 7.39722e-20
-3.76792e-06 -0.000380501 -8.00355e-20
0.000255446 -0.000457842 1.20053e-19
0.000254753 0.000469325 2.29193e-19
3.33765e-05 -0.000101785 -4.36557e-20
3.58492e-05 0.00010055 4.36557e-20
0.000183757 0.00013755 2.66785e-20
0.000124137 0.000179306 7.27596e-20
-0.00027403 -0.000162955 -4.48684e-20
-0.000543836 -0.00041827 -2.96495e-19
6.71005e-05 0.000352468 1.49157e-19
0.000342366 0.000175952 7.27596e-20
0.000343424 -0.00017558 -2.66785e-20
0.000297157 0.000194095 -4.36557e-20
0.00028739 -0.000159779 3.63798e-21
0.000287025 0.000160142 -6.0633e-21
-0.000139243 -0.0015717 -9.27685e-20
0.0015605 -0.000236886 3.52278e-19
6.76185e-05 -0.000346722 -8.48862e-21
0.000548627 -0.000499331 -2.91038e-20
0.000547929 0.000500949 1.33393e-19
-0.000676528 -3.99393e-05 -2.21917e-19
-2.27021e-05 0.00029636 2.66785e-20
1.9951e-05 -0.000300826 -1.37031e-19
-0.000245707 0.000358543 2.49808e-19
0.000107738 3.26391e-05 -1.16415e-19
-4.72886e-05 -9.27363e-05 -2.54659e-20
-0.000262542 0.000208216 3.88051e-20
0.000259079 -0.000211312 -3.44395e-19
0.000182879 -0.000134629 -2.18279e-20
-0.000201912 -0.000136975 -7.15469e-20
0.000297654 -0.000193124 -4.85064e-21
-0.000352135 -0.000220894 -2.52233e-19
0.000339401 -8.45332e-05 1.27329e-19
4.85998e-05 8.7881e-05 1.45519e-20
-0.00012117 0.000247385 1.3218e-19
-7.09061e-05 -0.000344087 -6.4271e-20
0.000262042 0.000163769 3.63798e-20
6.96262e-05 0.000346317 1.05501e-19
-0.000123146 -0.000175946 -9.70128e-21
-0.000417578 0.000787615 3.85019e-19
-0.000764001 0.000434785 1.78261e-19
0.000286317 -5.33855e-05 1.04289e-19
0.000262751 -0.000163339 3.27418e-20
0.00089353 -0.000434794 -1.77048e-19
0.000893931 0.0004356 1.79474e-19
5.62841e-05 -0.000196447 -3.15291e-20
-0.000489404 0.000334107 -3.88051e-20
-0.00047981 -0.000341934 -1.04289e-19
-0.000205439 -8.97484e-05 1.15203e-19
-4.83309e-05 7.63364e-05 9.82254e-20
0.000442454 -0.000546842 1.3885e-19
-0.000530103 -0.000417629 -1.916e-19
0.000450873 -0.000646386 1.49157e-19
0.000416021 0.000609963 1.66134e-19
0.000668751 0.000389503 3.9654e-19
4.11341e-05 -7.61201e-05 -1.07927e-19
-2.0393e-05 -0.000695425 -9.03431e-20
0.000709553 -4.65266e-05 2.83762e-19
0.000380102 0.000521914 1.72198e-19
-0.000383274 -0.000521187 -5.57823e-20
-0.000238585 -0.000188285 -1.21266e-20
-0.000102897 7.61075e-06 1.90388e-19
0.000244382 0.000380748 2.97102e-19
0.000247653 -0.000378698 1.1399e-19
-0.000234393 6.83008e-05 1.20053e-19
0.000124264 -0.000249501 -2.91038e-20
0.000373892 -0.000293397 -1.21266e-20
0.000372508 0.000294206 1.40669e-19
-0.000287258 -0.000151121 -3.15291e-20
-0.000200975 0.000134383 1.1399e-19
-0.00023064 -0.000106932 9.70128e-20
-0.000438056 -0.00023997 -4.60811e-19
-5.88071e-05 0.00019808 1.62496e-19
-0.000895763 0.000895778 -1.2066e-19
-6.50603e-05 0.000350764 9.45875e-20
6.29992e-05 -0.000356985 -8.48862e-21
6.68775e-05 -0.000701007 -3.61373e-19
-6.90413e-05 0.000701744 -1.69772e-20
9.85945e-05 -0.000187342 -1.00651e-19
9.78345e-05 0.00018068 4.9719e-20
-0.000340095 0.000179186 2.36469e-19
-0.000337486 -0.000173247 -1.03076e-19
-0.000593832 -0.000109815 3.15291e-20
-0.000585661 0.00011223 5.82077e-20
0.000793878 -0.000440627 -1.52795e-19
0.000793486 0.00044148 1.84324e-19
0.000214203 1.11811e-05 -1.22479e-19
0.000210578 -5.29598e-06 7.88229e-20
0.000309161 -0.000145816 1.33393e-20
-2.07388e-05 0.00030987 4.24431e-20
0.000266558 0.000199619 -1.21266e-20
1.85956e-05 -0.000308739 -9.21621e-20
-0.000489429 0.000335836 4.02603e-19
0.000307252 0.000146856 -3.03165e-20
-3.70302e-05 -0.000328003 -9.33748e-20
-0.000215189 -4.1829e-06 2.07365e-19
-0.000216271 2.24829e-06 -8.48862e-21
-0.00022691 0.00019625 1.70985e-19
0.000390049 0.000675605 3.39545e-19
-0.000390482 -0.000676539 -1.09139e-19
-7.40685e-05 -0.000236672 -1.22479e-19
-0.000288711 -0.000170689 -6.30583e-20
-4.10315e-05 -0.000378508 2.37681e-19
0.000268187 -0.00019715 1.07927e-19
0.000435097 0.000811984 3.10441e-19
0.000781284 0.000384645 4.89308e-19
6.19716e-05 -0.000232829 -8.60988e-20
5.80044e-05 0.000226326 7.51849e-20
-5.35056e-05 0.000396935 2.92251e-19
3.2278e-05 0.000318484 1.45519e-20
0.000376307 -0.000198231 1.3218e-19
0.000313084 -0.000102635 2.78912e-20
0.000312351 0.000102823 1.34605e-19
-0.000773656 6.35182e-08 -5.06892e-19
-0.000774802 -6.2698e-08 -1.72198e-19
5.85668e-05 -0.000183196 -1.00651e-19
-0.000296127 -0.000176791 8.60988e-20
0.000246841 0.000277639 1.09139e-19
0.000249353 -0.000276773 -2.91038e-20
7.77209e-05 0.000226549 -4.85064e-21
3.46771e-05 6.23892e-05 6.0633e-20
0.000872619 0.000872623 4.38376e-19
-0.000256379 -8.77678e-05 1.5037e-19
-0.000256011 8.22672e-05 -5.94203e-20
-6.13479e-05 0.000182102 6.79089e-20
0.000376021 0.000198527 -1.94026e-20
-0.000290364 0.000146189 1.916e-19
-0.000374674 4.88902e-05 -3.51671e-20
-0.000374324 -4.89025e-05 -6.79089e-20
-0.000226693 0.000107648 9.09495e-20
0.000113846 -0.000490697 -1.21266e-19
0.000111545 0.000492472 1.04289e-19
0.000151746 0.000917598 2.13428e-19
-0.000153745 -0.000916982 -3.34694e-19
-0.00011955 0.00157287 3.32269e-19
-0.00157444 8.68718e-05 -1.94026e-19
0.000234713 3.31392e-05 7.15469e-20
0.000233365 -3.37069e-05 4.85064e-21
-2.66935e-05 -6.66053e-05 -6.66963e-20
0.000853958 0.00107939 5.86321e-19
0.00106326 0.000842891 5.06285e-19
0.000375595 0.000906534 4.60811e-20
0.000375235 -0.000905689 -5.09317e-20
-0.000272823 0.000161152 1.16415e-19
0.00023412 -0.000255337 1.64922e-19
0.000250661 0.000134895 3.27418e-20
0.000251252 -0.000134815 2.06152e-20
0.000176131 -0.000178214 4.72937e-20
0.000231963 0.000259283 7.27596e-20
-1.02183e-05 -0.000708241 4.85064e-21
6.75561e-06 0.000719113 2.8255e-19
0.000754734 -4.57146e-06 4.35345e-19
0.000176203 0.000178657 6.79089e-20
3.0225e-05 0.000742095 3.40151e-19
-0.00074644 -9.49363e-05 -1.6856e-19
0.00033461 -5.51688e-05 3.63798e-21
0.000334795 5.24774e-05 1.15203e-19
0.000318725 -0.000109384 6.30583e-20
0.000318256 0.000109799 9.09495e-20
-0.000880784 0.00109421 2.395e-19
-0.00108071 0.000881051 6.2452e-20
0.00026424 0.000144641 4.36557e-20
0.000264729 -0.000144367 1.20053e-19
9.07894e-05 0.000538726 9.70128e-20
-9.2802e-05 -0.000538111 -2.59509e-19
0.00024475 9.85529e-05 -1.57646e-20
0.000240149 -9.75886e-05 1.26117e-19
0.000367612 -0.00035063 -3.88051e-20
0.000366162 0.000351935 1.98876e-19
-0.00021784 5.12156e-05 6.4271e-20
-0.000222585 -5.35429e-05 -5.21444e-20
0.000342338 0.0006644 7.27596e-20
0.000507569 0.000511491 1.57646e-19
0.000343497 -0.000661775 -2.18279e-20
0.000507393 -0.000510102 -6.30583e-20
-0.000366618 -0.000682735 -6.79089e-20
-0.00076979 -1.25393e-05 1.28542e-19
-0.000769505 1.06986e-05 2.47383e-19
0.00036353 0.000682484 4.38983e-19
0.000619531 0.00025664 1.64922e-19
0.00161124 0.000211961 1.30967e-19
0.000618916 -0.000256379 1.23691e-19
0.00161138 -0.000211972 3.39545e-19
0.000798722 -1.49757e-05 8.00355e-20
0.000542658 0.000154574 6.79089e-20
0.000749502 -0.000242886 9.70128e-20
0.000798197 1.53762e-05 1.89175e-19
0.000541895 -0.000154332 2.18279e-19
0.000748992 0.000243212 1.69772e-19
0.000573762 -0.000226701 1.40669e-19
0.000580562 -0.000224583 -7.76102e-20
0.000573036 0.000227401 1.8675e-19
0.000579976 0.000225239 2.20704e-19
-0.000132912 -0.000366624 3.51671e-20
-4.99728e-05 0.000303133 -6.4271e-20
5.2628e-05 -0.000301694 -6.91216e-20
-0.000272734 4.97223e-05 -1.46732e-19
-0.000348559 9.05878e-05 -9.09495e-20
-5.77749e-05 0.000393845 -4.85064e-21
6.04073e-05 -0.000392111 -3.39545e-20
-0.000348808 -8.98054e-05 -1.5522e-19
-0.000116963 -0.000183463 -8.48862e-20
-0.000196935 -0.000442629 -1.61284e-19
0.000200014 0.000453653 -6.18456e-20
0.000460725 0.000208598 -1.95238e-19
-0.000255215 -0.000263464 -1.17628e-19
0.000255534 0.000265385 -6.4271e-20
-0.000280276 0.000167836 -1.81899e-19
-0.000124174 -0.000251891 9.70128e-20
-4.23389e-05 -0.000242881 5.3357e-20
-2.79973e-05 -0.000402306 -6.30583e-20
3.02253e-05 0.000402444 -2.37681e-19
0.00028441 4.24467e-05 -8.73115e-20
-0.000151642 -0.000532674 -1.96451e-19
0.000143606 0.000539985 -8.48862e-20
0.000559418 0.000147969 -8.85242e-20
0.000132236 0.000361552 1.80686e-19
-0.000244278 -0.000245865 -3.63798e-21
-0.000256454 -5.26073e-05 -1.06714e-19
-0.000383696 -0.000794862 -1.60677e-19
-0.000226579 0.000113896 -1.54008e-19
-1.1385e-05 0.000375816 -1.67347e-19
1.53165e-05 -0.000374585 -1.21266e-19
-0.000844112 -0.000409143 -1.21266e-20
-0.000842113 0.000423832 2.98314e-19
-0.000183295 0.000247855 -2.07365e-19
-0.000221781 0.000262489 -2.07365e-19
-0.00051132 0.000164912 -2.42532e-20
-0.00036052 -0.000174703 1.21266e-20
-0.000345117 0.000169117 -2.66785e-19
-5.91974e-05 0.000121305 -1.33393e-19
-0.000106494 -3.71162e-06 -8.97368e-20
-0.000367843 0.00024026 -8.48862e-20
-0.000424717 -6.67246e-05 7.63976e-20
-0.000387524 7.78164e-05 -1.15203e-19
3.83306e-05 0.000245406 1.64922e-19
-0.000120881 0.000364403 -2.94676e-19
0.000220861 0.000257248 1.41881e-19
-0.00086072 -0.000860681 -1.38243e-19
-0.00084748 0.000847432 -2.20704e-19
7.63163e-05 0.000197463 2.30405e-20
0.000127864 0.000255463 2.31618e-19
-0.000849952 0.000924361 -1.83718e-19
-0.000896675 -0.000862419 -2.41319e-19
0.000438079 -8.70625e-05 7.51849e-20
0.00044081 8.08634e-05 0
0.00020774 7.08451e-05 -7.27596e-20
0.000410899 -0.000278367 1.5037e-19
0.0004129 0.000277097 -5.57823e-20
-0.000357529 -0.000660877 -1.57646e-19
-0.000357728 0.000655945 -7.27596e-21
0.000304026 -0.000177566 1.67347e-19
0.000303335 0.000174248 7.27596e-21
-0.000399718 0.000620593 1.01863e-19
0.000407876 -0.000621909 9.70128e-21
0.000211674 -0.000252713 3.03165e-20
0.000416322 0.000786643 1.6856e-19
0.000790217 0.000416461 -1.46732e-19
3.23463e-05 0.000244149 7.03343e-20
-3.2658e-05 -0.000240616 -2.18279e-20
0.00085482 -0.000354082 1.01863e-19
0.000865288 0.000358337 -2.32831e-19
-0.000351217 -0.000244077 -1.03076e-19
4.61561e-05 -7.72504e-05 3.75924e-20
0.000287485 0.000155864 -6.18456e-20
0.000288287 -0.000156909 6.0633e-20
-0.000176754 -0.000120397 6.0633e-20
-7.24477e-05 -0.000192091 -4.12304e-20
-0.000322468 0.000269006 -2.26767e-19
-0.000493159 -0.000111647 6.54836e-20
-0.000371013 0.000642465 7.03343e-20
-0.000372299 -0.000644889 -2.91038e-19
-0.00027761 -0.000171158 -2.06152e-20
0.000278165 0.000147952 -9.82254e-20
-0.000394599 -0.000428953 -1.52795e-19
7.03639e-05 -0.000704008 -9.70128e-20
-6.74827e-05 0.000701378 1.96451e-19
-0.000333589 -0.000295509 -5.45697e-20
2.54543e-05 0.000322031 6.66963e-20
-2.18617e-05 -0.000321729 -9.09495e-20
0.000203162 6.77515e-05 -8.36735e-20
0.0002074 -7.50202e-05 -5.57823e-20
0.000466015 -0.000350207 5.45697e-20
0.000350116 7.54352e-05 -1.17628e-19
0.000251191 -0.000235399 3.15291e-20
0.000249377 0.000234344 -1.15203e-19
0.000283332 -0.000152878 1.09139e-20
0.000132635 -0.000354477 1.94026e-20
0.000189225 -0.000170355 2.66785e-20
0.000183311 0.000164662 -1.00651e-19
-0.000300257 -0.000134104 -9.33748e-20
-0.00031573 0.000248413 -1.04289e-19
0.000153791 0.000119013 9.70128e-20
-0.000131449 3.18799e-05 -7.27596e-21
-4.84512e-05 8.21453e-05 2.19491e-19
0.000375101 6.22562e-05 -9.58001e-20
-0.000529944 0.000516121 -4.9719e-20
-0.000292516 -0.000174656 -8.97368e-20
-0.000302494 0.000143344 -1.38243e-19
-0.00072052 0.000117729 -1.06714e-19
-0.00028046 0.00017118 -1.54008e-19
-4.16417e-06 -0.000330924 -9.82254e-20
6.22586e-06 0.00033202 -1.26117e-19
-0.000248983 -0.000295893 -1.29755e-19
0.000460214 -0.000198321 6.91216e-20
-0.000174725 0.000130266 -2.11003e-19
0.000228593 -0.000359092 -2.54659e-20
-0.000240093 0.000387227 -1.96451e-19
-0.000287901 -0.000170355 -1.81899e-20
-0.000116121 -0.000182636 -7.76102e-20
-0.000118686 0.000195058 -1.40669e-19
-7.14861e-05 -0.000340024 -1.04289e-19
6.65377e-05 0.000347964 -7.39722e-20
4.15245e-05 -0.000469647 -2.26767e-19
-6.19892e-05 0.000483525 -1.07927e-19
0.000490167 -5.33646e-05 -1.94026e-20
0.000325797 -0.000217905 -5.45697e-20
0.000481712 -0.000834442 7.27596e-21
-0.000480505 0.00083236 -1.35818e-19
-0.000345237 -0.000208241 2.54659e-20
0.000362796 -8.01376e-05 -3.63798e-20
-0.000548317 -0.000434788 -7.88229e-21
5.39013e-05 0.000194573 1.98876e-19
0.000212994 -7.91856e-05 -4.48684e-20
0.000100734 -0.000195552 2.78912e-20
-0.000103246 0.000200932 1.52795e-19
0.0003247 0.000457638 -1.3218e-19
0.000482964 0.000324987 -1.3218e-19
0.000161935 -0.00012277 1.39456e-19
-0.000691228 -3.116e-05 1.20053e-19
0.000113009 -2.78546e-05 2.75274e-19
-5.51311e-05 -0.000197981 7.15469e-20
9.87456e-05 2.51686e-06 -2.00618e-36
-0.000114408 -2.94828e-05 -2.01301e-19
-0.000261849 -0.000249857 5.94203e-20
0.00012864 -0.00051925 -1.39456e-19
-0.000123061 0.000518296 -3.22567e-19
0.000530968 -0.00013946 2.18279e-20
0.000326987 -0.00025113 -4.00178e-20
3.93017e-06 0.000378167 -6.79089e-20
-1.72604e-06 -0.000379862 -2.01301e-19
0.000261335 -0.000470855 1.94026e-20
-0.000248185 0.000495641 -3.15291e-20
3.68041e-05 9.64541e-05 -4.72937e-20
3.51659e-05 -0.000102392 -2.42532e-21
0.000183765 0.000139066 1.66134e-19
0.000125089 0.000180498 9.70128e-21
-0.000269163 0.000165141 -2.11003e-19
0.000343824 0.000173243 -1.21266e-20
0.000343047 -0.000176414 1.23691e-19
0.000287933 -0.00016095 1.18841e-19
0.000287331 0.000157667 -1.09139e-20
-0.000166927 -0.0015545 3.49852e-19
0.000228409 0.000357 -7.39722e-20
-0.0016012 0.000187575 -1.92207e-19
-0.000202404 -0.00015067 8.48862e-20
6.99696e-05 -0.00034555 -8.12482e-20
-6.01366e-05 0.000356163 -2.32831e-19
0.000545501 -0.000495889 1.96451e-19
0.000550798 0.000499257 -3.10441e-19
0.000299058 0.000192893 -3.27418e-20
0.000350783 -8.71481e-05 -7.51849e-20
0.000325987 0.000226367 -1.81899e-20
-2.12308e-05 0.000298604 3.75924e-20
2.21038e-05 -0.000300351 -7.88229e-20
0.000110155 2.92424e-05 8.85242e-20
0.000298497 -0.000194373 1.10352e-19
-5.34837e-05 -8.89332e-05 2.18279e-20
-0.000259651 0.000211177 2.2798e-19
0.00026567 -0.000206348 1.94026e-20
0.000184042 -0.000135865 1.30967e-19
-0.000205328 -0.000139728 7.76102e-20
4.21567e-05 9.03468e-05 3.21355e-19
6.82103e-05 0.000343337 -7.03343e-20
-7.06081e-05 -0.000342505 -6.4271e-20
0.000262398 0.000161283 -2.54659e-20
0.000327442 0.000247829 4.60811e-20
-0.000115499 0.000250565 -7.39722e-20
-0.000119463 -0.000175622 1.81899e-20
0.000419206 0.000760117 5.5176e-20
0.000771349 0.00041823 -2.0312e-19
-0.000479353 0.0003585 -2.30405e-20
0.000263531 -0.000164477 1.5522e-19
0.000287213 -5.2576e-05 -9.33748e-20
0.000897068 0.000434837 -1.62496e-19
0.000887257 -0.000432169 2.06152e-19
5.84574e-05 -0.000197196 6.18456e-20
-0.00048972 -0.000334902 1.79474e-19
-0.000480513 0.000342194 -4.85064e-20
-0.000203747 8.72054e-05 -1.47944e-19
-5.1121e-05 7.65901e-05 -1.07927e-19
-0.000403618 0.000538456 -2.2798e-19
-0.000506692 -0.00043313 -1.56433e-19
0.000434033 -0.00062145 9.09495e-20
-0.00039463 0.000644337 -3.51671e-20
0.000650141 -0.000379127 2.91038e-20
-0.000442881 -0.000239795 -1.05501e-19
4.50897e-05 -7.701e-05 1.52795e-19
-5.30806e-05 -0.000695339 7.33659e-20
-0.000658119 5.84658e-06 -1.71591e-19
0.000381255 0.000522733 -2.6921e-19
-0.000381278 -0.000521451 -9.21621e-20
-0.000235819 0.000186483 -2.6436e-19
-0.000103308 -7.56276e-06 -5.21444e-20
-0.00023499 0.000383421 -1.62496e-19
0.000248553 -0.000375925 -2.18279e-20
-0.00023502 -6.96343e-05 -1.05501e-19
0.000125425 -0.000249451 3.88051e-20
0.000373004 -0.000292616 8.73115e-20
0.000374501 0.000291475 -1.21266e-19
-0.000288744 0.000151949 -2.15853e-19
-0.000179777 0.000132644 -1.79474e-19
-0.000231848 0.000107679 -9.94381e-20
-5.32748e-05 0.000215923 -1.70985e-19
0.000890603 0.000890649 5.85108e-20
6.51259e-05 -0.000356314 -9.33748e-20
-6.0447e-05 0.000355492 2.30405e-20
-6.70239e-05 0.000701973 -8.24609e-20
7.12978e-05 -0.000702797 -1.06714e-19
0.000100763 -0.000188094 4.9719e-20
9.9803e-05 0.000178596 2.30405e-20
-0.000342155 -0.000179942 8.24609e-20
-0.000334871 0.000173297 -3.45608e-19
-0.000593859 0.000107966 1.89175e-19
-0.00058605 -0.000110683 -6.30583e-20
0.000787698 -0.000438003 1.94026e-19
0.000798922 0.000440583 7.27596e-21
0.000215591 7.99743e-06 7.63976e-20
0.000205162 -7.76853e-06 1.7341e-19
0.00030994 0.000143084 -2.06152e-20
-1.89427e-05 0.000313859 1.11565e-19
2.07724e-05 -0.000308125 -4.48684e-20
0.000307969 -0.000149005 -1.09139e-20
-3.42531e-05 -0.000325243 -1.94026e-20
3.36434e-05 0.000322662 2.91038e-20
0.000268084 0.000198747 2.78912e-20
-0.000216353 2.93774e-07 3.63798e-21
-0.000218557 -2.49902e-06 -2.49808e-19
0.000267884 -0.000199723 2.91038e-20
-0.000229105 -0.000197694 -7.63976e-20
0.000390482 0.000676539 -4.43833e-19
-0.000390549 -0.000676544 -7.51849e-20
-7.13512e-05 -0.000236587 4.85064e-21
-0.000287574 0.000168238 -2.25555e-19
-4.09693e-05 0.00037868 -1.6856e-19
0.000452687 -0.000798536 2.3465e-19
0.000785936 -0.000373951 5.1538e-20
6.50191e-05 -0.000232487 5.09317e-20
5.9403e-05 0.000226121 -3.63798e-20
-5.35885e-05 -0.000397382 -9.70128e-20
0.000379072 0.00019742 -3.51671e-20
0.00031312 -0.000104549 1.64922e-19
0.000312693 9.98112e-05 5.3357e-20
-0.000773504 -9.85378e-08 7.27596e-20
-0.000774854 4.01221e-08 4.65661e-19
6.08547e-05 -0.000183277 3.15291e-20
-0.000289711 0.000169897 -5.6995e-20
0.000248372 0.000274961 -1.26117e-19
0.000250278 -0.000276213 9.45875e-20
7.88041e-05 0.000228749 -3.15291e-20
4.04216e-05 6.58563e-05 1.69772e-20
0.000864566 -0.000864546 3.15291e-20
-0.000260924 8.61921e-05 2.06152e-20
-0.000256145 -8.06871e-05 -3.03165e-19
-5.89571e-05 0.000186875 -6.30583e-20
0.000370525 -0.000199724 -2.30405e-20
-0.000290659 -0.000145868 6.54836e-20
-0.000379146 -4.05876e-05 1.41881e-19
-0.000372552 6.26699e-05 -2.24342e-19
-0.000227368 -0.000106499 -4.9719e-20
0.0001126 0.000490611 -1.45519e-19
0.000116287 -0.000487273 7.27596e-20
0.000153053 0.00091764 -9.94381e-20
-0.000151187 -0.000919638 -1.09139e-19
7.13762e-05 0.00154255 1.6856e-19
0.00155553 0.000107172 -4.18368e-20
0.000234251 -3.64423e-05 1.49157e-19
0.000233582 2.98717e-05 6.79089e-20
-2.39403e-05 -6.73302e-05 1.21266e-19
0.000843386 -0.00105161 2.2798e-19
0.00102578 -0.000839698 2.54659e-20
0.000376246 0.000907969 -2.52233e-19
0.000372782 -0.000899635 3.92902e-19
-0.000273134 -0.00016099 5.21444e-20
0.000234883 -0.000256154 1.11565e-19
0.000251936 -0.000136394 1.40669e-19
0.000249678 0.000132575 6.30583e-20
0.000177256 -0.000179691 1.33393e-19
0.000232449 0.000259272 9.58001e-20
-1.86657e-05 0.000682338 -1.69772e-20
-8.98745e-06 -0.000741597 5.94203e-20
0.000708628 -2.32847e-05 -4.24431e-20
0.000176349 0.000177095 8.48862e-20
-7.46324e-05 0.000754511 2.18279e-19
0.000745851 -5.52663e-05 -1.74623e-19
0.000334287 -5.76431e-05 1.37031e-19
0.000333925 4.92691e-05 7.15469e-20
0.000318618 -0.000111127 1.17628e-19
0.000317646 0.000105663 9.45875e-20
0.000873565 0.00107476 1.94026e-20
0.00107993 0.000874473 -1.21266e-20
0.000264482 0.0001432 1.09139e-20
0.000265484 -0.000145996 1.83112e-19
9.224e-05 0.000539536 -8.00355e-20
-8.98581e-05 -0.000538406 -1.60071e-19
0.000245648 9.39754e-05 6.18456e-20
0.000236454 -0.000105354 1.01863e-19
0.000366826 -0.000348973 1.09139e-19
0.00036809 0.000349615 -1.77048e-19
-0.00021959 -5.19132e-05 1.06714e-19
-0.0002336 5.76915e-05 -2.08577e-19
-0.000364594 -0.000683281 -3.15291e-20
-0.000768842 -1.20487e-05 1.74623e-19
-0.000769422 1.35657e-05 2.03727e-19
0.000364683 0.000683232 -4.24431e-19
0.000343981 0.000662979 -1.38243e-19
0.00050918 0.000510126 -1.79474e-19
0.000342769 -0.000655969 1.23691e-19
0.000504027 -0.000506725 1.69772e-19
0.000612599 0.000253797 -1.28542e-19
0.000627655 -0.000259902 8.00355e-20
0.00161908 -0.000213095 1.72198e-19
0.0015994 0.000210498 -2.88613e-19
0.000791801 -1.78068e-05 -8.00355e-20
0.00053948 0.000149245 2.42532e-20
0.00080518 9.28438e-06 6.0633e-20
0.00054464 -0.000163276 7.51849e-20
0.000754635 0.000243131 3.15291e-20
0.000743545 -0.000241296 -4.60811e-20
0.000570172 -0.000226783 7.27596e-20
0.000577016 -0.000224651 1.45519e-19
0.000576185 0.000224094 -2.42532e-20
0.000583058 0.000221954 -1.69772e-20
-4.83025e-05 0.000301328 3.15291e-20
3.73926e-05 -0.000332167 -4.85064e-20
-0.000270434 -5.28544e-05 8.97368e-20
-0.000338879 -9.32267e-05 1.90388e-19
-5.59065e-05 0.00038965 4.60811e-20
3.38931e-05 -0.000372904 2.42532e-20
-0.000361929 8.6911e-05 1.98876e-19
-0.000112494 0.000180935 5.82077e-20
-0.000191675 0.00047052 3.77137e-19
-0.000183259 -0.000459634 -1.64922e-19
0.000469905 0.000188882 -1.87962e-19
0.000264444 -0.000248591 1.38243e-19
0.000253249 0.00026271 3.51671e-20
-0.000263515 -0.000178317 1.69772e-20
7.39072e-05 -0.00036442 1.1399e-19
3.02688e-05 0.000398194 -5.82077e-20
0.000282387 -6.64133e-05 1.03076e-19
-0.000126243 -0.000567394 -6.18456e-20
-0.000153359 0.000544092 1.11565e-19
0.000560559 0.000130486 -2.25555e-19
-0.000375187 8.10784e-05 3.31056e-19
0.00014247 0.000353781 6.91216e-20
0.000177682 -0.000403247 -1.00651e-19
-0.000255199 4.41354e-05 2.06152e-19
-0.000385453 -0.000836276 -1.95845e-19
-0.000218298 -0.000115043 1.21266e-19
0.000834942 0.000396379 -4.85064e-20
-1.0591e-05 0.000372042 3.63798e-20
6.70318e-05 -0.000360021 6.54836e-20
-0.000840796 0.000408732 -1.84324e-19
-0.00081803 -0.000423412 -1.69772e-20
-0.000550354 0.000173056 2.75274e-19
-0.000169966 -0.000252428 4.00178e-20
-0.000329876 -0.000174772 1.94026e-20
-0.000356063 0.000173176 -8.73115e-20
-5.59403e-05 -0.000122205 1.23691e-19
0.00022011 0.000250324 7.51849e-20
0.000242295 -0.0003171 -1.69772e-20
-0.000352711 0.000230563 3.39545e-19
-0.000101867 -1.39388e-06 8.36735e-20
-0.000226685 -0.000270627 -4.36557e-20
-0.000232067 0.0002465 3.08016e-19
-9.99061e-05 -0.000374171 -3.39545e-20
-0.000128186 0.00035805 2.70423e-19
0.000111938 -0.000298527 2.18279e-20
4.13884e-05 0.000243636 -9.58001e-20
-0.000359943 0.000229939 3.21355e-19
-0.000898222 -0.000898338 -4.12304e-20
0.000892355 0.000892548 -2.92857e-19
9.5319e-05 -0.000184565 1.00651e-19
7.60495e-05 0.000195592 -4.85064e-20
0.000895954 0.000953746 -5.21444e-20
-0.000939164 -0.000900318 4.85064e-21
0.00043165 7.5486e-05 9.45875e-20
0.000347391 -0.000189438 1.21266e-19
0.000201613 -9.55356e-05 6.79089e-20
0.000404643 0.000265289 4.01235e-36
0.000330813 -0.00030626 1.8675e-19
0.000134368 0.000252003 2.06152e-20
0.000170471 -0.000312963 -3.03165e-20
-0.000343245 -0.000655993 1.21266e-19
-0.000353263 0.000662936 -6.79089e-20
0.000299938 0.000163965 4.85064e-21
0.000274867 -0.000231222 6.54836e-20
-0.000485667 0.000203824 4.07454e-19
-0.000394506 0.000613624 -3.15291e-20
-0.000175427 -0.000501456 5.57823e-20
-0.000431535 0.000807584 3.48033e-19
-0.000821007 0.00042596 2.77699e-19
3.43608e-05 0.000242143 1.11565e-19
9.06652e-05 -0.000294008 1.21266e-21
0.000843491 0.000349547 4.09879e-19
0.000664048 -0.000274874 -9.94381e-20
0.000285975 0.000138948 -1.21266e-21
0.000270242 -0.000191476 -3.63798e-20
-0.000508592 -0.000116329 1.5037e-19
0.000360226 -0.000108153 3.03165e-20
-0.000433461 -6.85862e-05 5.82077e-20
-0.000308112 -0.000270733 2.54659e-20
-0.000371506 0.000643193 -2.15853e-19
-0.000365622 -0.000633294 6.30583e-20
-0.000382891 -0.000445369 -6.54836e-20
-0.000284164 0.000163124 3.31056e-19
0.00028151 0.000135351 -1.5037e-19
5.71394e-06 -0.00054551 -2.66785e-20
-6.62546e-05 0.000693468 -2.37681e-19
-0.000329083 0.000294197 9.70128e-21
7.16933e-05 -0.000326656 4.24431e-20
2.56234e-05 0.000318652 -5.09317e-20
0.000203798 5.34906e-05 -1.60071e-19
0.000187318 -8.65443e-05 -9.70128e-21
0.000488526 -0.000401816 1.1399e-19
0.000245027 0.000216383 -1.00651e-19
0.000215498 -0.000248722 6.0633e-20
0.000272223 -0.000193256 2.06152e-20
0.000184554 0.000153063 -4.85064e-20
0.000167122 -0.000197463 4.36557e-20
-0.000295254 0.000132009 2.57084e-19
0.000153955 0.000114143 6.30583e-20
0.000186188 -0.00021838 9.94381e-20
-0.000355332 -0.00025169 4.24431e-20
5.55425e-05 -0.000192291 1.45519e-20
-4.54479e-05 7.9998e-05 8.48862e-21
0.000379612 4.66649e-05 -2.67998e-19
-0.000289511 0.000171205 1.12777e-19
-0.000300826 -0.000147949 4.12304e-20
-0.000228334 -0.00030717 -7.63976e-20
-0.000264 -0.000191129 2.30405e-20
4.92986e-05 -0.000338294 5.6995e-20
5.5805e-06 0.000329063 -2.18279e-20
0.000481381 -0.000226624 2.42532e-20
-0.000172979 0.000118059 1.21266e-19
-0.000159451 -0.000137935 5.6995e-20
0.000253537 -0.000410286 7.39722e-20
0.000232724 0.000355595 8.60988e-20
-0.000280994 0.000163298 1.69772e-19
-0.000110104 0.000178585 4.48684e-20
-0.000109078 -0.000188104 1.07927e-19
-0.000265453 0.000251003 2.75274e-19
6.00822e-05 -0.000502724 -2.30405e-20
6.5939e-05 0.000480364 2.71636e-19
0.000498697 -4.76795e-05 -1.77048e-19
0.000492883 0.000340425 -8.00355e-20
0.000339086 -0.000260951 1.37031e-19
-0.000386689 -0.000669954 3.63798e-20
-0.000475274 0.000823145 -7.76102e-19
0.000369062 -0.000103126 5.57823e-20
5.77594e-05 0.000189342 2.91038e-20
0.000120016 -0.000271714 3.27418e-20
0.000210787 5.86009e-05 -1.20053e-19
-4.4671e-05 -0.000358699 -7.27596e-21
-6.71907e-05 0.000340321 1.51582e-19
-0.000100099 0.000198446 1.94026e-20
2.85923e-05 -0.00025073 5.57823e-20
0.000114119 -2.90052e-05 2.54659e-20
0.000161862 -0.000131057 9.70128e-21
9.49828e-05 -1.80693e-05 -8.85242e-20
0.000326973 0.000218739 -7.39722e-20
-0.00010121 2.23229e-05 9.70128e-21
-0.00012238 -3.35309e-05 1.7341e-19
0.000328406 0.000237782 8.85242e-20
-0.000376915 0.000458357 2.97102e-19
-0.000196553 0.000149377 2.36469e-19
0.000164032 -0.000558541 6.0633e-20
0.000139201 0.000519718 1.62496e-19
0.000557111 -0.000166727 -6.0633e-20
0.00034172 -0.000302903 -2.78912e-20
3.09909e-06 0.000378778 4.48684e-20
4.58323e-05 -0.000408044 1.47944e-19
0.000282092 -0.000512822 -3.63798e-21
0.000265639 0.000454929 8.97368e-20
3.42037e-05 8.19848e-05 -9.09495e-20
3.14431e-05 -0.000117347 4.12304e-20
0.000183918 0.000134165 6.4271e-20
0.000208234 -0.000233105 7.63976e-20
0.000129034 -0.000172841 1.23691e-19
0.000123926 0.000178503 -1.21266e-21
-0.000252433 -0.000174629 4.72937e-20
-0.000540198 -0.000441546 1.21266e-21
0.000100626 -0.000399641 -2.54659e-20
7.16988e-05 0.000350456 4.12304e-20
0.000336501 0.000162875 -9.70128e-21
0.000280849 -0.000231088 1.60071e-19
0.000297362 -0.000253188 5.82077e-20
0.000285125 0.000148665 4.24431e-20
0.000267473 -0.00022353 1.94026e-20
-0.000166487 -0.00162999 -8.97368e-20
0.00161751 0.000234674 -2.72848e-19
0.000537453 0.00048372 1.67347e-19
0.000421551 -0.000468106 1.57646e-19
0.00029876 0.000183625 1.09139e-20
-0.000677035 -5.1505e-05 1.17022e-19
6.84035e-06 -0.000294087 1.16415e-19
-2.13604e-05 0.00029505 -6.0633e-20
-0.000245722 0.000358468 2.59509e-19
-0.000255918 0.00020864 1.72198e-19
-9.23708e-05 -0.000258652 2.66785e-20
-0.000351272 -0.000239127 2.30405e-20
0.000343608 6.63681e-05 -1.97664e-19
4.39966e-05 8.81194e-05 5.01544e-37
0.000121642 -0.000198282 -3.15291e-20
-9.64941e-05 -0.000257433 4.24431e-20
-0.000120126 0.000246893 1.43094e-19
0.000262079 0.000152001 4.48684e-20
0.000263655 -0.000224085 1.33393e-20
7.37198e-05 0.000345537 5.94203e-20
0.000109481 -0.000378069 1.45519e-20
-0.000434288 0.000776547 3.63798e-19
-0.000773897 0.00043061 4.40195e-19
0.000287189 3.3257e-05 -1.43094e-19
0.000873618 0.000422083 4.85064e-19
0.00071379 -0.000394537 -1.35818e-19
-0.000486166 0.000334474 -1.04289e-19
-0.000461349 -0.000342846 4.12304e-20
-0.000199888 -9.3516e-05 1.09139e-19
-3.75309e-05 -8.43218e-05 -8.48862e-21
-4.7576e-05 7.62866e-05 1.05501e-19
0.000443729 0.000552795 -6.66963e-21
-0.000519549 -0.000440581 -7.09406e-20
0.000457657 -0.000665893 -1.81899e-19
0.000449303 0.000632154 6.91216e-20
0.000695904 -0.000421547 -2.07365e-19
-4.77034e-05 -0.000731401 -2.6436e-19
0.000730988 3.62505e-05 -6.97279e-20
0.000377583 0.000517267 -1.00309e-36
0.000364921 -0.00045417 1.89175e-19
-0.000227137 -0.000193599 4.85064e-20
-9.86407e-05 2.50697e-06 7.15469e-20
0.000272174 -0.000428205 -1.21266e-20
0.00025661 0.000378278 2.42532e-19
-0.000230476 6.45623e-05 1.27329e-19
0.000364846 0.000280253 -2.91038e-20
0.000295412 -0.00031951 2.52233e-19
-0.000277138 -0.00016032 -3.03165e-20
-0.000199801 0.000134145 1.64922e-19
-0.000167538 -0.000141795 2.06152e-20
-0.000219011 -0.000114201 8.24609e-20
-0.000430573 -0.000256739 -6.66963e-20
-5.792e-05 0.000197723 6.54836e-20
-3.38296e-05 -0.000213526 9.70128e-21
-0.000900038 0.000899862 3.22264e-19
-6.33662e-05 0.000350378 1.05501e-19
-3.97349e-05 -0.000371497 8.12482e-20
-6.55956e-05 0.000694322 -1.28542e-19
3.004e-05 -0.000577045 7.76102e-20
9.45092e-05 0.000161104 -9.21621e-20
8.74934e-05 -0.000189772 1.40669e-19
-0.00031712 -0.000179973 -2.91038e-20
-0.000337707 0.000178413 6.0633e-20
-0.000564722 0.0001007 -4.85064e-20
-0.000590473 -0.000108987 9.21621e-20
0.000779994 0.000427554 6.4271e-19
0.000576229 -0.00040263 1.16415e-19
0.000203472 -9.51621e-06 6.4271e-20
0.00021454 -0.000142532 7.27596e-21
0.000311745 0.00013092 -1.20053e-19
1.05026e-05 -0.000319265 1.29755e-19
-1.9237e-05 0.00030967 1.20053e-19
0.000285784 -0.00025528 7.15469e-20
-0.000494586 0.000335261 4.18368e-19
0.000311554 -0.00018673 8.12482e-20
0.000271807 0.000187312 3.63798e-21
-0.00021357 -3.90505e-06 1.3218e-19
-0.000201282 -6.71603e-06 4.9719e-20
-0.000222811 0.000194715 5.82077e-20
0.000386352 0.000669505 -3.80775e-19
0.000339165 -0.000587345 1.33393e-19
-0.00027656 -0.000177735 -1.69772e-20
-2.78904e-05 -0.000379856 1.96451e-19
0.000476462 -0.000844262 -1.37031e-19
0.000821754 -0.000416101 -6.12393e-20
5.21257e-05 0.000213742 -1.34605e-19
4.49055e-05 -0.000238604 1.79474e-19
-4.64963e-05 0.000397001 -4.36557e-20
9.13565e-05 -0.000364565 -4.48684e-20
3.50766e-05 0.000316734 6.18456e-20
0.000381961 0.000185813 -1.63709e-19
0.00030873 9.40148e-05 7.76102e-20
0.000278763 -0.000200149 1.21266e-19
-0.00075085 -4.13542e-08 -4.85064e-20
-0.000770229 -8.90014e-08 2.42532e-21
-0.000285559 -0.000184309 4.60811e-20
0.000243974 0.000262389 -8.00355e-20
0.000214279 -0.000301986 1.72198e-19
7.8163e-05 0.000225881 -5.94203e-20
9.89253e-05 -0.00023006 7.27596e-20
5.53824e-05 -7.33978e-05 9.70128e-21
3.51096e-05 6.24026e-05 4.12304e-20
0.000906866 -0.000906688 -1.51582e-20
-0.000239519 7.11273e-05 2.18279e-20
-0.000254516 -8.7006e-05 1.18841e-19
-6.04896e-05 0.000181556 -3.63798e-21
-3.88604e-05 -0.00018839 3.51671e-20
0.000385534 -0.000242299 2.78912e-19
-0.000288071 0.000145485 8.12482e-20
-0.000357182 -6.63959e-05 1.21266e-20
-0.000372098 4.87998e-05 1.06714e-19
-0.000222584 0.000104183 1.06714e-19
0.000104583 0.000474561 -1.96451e-19
8.99088e-05 -0.000462014 2.83762e-19
0.000151838 0.000907607 -5.06892e-19
0.000182437 -0.00074654 6.79089e-20
-9.06679e-05 0.0016071 -2.67391e-19
-0.00159961 7.38941e-05 3.31662e-19
0.000232251 2.66974e-05 7.63976e-20
0.00023595 -0.000162768 4.36557e-20
0.000888543 -0.0011034 -3.01952e-19
0.00110633 -0.000875654 -4.66874e-20
0.000314182 -0.000757846 1.64922e-19
0.000365895 0.000883322 -1.5037e-19
-0.00027086 0.000160167 1.26117e-19
0.000247758 0.000125733 1.24904e-19
0.000244602 -0.000217919 9.70128e-20
0.000233821 0.000252735 1.45519e-20
0.000249247 -0.000318318 -1.33393e-20
6.50115e-06 -0.000787802 -1.916e-19
1.77428e-05 0.00068779 3.33481e-19
0.000784831 -1.37372e-05 -2.23129e-19
0.000177209 0.000170665 5.09317e-20
0.000204473 -0.000253592 8.85242e-20
7.71826e-05 0.000758682 4.48684e-20
-0.000753656 -0.000111788 2.49808e-19
0.000328802 4.53608e-05 2.42532e-19
0.000289588 -0.000173123 6.0633e-20
0.000313224 9.93255e-05 8.85242e-20
0.000281027 -0.000202821 9.45875e-20
-0.000886019 0.00108582 2.89826e-19
-0.0010959 0.000884251 3.2378e-19
0.000263759 0.000137215 7.27596e-20
0.000262859 -0.000231021 1.39456e-19
0.0001375 -0.000467412 7.51849e-20
9.17561e-05 0.000533863 -1.11565e-19
0.000234063 -0.000104927 1.92813e-19
0.000233308 -8.39111e-05 5.57823e-20
0.000358921 0.000334184 -1.23691e-19
0.000292027 -0.000350369 3.10441e-19
-0.000214201 -6.86692e-05 3.27418e-20
-0.000216308 5.11214e-05 1.81899e-19
0.000351532 -0.000584134 2.18279e-19
-0.000742845 -1.99731e-05 -1.94026e-20
-0.0007658 1.12584e-05 4.60811e-20
0.000361178 0.000676034 -4.46259e-19
0.000333315 0.000644943 -2.47383e-19
0.000495756 0.000494613 8.00355e-20
0.000272753 -0.000598134 2.98314e-19
0.000409845 -0.000471168 1.04289e-19
0.000614474 -0.000254362 3.27418e-19
0.00157846 -0.00020744 8.90092e-19
0.00124246 0.00016398 -5.65099e-19
0.000356471 0.000147807 -3.88051e-20
0.000786754 6.92865e-06 3.58947e-19
0.000533117 -0.000161104 3.32269e-19
0.000737137 0.000236403 5.96629e-19
0.000547898 -0.000142264 -4.36557e-20
0.000533126 -0.000210749 -8.48862e-20
0.000409594 -5.07174e-05 5.3357e-20
0.000563742 0.000215274 4.80213e-19
0.000568878 0.000213675 5.06892e-19
0.000427899 -0.000274578 1.18841e-19
0.000444599 -0.000269371 1.09139e-19
4.89699e-05 1.09122e-05 7.03343e-20
4.08541e-05 2.37708e-05 1.45519e-20
0.000112138 -2.54974e-06 3.63798e-20
3.93941e-05 -5.52765e-06 8.24609e-20
3.9885e-05 -5.25749e-06 9.45875e-20
3.55835e-05 8.50108e-05 1.45519e-20
0.000117819 -6.87021e-05 2.18279e-20
3.80896e-05 7.62147e-06 8.73115e-20
0.00010299 8.67068e-05 -8.48862e-20
4.25186e-05 4.64039e-06 -3.88051e-20
4.28549e-05 -4.18853e-06 1.69772e-19
3.66574e-05 3.23254e-08 4.60811e-20
0.000229967 -6.11725e-06 -9.70128e-21
-2.30814e-05 -4.23767e-05 1.81899e-19
4.90796e-05 2.82645e-05 3.63798e-20
8.05389e-05 2.6783e-05 6.0633e-20
9.79421e-05 7.41215e-05 1.09139e-19
5.14565e-05 -8.79436e-05 8.97368e-20
3.06499e-05 2.86587e-06 1.21266e-20
4.46322e-05 5.37069e-07 6.79089e-20
4.47877e-05 -4.7742e-07 1.28542e-19
3.4544e-05 1.39618e-06 4.85064e-20
3.65897e-05 2.45973e-05 3.15291e-20
2.89481e-05 3.60087e-06 7.03343e-20
1.58558e-05 2.35147e-05 5.3357e-20
3.88635e-05 6.28846e-06 1.69772e-20
4.32066e-05 5.57982e-06 0
3.9954e-05 -1.11007e-07 4.85064e-21
4.96604e-05 -5.1556e-05 1.94026e-20
3.46329e-05 -1.10804e-06 3.88051e-20
8.49742e-05 6.58191e-05 8.97368e-20
9.52477e-05 -5.99243e-05 5.57823e-20
-0.000432191 -0.000219736 -4.60811e-20
-0.000433181 0.00020802 -9.70128e-21
3.42967e-05 7.92177e-07 1.04289e-19
2.12728e-05 2.99225e-05 9.21621e-20
-8.27796e-05 -2.63428e-05 -2.66785e-20
-9.61115e-05 3.0876e-05 -3.39545e-20
0.000129627 -5.50872e-05 -1.69772e-20
3.96974e-05 5.177e-06 2.42532e-20
2.76634e-05 -4.94286e-06 7.03343e-20
0.000108061 -3.15449e-07 -1.94026e-20
3.67158e-05 -2.37487e-05 9.70128e-20
4.86358e-05 -1.0948e-05 1.16415e-19
2.62684e-05 1.96603e-05 -3.39545e-20
3.45381e-05 -4.34974e-06 1.30967e-19
4.88761e-05 -7.823e-06 8.48862e-20
4.16972e-05 -1.58555e-05 1.5037e-19
0.000133916 -4.25028e-05 8.97368e-20
4.25434e-05 -1.56078e-06 8.24609e-20
3.29256e-05 -8.59249e-06 3.88051e-20
6.64976e-05 -3.5829e-06 2.2798e-19
6.65319e-05 3.55191e-06 -2.42532e-20
2.1779e-05 6.15044e-06 1.64922e-19
6.23154e-05 -3.30107e-05 2.03727e-19
6.23417e-05 3.30353e-05 4.60811e-20
3.92889e-05 1.16248e-05 -9.70128e-21
-0.000111882 -0.000412137 3.15291e-20
-0.000112396 0.000413622 7.27596e-21
4.57055e-05 -1.51083e-05 2.35256e-19
4.56738e-05 1.51045e-05 9.70128e-21
3.44278e-05 8.54548e-07 1.1399e-19
0.000316631 -0.000214257 1.11565e-19
-7.63263e-05 0.000176456 7.27596e-21
3.96917e-05 -5.16467e-06 2.49808e-19
4.02236e-05 -4.90066e-07 1.57646e-19
3.34236e-05 1.51982e-06 1.38243e-19
4.19405e-05 2.29929e-05 -7.27596e-21
7.34939e-05 2.51349e-05 5.09317e-20
0.000127144 -5.26699e-05 1.21266e-20
0.000127236 5.2708e-05 2.42532e-20
0.000122657 0.000104743 7.51849e-20
3.7969e-05 -1.36239e-05 2.66785e-19
3.78601e-05 1.4079e-05 5.3357e-20
3.91451e-06 6.45884e-05 5.57823e-20
1.70398e-05 -2.67163e-05 2.74061e-19
3.45024e-05 -6.33909e-07 1.06714e-19
3.08774e-05 -2.93686e-06 8.73115e-20
-5.92372e-05 -0.000130202 9.70128e-21
-0.000190227 0.000329391 2.18279e-20
-0.000191415 -0.000331449 3.63798e-20
3.52213e-05 5.14605e-06 1.94026e-20
1.92218e-05 3.36252e-06 2.42532e-21
3.03642e-05 7.71751e-06 -5.82077e-20
4.9511e-05 0.000207088 -8.00355e-20
9.48079e-05 -0.000268169 8.73115e-20
-7.03707e-05 0.00014637 -8.48862e-20
9.43345e-05 1.23425e-05 5.57823e-20
5.62262e-05 -2.53626e-05 9.70128e-20
2.42066e-05 -8.11222e-06 3.17717e-19
2.37723e-05 7.49702e-06 2.95889e-19
3.6986e-05 -2.34725e-06 1.8675e-19
3.07967e-05 2.93941e-06 -4.85064e-20
3.43362e-05 -2.78349e-05 2.91038e-19
3.42041e-05 2.81142e-05 2.03727e-19
3.08026e-05 -7.79269e-06 2.42532e-19
3.89939e-05 -6.06308e-06 1.8675e-19
2.27619e-05 -1.56865e-05 3.34694e-19
2.21525e-05 1.54055e-05 2.01301e-19
2.99426e-05 3.46767e-05 -2.66785e-20
3.5018e-05 1.30529e-07 -7.27596e-20
3.02877e-05 7.59587e-06 9.94381e-20
3.12606e-05 0.000152662 5.3357e-20
1.58443e-05 1.66143e-08 -2.91038e-20
3.40968e-05 1.19617e-06 -1.45519e-20
-2.00482e-05 3.62389e-05 -9.94381e-20
2.97617e-05 -3.03412e-05 8.24609e-20
3.56643e-05 5.55297e-06 8.97368e-20
1.77857e-05 -2.25434e-06 9.70128e-20
6.19871e-05 -2.83572e-05 6.0633e-20
5.66671e-05 3.19123e-05 9.94381e-20
3.69012e-05 -1.29179e-07 2.49808e-19
3.55056e-06 -6.57048e-05 -2.42532e-20
3.93136e-05 -2.78738e-06 1.8675e-19
3.93792e-05 2.52493e-06 2.91038e-20
1.55796e-05 3.16296e-06 -6.54836e-20
8.5075e-05 0.00010432 -1.21266e-19
8.70343e-05 -0.000107896 -8.48862e-20
4.89175e-05 1.08899e-05 9.70128e-21
1.41002e-05 -2.06964e-05 -2.42532e-21
4.29357e-05 -1.30772e-08 6.0633e-20
4.31674e-05 -6.4298e-09 1.23691e-19
3.39693e-05 -8.54822e-08 1.01863e-19
3.69983e-05 2.14699e-06 1.94026e-20
3.77541e-05 -3.07203e-06 2.40107e-19
-0.000157497 0.000272696 -1.11565e-19
0.000168124 -0.00029144 9.21621e-20
3.39965e-05 -1.57446e-06 1.74623e-19
3.07864e-05 4.66998e-06 -6.0633e-20
2.22259e-05 -6.63739e-06 1.8675e-19
4.92953e-05 -1.11397e-05 1.1399e-19
3.21686e-06 2.73905e-05 -2.18279e-20
0.000152756 3.94654e-05 1.84324e-19
3.5275e-05 -4.14836e-07 2.78912e-19
3.1181e-05 -1.36485e-05 -3.88051e-20
7.33874e-05 5.25454e-05 4.60811e-20
1.08288e-05 8.61173e-08 4.31707e-19
3.76546e-05 2.62105e-06 -3.15291e-20
3.33022e-05 -0.000154819 -2.66785e-20
3.78364e-05 4.55068e-06 -4.85064e-20
3.46247e-05 -4.72815e-06 1.74623e-19
2.34723e-05 -3.45198e-05 -4.85064e-21
4.40639e-05 -6.55676e-07 8.73115e-20
4.41958e-05 5.46035e-07 3.63798e-20
3.47615e-05 -1.84433e-06 1.52795e-19
3.78033e-05 -4.44433e-06 2.11003e-19
5.798e-05 5.58187e-06 4.60811e-20
6.08321e-05 -5.1294e-06 7.27596e-20
4.0516e-05 -2.6696e-07 1.79474e-19
4.07537e-05 3.70606e-07 2.42532e-20
3.90333e-06 -1.13369e-05 4.17155e-19
3.65194e-06 1.09685e-05 2.98314e-19
3.74498e-05 1.75545e-06 -4.85064e-20
0.000162713 -5.27848e-05 -7.27596e-21
-3.26778e-05 2.58702e-05 6.0633e-20
3.36722e-05 -9.84298e-07 2.42532e-20
4.66318e-05 6.65363e-06 -1.21266e-20
5.03121e-05 -1.49727e-05 2.81337e-19
5.03367e-05 1.49889e-05 2.18279e-20
3.84916e-05 -7.65928e-06 3.58947e-19
3.84136e-05 7.58328e-06 -2.18279e-20
4.21852e-05 -1.13189e-06 1.69772e-19
2.64675e-05 -2.02503e-06 1.43094e-19
4.62389e-05 -7.09636e-06 1.62496e-19
8.16738e-05 -6.75006e-05 9.45875e-20
8.17304e-05 6.75398e-05 1.45519e-19
3.74081e-05 4.95807e-06 -7.03343e-20
3.34005e-05 -2.09838e-07 4.85064e-20
3.08228e-05 -3.42601e-06 1.04289e-19
7.80635e-05 4.16721e-06 1.06714e-19
3.98864e-05 -3.33054e-05 1.69772e-19
3.43725e-05 -4.53611e-06 1.30967e-19
3.04054e-05 1.38822e-05 2.76486e-19
3.73943e-05 -5.01066e-06 2.83762e-19
6.68113e-05 9.82382e-05 1.11565e-19
-2.59621e-05 2.92953e-05 9.70128e-21
0.000231643 3.42912e-05 8.97368e-20
3.7435e-05 -1.69477e-06 2.52233e-19
1.52697e-05 7.18789e-05 7.76102e-20
2.86509e-05 1.07997e-06 1.1399e-19
2.26336e-05 6.33695e-07 -6.0633e-20
5.0019e-05 -3.00231e-05 6.0633e-20
5.30996e-05 -9.34432e-07 8.00355e-20
4.01601e-05 7.33004e-06 -2.42532e-21
4.44577e-05 1.19482e-05 3.88051e-20
-2.20556e-06 -1.99699e-05 2.44957e-19
4.06041e-05 3.79563e-06 1.64922e-19
3.88998e-05 2.05988e-06 1.04289e-19
4.02027e-05 -7.41215e-06 3.24993e-19
3.09686e-05 -3.50528e-06 1.62496e-19
0.000130208 -6.0045e-05 2.66785e-20
0.000130299 6.00802e-05 3.15291e-20
3.00777e-05 -5.28678e-06 2.25555e-19
-0.000191576 -0.000165397 -4.85064e-21
-0.000199517 0.000159071 -4.85064e-20
7.25326e-05 -2.48178e-05 4.85064e-21
6.7525e-05 -0.000104569 -2.18279e-20
4.04367e-05 -3.42744e-06 8.00355e-20
4.01474e-05 -6.8199e-07 7.27596e-21
4.07905e-05 -5.06418e-07 1.98876e-19
4.07003e-05 3.19124e-07 1.21266e-20
3.51235e-05 1.51413e-06 2.01301e-19
2.29936e-05 1.7777e-06 2.6436e-19
4.24195e-05 6.38151e-07 9.70128e-20
3.49236e-05 -1.34565e-07 8.24609e-20
0.000303372 0.00014419 -1.94026e-20
-7.05256e-05 -0.000139457 1.916e-19
2.96021e-05 -4.55949e-05 5.09317e-20
0.000110051 2.09087e-06 -1.94026e-20
4.11445e-05 4.22285e-06 7.76102e-20
4.10529e-05 -4.25454e-06 1.60071e-19
6.3894e-05 2.23358e-05 2.42532e-21
3.94424e-05 -1.25965e-05 2.06152e-19
5.48039e-05 -3.58345e-05 1.28542e-19
5.48367e-05 3.58456e-05 1.04289e-19
-1.09241e-05 6.40807e-06 1.21266e-20
1.53191e-05 -7.27635e-05 -7.27596e-21
3.11538e-05 -2.97211e-05 3.63798e-20
3.58449e-05 2.67727e-06 6.0633e-20
7.19703e-05 -4.73777e-05 5.09317e-20
4.67043e-05 1.27158e-05 1.06714e-19
5.52021e-05 4.39471e-06 1.43094e-19
4.45425e-05 -1.08661e-05 7.27596e-20
5.88052e-05 0.000219142 -1.69772e-20
0.000124233 -0.000230028 1.18841e-19
1.18698e-05 -2.17439e-05 3.66223e-19
1.1833e-05 2.16322e-05 3.0074e-19
-8.40767e-05 -2.58138e-05 4.85064e-21
-8.57197e-05 3.38404e-05 -6.0633e-20
-0.000270447 0.000173246 -2.18279e-20
-0.000277136 -0.000171119 -2.18279e-20
0.000119705 -6.0659e-05 1.30967e-19
0.000119797 6.06942e-05 -3.88051e-20
4.05874e-05 1.18284e-05 3.34694e-19
4.05292e-05 -1.16097e-05 -2.66785e-20
3.69749e-05 6.71156e-06 -1.84324e-19
7.53913e-05 -1.42336e-05 7.51849e-20
4.38575e-05 -1.01216e-05 1.60071e-19
3.47946e-05 -4.55039e-06 1.89175e-19
3.70173e-05 -6.81626e-06 2.71636e-19
7.31799e-05 8.59944e-06 7.03343e-20
3.81759e-05 4.85206e-06 -6.54836e-20
-4.06724e-05 -0.000130785 2.42532e-21
-4.10772e-05 0.000129595 8.48862e-20
3.82771e-05 -4.8565e-06 2.18279e-19
2.8865e-05 5.34753e-05 -9.45875e-20
0.000168654 0.000292377 -7.27596e-21
-0.000107937 -0.000186886 3.88051e-20
1.68142e-05 -1.75572e-05 2.42532e-19
-1.36634e-05 -3.04104e-05 7.27596e-21
0.000127217 -0.000202817 -2.42532e-20
4.03196e-05 3.96749e-06 2.32831e-19
3.84578e-05 1.6581e-06 1.79474e-19
7.30589e-06 -2.74104e-05 3.22567e-19
7.31132e-06 2.69509e-05 2.6436e-19
0.000117188 0.00021459 -7.27596e-20
4.18146e-05 9.97793e-06 -2.91038e-20
3.42153e-05 4.65288e-06 -8.73115e-20
4.73637e-05 -1.79367e-06 3.03165e-19
4.73574e-05 1.7014e-06 -4.85064e-20
-0.000397296 -1.99042e-08 -4.36557e-20
-0.000397258 2.04002e-08 -4.85064e-21
2.87964e-05 -1.27274e-05 2.44957e-19
2.01494e-05 -2.59213e-06 6.0633e-20
3.4237e-05 -3.22627e-05 3.03165e-19
3.41012e-05 3.22906e-05 7.27596e-20
0.000134438 -3.50227e-05 7.03343e-20
0.000116773 -0.000112842 7.27596e-21
4.68636e-05 1.34102e-05 2.35256e-19
-5.29211e-05 0.000153455 1.45519e-20
-5.33268e-05 -0.000156477 -1.21266e-20
7.06954e-05 -5.54012e-05 9.21621e-20
3.4187e-05 -4.52145e-06 2.01301e-19
-1.73711e-05 -1.15034e-05 -7.76102e-20
-0.000116345 8.3162e-05 1.94026e-20
-0.000116766 -8.32147e-05 -3.39545e-20
2.89116e-05 3.50715e-05 -1.04289e-19
1.50536e-05 -6.59212e-05 2.57084e-19
1.51629e-05 6.59782e-05 1.89175e-19
0.000147535 0.00031382 -1.40669e-19
1.51887e-05 -0.000311996 7.76102e-20
4.27604e-05 -1.70452e-06 8.73115e-20
2.59932e-05 1.63593e-06 5.82077e-20
4.13612e-05 6.85039e-06 2.95889e-19
4.153e-05 -7.14421e-06 -3.15291e-20
1.76412e-05 2.52949e-06 2.2798e-19
4.56636e-05 6.00476e-07 2.32831e-19
3.25702e-05 1.11888e-05 1.84324e-19
5.37057e-05 0.000129661 -3.39545e-20
5.36703e-05 -0.000129575 8.73115e-20
-3.44822e-05 -2.60999e-05 -1.69772e-20
3.82243e-05 -4.94687e-06 2.32831e-19
4.32678e-05 -3.92502e-06 2.59509e-19
4.32517e-05 3.83598e-06 -4.85064e-21
3.71518e-05 -3.52367e-06 3.10441e-19
3.81457e-05 4.90412e-06 -1.21266e-20
4.29529e-05 7.91962e-08 1.1399e-19
4.31656e-05 1.20163e-09 1.16415e-19
3.47707e-05 8.995e-09 1.60071e-19
3.71394e-05 3.44559e-06 -6.0633e-20
4.25649e-05 -7.15309e-07 1.64922e-19
3.36187e-05 -3.82714e-08 4.12304e-20
5.45283e-05 4.0575e-06 2.81337e-19
5.47122e-05 -4.59592e-06 -6.0633e-20
5.13997e-05 -6.62261e-06 2.71636e-19
5.14879e-05 6.58075e-06 -3.15291e-20
4.57628e-05 2.62715e-07 8.73115e-20
3.21597e-05 1.15559e-05 6.54836e-20
4.07588e-05 2.04681e-06 7.27596e-21
4.07591e-05 -2.14653e-06 2.13428e-19
0.000121972 0.00015472 -3.39545e-20
4.19147e-05 -0.000146022 1.45519e-19
4.41044e-05 2.18904e-05 2.78912e-19
4.38166e-05 -2.18725e-05 -8.97368e-20
5.38525e-05 -4.45088e-05 1.89175e-19
5.38701e-05 4.46164e-05 1.09139e-19
-6.72417e-06 -8.15799e-05 -9.70128e-21
-7.29842e-06 7.98243e-05 2.91038e-20
0.000291354 0.000260553 -2.18279e-20
-0.000424577 -7.00092e-05 7.27596e-21
4.98117e-05 9.17857e-05 1.60071e-19
7.37649e-05 6.96203e-05 4.85064e-20
4.97446e-05 -9.17602e-05 1.30967e-19
7.37145e-05 -6.95794e-05 1.06714e-19
-6.44765e-05 -0.000198176 1.18841e-19
-0.000424864 6.86467e-05 -7.27596e-21
9.78795e-05 -4.05396e-05 -4.85064e-20
0.000238098 -3.1336e-05 -4.85064e-21
0.000237926 3.13133e-05 0
9.77901e-05 4.05026e-05 1.1399e-19
0.000122084 -3.84783e-06 -9.70128e-20
8.35801e-05 -2.93471e-05 -1.1399e-19
0.000113859 3.42339e-05 -5.57823e-20
0.000121985 3.82428e-06 1.52795e-19
0.00011377 -3.42125e-05 7.76102e-20
8.35185e-05 2.92993e-05 2.83762e-19
8.80624e-05 -2.63974e-05 2.01301e-19
8.63906e-05 -2.69179e-05 1.62496e-19
8.81281e-05 2.63997e-05 -8.00355e-20
8.64514e-05 2.69218e-05 1.45519e-20
-0.000126136 -0.000359697 -1.6856e-19
3.8198e-05 0.000332337 4.36557e-20
5.04138e-05 -0.000300975 1.47944e-19
-0.000269496 -4.65797e-05 -1.21266e-21
-0.000337648 -8.40876e-05 1.21266e-21
3.46909e-05 0.000373162 1.16415e-19
5.80531e-05 -0.00038992 1.21266e-19
-0.000363071 9.8393e-05 4.85064e-20
-0.000110781 0.000185525 -1.09139e-20
-0.000199279 -0.000439849 -4.13517e-19
-0.000178239 0.000494498 -9.21621e-20
0.000477681 0.000233922 4.00178e-20
0.000264625 0.000249442 1.69772e-20
-0.000253018 -0.000261819 -1.46732e-19
-0.000125463 -0.000253007 -1.49157e-19
-4.03425e-05 -0.000241984 -1.33393e-20
-2.89136e-05 -0.000398771 -7.88229e-20
7.45852e-05 0.000364969 7.03343e-20
0.000287852 -1.98031e-05 -9.58001e-20
-0.000151845 -0.000531933 -3.18929e-19
-0.00013501 0.000577465 -1.34605e-19
0.000562038 0.000179557 9.09495e-20
-0.000235937 -0.00023833 -2.13428e-19
-0.000369532 9.55512e-05 1.30967e-19
-0.000267765 -0.000239989 -1.06714e-19
0.000178703 0.000402207 -2.18279e-20
-0.000251938 5.40396e-05 3.39545e-20
-0.000393318 -0.000799273 -3.56522e-19
-0.000221183 -0.00010952 -1.69772e-20
0.000840116 0.000439841 -3.39545e-20
6.74725e-05 0.000360418 3.39545e-20
1.25653e-05 -0.000372235 9.70128e-21
-0.000821072 0.000407779 -5.09317e-20
-0.000838317 -0.000424891 -3.29843e-19
-0.000549185 0.000189916 1.45519e-19
-0.000197027 -0.000156315 -4.24431e-20
-0.000340348 -0.000169993 -6.54836e-20
-0.000346086 0.000178656 6.79089e-20
-5.73019e-05 -0.000116769 -7.88229e-20
0.000243258 0.000316142 3.27418e-20
-0.000346842 0.00024632 7.51849e-20
-0.000100274 4.96261e-06 -3.15291e-20
-0.000218214 0.000260797 -2.91038e-20
-0.000108566 0.000378505 -5.82077e-20
0.000112914 0.000298349 1.11565e-19
-0.000350645 0.000245992 1.07927e-19
-0.000875011 -0.000874803 -2.27374e-19
0.000912383 0.00091223 -2.54659e-20
9.57494e-05 0.000185511 3.88051e-20
0.000917495 0.000998835 -2.96495e-19
-0.00094062 -0.000877967 -2.72848e-20
0.000346646 0.000189607 1.47944e-19
0.000431609 -7.59091e-05 -2.03727e-19
0.000201313 -5.09797e-05 -1.67347e-19
0.000330132 0.00030598 1.18841e-19
0.0004046 -0.000265725 -6.79089e-20
0.000171555 0.00031266 9.94381e-20
-0.000344563 0.000658586 1.47944e-19
-0.00035245 -0.000660407 -9.45875e-20
0.000274204 0.000231466 2.04939e-19
0.000300516 -0.000164108 -4.60811e-20
-0.000480815 0.000222424 1.12777e-19
-0.000174886 0.000501528 -3.88051e-20
0.000395486 -0.000613797 7.76102e-20
0.00021496 -0.000247027 -1.21266e-21
-0.000426747 0.000843858 -1.85537e-19
-0.000820472 0.000447493 -1.15203e-20
9.1883e-05 0.000293882 8.00355e-20
-3.40119e-05 -0.000240503 2.78912e-20
0.000662592 0.000274266 2.01301e-19
0.000843561 -0.000349576 4.43833e-19
4.63541e-05 -8.1536e-05 -1.33393e-20
0.000269569 0.000187531 9.21621e-20
0.000286672 -0.000143846 -7.03343e-20
-0.000172349 -0.000118652 -5.21444e-20
-7.35131e-05 -0.000191738 -1.51582e-19
-0.00050723 -0.000101116 8.24609e-20
0.000360049 -5.85401e-05 -2.66785e-20
-0.000439217 -5.79092e-05 2.42532e-20
-0.000318377 -0.000266892 -1.04289e-19
-0.000370734 -0.000641859 -1.26117e-19
-0.00036651 0.000634839 4.36557e-20
-0.000388504 -0.00042672 -2.00089e-19
-0.000273982 0.000174619 2.42532e-20
0.000275282 0.00019213 1.45519e-20
6.73448e-05 -0.000693543 9.45875e-20
5.99922e-06 0.00054552 2.66785e-20
-0.000319674 0.000297096 1.57646e-20
7.23949e-05 0.000327608 9.70128e-21
-2.28656e-05 -0.000319445 1.12777e-19
0.000194519 9.17755e-05 -1.94026e-20
0.00019672 -4.80886e-05 -1.57646e-19
0.000480656 -0.000345034 7.03343e-20
0.00021637 0.000245839 1.69772e-20
0.000243828 -0.000219797 -9.21621e-20
0.000278468 -0.000136471 4.24431e-20
0.000133715 -0.000351603 6.18456e-20
0.000173458 0.000200933 6.54836e-20
0.000178109 -0.000150121 -1.6856e-19
-0.000290946 0.000139639 1.94026e-20
0.000186661 0.000218443 6.79089e-20
-0.000356416 -0.000243998 -9.58001e-20
-0.000126232 2.9911e-05 3.03165e-20
5.62203e-05 0.000191552 1.38243e-19
0.000380986 9.57357e-05 1.11565e-19
-0.000280055 0.000179232 -4.36557e-20
-0.000305376 -0.000139014 -1.45519e-20
-0.00023839 -0.000288855 -1.47944e-19
-0.000272423 -0.000177825 -8.73115e-20
-4.27022e-06 -0.000329109 1.63709e-19
5.08081e-05 0.000338826 -9.70128e-21
0.000474003 -0.000180905 -1.16415e-19
-0.000159405 0.000126829 -2.30405e-20
0.000232113 -0.000354968 3.39545e-20
0.000254082 0.000406303 3.15291e-20
-0.000275025 0.000174562 1.69772e-20
-0.000106494 0.000181308 1.20053e-19
-0.000112731 -0.000185494 -4.85064e-20
-7.07993e-05 -0.000336179 -1.69772e-20
-0.000254575 0.000265706 -5.45697e-20
4.22383e-05 -0.000469016 -1.72198e-19
8.44702e-05 0.000513644 -1.92813e-19
0.000498729 -2.62689e-06 2.42532e-20
0.000501522 0.000390887 2.78912e-20
0.000332491 -0.000205656 -9.09495e-20
0.000474873 -0.000822838 2.15853e-19
-0.00038676 0.000670077 -5.09317e-20
0.000368259 -5.38714e-05 -2.30405e-20
0.000121044 0.000271361 1.5522e-19
0.000210554 0.000103493 -9.45875e-20
-4.28477e-05 0.000359392 -4.24431e-20
0.000100712 -0.000199411 1.06714e-19
2.89052e-05 0.000250782 7.51849e-20
0.000158244 -0.000116595 -7.63976e-20
0.000162897 0.000133138 1.52795e-19
-5.64247e-05 -0.000184058 -4.85064e-20
9.49233e-05 1.77649e-05 -1.54008e-19
0.000337085 0.000270337 1.21266e-21
-0.000107409 -2.89977e-05 1.09139e-20
0.000339415 0.00030118 2.91038e-20
-0.000368154 0.000482055 -1.94026e-20
-0.000182416 0.000159246 -5.82077e-20
0.00013102 -0.000519579 8.00355e-20
0.000166563 0.000557725 -2.03727e-19
0.00055482 -0.000117015 2.42532e-20
0.00033406 -0.000243213 4.72937e-20
-1.82526e-06 -0.000378298 1.8675e-19
4.73474e-05 0.000408461 -6.54836e-20
0.000266822 -0.000471101 1.1399e-19
0.000284133 0.000500483 -1.39456e-19
3.35485e-05 0.000118863 9.70128e-21
3.19224e-05 -8.06112e-05 -2.72848e-19
0.000208551 0.000233063 5.21444e-20
0.000128992 0.000173638 6.30583e-20
-0.00027126 -0.000161885 -8.85242e-20
-0.000544577 -0.000420492 3.81988e-20
0.000103095 0.000398669 -4.12304e-20
0.000280395 0.00023128 1.40669e-19
0.000336574 -0.000163308 -6.30583e-20
0.000266439 0.000223451 1.40669e-19
0.000286206 -0.000149223 -9.70128e-21
-0.000173528 -0.00157646 -2.2798e-19
0.00161787 0.000271943 -1.33999e-19
7.1298e-05 -0.000342704 8.60988e-20
0.000420646 0.000467367 -9.70128e-21
0.000537442 -0.0004841 -1.26117e-19
0.000295972 0.000252238 1.27329e-19
-0.000679872 -3.46493e-05 1.32786e-19
7.2086e-06 0.000294871 1.21266e-21
2.19759e-05 -0.000297651 1.04289e-19
-0.000232583 0.000378801 3.88051e-20
0.000108269 3.02054e-05 -2.19491e-19
0.000300251 -0.000184377 -4.00178e-20
-4.63668e-05 -9.23301e-05 1.1399e-19
-9.18174e-05 0.000258689 6.0633e-20
0.000257289 -0.000209687 8.48862e-20
0.000183089 -0.000131318 4.60811e-20
-0.000199888 -0.000136331 -7.15469e-20
-0.000350075 -0.000218753 -4.00178e-20
0.000343452 0.000116288 2.42532e-20
0.000124259 0.000197719 9.21621e-20
-9.97555e-05 0.000256669 -1.45519e-20
-6.87398e-05 -0.000342001 8.97368e-20
0.000263121 0.000223932 2.03727e-19
0.000111473 0.000378261 -2.06152e-20
-0.000124341 -0.000173931 -4.48684e-20
-0.000430298 0.000803926 5.21444e-20
-0.000776025 0.000451874 2.48595e-20
0.000281489 7.9943e-05 -1.26117e-19
0.000263065 -0.000152573 -9.45875e-20
0.000712317 0.000393887 -4.36557e-20
0.000873781 -0.000422337 3.66223e-19
5.79737e-05 -0.000192398 9.21621e-20
-0.000471855 0.000334607 -5.3357e-20
-0.000475736 -0.000343041 -1.45519e-19
-0.000201307 -8.62834e-05 1.09139e-20
-3.04419e-05 8.39628e-05 8.12482e-20
0.000458864 0.000592365 -4.60811e-20
-0.000521961 -0.000419439 -7.51849e-20
0.000442425 -0.000624265 2.0979e-19
0.00046466 0.000674613 -1.89175e-19
0.000691947 -0.000379023 2.18279e-20
4.55382e-05 -7.22041e-05 -1.33393e-19
-5.70275e-05 -0.000697128 -1.67347e-19
0.000734537 7.44049e-05 -1.06714e-19
-0.000377099 -0.000515726 -1.18841e-19
0.00036491 0.000454629 3.39545e-20
-0.000234222 -0.000186745 -2.06152e-20
-9.9351e-05 6.07848e-06 -3.27418e-20
0.00025361 -0.000373094 8.00355e-20
0.000275406 0.000426543 -8.73115e-20
-0.000230225 7.16258e-05 9.70128e-21
0.000126468 -0.000245858 5.94203e-20
0.000294905 0.00031924 9.94381e-20
0.00036481 -0.000280603 -1.04289e-19
-0.000284119 -0.00015038 -3.88051e-20
-0.000185937 0.000142745 -6.91216e-20
-0.000226108 -0.000103709 -2.06152e-20
-0.000436208 -0.000237869 -4.48684e-20
-3.89495e-05 0.00020859 3.88051e-20
-0.000916887 0.000917043 1.51886e-19
-3.80573e-05 0.000371982 -7.39722e-20
6.60297e-05 -0.000354407 9.58001e-20
6.73379e-05 -0.000693551 1.79474e-19
3.05065e-05 0.000577289 -5.09317e-20
8.80691e-05 0.000190353 -3.63798e-20
9.36496e-05 -0.000160415 -3.49246e-19
-0.000334276 -0.00017247 -8.85242e-20
-0.000325458 0.00018454 5.09317e-20
-0.000581558 0.000111055 -1.40669e-19
-0.00057383 -9.89089e-05 -1.69772e-20
0.000574833 0.000401976 6.0633e-20
0.000779927 -0.000427821 1.04289e-19
0.000213174 0.00014409 2.03727e-19
0.000203939 1.09061e-05 -3.68649e-19
0.000312091 0.000186726 7.76102e-20
1.17403e-05 0.000326026 3.63798e-21
2.06921e-05 -0.000305141 1.6856e-19
-0.000489779 0.00035486 9.82254e-20
0.000311826 -0.000130944 8.12482e-20
-3.56407e-05 -0.00032629 5.45697e-20
0.000286032 0.0002536 1.10352e-19
-0.000214112 1.88897e-06 -5.57823e-20
-0.000203944 2.37049e-06 3.27418e-20
0.000271276 -0.000189465 -8.00355e-20
-0.000217378 0.000201316 2.91038e-20
0.000339308 0.000587593 -1.23691e-19
-0.000385861 -0.000668339 1.67347e-19
-7.24932e-05 -0.000233184 -2.42532e-21
-0.000285485 -0.000168749 4.85064e-21
-3.08668e-05 -0.000378886 -2.06152e-20
0.000461443 -0.000805162 3.98965e-19
0.000809271 -0.000373968 2.60722e-19
4.5268e-05 0.000243543 -5.3357e-20
5.18137e-05 -0.000208355 -3.43183e-19
-4.35055e-05 0.000397535 8.85242e-20
9.25717e-05 0.000364177 2.91038e-20
0.000383505 0.000242527 8.73115e-20
0.000278102 0.000200374 1.64922e-19
0.000309108 -9.526e-05 -1.61284e-19
-0.000750709 3.81754e-08 -3.88051e-20
-0.000770863 9.01362e-08 -2.13428e-19
6.01595e-05 -0.000179714 7.15469e-20
-0.000292949 -0.00017489 -4.00178e-20
0.000215113 0.000301538 2.66785e-20
0.000242823 -0.000263088 -2.42532e-21
9.89415e-05 0.000231089 -6.0633e-21
5.00129e-05 7.04421e-05 8.48862e-21
0.0008815 -0.00088167 2.04333e-19
-0.000253499 8.12066e-05 -4.24431e-20
-0.000243199 -7.72918e-05 -9.70128e-21
-4.25647e-05 0.000185873 -5.6995e-20
0.000383727 -0.000184874 1.94026e-20
-0.000278614 0.000153458 -7.27596e-21
-0.000370878 -4.89004e-05 -1.24904e-19
-0.000359344 5.68626e-05 -2.42532e-21
-0.00021716 0.000111377 3.39545e-20
8.91028e-05 0.000461151 -8.48862e-20
0.000105467 -0.000475118 -1.77048e-19
0.000182664 0.000746703 -6.79089e-20
-0.000150902 -0.000906991 2.37681e-19
-8.34911e-05 0.00166199 -4.85064e-20
-0.0015991 9.36983e-05 -6.85153e-20
0.000235828 0.000163495 1.06714e-19
0.000231185 -2.95466e-05 -2.18279e-19
-2.57671e-05 -6.21956e-05 -3.15291e-20
0.000864911 -0.0010593 2.50414e-19
0.00110225 -0.000847402 3.49852e-19
0.000366015 -0.000883614 5.11742e-19
0.000313585 0.000756403 -3.92902e-19
-0.000258811 0.000170348 -3.63798e-20
0.000235796 -0.000250119 -4.48684e-20
0.00024437 0.000217935 1.35818e-19
0.000248378 -0.000126835 -1.37031e-19
0.000176811 -0.000171825 -4.60811e-20
0.000249141 0.000317176 1.78261e-19
-9.73174e-06 -0.000746687 -2.92251e-19
3.42056e-05 0.000730187 -1.40669e-19
0.00078143 3.08503e-05 -2.91038e-20
0.000204883 0.000253047 1.24904e-19
8.79772e-05 0.000794294 -2.37681e-19
-0.000752978 -9.21494e-05 7.45786e-20
0.000288751 0.000173708 2.54659e-19
0.00032751 -4.99899e-05 -3.24993e-19
0.000280312 0.000202984 1.57646e-19
0.000312905 -9.98047e-05 -2.26767e-19
-0.000901063 0.00112636 -5.39634e-20
-0.00109598 0.000902796 1.10352e-19
0.00026234 0.000230823 1.41881e-19
0.000264573 -0.000138324 -6.79089e-20
0.000137772 0.000467855 3.39545e-20
-9.06094e-05 -0.000532419 1.77048e-19
0.000232327 8.42671e-05 2.13428e-19
0.000236894 0.000105105 -4.48684e-19
0.000291614 0.000349289 -4.60811e-20
0.00035879 -0.000335301 -5.57823e-20
-0.000220291 -5.35165e-05 -5.6995e-20
-0.000203208 5.91764e-05 -6.0633e-21
-0.000743824 1.76825e-05 -7.51849e-20
0.000351539 0.000584418 -1.21266e-20
0.000271998 0.000597309 -8.73115e-20
0.00040902 0.000470409 -7.51849e-20
0.000333641 -0.000645085 -8.48862e-20
0.000495857 -0.000494963 1.21266e-19
-0.000360688 -0.000674873 -6.0633e-20
-0.000765407 -1.34933e-05 -2.11003e-19
0.000355291 -0.000147319 1.916e-19
0.00123974 -0.000163634 5.96629e-19
0.00157859 0.000207457 1.21266e-20
0.00061418 0.00025424 -3.90476e-19
0.000546461 0.000142364 1.09139e-19
0.000408561 5.10837e-05 2.37681e-19
0.000531792 0.00021037 1.62496e-19
0.000786601 -7.26554e-06 -2.61934e-19
0.000737034 -0.000236509 3.54097e-19
0.000533018 0.000160731 -4.9234e-19
0.000426821 0.000274395 1.35818e-19
0.000443634 0.000269153 3.63798e-20
0.000563641 -0.000215634 -2.35256e-19
0.000568873 -0.000214005 -1.33393e-19
VECTORS seepage_velocity_TPM float
-3.62824e-05 -0.000108843 -3.13907e-20
-1.12012e-05 8.93479e-05 3.64938e-22
1.7778e-05 -8.94052e-05 -3.46951e-20
-8.11181e-05 -1.54287e-05 2.00776e-20
-0.000101872 -2.68572e-05 7.66512e-21
-1.34244e-05 0.000115174 -5.11364e-21
2.0003e-05 -0.000115265 -4.52901e-20
-0.000109451 2.74886e-05 -1.82526e-21
-3.42782e-05 5.52093e-05 9.49518e-21
-5.74899e-05 -0.000133582 -2.80865e-20
-5.51045e-05 0.000142901 5.4709e-21
0.000149551 6.09032e-05 1.45918e-21
7.91854e-05 7.66997e-05 -1.60739e-20
-7.29693e-05 -7.64421e-05 -2.33806e-20
-3.60803e-05 -7.55235e-05 -2.44589e-20
-1.11507e-05 -7.16005e-05 -9.85968e-21
1.16046e-05 0.000117752 -6.93977e-21
-5.22699e-06 -0.000117815 -1.75319e-20
0.000103684 1.04138e-05 7.30011e-22
-4.32819e-05 -0.000161237 -3.9042e-20
-4.36963e-05 0.000164894 -6.203e-21
0.000179714 4.14902e-05 1.09468e-20
-6.95422e-05 -7.20759e-05 -3.32138e-20
-0.000112175 2.62714e-05 4.0137e-21
-7.989e-05 -7.26306e-05 -3.28559e-20
4.8081e-05 0.000106271 5.47536e-21
-7.697e-05 1.45251e-05 1.02215e-20
-0.000116464 -0.00024284 -2.42522e-20
-6.6844e-05 -3.38179e-05 1.05895e-20
0.00025877 0.000122429 -1.18529e-20
-3.62538e-07 0.000110123 -1.31525e-20
6.78858e-06 -0.000110155 -2.55734e-20
-0.000252803 -0.000128449 -2.19268e-20
-0.000253688 0.0001236 -5.55481e-20
-0.000164718 5.38718e-05 3.64824e-22
-5.85665e-05 -4.74026e-05 -2.7018e-20
-0.000102595 -5.16289e-05 -8.76726e-21
-0.000107427 5.25517e-05 -1.68046e-20
-1.77691e-05 -3.59898e-05 4.38238e-21
7.23793e-05 7.38828e-05 1.67911e-20
-0.000105532 7.05469e-05 6.20425e-21
-3.10898e-05 5.05627e-07 1.97187e-20
-6.82591e-05 7.45852e-05 1.86146e-20
-3.68563e-05 0.000108313 5.11026e-21
1.67748e-05 7.15959e-05 -1.16863e-20
-0.000106868 7.04148e-05 -2.18949e-21
-0.000264064 -0.000264064 -1.32931e-20
0.000273539 0.000273539 -9.10468e-21
2.4284e-05 5.59018e-05 2.59315e-20
0.000274713 0.000290373 -1.12976e-20
-0.000280583 -0.000265028 -1.51238e-20
0.000126924 -1.31193e-05 8.76962e-21
0.000126831 1.30475e-05 -2.5578e-20
8.92353e-05 1.5776e-05 -2.33763e-20
0.000120937 -5.52133e-05 -7.30917e-22
0.000120833 5.52194e-05 -4.60398e-20
4.55417e-05 7.43212e-05 1.27782e-20
-0.000106372 -0.000199404 -1.46141e-21
-0.000106693 0.000200196 -2.11936e-20
9.67797e-05 -3.6945e-05 -1.0228e-20
9.66276e-05 3.67291e-05 -1.16893e-20
-0.000144733 6.33303e-05 9.8476e-21
-0.00011531 0.000181973 2.33862e-20
0.000122644 -0.000183468 -2.19239e-20
7.06672e-05 -7.29641e-05 -2.55514e-20
-0.00012796 0.000245287 2.91736e-21
-0.000245246 0.000129928 -9.48065e-21
1.43092e-05 7.10656e-05 3.65055e-22
-8.07283e-06 -7.08761e-05 -3.46887e-20
0.000215419 -8.92292e-05 8.69993e-20
0.000215481 8.92551e-05 -8.33439e-20
1.53248e-05 -2.25929e-05 -1.86254e-20
9.84755e-05 3.39822e-05 -2.04532e-20
9.86867e-05 -3.40305e-05 -2.99488e-20
-5.18229e-05 -3.56436e-05 -1.57027e-20
-1.79917e-05 -5.49675e-05 5.84402e-21
-0.000152247 -3.24842e-05 -2.18886e-21
-0.000131419 -1.92321e-05 4.74408e-21
-9.59099e-05 -8.10181e-05 8.76581e-21
-0.000112177 0.00019429 -3.65439e-21
-0.000111907 -0.000193819 -7.30958e-22
-0.000115542 -0.00012959 -1.8242e-20
-8.46926e-05 5.00364e-05 7.66567e-21
0.000102119 3.708e-05 -1.42431e-20
-1.74959e-05 0.000205777 1.4617e-20
2.23782e-05 -0.000207865 -1.24244e-20
-9.92347e-05 8.92075e-05 4.38275e-21
1.02658e-05 9.48726e-05 4.74796e-21
-3.47821e-06 -9.48598e-05 -3.43305e-20
8.68431e-05 -1.44693e-05 -2.33799e-20
8.59275e-05 1.35339e-05 -2.26497e-20
0.000152835 -0.000105005 -1.09461e-20
0.000123188 2.01936e-05 1.38738e-20
9.17628e-05 -4.5722e-05 -2.11909e-20
9.12856e-05 4.58057e-05 -2.84981e-20
0.000103347 -3.7828e-05 -1.75297e-20
4.53433e-05 -0.000105572 -2.04422e-20
8.26973e-05 -3.62114e-05 -2.11887e-20
8.14437e-05 3.54314e-05 -2.77647e-20
-8.8856e-05 4.05862e-05 8.28024e-26
5.04943e-05 3.11572e-05 5.11341e-21
-0.000106451 -7.43234e-05 -1.67887e-20
-3.79688e-05 9.00249e-06 -1.05911e-20
-9.73863e-06 2.16391e-05 -8.03509e-21
0.000127258 1.80186e-05 3.65008e-21
-8.69456e-05 5.2289e-05 8.03315e-21
-9.17276e-05 -4.27429e-05 1.09522e-21
-7.03008e-05 -8.80386e-05 -3.32064e-20
-8.12401e-05 -5.44578e-05 -9.12517e-21
1.82572e-06 -9.75911e-05 -1.75264e-20
4.92642e-06 9.76235e-05 -1.1684e-20
0.000151073 -5.95782e-05 -1.71451e-20
-5.17136e-05 3.53532e-05 1.82591e-20
7.61675e-05 -0.00010763 -1.78828e-20
7.65335e-05 0.000108627 3.64951e-21
-8.45387e-05 5.0057e-05 -3.28605e-21
-3.34707e-05 5.44172e-05 1.57051e-20
-3.4246e-05 -5.64233e-05 -1.38785e-20
-1.84462e-05 -0.000101244 -3.94136e-20
-7.91584e-05 7.60709e-05 1.75231e-20
1.65058e-05 -0.000141818 -4.08572e-20
2.3711e-05 0.000145267 -4.74233e-21
0.000160615 -7.66257e-06 2.18918e-21
0.000156582 0.000104324 -7.29745e-21
0.000108302 -6.2976e-05 -1.75175e-20
0.000141881 -0.000245788 -1.53498e-20
-0.000141522 0.000245126 -4.09327e-20
0.000123961 -2.20871e-05 -2.19018e-21
2.18011e-05 5.49135e-05 5.47717e-21
9.03843e-05 -1.71146e-05 -1.68022e-20
-1.73692e-05 0.000102631 -1.02186e-20
-2.62761e-05 5.74803e-05 2.19159e-21
3.13182e-05 -5.72606e-05 -3.57931e-20
5.15456e-05 -3.20921e-05 1.75312e-20
3.86049e-05 -1.15586e-05 8.03554e-21
-1.57081e-05 -5.51816e-05 -1.49701e-20
6.71595e-05 6.29991e-07 -1.38851e-20
0.000106269 6.79797e-05 2.18945e-21
-3.60638e-05 -1.15462e-05 1.9356e-20
0.000106421 6.94129e-05 1.0585e-20
-0.000111956 0.000139201 -1.27686e-20
-5.82312e-05 4.51956e-05 1.16835e-20
4.41068e-05 -0.000157577 -4.23301e-20
4.64526e-05 0.000157522 -8.39264e-21
0.000175316 -4.02085e-05 -4.3789e-21
0.000108641 -7.20257e-05 -1.679e-20
4.11799e-06 0.000113822 -3.65014e-21
2.62603e-06 -0.00011366 -3.54128e-20
8.61373e-05 -0.000144274 -1.78743e-20
8.47871e-05 0.000138253 -9.8494e-21
5.49247e-05 -1.95448e-05 -2.63071e-20
5.5139e-05 1.88519e-05 -1.4615e-20
6.06322e-05 3.793e-05 -1.09567e-21
3.65813e-05 5.15108e-05 2.77575e-20
-8.14191e-05 -4.91227e-05 -2.48301e-20
-0.000162573 -0.000128223 -1.03939e-20
2.55778e-05 0.000105197 1.82489e-21
0.000108335 3.64445e-05 -4.16502e-20
0.000108544 -3.66043e-05 -4.38414e-21
9.82994e-05 -3.85206e-05 -2.11847e-20
9.81149e-05 3.82762e-05 -1.35147e-20
-4.95698e-05 -0.000478992 -6.37873e-21
0.000491881 7.56962e-05 -1.78616e-20
2.5584e-05 -0.000102737 -5.18261e-20
0.000149 -9.87193e-05 2.11987e-20
0.000148922 9.89507e-05 -5.04381e-20
0.000100382 5.24717e-05 2.92122e-21
-0.000203011 -1.29169e-05 3.89149e-25
0.000123363 -2.24611e-05 7.29874e-22
-4.28932e-06 8.75444e-05 1.78918e-20
1.0707e-05 -8.79478e-05 -2.26394e-20
-7.24569e-05 0.000109137 -1.35012e-20
3.65655e-05 1.19029e-05 1.82627e-20
0.000100801 -5.27381e-05 -2.00825e-20
-1.50131e-05 -2.61265e-05 -1.64338e-20
-7.37561e-05 6.05966e-05 3.65336e-21
8.05513e-05 -6.04962e-05 -3.94531e-20
6.03025e-05 -3.72796e-05 6.57366e-21
-5.9547e-05 -4.06024e-05 -2.48297e-20
-0.0001047 -6.74245e-05 -1.82426e-21
1.72642e-05 2.40889e-05 -6.57431e-21
-3.43631e-05 7.38203e-05 1.38727e-20
-1.80365e-05 -0.000102432 -4.08814e-20
8.5951e-05 4.00299e-05 9.49461e-21
2.63536e-05 0.000103337 4.98696e-25
-3.21462e-05 -5.00099e-05 1.53409e-20
-0.000128757 0.000235524 5.46395e-22
-0.000231137 0.000131251 -3.82721e-21
8.62085e-05 -4.02567e-05 -2.59277e-20
0.000104338 -1.21031e-05 -1.49719e-20
0.000218188 9.57528e-05 -9.43143e-20
0.000218089 -9.56382e-05 8.26165e-20
2.19055e-05 -5.60252e-05 -1.09539e-21
-0.000143349 -0.000103714 2.63056e-20
-0.000146637 0.000101158 -2.63056e-20
-6.10937e-05 -2.70991e-05 1.2779e-20
-1.28332e-05 2.25518e-05 3.7615e-20
0.000139057 0.000170201 -1.95044e-20
-0.000155357 -0.000127839 -2.1327e-20
0.000138405 -0.000189837 -1.23999e-20
0.000140649 0.000192134 -1.56823e-20
0.00021441 -0.000118148 -1.67761e-20
1.7e-05 -2.00406e-05 1.49749e-20
-1.41838e-05 -0.000211696 -2.151e-20
0.000227076 1.64868e-05 -1.276e-20
0.000116862 0.000153795 -3.94592e-20
-0.000110309 -0.000152836 -2.99607e-20
-7.05896e-05 -5.69022e-05 -1.93559e-20
-3.05044e-05 1.21539e-06 1.82599e-21
8.18648e-05 -0.000112424 -2.73647e-20
8.23644e-05 0.000114225 3.64997e-22
-6.97868e-05 2.03562e-05 1.46047e-20
4.30832e-05 -7.25442e-05 -1.46037e-20
0.000114232 -5.77514e-05 1.31562e-20
0.000113997 5.7797e-05 -4.16619e-20
-8.52491e-05 -4.57102e-05 -1.42428e-20
-5.93587e-05 3.99381e-05 1.75268e-20
-6.81699e-05 -3.22493e-05 -1.46058e-21
-0.000129823 -7.29891e-05 -1.53211e-20
-1.60412e-05 5.93439e-05 2.88451e-20
-0.000270704 0.000270704 -1.91177e-21
-1.6478e-05 0.000105002 -8.03056e-21
2.4089e-05 -0.000106083 -3.24872e-20
2.32503e-05 -0.000206697 -1.89993e-20
-1.68222e-05 0.000206615 -2.11913e-20
6.48573e-05 -3.2514e-05 -3.8005e-20
6.47985e-05 3.14363e-05 -1.90028e-20
-0.000101677 5.41731e-05 -1.8262e-20
-0.000100538 -5.24455e-05 -9.49539e-21
-0.000178066 -3.24909e-05 -2.77671e-20
-0.000175244 3.31728e-05 2.19211e-21
0.000206531 9.64246e-05 -9.06495e-20
0.000206524 -9.63045e-05 4.6787e-20
6.55535e-05 6.06265e-06 2.70325e-20
6.56566e-05 -5.66567e-06 2.19181e-20
0.00010426 3.67414e-05 -1.05883e-20
-3.48895e-06 9.30392e-05 -3.64621e-22
1.01826e-05 -9.09948e-05 -3.10354e-20
-0.000147396 0.000102125 -8.02556e-21
0.000103928 -3.7724e-05 -1.02228e-20
-8.58346e-06 -9.79657e-05 -2.00801e-20
8.90861e-05 5.40216e-05 8.39649e-21
-6.53466e-05 -2.03472e-06 1.13222e-20
-6.45938e-05 5.14412e-07 5.84407e-21
8.88574e-05 -5.48128e-05 -3.28554e-21
-6.72397e-05 5.92538e-05 2.00873e-20
0.00011622 0.000201329 -3.14286e-20
-0.000114317 -0.000198001 -2.55815e-20
-1.76547e-05 -6.86099e-05 -1.35132e-20
-8.56704e-05 -5.15888e-05 -1.1684e-20
-9.60806e-06 -0.000114654 -1.8267e-21
0.000144292 -0.000246284 -2.00518e-21
0.000248848 -0.000116602 -1.40352e-20
5.46796e-05 -4.51483e-05 -2.11945e-20
5.39466e-05 4.41987e-05 -1.16934e-20
-1.43506e-05 0.000120105 1.42468e-20
1.45341e-05 9.45487e-05 9.49316e-21
0.000128537 5.48591e-05 -1.82509e-21
9.8602e-05 -2.23451e-05 3.65322e-21
9.8493e-05 2.19099e-05 1.16894e-20
-0.000232344 -1.71968e-09 -1.1694e-20
-0.000232413 9.07403e-10 -1.75415e-20
2.25319e-05 -5.24024e-05 -1.09515e-21
-8.79995e-05 -5.35064e-05 1.82523e-21
9.10685e-05 5.48593e-05 -3.72693e-20
9.15639e-05 -5.48831e-05 -2.1192e-20
2.50688e-05 6.71496e-05 3.46943e-20
1.13175e-05 1.84949e-05 4.56498e-20
0.000269684 -0.000269684 -9.10301e-22
-7.63481e-05 2.41704e-05 1.35157e-20
-7.71036e-05 -2.58799e-05 -9.86288e-21
-1.69383e-05 5.37171e-05 3.65162e-20
0.000126154 -5.57516e-05 -1.31421e-20
-8.65023e-05 4.41069e-05 2.55632e-21
-0.00011165 -1.49672e-05 -1.13226e-20
-0.000112175 1.4635e-05 1.0957e-21
-6.71601e-05 3.2278e-05 2.55606e-21
6.42206e-05 9.52547e-05 -2.11968e-20
6.4713e-05 -9.50078e-05 -2.46168e-27
4.79896e-05 0.000270644 -3.43548e-20
-4.2815e-05 -0.000270647 -4.53193e-20
-2.43413e-05 0.00048849 -6.19696e-21
-0.000477185 2.49901e-05 -5.83191e-21
7.40218e-05 -5.2751e-06 1.31499e-20
7.44197e-05 4.44245e-06 4.31024e-20
-3.20733e-06 -1.72055e-05 2.81226e-20
0.000264946 -0.000322225 -3.46187e-21
0.000336987 -0.00025942 -2.0041e-21
8.84038e-05 -0.000213447 4.97154e-20
8.84655e-05 0.000213595 -5.77575e-20
-8.12777e-05 4.85469e-05 4.38144e-21
7.76382e-05 -7.401e-05 -5.84161e-21
7.88501e-05 -3.26121e-05 2.92191e-21
7.87568e-05 3.21599e-05 2.62975e-20
5.85345e-05 -4.86551e-05 1.38759e-20
7.70777e-05 7.47208e-05 1.24133e-20
5.24826e-07 -0.00022719 -2.73533e-20
8.8627e-06 0.000209129 -6.92914e-21
0.000242584 2.00982e-06 -8.75307e-21
5.87489e-05 4.81501e-05 1.49713e-20
2.67221e-05 0.00023035 1.64055e-21
-0.00022513 -3.03771e-05 -7.47329e-21
9.86649e-05 -1.04977e-05 2.11883e-20
9.90929e-05 9.20775e-06 6.5754e-21
9.60847e-05 -1.9324e-05 2.19203e-20
9.62133e-05 1.92077e-05 -3.18873e-25
-0.000266409 0.000329734 -1.8218e-22
-0.000326989 0.000266381 -1.14772e-20
8.62415e-05 3.75332e-05 2.11819e-20
8.64542e-05 -3.80042e-05 -2.78935e-25
3.00084e-05 0.000158858 -4.31161e-20
-2.46612e-05 -0.000157833 -3.28856e-20
7.43319e-05 3.11443e-05 3.50731e-20
7.37698e-05 -3.09579e-05 1.46136e-20
0.000113064 -6.83059e-05 5.11595e-21
0.000112815 6.84184e-05 -5.189e-20
-6.60222e-05 -1.63626e-05 -1.5704e-20
-6.46758e-05 1.53399e-05 5.47828e-21
-0.000105439 -0.000200292 -1.53475e-20
0.000103932 -0.00012423 2.41251e-20
0.000124598 -0.000105106 5.77534e-20
0.000103708 0.000124677 -5.11748e-21
0.000124642 0.000105305 -2.92421e-20
0.000111867 0.000202443 -3.21572e-20
-0.000230884 3.70647e-06 -8.03863e-21
-0.000230652 -4.33681e-06 1.46163e-21
0.000167574 6.94159e-05 1.90064e-20
0.000403202 5.30753e-05 8.04415e-20
0.000403319 -5.30907e-05 -8.62918e-20
0.000167532 -6.93986e-05 8.7713e-21
0.000210338 4.57641e-06 1.82746e-20
0.000148972 4.5184e-05 2.63106e-20
0.000197374 -5.55185e-05 4.16699e-20
0.000210327 -4.51268e-06 -8.77268e-21
0.000197366 5.55692e-05 -9.21119e-20
0.000148983 -4.51055e-05 -2.33878e-20
0.000156256 -4.41376e-05 2.04643e-20
0.000155312 -4.44471e-05 3.50875e-20
0.000156264 4.41718e-05 -6.13932e-20
0.000155255 4.45015e-05 -7.16371e-20
-1.43923e-05 9.11162e-05 1.27822e-20
-1.5316e-05 -9.15669e-05 6.93868e-21
-8.20977e-05 1.49946e-05 -1.56964e-20
-0.000104896 2.72876e-05 3.64717e-22
-1.67369e-05 0.000118366 1.89922e-20
-1.76453e-05 -0.000118633 -6.57503e-21
-0.000104972 -2.69686e-05 5.40172e-20
-3.52294e-05 -5.52279e-05 1.67974e-20
-5.88926e-05 -0.00013269 1.75085e-20
6.04387e-05 0.000136714 1.64136e-20
0.000138756 6.31094e-05 2.04257e-20
7.68043e-05 -7.98004e-05 -3.65308e-20
7.86658e-05 7.86669e-05 -1.93607e-20
-8.43458e-05 5.04243e-05 -9.01745e-20
8.80262e-06 -0.000121103 -6.79352e-20
9.60359e-06 0.000120666 -3.3966e-20
8.56958e-05 1.34022e-05 -2.04435e-20
-4.42377e-05 -0.000160975 1.64179e-20
4.35856e-05 0.000162571 -5.6769e-26
0.000168329 4.49791e-05 3.02822e-20
4.04344e-05 0.000109032 -1.60599e-20
4.17875e-05 -0.000107413 5.03674e-20
-7.72191e-05 -1.57895e-05 3.86943e-20
-0.000115185 -0.000239387 1.64132e-21
-6.82319e-05 3.43259e-05 4.38139e-21
-2.58852e-06 0.000112893 8.03703e-21
-3.59404e-06 -0.000113199 -1.53443e-20
-0.000254933 -0.000123286 8.26083e-20
-0.000253801 0.00012783 -1.46175e-21
-5.51228e-05 7.45255e-05 -5.73134e-20
-6.66175e-05 7.8885e-05 -4.89068e-20
-0.00015378 4.96469e-05 -1.0944e-20
-0.000108704 -5.23798e-05 -7.30643e-21
-0.000104016 5.09944e-05 -5.26045e-20
-1.78275e-05 3.65549e-05 1.57013e-20
6.46378e-05 -7.69459e-05 3.35757e-20
-3.20699e-05 -1.09019e-06 3.7607e-20
-0.000110664 7.22859e-05 -6.642e-20
-7.27551e-05 -7.3626e-05 2.40867e-20
-0.000127794 -2.00176e-05 4.16012e-20
-0.000116567 2.34498e-05 -3.43007e-20
-4.00916e-05 -0.000108956 -1.09545e-21
1.17453e-05 -7.42876e-05 -3.17663e-20
1.26923e-05 7.37934e-05 -2.556e-21
-3.62007e-05 0.000109614 -1.86146e-20
6.69211e-05 7.78497e-05 -8.39495e-21
-0.00025866 -0.000258623 -1.10618e-19
-0.000254688 0.0002547 3.64416e-21
2.28663e-05 -5.93611e-05 -2.08166e-20
2.29408e-05 5.75427e-05 -3.39655e-20
3.91199e-05 7.70241e-05 5.47572e-21
-0.000255432 0.000277959 -5.97743e-20
-0.000269444 -0.000259151 -1.43607e-19
0.000132899 -2.43167e-05 -4.67589e-20
0.000131775 2.63506e-05 -1.09594e-20
6.25251e-05 2.19945e-05 -1.53353e-20
0.000124504 -8.3346e-05 -5.11427e-20
0.000123574 8.40151e-05 7.30596e-21
3.9355e-05 -7.68489e-05 6.20542e-21
-0.000107899 -0.000199284 1.24984e-19
-0.000107812 0.000197742 -1.97326e-20
9.13896e-05 -5.25628e-05 -5.22232e-20
9.14323e-05 5.34279e-05 1.24167e-20
-0.000120555 -0.000187021 -1.54216e-19
-0.00012015 0.000187026 -4.38478e-21
0.000125417 0.000236721 5.5974e-20
0.000237691 0.00012552 7.34764e-20
1.04298e-05 7.33135e-05 8.03303e-21
9.47443e-06 -7.38004e-05 -1.93503e-20
0.000260682 -0.000107955 3.72902e-20
0.000257712 0.000106749 1.1696e-20
-0.00010578 -7.36934e-05 6.53283e-20
8.66219e-05 4.75847e-05 1.83459e-27
8.66478e-05 -4.66413e-05 -7.66773e-21
-9.71757e-05 8.10607e-05 -3.3236e-20
-0.000148321 -3.3507e-05 -1.20383e-20
-0.00011185 0.000193745 1.09663e-20
-0.000112366 -0.000194578 1.89381e-19
-8.34685e-05 -5.15484e-05 5.65769e-20
8.38242e-05 4.52124e-05 1.4969e-20
-0.000118555 -0.000128946 -7.66148e-21
-2.04527e-05 -0.000211397 -8.62578e-20
-1.96323e-05 0.000211486 1.46134e-21
-0.000100521 -8.90022e-05 1.86284e-20
8.18045e-06 9.67046e-05 -2.30068e-20
7.36893e-06 -9.65935e-05 -1.86239e-20
6.23273e-05 -2.18794e-05 -5.47713e-21
6.12517e-05 2.11321e-05 -1.24153e-20
0.000139962 -0.000106798 -1.42281e-20
0.00010538 2.32873e-05 -1.56955e-20
7.50238e-05 7.10448e-05 1.68005e-20
7.56626e-05 -7.04595e-05 -2.55668e-21
8.51982e-05 -4.54638e-05 -1.05876e-20
5.68365e-05 -5.0696e-05 -1.5703e-20
5.52984e-05 5.02437e-05 1.05909e-20
-9.04359e-05 -4.03616e-05 6.53519e-20
-9.48903e-05 7.47346e-05 -5.07174e-20
4.78647e-05 3.67708e-05 7.4011e-26
4.63976e-05 -3.5655e-05 -5.47715e-20
-1.45549e-05 -2.47383e-05 -1.7892e-20
-1.36756e-05 2.41923e-05 1.82598e-21
0.000113001 1.92483e-05 1.27718e-20
-0.000159301 0.000155269 -7.22113e-20
-8.80663e-05 -5.25795e-05 4.78334e-20
-9.106e-05 4.31628e-05 -2.88409e-20
-0.000216625 3.54521e-05 -3.64711e-20
-8.43893e-05 5.15104e-05 -7.15417e-20
9.40759e-07 -9.99157e-05 1.31442e-20
2.36279e-06 9.97043e-05 -6.93664e-21
-7.43427e-05 -8.90945e-05 6.34922e-20
0.000138127 -5.92912e-05 -2.4074e-20
-5.25469e-05 -3.60807e-05 -4.30885e-20
-5.26728e-05 3.90314e-05 -4.49157e-20
6.84882e-05 -0.000108961 3.02877e-20
-7.21321e-05 0.000116523 -6.34939e-20
-8.66905e-05 -5.13103e-05 5.07469e-20
-3.4981e-05 -5.49856e-05 2.19123e-20
-3.57517e-05 5.87815e-05 -2.04508e-20
2.04243e-05 0.000104879 -6.56896e-21
-7.88424e-05 -7.48623e-05 -6.57131e-21
1.21946e-05 -0.000141258 6.82159e-20
-1.8421e-05 0.000145521 1.82395e-20
0.00014744 -1.56666e-05 1.78745e-20
9.666e-05 -6.58287e-05 -3.28365e-21
-0.00014506 0.000251292 -3.65465e-20
-0.000144864 -0.000250942 -1.17743e-19
-0.000103904 -6.25422e-05 3.32061e-20
0.000109131 -2.35815e-05 1.75165e-20
-0.000164826 -0.000130704 -2.84484e-20
1.65802e-05 -5.8231e-05 -2.7016e-20
1.72188e-05 5.90039e-05 -1.64302e-20
6.41035e-05 -2.32048e-05 -2.9575e-20
-2.0994e-05 -0.00010245 4.08712e-20
-3.11035e-05 -6.0612e-05 -3.57898e-20
-3.02176e-05 6.00492e-05 2.55663e-21
9.80272e-05 0.000137936 -1.56881e-20
0.000145481 9.81546e-05 1.02147e-20
-0.000207811 -9.30313e-06 -2.55297e-20
3.57543e-05 -6.84076e-06 -2.92163e-21
3.41187e-05 8.44956e-06 -5.8787e-20
2.96947e-05 1.82735e-06 -1.57031e-20
-3.71089e-05 1.01948e-05 -4.92958e-20
-3.421e-05 -9.87485e-06 -4.82063e-20
-6.01689e-05 -4.50824e-05 -1.60636e-20
4.01812e-05 -0.000156317 6.89597e-20
-3.67833e-05 0.000156007 1.05809e-20
0.000159668 -4.1416e-05 1.20408e-20
9.71389e-05 -7.40815e-05 -2.18937e-21
1.66147e-06 0.000113792 -1.49671e-20
2.17457e-07 -0.000114408 1.46017e-20
-7.44992e-05 0.000149132 -3.57483e-20
7.75634e-05 -0.000140297 2.91816e-20
1.12794e-05 2.97624e-05 -8.76482e-21
1.0315e-05 -3.01438e-05 -9.86025e-21
5.50234e-05 -4.14174e-05 -9.49275e-21
5.61967e-05 4.23432e-05 -1.20492e-20
3.74729e-05 -5.41431e-05 1.31468e-20
3.58228e-05 5.30603e-05 -4.3096e-20
-8.11165e-05 4.96455e-05 -9.27428e-20
2.02597e-05 -0.000106386 4.67113e-20
0.00010303 5.31474e-05 8.76642e-21
0.000103772 -5.2205e-05 -1.24179e-20
8.95461e-05 -5.79216e-05 1.20467e-20
8.65728e-05 -4.75895e-05 -2.11792e-20
8.65649e-05 4.83894e-05 1.78936e-20
-5.02944e-05 -0.000466915 -6.21305e-20
6.91769e-05 0.000107795 -9.85238e-21
-0.000481105 5.64373e-05 -6.08606e-20
-1.78018e-05 0.000107101 1.4597e-21
0.000166032 -0.000150008 -3.94646e-20
0.000164216 0.000149874 4.89643e-20
9.02608e-05 5.87555e-05 1.56974e-20
0.000105576 -2.56731e-05 9.48964e-21
9.83877e-05 6.85744e-05 3.39353e-20
-6.71426e-06 -8.95073e-05 -2.62899e-20
-6.12562e-06 8.95094e-05 -4.19896e-20
-7.77546e-05 6.31737e-05 2.0457e-20
-7.83532e-05 -6.37242e-05 -6.28327e-20
1.55679e-05 2.68374e-05 -9.49499e-21
1.2769e-05 -2.7215e-05 -3.87026e-20
-3.65521e-05 -7.44731e-05 2.55525e-20
2.10091e-05 0.000103289 5.11006e-21
7.88662e-05 -4.86948e-05 -8.76261e-21
7.94262e-05 4.94135e-05 2.00805e-20
9.88483e-05 7.51052e-05 4.37987e-21
-3.45804e-05 7.52051e-05 -2.1173e-20
2.1001e-05 -0.000104611 4.05144e-20
0.000126256 0.000228761 4.30215e-20
0.000232063 0.000126022 9.42457e-20
-0.000144111 0.000107851 -5.72733e-20
8.63637e-05 -1.52178e-05 -2.33639e-20
0.000270147 -0.000130828 4.16701e-20
0.000267584 0.000130495 4.45926e-20
-0.000147792 -0.000100827 -4.8234e-20
-0.000144865 0.000103204 -1.24215e-20
-6.13427e-05 2.62776e-05 1.49682e-20
-1.4356e-05 2.33977e-05 -3.90746e-20
-1.45049e-05 -2.29822e-05 -4.78315e-20
-0.000121247 0.000161952 -6.56316e-20
-0.000152276 -0.000130173 -1.2397e-20
0.000130522 -0.000186465 5.39713e-20
-0.000118565 0.000193864 -3.17276e-20
0.000195399 -0.000113838 -1.24e-20
-0.000133083 -7.1962e-05 4.37767e-21
-1.61083e-05 -0.000208875 4.90407e-20
-0.00019781 1.80921e-06 -2.44282e-20
0.000114733 -0.000157422 3.43473e-20
0.000117114 0.000157335 1.31529e-20
-7.10324e-05 5.61623e-05 -4.12651e-20
-3.11099e-05 -2.25086e-06 3.68767e-20
-7.05318e-05 0.000115315 -1.31341e-20
7.45971e-05 -0.000114829 4.74273e-20
-7.07598e-05 -2.09325e-05 2.88431e-20
0.000113113 -8.76457e-05 -6.57655e-21
0.000112016 8.83656e-05 1.68065e-20
-8.69858e-05 4.57039e-05 -8.43549e-20
-6.11236e-05 -4.12248e-05 -3.83366e-20
-5.407e-05 3.96872e-05 -3.7973e-20
-6.98263e-05 3.24414e-05 -2.04469e-20
-1.77853e-05 -6.04187e-05 -1.82548e-21
-1.58983e-05 6.48125e-05 -2.15417e-20
0.000267846 0.000267831 1.30016e-19
-1.96997e-05 -0.000105886 1.05846e-20
-1.79155e-05 0.00010688 -1.27753e-20
-2.03544e-05 -0.000211469 -4.75036e-20
-1.9438e-05 0.0002117 -1.53449e-20
3.00021e-05 -5.58711e-05 2.33752e-20
3.03346e-05 5.46047e-05 2.44714e-20
-0.000102768 -5.40545e-05 -2.55684e-21
-0.000101011 5.21959e-05 -9.34953e-20
-0.000179302 3.31664e-05 -1.05234e-19
-0.000176611 -3.30139e-05 -1.60762e-20
0.000237327 0.000132244 5.11654e-21
0.000240726 -0.000132543 -1.97374e-20
6.39809e-05 -6.93482e-07 -1.71665e-20
6.18473e-05 2.40635e-06 -1.05172e-19
9.35337e-05 4.37118e-05 7.30002e-21
-6.14568e-06 -9.33966e-05 2.77446e-20
8.03643e-05 -5.95588e-05 3.43096e-20
-5.39836e-06 9.43425e-05 -2.22706e-20
9.23381e-05 -4.43301e-05 4.01498e-21
1.08238e-05 9.72181e-05 7.30158e-21
8.11451e-05 6.0468e-05 2.66457e-20
-6.49067e-05 1.16289e-06 -8.07112e-20
-6.68665e-05 -1.41688e-06 -3.57928e-20
-6.9028e-05 -5.95224e-05 2.77555e-20
0.000117669 -0.00020387 1.38945e-19
0.000118332 0.000204975 5.48159e-20
-8.66157e-05 5.06552e-05 -7.44831e-20
-1.23432e-05 0.000114127 -4.93151e-20
0.000136122 -0.000239819 -5.14076e-20
0.000236273 -0.000112257 -4.46628e-20
1.89716e-05 -6.95749e-05 2.08197e-20
1.84395e-05 6.86089e-05 2.84911e-20
-1.61503e-05 -0.000119723 1.35174e-20
9.69023e-06 -9.61982e-05 -2.29996e-20
0.000114216 5.9969e-05 2.18983e-20
9.42192e-05 -3.00418e-05 -5.03977e-20
9.41934e-05 3.15031e-05 -3.65371e-22
-0.000233735 -1.19747e-08 5.33843e-20
-0.000233511 3.02984e-08 -1.31569e-20
-8.72232e-05 5.11289e-05 -4.81898e-20
7.4733e-05 8.33186e-05 2.19169e-20
7.53979e-05 -8.27386e-05 1.46099e-21
2.38202e-05 6.86089e-05 -4.01704e-20
2.35032e-05 -6.85114e-05 -4.38257e-21
1.04279e-05 -1.87944e-05 -2.19085e-20
1.1658e-05 2.03465e-05 -4.85698e-20
0.000259676 -0.000259698 -9.96829e-20
-7.73991e-05 2.64985e-05 -5.84444e-20
-7.77377e-05 -2.40164e-05 -3.90847e-20
-1.86444e-05 -5.50348e-05 4.38098e-21
-1.76244e-05 5.60068e-05 -2.92121e-20
0.000111489 -5.98909e-05 3.64989e-21
-8.74635e-05 -4.39547e-05 -7.30391e-22
-0.000113057 -1.46877e-05 -4.16394e-20
-0.000112427 1.87093e-05 -8.83898e-20
-6.84654e-05 -3.2051e-05 4.96593e-20
3.46164e-05 -0.000147355 -3.36111e-20
3.42689e-05 0.000147272 7.08746e-20
4.72675e-05 0.000277178 1.38879e-20
4.60089e-05 -0.000276542 1.33787e-19
2.16317e-05 0.000463801 2.1502e-20
0.000467496 3.2434e-05 1.24998e-19
7.11105e-05 1.08069e-05 -9.49547e-21
7.0324e-05 -8.93637e-06 -6.86521e-20
0.000253335 -0.000315598 -5.17518e-20
0.00030827 -0.000252192 -4.71979e-20
0.000113253 -0.000273306 5.48217e-20
0.000112473 0.000271427 6.72532e-20
-8.23281e-05 -4.83972e-05 -1.46101e-21
7.58425e-05 4.10335e-05 1.16856e-20
7.51779e-05 -3.99376e-05 -6.35368e-20
7.05436e-05 7.84935e-05 5.11051e-21
6.97639e-05 -7.78583e-05 2.92022e-20
-3.00516e-06 -0.000222577 6.56431e-20
-5.3796e-06 0.000205298 2.26121e-20
0.000213033 -6.63142e-06 3.35513e-20
5.38965e-05 5.41078e-05 -3.64892e-22
5.28247e-05 -5.33612e-05 -4.01616e-21
-2.22742e-05 0.000227046 4.63073e-20
0.00022432 -1.63646e-05 6.72718e-20
0.000100613 -1.47881e-05 -7.77914e-20
0.000100845 1.65509e-05 -9.13138e-21
9.5714e-05 -3.17964e-05 -9.13131e-20
9.59412e-05 3.35608e-05 -6.20949e-21
0.000262717 0.00032319 5.72168e-20
0.000324636 0.000262968 1.4614e-19
8.00535e-05 4.40559e-05 1.49711e-20
7.95215e-05 -4.30555e-05 -1.67958e-20
2.76664e-05 -0.000162501 -1.53481e-20
2.88148e-05 0.000162487 -1.6807e-20
7.12687e-05 3.17624e-05 -1.12131e-19
7.2746e-05 -2.80211e-05 -3.06836e-20
0.00011118 -0.000105083 -2.3379e-20
0.000110123 0.000105387 3.94528e-20
-6.59649e-05 -1.53668e-05 -8.76436e-21
-7.03889e-05 1.72008e-05 -7.5595e-20
0.000102934 0.000198441 9.13507e-20
0.000151962 0.000153094 3.43514e-20
0.000103926 -0.000199006 -1.09615e-20
0.000153311 -0.000153339 -9.50116e-21
0.000109763 -0.000205806 4.31256e-20
-0.00023238 -3.20909e-06 -8.55205e-20
-0.000231749 4.32372e-06 7.3086e-21
0.000112059 0.000206586 4.60421e-20
0.000184467 -7.64218e-05 -2.19258e-21
0.000482296 -6.34727e-05 1.68167e-20
0.000487951 6.42219e-05 2.48691e-20
0.000189175 7.83343e-05 -5.04387e-20
0.000238504 5.48196e-06 -2.48484e-20
0.000162388 -4.48859e-05 -2.8498e-20
0.000223986 7.28157e-05 -1.09635e-20
0.000242594 -2.72296e-06 -7.01651e-20
0.000227433 -7.31782e-05 -3.14369e-20
0.000164109 4.92161e-05 -8.25678e-20
0.000173618 -6.73758e-05 -1.01575e-19
0.00017572 -6.67333e-05 -5.26193e-20
0.00017164 6.85086e-05 -1.023e-20
0.000173751 6.78735e-05 5.11581e-21
-3.84745e-05 -0.000108614 -4.89082e-20
-1.54807e-05 9.11457e-05 -2.00854e-20
1.49851e-05 -9.13163e-05 -5.47758e-20
-8.21726e-05 -1.51797e-05 4.34391e-20
-0.000102661 -2.64623e-05 9.12477e-21
-1.7806e-05 0.000118159 -1.3879e-20
1.73292e-05 -0.000118566 -6.35505e-20
-0.000110195 2.75567e-05 -8.02977e-21
-3.53411e-05 5.53679e-05 3.61517e-20
-5.97849e-05 -0.00013302 -5.36203e-20
-5.78378e-05 0.00014086 8.5715e-20
0.00013843 -5.9958e-05 6.09135e-20
7.65772e-05 7.96005e-05 -1.0228e-20
-7.75989e-05 -7.9527e-05 -2.52058e-20
-3.82803e-05 -7.66005e-05 -2.81078e-20
-1.24389e-05 -7.33549e-05 -3.24967e-20
8.6455e-06 0.000120865 -3.50622e-20
-9.24161e-06 -0.000121275 -3.72532e-20
8.61017e-05 1.26207e-05 1.09524e-20
-4.60729e-05 -0.0001597 -4.77966e-20
-4.63881e-05 0.000162914 7.62533e-20
0.000163965 -4.35441e-05 6.09295e-20
-7.14789e-05 -7.21274e-05 -6.60585e-20
-0.000112806 2.63924e-05 8.39258e-21
-8.12854e-05 -7.26545e-05 -2.84728e-20
4.17394e-05 0.000107098 3.43093e-20
-7.7855e-05 1.465e-05 2.55532e-20
-0.000119456 -0.000243573 -6.12687e-20
-6.78743e-05 -3.40555e-05 5.03898e-20
0.00024407 -0.000119999 6.78298e-20
-3.98167e-06 0.000112812 -1.68045e-20
3.43573e-06 -0.000113191 -5.77204e-20
-0.000254436 0.000123102 -1.44747e-19
-0.000253803 -0.000127718 -7.74909e-20
-0.00016489 5.37533e-05 2.91866e-20
-5.99108e-05 -4.73631e-05 -3.28578e-20
-0.000108427 5.22794e-05 7.30659e-20
-0.000104038 -5.12257e-05 -1.46122e-20
-1.77829e-05 -3.62721e-05 4.52797e-20
6.42674e-05 7.70638e-05 2.66433e-20
-0.000106236 7.01423e-05 4.99975e-20
-3.2162e-05 8.64416e-07 3.72428e-20
-6.98597e-05 7.43619e-05 5.72982e-20
-3.88729e-05 0.000107645 4.56233e-20
1.21789e-05 7.38177e-05 3.65139e-21
-0.000107592 7.00112e-05 9.55994e-20
-0.000257113 -0.000257114 -1.44879e-19
0.00026032 -0.000260348 4.06401e-20
2.27765e-05 5.92151e-05 1.27826e-20
0.000261267 -0.000276517 1.04062e-19
-0.000280481 -0.000258242 -8.40109e-20
0.000132493 -2.56057e-05 1.24206e-20
0.000132218 2.57574e-05 4.52989e-20
6.13856e-05 2.15358e-05 1.64306e-20
0.000124181 -8.40363e-05 1.02284e-20
0.000123897 8.42548e-05 3.14153e-20
3.93107e-05 7.65774e-05 1.60618e-20
-0.000107669 0.000198977 1.19867e-19
-0.000107804 -0.000197612 5.40859e-20
9.15054e-05 -5.32325e-05 1.64335e-20
9.12672e-05 5.3252e-05 8.3996e-21
-0.000144654 6.33431e-05 8.4619e-20
0.000120203 -0.000186836 -1.27162e-19
-0.000121621 0.000186975 6.65031e-20
6.38534e-05 -7.58681e-05 3.10232e-20
-0.000125614 0.000236109 1.32002e-19
-0.000244204 0.000129308 2.62535e-20
9.49977e-06 7.32428e-05 -1.09536e-21
-1.06613e-05 -7.29348e-05 -3.5416e-20
0.00025953 -0.000107523 -6.57857e-21
0.00025956 0.000107535 6.43258e-20
1.38728e-05 -2.46482e-05 -2.95767e-20
8.64081e-05 4.83679e-05 -7.29985e-22
8.66445e-05 -4.67998e-05 -1.38743e-20
-5.24684e-05 -3.5896e-05 -1.89881e-20
-2.26332e-05 -5.80547e-05 -2.26433e-20
-0.000152564 -3.16287e-05 -6.85835e-20
0.000106835 2.37478e-05 3.54053e-20
-0.00013239 -1.87922e-05 -1.93387e-20
-9.72832e-05 -8.09238e-05 2.3012e-20
-0.000111825 -0.000193656 -2.92484e-20
-0.000112163 0.000194241 3.43661e-20
-0.000117425 -0.000129052 -9.33984e-20
-8.56889e-05 4.99177e-05 2.2996e-20
8.45887e-05 -4.51457e-05 -2.9207e-21
2.02298e-05 -0.000211172 -6.94389e-20
-2.0754e-05 0.000211527 8.8432e-20
-0.00010023 8.89602e-05 6.39232e-20
7.20838e-06 9.62985e-05 -2.04498e-20
-7.40084e-06 -9.71103e-05 -3.83444e-20
6.20108e-05 -2.19154e-05 4.01641e-21
5.988e-05 2.05869e-05 1.31457e-20
0.000139761 0.000107267 8.20875e-20
7.53817e-05 -7.08983e-05 -1.24175e-20
7.46198e-05 7.15686e-05 2.44699e-20
8.34534e-05 4.57142e-05 5.47647e-21
3.95976e-05 -0.000107103 1.20452e-20
5.6397e-05 -5.10232e-05 -8.39972e-21
5.44853e-05 5.02254e-05 1.46081e-20
-8.97035e-05 4.06245e-05 2.48268e-20
4.73238e-05 3.60691e-05 9.85967e-21
-0.000107863 -7.39947e-05 -6.49604e-20
-3.84825e-05 9.17508e-06 1.09545e-20
-1.43504e-05 2.38357e-05 6.20829e-21
0.000112561 -1.97309e-05 4.01409e-20
-8.7889e-05 5.21973e-05 5.2581e-20
-9.2828e-05 -4.26118e-05 2.29997e-20
-7.22127e-05 -8.75245e-05 -1.00711e-19
-8.26652e-05 -5.41381e-05 -4.01491e-21
-1.86089e-06 -9.99674e-05 -3.65107e-20
9.03368e-07 9.9556e-05 -9.12778e-21
0.000137797 5.95754e-05 7.40467e-20
-5.24974e-05 3.56544e-05 1.31456e-20
6.91654e-05 -0.000109454 5.72917e-20
6.81545e-05 0.000109396 6.86037e-20
-8.54534e-05 4.99408e-05 2.66514e-20
-3.49204e-05 5.49563e-05 7.74237e-20
-3.57984e-05 -5.86105e-05 5.98937e-20
-2.20239e-05 -0.000101603 -2.80985e-20
-8.01901e-05 7.5772e-05 6.13277e-20
1.03326e-05 -0.000141383 -3.64664e-22
1.88456e-05 0.000143926 8.02537e-20
0.000145956 8.23501e-06 1.03964e-19
0.000145331 -0.000105256 6.27507e-20
9.64588e-05 6.64355e-05 2.26225e-20
-0.000144824 0.000250922 1.16236e-19
0.000144756 -0.000250726 -8.33487e-20
0.000108769 2.26298e-05 2.18956e-20
1.68718e-05 5.82366e-05 6.93718e-21
6.40676e-05 -2.3421e-05 9.12806e-21
-2.07895e-05 0.00010237 3.50322e-20
3.04176e-05 -6.05156e-05 -8.58195e-20
-3.08292e-05 5.95536e-05 9.861e-21
4.82158e-05 -3.648e-05 -7.30359e-21
3.51223e-05 -7.76101e-06 1.38775e-20
-1.7341e-05 -5.56883e-05 -1.8254e-20
2.94038e-05 1.2153e-06 1.3512e-20
9.6309e-05 -6.97372e-05 4.99896e-20
-3.71857e-05 -1.02335e-05 2.77516e-20
9.66936e-05 -7.36435e-05 6.20416e-20
-0.000112567 0.000137295 1.02511e-19
-5.94888e-05 4.52267e-05 2.62861e-20
3.82369e-05 -0.000157303 8.02692e-21
3.97977e-05 0.000155208 7.37042e-20
0.000161855 4.05945e-05 5.54568e-20
9.69686e-05 7.43379e-05 4.12386e-20
1.80904e-07 0.000114035 2.22674e-20
-1.13425e-06 -0.000114541 -2.40937e-20
7.68392e-05 -0.000137721 3.61131e-20
7.66304e-05 0.000141174 6.89423e-20
1.00515e-05 -3.06533e-05 -1.31473e-20
1.07962e-05 3.02815e-05 1.31473e-20
5.53287e-05 4.14161e-05 8.03227e-21
3.7382e-05 5.39955e-05 2.19107e-20
-8.25129e-05 -4.90672e-05 -1.35103e-20
-0.000163559 -0.000125795 -8.91722e-20
2.01933e-05 0.000106072 4.48871e-20
0.000103121 5.29967e-05 2.19155e-20
0.000103439 -5.28846e-05 -8.0357e-21
8.94571e-05 5.84311e-05 -1.31423e-20
8.65421e-05 -4.81146e-05 1.09584e-21
8.64324e-05 4.82238e-05 -1.8257e-21
-4.18459e-05 -0.000472333 -2.7879e-20
0.000468929 -7.11841e-05 1.05859e-19
2.03492e-05 -0.000104343 -2.55469e-21
0.000165312 -0.000150458 -8.76971e-21
0.000165102 0.000150946 4.01938e-20
-0.000203466 -1.20118e-05 -6.67446e-20
-6.83534e-06 8.92304e-05 8.03247e-21
6.00717e-06 -9.05777e-05 -4.12594e-20
-7.39342e-05 0.000107887 7.51678e-20
3.24456e-05 9.82934e-06 -3.50588e-20
-1.42382e-05 -2.79222e-05 -7.66757e-21
-7.9088e-05 6.27227e-05 1.16892e-20
7.80414e-05 -6.36529e-05 -1.03741e-19
5.50649e-05 -4.05366e-05 -6.57239e-21
-6.07926e-05 -4.1241e-05 -2.15411e-20
8.96068e-05 -5.81387e-05 -1.46071e-21
-0.000105956 -6.64662e-05 -7.58941e-20
0.000102158 -2.54441e-05 3.83255e-20
1.46356e-05 2.64649e-05 4.38234e-21
-3.64749e-05 7.44685e-05 3.97894e-20
-2.13416e-05 -0.000103565 -1.9345e-20
7.88933e-05 4.93061e-05 1.0953e-20
2.09571e-05 0.000104239 3.17545e-20
-3.70892e-05 -5.29916e-05 -2.92174e-21
-0.000125542 0.000236792 1.15754e-19
-0.000229691 0.000130715 5.35935e-20
8.61928e-05 -1.60712e-05 3.13949e-20
7.91066e-05 -4.91767e-05 9.85762e-21
0.000269314 -0.000131049 -5.33632e-20
0.000269438 0.000131294 5.40949e-20
1.69465e-05 -5.9148e-05 -9.49334e-21
-0.000147472 0.000100676 -1.16931e-20
-0.00014458 -0.000103034 -3.14252e-20
-6.185e-05 -2.702e-05 3.46831e-20
-1.4552e-05 2.29842e-05 2.95748e-20
0.000133033 -0.00016442 4.17479e-20
-0.000159391 -0.000125572 -5.76104e-20
0.000135594 -0.000194392 4.48569e-20
0.000125109 0.000183433 4.99614e-20
0.000201107 0.000117132 1.19248e-19
1.23873e-05 -2.29232e-05 -3.25015e-20
-6.13165e-06 -0.000209097 -2.7164e-20
0.000213344 -1.39893e-05 8.53201e-20
0.000114521 0.000157248 5.18819e-20
-0.000115478 -0.00015703 -1.6807e-20
-7.18487e-05 -5.67011e-05 -3.65152e-21
-3.09817e-05 2.29156e-06 5.7325e-20
7.35237e-05 0.00011455 8.93848e-20
7.4508e-05 -0.000113934 3.42947e-20
-7.05695e-05 2.05636e-05 3.61447e-20
3.74084e-05 -7.51097e-05 -8.76156e-21
0.000112647 -8.83955e-05 -3.65348e-21
0.00011223 8.86393e-05 4.2381e-20
-8.65026e-05 -4.55076e-05 -9.49459e-21
-6.05101e-05 4.04606e-05 3.43204e-20
-6.94452e-05 -3.21969e-05 2.92104e-20
-0.000131777 -7.21884e-05 -1.38623e-19
-1.77046e-05 5.96345e-05 4.89215e-20
-0.000269207 0.000269212 -3.62619e-20
-1.95823e-05 0.000105575 2.84694e-20
1.89622e-05 -0.00010745 -2.55546e-21
2.01502e-05 -0.000211214 -1.08882e-19
-2.08022e-05 0.000211436 -5.11504e-21
2.9695e-05 -5.64242e-05 -3.03145e-20
2.94661e-05 5.4418e-05 1.49745e-20
-0.000102435 5.397e-05 7.12228e-20
-0.000101645 -5.21791e-05 -3.10447e-20
-0.000178932 -3.30892e-05 9.49911e-21
-0.000176469 3.38167e-05 1.75387e-20
0.000239239 -0.000132785 -4.60455e-20
0.000239123 0.000133044 5.55475e-20
6.45138e-05 3.36754e-06 -3.6888e-20
6.34224e-05 -1.59505e-06 2.37399e-20
9.30597e-05 -4.38918e-05 4.01488e-21
-6.24331e-06 9.32846e-05 1.27775e-20
8.02329e-05 6.00846e-05 -3.64989e-21
5.59834e-06 -9.29482e-05 -2.77465e-20
-0.000147233 0.000101028 1.21114e-19
9.24846e-05 4.42044e-05 -9.12501e-21
-1.11477e-05 -9.87431e-05 -2.81099e-20
-6.48065e-05 -1.25973e-06 6.24508e-20
-6.51323e-05 6.77099e-07 -2.55642e-21
-6.83367e-05 5.91031e-05 5.14938e-20
0.000117589 0.000203677 1.02363e-19
-0.000117681 -0.000203891 -3.28916e-20
-2.23055e-05 -7.12728e-05 -3.68839e-20
-8.69289e-05 -5.13933e-05 -1.89867e-20
-1.2361e-05 -0.000114029 7.16039e-20
8.0724e-05 -5.93418e-05 3.24857e-20
0.000130819 0.000244137 9.33388e-20
0.000234899 0.000115647 1.47113e-19
1.86665e-05 -7.01307e-05 -2.5934e-20
1.74715e-05 6.81715e-05 2.26466e-20
-1.61194e-05 0.000119583 8.80455e-20
9.71752e-06 9.58819e-05 4.38079e-21
0.000113258 -5.96619e-05 3.97823e-20
9.42935e-05 -3.09113e-05 8.40003e-21
9.40728e-05 3.0968e-05 4.05401e-20
-0.000233274 1.91522e-08 -1.52839e-19
-0.00023362 -1.89048e-08 -5.19216e-20
1.76353e-05 -5.51629e-05 -3.03074e-20
-8.91486e-05 -5.32227e-05 2.59199e-20
7.43526e-05 8.36297e-05 3.28748e-20
7.51092e-05 -8.33686e-05 -8.76656e-21
2.34032e-05 6.82181e-05 -1.46063e-21
1.04414e-05 1.87857e-05 1.82568e-20
0.000262266 0.000262267 1.31755e-19
-7.72265e-05 -2.64374e-05 4.52945e-20
-7.71153e-05 2.47804e-05 -1.78985e-20
-1.84714e-05 5.48297e-05 2.04468e-20
0.000113173 5.9752e-05 -5.83985e-21
-8.74415e-05 4.40241e-05 5.77003e-20
-0.000112853 1.47259e-05 -1.05928e-20
-0.000112747 -1.47295e-05 -2.04545e-20
-6.82598e-05 3.24139e-05 2.7386e-20
3.42976e-05 -0.000147829 -3.6533e-20
3.36043e-05 0.000148363 3.14182e-20
4.57354e-05 0.000276558 6.43258e-20
-4.6339e-05 -0.000276381 -1.00878e-19
-3.59263e-05 0.00047267 9.98519e-20
-0.000473156 2.6107e-05 -5.83091e-20
7.06863e-05 9.98024e-06 2.15471e-20
7.02804e-05 -1.01512e-05 1.46073e-21
-8.03857e-06 -2.00577e-05 -2.00852e-20
0.000256643 0.000324395 1.76209e-19
0.000319552 0.000253323 1.5216e-19
0.000113207 0.000273237 1.38892e-20
0.000113098 -0.000272979 -1.53509e-20
-8.21507e-05 4.85251e-05 3.50547e-20
7.04763e-05 -7.6863e-05 4.96453e-20
7.54813e-05 4.06206e-05 9.8597e-21
7.56591e-05 -4.05967e-05 6.2077e-21
5.30273e-05 -5.36542e-05 1.42386e-20
6.9827e-05 7.80507e-05 2.19022e-20
-3.07304e-06 -0.000212996 1.45846e-21
2.03168e-06 0.000216266 8.49744e-20
0.000226972 -1.37478e-06 1.30922e-19
5.30489e-05 5.37875e-05 2.0445e-20
9.08787e-06 0.000223129 1.02275e-19
-0.000224432 -2.85445e-05 -5.06814e-20
0.000100781 -1.66162e-05 1.09592e-21
0.000100837 1.58057e-05 3.46981e-20
9.60003e-05 -3.29466e-05 1.89936e-20
9.58592e-05 3.30715e-05 2.7394e-20
-0.000264699 0.000328839 7.1977e-20
-0.000324777 0.000264776 1.87681e-20
7.95645e-05 4.35525e-05 1.3145e-20
7.97119e-05 -4.34701e-05 3.61489e-20
2.7357e-05 0.000162331 2.92327e-20
-2.79621e-05 -0.000162138 -7.81926e-20
7.37223e-05 2.96855e-05 -4.74834e-21
7.23363e-05 -2.9395e-05 3.79881e-20
0.000110739 -0.000105623 -1.16896e-20
0.000110302 0.000106016 5.99093e-20
-6.56009e-05 1.54232e-05 1.93548e-20
-6.70294e-05 -1.6124e-05 -1.57028e-20
0.000103153 0.000200197 2.1924e-20
0.000152955 0.000154137 4.75061e-20
0.000103503 -0.000199407 -6.57685e-21
0.000152901 -0.000153718 -1.90025e-20
-0.000110475 -0.000205733 -2.04639e-20
-0.000232002 -3.77914e-06 3.87403e-20
-0.000231916 3.2244e-06 7.45562e-20
0.000109552 0.000205671 1.3229e-19
0.000186682 7.73328e-05 4.96956e-20
0.000485702 6.38949e-05 3.94797e-20
0.000186498 -7.72544e-05 3.72723e-20
0.000485757 -6.38998e-05 1.02357e-19
0.000240679 -4.51263e-06 2.41175e-20
0.000163492 4.657e-05 2.04593e-20
0.000225861 -7.31932e-05 2.92347e-20
0.000240521 4.63332e-06 5.70043e-20
0.000163262 -4.6497e-05 6.5763e-20
0.000225711 7.32926e-05 5.11612e-20
0.00017286 -6.8299e-05 4.23793e-20
0.000174941 -6.76736e-05 -2.33864e-20
0.000172641 6.85101e-05 5.62631e-20
0.000174765 6.78715e-05 6.6505e-20
-4.00041e-05 -0.000110348 1.05854e-20
-1.50486e-05 9.12846e-05 -1.93541e-20
1.58489e-05 -9.08548e-05 -2.08155e-20
-8.2099e-05 1.49675e-05 -4.41699e-20
-0.000104907 2.72644e-05 -2.73731e-20
-1.74014e-05 0.000118624 -1.46033e-21
1.81935e-05 -0.000118096 -1.02267e-20
-0.000104984 -2.70296e-05 -4.67182e-20
-3.52195e-05 -5.52438e-05 -2.55604e-20
-5.92384e-05 -0.000133144 -4.8514e-20
6.01615e-05 0.000136452 -1.86019e-20
0.000138576 6.27417e-05 -5.87233e-20
-7.68803e-05 -7.93653e-05 -3.5434e-20
7.69783e-05 7.99459e-05 -1.93617e-20
-8.43763e-05 5.05264e-05 -5.47601e-20
-3.73795e-05 -7.58254e-05 2.92029e-20
-1.27489e-05 -7.31352e-05 1.60667e-20
-8.43216e-06 -0.000121165 -1.89917e-20
9.10357e-06 0.000121213 -7.1588e-20
8.5619e-05 1.27782e-05 -2.62843e-20
-4.56256e-05 -0.000160269 -5.91078e-20
4.3206e-05 0.000162463 -2.55409e-20
0.000168306 4.45176e-05 -2.66333e-20
3.98001e-05 0.000108819 5.43829e-20
-7.35203e-05 -7.39979e-05 -1.09408e-21
-7.71992e-05 -1.58361e-05 -3.21238e-20
-0.000115392 -0.000239046 -4.8322e-20
-6.82245e-05 3.4295e-05 -4.6373e-20
-3.42989e-06 0.00011322 -5.04152e-20
4.61415e-06 -0.000112845 -3.65321e-20
-0.000254406 -0.000123311 -3.65533e-21
-0.000253829 0.000127751 8.99182e-20
-5.51775e-05 7.46121e-05 -6.24234e-20
-6.67468e-05 7.89981e-05 -6.24084e-20
-0.000153826 4.96122e-05 -7.29627e-21
-0.000108608 -5.263e-05 3.6534e-21
-0.000103969 5.09476e-05 -8.03699e-20
-1.78255e-05 3.65273e-05 -4.0167e-20
-3.20643e-05 -1.11754e-06 -2.70188e-20
-0.0001107 7.23051e-05 -2.55455e-20
-0.000127808 -2.0079e-05 2.29888e-20
-0.00011661 2.34158e-05 -3.46655e-20
1.15415e-05 7.38925e-05 4.96585e-20
-3.63828e-05 0.000109678 -8.86909e-20
6.64698e-05 7.74208e-05 4.27012e-20
-0.000258706 -0.000258694 -4.1552e-20
-0.000254712 0.000254697 -6.63334e-20
2.29837e-05 5.94687e-05 6.93894e-21
3.84897e-05 7.68996e-05 6.9722e-20
-0.000255455 0.000277819 -5.52177e-20
-0.000269516 -0.000259219 -7.25343e-20
0.000131974 -2.62281e-05 2.26499e-20
0.000132791 2.43595e-05 -1.03602e-25
6.25491e-05 2.1331e-05 -2.19075e-20
0.000123778 -8.38546e-05 4.52973e-20
0.000124383 8.34737e-05 -1.6804e-20
-0.000107738 -0.000199148 -4.75051e-20
-0.000107805 0.000197676 -2.19217e-21
9.15603e-05 -5.34757e-05 5.03982e-20
9.13503e-05 5.24752e-05 2.19124e-21
-0.000120457 0.000187018 3.06963e-20
0.000122898 -0.000187389 2.92269e-21
6.37095e-05 -7.60615e-05 9.12483e-21
0.000125189 0.000236544 5.06853e-20
0.00023762 0.000125231 -4.41224e-20
9.73894e-06 7.35092e-05 2.11766e-20
-9.83313e-06 -7.24481e-05 -6.57197e-21
0.00025764 -0.000106719 3.07012e-20
0.000260866 0.000108031 -7.01936e-20
-0.000105703 -7.34581e-05 -3.10218e-20
1.38998e-05 -2.32638e-05 1.13209e-20
8.656e-05 4.69297e-05 -1.86212e-20
8.68014e-05 -4.72445e-05 1.82562e-20
-5.32265e-05 -3.62556e-05 1.82586e-20
-2.18197e-05 -5.78537e-05 -1.24178e-20
-9.71277e-05 8.10248e-05 -6.8302e-20
-0.000148363 -3.35883e-05 1.96998e-20
-0.000111855 0.000193693 2.12048e-20
-0.000112225 -0.000194394 -8.773e-20
-8.35628e-05 -5.15199e-05 -6.20509e-21
8.37454e-05 4.45432e-05 -2.95723e-20
-0.000118718 -0.000129053 -4.5969e-20
2.12029e-05 -0.00021214 -2.92331e-20
-2.03396e-05 0.000211398 5.92109e-20
-0.000100477 -8.90071e-05 -1.64361e-20
7.6652e-06 9.69747e-05 2.00843e-20
-6.58362e-06 -9.68883e-05 -2.73889e-20
6.11766e-05 2.04015e-05 -2.51961e-20
6.2453e-05 -2.25903e-05 -1.67973e-20
0.000140202 -0.000105361 1.64169e-20
0.000105382 2.27054e-05 -3.54053e-20
7.5653e-05 -7.08967e-05 9.49589e-21
7.51063e-05 7.05789e-05 -3.46961e-20
8.53035e-05 -4.60274e-05 3.28606e-21
3.99225e-05 -0.000106696 5.84001e-21
5.69859e-05 -5.13034e-05 8.03465e-21
5.52042e-05 4.95879e-05 -3.03108e-20
-9.03965e-05 -4.03739e-05 -2.81117e-20
-9.49969e-05 7.47427e-05 -3.13787e-20
4.63077e-05 3.58358e-05 2.92114e-20
-3.95869e-05 9.60092e-06 -2.19103e-21
-1.45892e-05 2.47349e-05 6.60915e-20
0.000112877 1.87344e-05 -2.88286e-20
-0.000159379 0.000155222 -1.49518e-20
-8.80767e-05 -5.25891e-05 -2.70201e-20
-9.1068e-05 4.31547e-05 -4.16193e-20
-0.000216697 3.54071e-05 -3.2092e-20
-8.44177e-05 5.15246e-05 -4.6356e-20
-1.25373e-06 -9.96336e-05 -2.95737e-20
1.8745e-06 9.99658e-05 -3.79722e-20
-7.49212e-05 -8.90368e-05 -3.90438e-20
0.000138432 -5.96551e-05 2.07917e-20
-5.26131e-05 3.92256e-05 -6.35371e-20
6.87895e-05 -0.00010806 -7.66299e-21
-7.22473e-05 0.000116522 -5.9115e-20
-8.66772e-05 -5.1288e-05 -5.47654e-21
-3.49696e-05 -5.50002e-05 -2.33723e-20
-3.5743e-05 5.87429e-05 -4.2363e-20
-2.15125e-05 -0.000102324 -3.13836e-20
2.00231e-05 0.000104712 -2.22602e-20
1.24916e-05 -0.000141281 -6.8217e-20
-1.86476e-05 0.000145454 -3.24675e-20
0.000147449 -1.60528e-05 -5.83661e-21
9.80342e-05 -6.55691e-05 -1.64207e-20
0.000145174 -0.000251478 2.19278e-21
-0.00014489 0.000250987 -4.09542e-20
-0.000103884 -6.26608e-05 7.66294e-21
0.000109177 -2.41161e-05 -1.09481e-20
-0.000164909 -0.000130765 -2.37057e-21
1.62274e-05 5.85776e-05 5.98729e-20
6.41309e-05 -2.38422e-05 -1.35095e-20
3.03387e-05 -5.88954e-05 8.40009e-21
-3.10931e-05 6.05118e-05 4.60148e-20
9.76832e-05 0.000137677 -3.97648e-20
0.000145294 9.77685e-05 -3.97642e-20
4.87644e-05 -3.69704e-05 4.19953e-20
-0.000207894 -9.37167e-06 3.61077e-20
3.40275e-05 -8.3871e-06 8.28858e-20
-1.65989e-05 -5.96082e-05 2.15413e-20
2.9737e-05 7.57946e-07 3.74485e-26
-3.44502e-05 -8.87776e-06 -6.06153e-20
-7.88248e-05 -7.52147e-05 1.78874e-20
3.87069e-05 -0.000156238 -4.19618e-20
-3.70265e-05 0.000155945 -9.70552e-20
0.000159755 -4.196e-05 6.56735e-21
9.84079e-05 -7.55785e-05 -1.20433e-20
1.18307e-06 0.000113837 -2.04418e-20
-5.19605e-07 -0.000114353 -6.05992e-20
7.86108e-05 -0.000141635 5.83554e-21
-7.46544e-05 0.00014909 -9.48429e-21
1.10838e-05 2.90477e-05 -1.42428e-20
1.05905e-05 -3.08359e-05 -7.30361e-22
5.53263e-05 4.18686e-05 5.00179e-20
3.76705e-05 5.43568e-05 2.92129e-21
-8.10454e-05 4.97243e-05 -6.35335e-20
0.000103557 5.21793e-05 -3.65208e-21
0.000103327 -5.31364e-05 3.72562e-20
8.67064e-05 -4.84675e-05 3.57872e-20
8.6521e-05 4.74765e-05 -3.2866e-21
-5.01626e-05 -0.000467136 1.05134e-19
6.8731e-05 0.000107425 -2.2259e-20
-0.000481193 5.63702e-05 -5.7762e-20
-6.09383e-05 -4.53626e-05 2.55568e-20
2.10571e-05 -0.000103992 -2.44507e-20
-1.80969e-05 0.00010718 -7.00649e-20
0.000164373 -0.000149424 5.91955e-20
0.000165973 0.000150442 -9.35459e-20
9.00264e-05 5.80672e-05 -9.85689e-21
0.000105584 -2.62312e-05 -2.26305e-20
9.80884e-05 6.8113e-05 -5.47258e-21
-6.39247e-06 8.9908e-05 1.13187e-20
6.6554e-06 -9.04348e-05 -2.37336e-20
3.31744e-05 8.80668e-06 2.66602e-20
8.98611e-05 -5.85152e-05 3.32214e-20
-1.61063e-05 -2.67816e-05 6.57337e-21
-7.82186e-05 6.36159e-05 6.86777e-20
8.00286e-05 -6.21588e-05 5.84445e-21
5.54158e-05 -4.09095e-05 3.94348e-20
-6.1824e-05 -4.2072e-05 2.3368e-20
1.26929e-05 2.72025e-05 9.67566e-20
2.05304e-05 0.00010334 -2.11692e-20
-2.12522e-05 -0.00010309 -1.93443e-20
7.89988e-05 4.85567e-05 -7.66684e-21
9.85418e-05 7.45826e-05 1.38679e-20
-3.47682e-05 7.54265e-05 -2.22676e-20
-3.59797e-05 -5.28939e-05 5.47806e-21
0.000126034 0.000228529 1.65881e-20
0.000231906 0.000125741 -6.10685e-20
-0.0001442 0.000107845 -6.93177e-21
7.93425e-05 -4.952e-05 4.6733e-20
8.64626e-05 -1.58275e-05 -2.81093e-20
0.0002704 0.000131071 -4.89809e-20
0.000267429 -0.00013026 6.21364e-20
1.76011e-05 -5.93742e-05 1.86211e-20
-0.000147545 -0.000100901 5.40726e-20
-0.000144791 0.000103112 -1.46158e-20
-6.13404e-05 2.62542e-05 -4.45403e-20
-1.53923e-05 2.30609e-05 -3.24962e-20
-0.000121357 0.000161899 -6.85461e-20
-0.000152352 -0.000130234 -4.70366e-20
0.000130525 -0.000186886 2.73495e-20
-0.00011868 0.000193777 -1.05766e-20
0.000195516 -0.000114014 8.75304e-21
-0.000133232 -7.21378e-05 -3.17376e-20
1.35788e-05 -2.31915e-05 4.60142e-20
-1.59601e-05 -0.000209072 2.20593e-20
-0.000197878 1.7579e-06 -5.15925e-20
0.000114879 0.000157508 -8.11177e-20
-0.000114872 -0.000157104 -2.77669e-20
-7.10152e-05 5.61578e-05 -7.96101e-20
-3.11047e-05 -2.27704e-06 -1.56999e-20
-7.06943e-05 0.000115348 -4.88858e-20
7.47793e-05 -0.0001131 -6.56727e-21
-7.07567e-05 -2.09646e-05 -3.1763e-20
3.77582e-05 -7.50952e-05 1.16816e-20
0.000112382 -8.81618e-05 2.6306e-20
0.000112831 8.7817e-05 -3.65358e-20
-8.69497e-05 4.57567e-05 -6.50007e-20
-5.41256e-05 3.99353e-05 -5.40339e-20
-6.98083e-05 3.24216e-05 -2.994e-20
-1.60392e-05 6.50069e-05 -5.14773e-20
0.000267662 0.000267675 1.75847e-20
1.96024e-05 -0.000107248 -2.81042e-20
-1.8194e-05 0.000107 6.93592e-21
-2.01966e-05 0.000211528 -2.48477e-20
2.14809e-05 -0.000211742 -3.21511e-20
3.03485e-05 -5.66515e-05 1.4975e-20
3.00591e-05 5.37902e-05 6.93972e-21
-0.00010305 -5.41947e-05 2.48356e-20
-0.000100857 5.21939e-05 -1.04091e-19
-0.000178929 3.25302e-05 5.69988e-20
-0.000176586 -3.33505e-05 -1.89999e-20
0.000237383 -0.000131998 5.84723e-20
0.000240804 0.000132797 2.19305e-21
6.49334e-05 2.40873e-06 2.30097e-20
6.17824e-05 -2.33941e-06 5.22204e-20
9.32929e-05 4.30688e-05 -6.20554e-21
-5.70259e-06 9.44853e-05 3.35855e-20
6.25383e-06 -9.27658e-05 -1.35085e-20
9.27019e-05 -4.4852e-05 -3.28498e-21
-1.03121e-05 -9.79165e-05 -5.84142e-21
1.01282e-05 9.71355e-05 8.7619e-21
8.06901e-05 5.98204e-05 8.39458e-21
-6.51626e-05 8.84806e-08 1.09573e-21
-6.58211e-05 -7.52609e-07 -7.52328e-20
8.06331e-05 -6.01168e-05 8.7608e-21
-6.89969e-05 -5.9537e-05 -2.3008e-20
0.000117739 0.000203992 -1.33826e-19
-0.000117694 -0.000203881 -2.26575e-20
-2.14873e-05 -7.12479e-05 1.46089e-21
-8.65859e-05 5.06549e-05 -6.79131e-20
-1.23423e-05 0.00011408 -5.07798e-20
0.000136107 -0.000240091 7.05496e-20
0.000236302 -0.000112433 1.54954e-20
1.95848e-05 -7.00285e-05 1.53414e-20
1.78925e-05 6.8109e-05 -1.09575e-20
-1.61431e-05 -0.000119708 -2.92242e-20
0.000114086 5.94155e-05 -1.05841e-20
9.43057e-05 -3.14882e-05 4.96712e-20
9.41696e-05 3.00588e-05 1.60688e-20
-0.000233122 -2.96977e-08 2.19281e-20
-0.000233636 1.20977e-08 1.40407e-19
1.83244e-05 -5.51879e-05 9.49397e-21
-8.72171e-05 5.11474e-05 -1.71585e-20
7.48147e-05 8.28238e-05 -3.79888e-20
7.53892e-05 -8.32011e-05 2.84917e-20
2.373e-05 6.88825e-05 -9.49407e-21
1.21713e-05 1.98298e-05 5.11215e-21
0.000259844 -0.000259838 9.47649e-21
-7.85971e-05 2.59632e-05 6.20988e-21
-7.71555e-05 -2.43044e-05 -9.13189e-20
-1.77518e-05 5.62676e-05 -1.89865e-20
0.00011152 -6.01128e-05 -6.93509e-21
-8.75312e-05 -4.39277e-05 1.97202e-20
-0.000114201 -1.22252e-05 4.27354e-20
-0.000112212 1.88761e-05 -6.75716e-20
-6.84618e-05 -3.20675e-05 -1.49704e-20
3.3923e-05 0.000147807 -4.38408e-20
3.50334e-05 -0.0001468 2.19204e-20
4.61353e-05 0.000276607 -2.99739e-20
-4.55645e-05 -0.000277159 -3.28922e-20
2.14504e-05 0.000463576 5.06567e-20
0.000467466 3.22072e-05 -1.2573e-20
7.05488e-05 -1.09752e-05 4.49213e-20
7.03391e-05 8.99532e-06 2.04497e-20
-7.20965e-06 -2.02766e-05 3.65193e-20
0.000253473 -0.000316053 6.85193e-20
0.000308289 -0.000252363 7.65305e-21
0.000113396 0.00027365 -7.60198e-20
0.000112359 -0.000271156 1.18423e-19
-8.22439e-05 -4.84761e-05 1.57015e-20
7.07065e-05 -7.71098e-05 3.35848e-20
7.58663e-05 -4.10728e-05 4.23599e-20
7.51825e-05 3.99208e-05 1.89881e-20
5.33666e-05 -5.40998e-05 4.01606e-20
6.99706e-05 7.8045e-05 2.88374e-20
-5.61338e-06 0.000205201 -5.10547e-21
-2.70289e-06 -0.000223028 1.78695e-20
0.000213111 -7.00256e-06 -1.27636e-20
5.30903e-05 5.33147e-05 2.55549e-20
-2.24402e-05 0.000226863 6.56305e-20
0.000224261 -1.66174e-05 -5.25049e-20
0.000100686 -1.73618e-05 4.12729e-20
0.000100568 1.48384e-05 2.15477e-20
9.59703e-05 -3.34724e-05 3.54304e-20
9.56744e-05 3.18254e-05 2.84895e-20
0.00026253 0.000322994 5.83061e-21
0.00032455 0.000262805 -3.64489e-21
7.96328e-05 4.31161e-05 3.28619e-21
7.99401e-05 -4.3961e-05 5.5137e-20
2.77963e-05 0.000162588 -2.41181e-20
-2.70745e-05 -0.000162223 -4.82297e-20
7.39947e-05 2.83075e-05 1.86292e-20
7.1219e-05 -3.17323e-05 3.06807e-20
0.000110504 -0.000105126 3.28775e-20
0.000110882 0.000105317 -5.33336e-20
-6.61311e-05 -1.5634e-05 3.21378e-20
-7.03454e-05 1.7373e-05 -6.28105e-20
-0.000109864 -0.000205895 -9.5008e-21
-0.000231678 -3.63068e-06 5.26204e-20
-0.000231891 4.08849e-06 6.14009e-20
0.000109907 0.000205909 -1.27913e-19
0.000103647 0.000199767 -4.16552e-20
0.000153439 0.000153724 -5.40836e-20
0.000103285 -0.00019766 3.72712e-20
0.00015189 -0.000152703 5.11613e-20
0.0001846 7.64788e-05 -3.87347e-20
0.000189178 -7.83357e-05 2.41232e-20
0.000488294 -6.42666e-05 5.19326e-20
0.00048216 6.34573e-05 -8.70062e-20
0.0002386 -5.36585e-06 -2.41178e-20
0.000162539 4.49656e-05 7.30703e-21
0.000242648 2.79793e-06 1.82723e-20
0.000164087 -4.91913e-05 2.26516e-20
0.000227479 7.329e-05 9.5042e-21
0.000224074 -7.2717e-05 -1.3887e-20
0.000171782 -6.83256e-05 2.19211e-20
0.000173876 -6.76956e-05 4.38503e-20
0.000173606 6.752e-05 -7.30743e-21
0.000175694 6.6882e-05 -5.11562e-21
-1.45459e-05 9.07424e-05 9.49433e-21
1.12644e-05 -0.000100064 -1.46126e-20
-8.14108e-05 -1.59111e-05 2.70141e-20
-0.000101999 -2.80602e-05 5.73044e-20
-1.68389e-05 0.000117362 1.38794e-20
1.02117e-05 -0.000112352 7.30732e-21
-0.000108939 2.61598e-05 5.98607e-20
-3.38781e-05 5.44894e-05 1.75293e-20
-5.76539e-05 0.000141527 1.13438e-19
-5.51317e-05 -0.000138276 -4.96153e-20
0.000141349 5.68164e-05 -5.65394e-20
7.96763e-05 -7.48998e-05 4.16528e-20
7.62908e-05 7.91409e-05 1.05946e-20
-7.93435e-05 -5.36907e-05 5.11203e-21
2.22648e-05 -0.000109783 3.434e-20
9.11673e-06 0.000119933 -1.75314e-20
8.50202e-05 -1.99955e-05 3.10336e-20
-3.79893e-05 -0.000170742 -1.861e-20
-4.61415e-05 0.000163703 3.35665e-20
0.000168664 3.92613e-05 -6.78661e-20
-0.000112904 2.43987e-05 9.96236e-20
4.28823e-05 0.000106486 2.08046e-20
5.3496e-05 -0.000121408 -3.03039e-20
-7.68265e-05 1.32868e-05 6.20613e-20
-0.000115932 -0.000251525 -5.89041e-20
-6.57353e-05 -3.46425e-05 3.65165e-20
0.000251103 0.000119208 -1.45899e-20
-3.19073e-06 0.000112084 1.09606e-20
2.0199e-05 -0.000108487 1.97322e-20
-0.000253389 0.000123179 -5.55493e-20
-0.000246529 -0.000127603 -5.1165e-21
-0.000165582 5.20667e-05 8.28203e-20
-5.11713e-05 -7.5998e-05 1.20481e-20
-9.93782e-05 -5.26516e-05 5.84561e-21
-0.000107261 5.21677e-05 -2.63021e-20
-1.68468e-05 -3.6803e-05 3.72505e-20
6.62461e-05 7.53397e-05 2.26279e-20
7.29425e-05 -9.54624e-05 -5.11051e-21
-0.000106152 6.93906e-05 1.0219e-19
-3.0675e-05 -4.19735e-07 2.51964e-20
-6.8236e-05 -8.14633e-05 -1.31403e-20
-6.98429e-05 7.41865e-05 9.27005e-20
-3.00749e-05 -0.000112637 -1.02206e-20
-3.85818e-05 0.000107767 8.13933e-20
3.37216e-05 -8.99321e-05 6.57535e-21
1.24626e-05 7.33624e-05 -2.88467e-20
-0.000108307 6.91888e-05 9.66963e-20
-0.000269986 -0.000270021 -1.23932e-20
0.000268216 0.000268274 -8.8023e-20
2.87134e-05 -5.55975e-05 3.03196e-20
2.29033e-05 5.89049e-05 -1.46081e-20
0.000269293 0.000286663 -1.56716e-20
-0.000282295 -0.000270618 1.45853e-21
0.000130047 2.27422e-05 2.84974e-20
0.000104689 -5.70884e-05 3.65442e-20
6.0706e-05 -2.87659e-05 2.04472e-20
0.000121907 7.99235e-05 6.96229e-25
9.96819e-05 -9.22833e-05 5.6272e-20
4.04494e-05 7.58615e-05 6.20614e-21
5.1334e-05 -9.42427e-05 -9.1288e-21
-0.00010343 -0.000197671 3.65411e-20
-0.000106446 0.000199757 -2.04622e-20
9.03331e-05 4.93816e-05 1.46049e-21
8.28016e-05 -6.9654e-05 1.97264e-20
-0.00014608 6.13069e-05 1.22555e-19
-0.000118887 0.000184919 -9.5018e-21
-5.2878e-05 -0.000151151 1.68141e-20
-0.000129765 0.000242846 1.04657e-19
-0.000246883 0.000128089 8.3506e-20
1.03457e-05 7.29067e-05 3.35909e-20
2.73085e-05 -8.85557e-05 3.65331e-22
0.000254379 0.000105416 1.23611e-19
0.000200218 -8.28776e-05 -2.99816e-20
8.61108e-05 4.18391e-05 -3.64905e-22
8.13851e-05 -5.76643e-05 -1.09557e-20
-0.00015301 -3.49975e-05 4.52384e-20
0.000108435 -3.25563e-05 9.12678e-21
-0.00013044 -2.06395e-05 1.75164e-20
-9.28033e-05 -8.15448e-05 7.67039e-21
-0.000111956 0.000193831 -6.5049e-20
-0.000110185 -0.000190851 1.90034e-20
-0.000115209 -0.000134008 -1.97036e-20
-8.55348e-05 4.91011e-05 9.96492e-20
8.47551e-05 4.07507e-05 -4.52717e-20
1.72226e-06 -0.000164424 -8.04147e-21
-1.99694e-05 0.000209014 -7.16384e-20
-9.91209e-05 8.86133e-05 2.9218e-21
2.15952e-05 -9.83941e-05 1.27838e-20
7.71622e-06 9.59587e-05 -1.53376e-20
6.13688e-05 1.61074e-05 -4.82016e-20
5.64093e-05 -2.60621e-05 -2.92131e-21
0.000146997 -0.000120906 3.43003e-20
7.38003e-05 6.51729e-05 -3.03153e-20
6.49119e-05 -7.49197e-05 1.82639e-20
8.19681e-05 -5.81906e-05 6.20709e-21
5.55786e-05 4.60951e-05 -1.46078e-20
5.03331e-05 -5.94712e-05 1.31486e-20
-8.88945e-05 3.9745e-05 7.74021e-20
4.63593e-05 3.43708e-05 1.89882e-20
5.6095e-05 -6.57941e-05 2.99589e-20
-0.000106951 -7.5756e-05 1.27749e-20
1.67351e-05 -5.79378e-05 4.38502e-21
-1.36852e-05 2.40888e-05 2.55622e-21
0.000114243 1.40436e-05 -8.06521e-20
-8.71728e-05 5.15503e-05 3.39574e-20
-9.05724e-05 -4.45443e-05 1.24132e-20
-6.87151e-05 -9.244e-05 -2.29912e-20
-7.94702e-05 -5.75344e-05 6.93578e-21
1.48467e-05 -0.00010188 1.71639e-20
1.68023e-06 9.90772e-05 -6.5725e-21
0.000144817 -6.81768e-05 7.29721e-21
-5.20866e-05 3.55492e-05 3.65151e-20
-4.80208e-05 -4.1541e-05 1.71649e-20
7.63128e-05 -0.000123493 2.22653e-20
7.0034e-05 0.00010701 2.59097e-20
-8.45987e-05 4.91639e-05 5.11129e-20
-3.3161e-05 5.37861e-05 1.35135e-20
-3.28526e-05 -5.66542e-05 3.25058e-20
-7.99103e-05 7.55602e-05 8.28661e-20
1.80772e-05 -0.000151257 -6.93049e-21
1.98363e-05 0.000144507 8.17143e-20
0.000150027 -1.43438e-05 -5.32625e-20
0.000148288 0.00010242 -2.40788e-20
0.000102052 -7.85365e-05 4.12414e-20
-0.000116562 -0.000201947 1.09661e-20
-0.000143313 0.000248209 -2.34024e-19
0.000111076 -3.10376e-05 1.67895e-20
1.73894e-05 5.70045e-05 8.76201e-21
3.61489e-05 -8.18406e-05 9.86211e-21
6.34677e-05 1.76446e-05 -3.61483e-20
-1.34456e-05 -0.000107966 -2.19011e-21
-2.02199e-05 0.000102414 4.56163e-20
-3.01459e-05 5.97642e-05 5.84369e-21
8.61633e-06 -7.55577e-05 1.68101e-20
3.43631e-05 -8.73396e-06 7.66841e-21
4.87724e-05 -3.94904e-05 2.92302e-21
2.86006e-05 -5.44089e-06 -2.66557e-20
9.83913e-05 6.5822e-05 -2.22594e-20
-3.04838e-05 6.72353e-06 2.92199e-21
-3.68497e-05 -1.00964e-05 5.22155e-20
9.88351e-05 7.15613e-05 2.66412e-20
-0.000113392 0.000137893 8.93795e-20
-5.91749e-05 4.49721e-05 7.11922e-20
4.93656e-05 -0.000168093 1.82482e-20
4.18844e-05 0.000156379 4.88924e-20
0.000167639 -5.01694e-05 -1.82439e-20
0.000102862 -9.11778e-05 -8.39508e-21
9.32916e-07 0.000114023 1.35067e-20
1.38004e-05 -0.000122865 4.45456e-20
8.4869e-05 -0.000154285 -1.09437e-21
7.99085e-05 0.00013685 2.69942e-20
1.02999e-05 2.46885e-05 -2.73881e-20
9.46871e-06 -3.53377e-05 1.24161e-20
5.53751e-05 4.03951e-05 1.93507e-20
6.27246e-05 -7.02163e-05 2.30127e-20
3.88688e-05 -5.20648e-05 3.72597e-20
3.73203e-05 5.3756e-05 -3.64967e-22
-7.60134e-05 -5.2585e-05 1.42413e-20
-0.000162479 -0.000132806 3.64578e-22
3.02895e-05 -0.000120296 -7.66604e-21
2.1577e-05 0.000105466 1.24073e-20
0.000101361 4.90611e-05 -2.92247e-21
8.46132e-05 -6.96214e-05 4.82258e-20
8.9539e-05 -7.62377e-05 1.75261e-20
8.5861e-05 4.47682e-05 1.27812e-20
8.0562e-05 -6.73266e-05 5.84463e-21
-5.00343e-05 -0.000489862 -2.69695e-20
0.000486094 7.05241e-05 -8.19951e-20
0.000161978 0.000145784 5.04353e-20
0.000127056 -0.000141087 4.75145e-20
8.99419e-05 5.52804e-05 3.28563e-21
-0.000203631 -1.54911e-05 3.51963e-20
2.06001e-06 -8.85661e-05 3.50591e-20
-6.43153e-06 8.88384e-05 -1.82565e-20
-7.39397e-05 0.000107866 7.80888e-20
-7.70946e-05 6.28522e-05 5.18744e-20
-2.78366e-05 -7.79467e-05 8.03976e-21
-0.000105705 -7.19585e-05 6.93343e-21
0.000103429 1.99774e-05 -5.94982e-20
1.32474e-05 2.65328e-05 6.96163e-26
3.66563e-05 -5.97515e-05 -9.50154e-21
-2.90529e-05 -7.75093e-05 1.27793e-20
-3.61611e-05 7.43217e-05 4.30752e-20
7.89075e-05 4.57649e-05 1.3509e-20
7.94029e-05 -6.7486e-05 4.01757e-21
2.21897e-05 0.000104007 1.78861e-20
3.29619e-05 -0.000113827 4.38082e-21
-0.000130571 0.000233473 1.09379e-19
-0.000232676 0.000129465 1.32347e-19
8.64606e-05 1.00123e-05 -4.30793e-20
0.000263415 0.000127268 1.46258e-19
0.000215201 -0.000118949 -4.0948e-20
-0.000146487 0.000100781 -3.14235e-20
-0.000139003 -0.000103298 1.24226e-20
-6.01852e-05 -2.81572e-05 3.28613e-20
-1.13038e-05 -2.53964e-05 -2.55658e-21
-1.43246e-05 2.2969e-05 3.17653e-20
0.000133423 0.000166218 -2.0063e-21
-0.000156233 -0.000132486 -2.13323e-20
0.000137647 -0.000200278 -5.47079e-20
0.000135126 0.000190118 2.07893e-20
0.000209294 -0.000126781 -6.23657e-20
-1.43449e-05 -0.00021994 -7.94947e-20
0.000219803 1.09003e-05 -2.09672e-20
0.000113773 0.000155862 6.04484e-26
0.000109968 -0.000136864 5.70075e-20
-6.84073e-05 -5.83066e-05 1.46089e-20
-2.97054e-05 7.54966e-07 2.15461e-20
8.19005e-05 -0.000128852 -3.64861e-21
7.72032e-05 0.000113808 7.2967e-20
-6.93949e-05 1.94393e-05 3.83378e-20
0.000109935 8.44459e-05 -8.7694e-21
8.90247e-05 -9.62868e-05 7.60122e-20
-8.34638e-05 -4.82826e-05 -9.13036e-21
-6.0156e-05 4.03883e-05 4.96541e-20
-5.04514e-05 -4.26993e-05 6.20787e-21
-6.59484e-05 -3.4388e-05 2.48308e-20
-0.000129539 -7.72404e-05 -2.00653e-20
-1.74378e-05 5.9528e-05 1.97147e-20
-1.01871e-05 -6.42992e-05 2.92163e-21
-0.000270507 0.000270454 9.68571e-20
-1.90728e-05 0.000105461 3.17559e-20
-1.19621e-05 -0.000111839 2.44598e-20
-1.97663e-05 0.000209224 -3.8735e-20
9.05308e-06 -0.000173903 2.33888e-20
2.84629e-05 4.85191e-05 -2.77561e-20
2.63506e-05 -5.71541e-05 4.23657e-20
-9.55136e-05 -5.42063e-05 -8.76546e-21
-0.000101712 5.37354e-05 1.82614e-20
-0.00017015 3.03409e-05 -1.46149e-20
-0.000177897 -3.28356e-05 2.77663e-20
0.000235136 0.00012889 1.9375e-19
0.000173714 -0.00012138 3.50954e-20
6.12772e-05 -2.86589e-06 1.9356e-20
6.46587e-05 -4.29568e-05 2.19313e-21
9.3843e-05 3.94103e-05 -3.61392e-20
3.16251e-06 -9.61361e-05 3.90718e-20
-5.79126e-06 9.32256e-05 3.61413e-20
8.60421e-05 -7.68581e-05 2.15412e-20
-0.00014879 0.000100859 1.2586e-19
9.37996e-05 -5.62188e-05 2.44613e-20
8.18149e-05 5.63815e-05 1.09488e-21
-6.43159e-05 -1.17599e-06 3.98054e-20
-6.06284e-05 -2.02294e-06 1.49759e-20
-6.71037e-05 5.86421e-05 1.75302e-20
0.000116494 0.000201872 -1.14813e-19
0.000102239 -0.00017705 4.02101e-20
-8.32745e-05 -5.35176e-05 -5.11204e-21
-8.40207e-06 -0.000114433 5.91811e-20
0.000143274 -0.000253873 -4.12064e-20
0.000247097 -0.00012512 -1.84148e-20
1.5701e-05 6.43823e-05 -4.05452e-20
1.35269e-05 -7.18747e-05 5.40627e-20
-1.40072e-05 0.000119598 -1.31515e-20
2.75124e-05 -0.00010979 -1.35117e-20
1.05599e-05 9.53537e-05 1.86188e-20
0.000114962 5.59256e-05 -4.92727e-20
9.29838e-05 2.83155e-05 2.33744e-20
8.39851e-05 -6.03003e-05 3.6535e-20
-0.000226286 -1.2463e-08 -1.46185e-20
-0.000232187 -2.68297e-08 7.31126e-22
-8.59772e-05 -5.54926e-05 1.38745e-20
7.34938e-05 7.9041e-05 -2.41099e-20
6.45561e-05 -9.09795e-05 5.18785e-20
2.35372e-05 6.80194e-05 -1.78934e-20
2.97964e-05 -6.92944e-05 2.19154e-20
1.66809e-05 -2.21071e-05 2.92208e-21
1.05717e-05 1.87898e-05 1.24147e-20
0.000272598 -0.000272545 -4.55672e-21
-7.21545e-05 2.14269e-05 6.57562e-21
-7.66616e-05 -2.62066e-05 3.57953e-20
-1.8213e-05 5.46654e-05 -1.09539e-21
-1.17033e-05 -5.67363e-05 1.05909e-20
0.000116053 -7.29368e-05 8.39581e-20
-8.67499e-05 4.38115e-05 2.44666e-20
-0.000107588 -1.99993e-05 3.65277e-21
-0.00011207 1.46977e-05 3.21402e-20
-6.70241e-05 3.13714e-05 3.21333e-20
3.15109e-05 0.000142985 -5.91906e-20
2.70901e-05 -0.000139208 8.54993e-20
4.5769e-05 0.000273583 -1.52794e-19
5.49944e-05 -0.000225039 2.04707e-20
-2.72486e-05 0.000482985 -8.03592e-20
-0.000480751 2.22083e-05 9.96788e-20
6.99423e-05 8.03989e-06 2.30071e-20
7.10892e-05 -4.90403e-05 1.31528e-20
0.000267071 -0.00033165 -9.07599e-20
0.000332528 -0.000263193 -1.40334e-20
9.47347e-05 -0.000228512 4.97285e-20
0.000110337 0.000266369 -4.53447e-20
-8.15574e-05 4.82273e-05 3.79741e-20
7.46089e-05 3.78626e-05 3.76131e-20
7.36857e-05 -6.56475e-05 2.92248e-20
7.0388e-05 7.60818e-05 4.38072e-21
7.50529e-05 -9.58516e-05 -4.01659e-21
1.95544e-06 -0.000236958 -5.76302e-20
5.336e-06 0.000206847 1.00293e-19
0.000236048 -4.13163e-06 -6.71092e-20
5.33513e-05 5.13812e-05 1.53341e-20
6.15815e-05 -7.63749e-05 2.66613e-20
2.32075e-05 0.000228123 1.34919e-20
-0.000226616 -3.36134e-05 7.51145e-20
9.90342e-05 1.36625e-05 7.30502e-20
8.72624e-05 -5.21678e-05 1.82703e-20
9.43483e-05 2.99185e-05 2.66651e-20
8.46784e-05 -6.11138e-05 2.85011e-20
-0.000266283 0.000326333 8.71047e-20
-0.000329365 0.000265755 9.73087e-20
7.94197e-05 4.13164e-05 2.19084e-20
7.91749e-05 -6.95849e-05 4.20051e-20
4.14393e-05 -0.000140868 2.2659e-20
2.76506e-05 0.000160879 -3.36204e-20
7.05029e-05 -3.16054e-05 5.80782e-20
7.03135e-05 -2.52889e-05 1.68114e-20
0.000108134 0.000100681 -3.72649e-20
8.79898e-05 -0.000105568 9.35381e-20
-6.45133e-05 -2.06819e-05 9.86118e-21
-6.51385e-05 1.53946e-05 5.47766e-20
0.000105951 -0.000176057 6.5789e-20
-0.000223852 -6.01878e-06 -5.84675e-21
-0.00023078 3.39281e-06 1.3887e-20
0.00010885 0.00020374 -1.34492e-19
0.000100452 0.000194369 -7.45545e-20
0.000149447 0.000149102 2.41268e-20
8.22025e-05 -0.000180266 8.99059e-20
0.000123547 -0.000142033 3.14372e-20
0.000185222 -7.66727e-05 9.8694e-20
0.000476058 -6.25631e-05 2.68448e-19
0.000374635 4.94444e-05 -1.70392e-19
0.000107477 4.4564e-05 -1.16999e-20
0.000237117 2.08821e-06 1.08182e-19
0.000160636 -4.85427e-05 1.00117e-19
0.000222243 7.12741e-05 1.7988e-19
0.000165178 -4.28892e-05 -1.31613e-20
0.000160731 -6.35383e-05 -2.55924e-20
0.000123462 -1.52875e-05 1.6083e-20
0.000169869 6.48671e-05 1.447e-19
0.000171457 6.44004e-05 1.52775e-19
0.000128967 -8.27563e-05 3.58178e-20
0.000134016 -8.11969e-05 3.28982e-20
1.47635e-05 3.28982e-06 2.12044e-20
1.23198e-05 7.16823e-06 4.38825e-21
3.38106e-05 -7.68769e-07 1.09687e-20
1.18748e-05 -1.66623e-06 2.48567e-20
1.20235e-05 -1.58489e-06 2.85137e-20
1.07307e-05 2.56361e-05 4.38824e-21
3.55224e-05 -2.07138e-05 6.58099e-21
1.14821e-05 2.2975e-06 2.63202e-20
3.10411e-05 2.61334e-05 -2.55851e-20
1.28193e-05 1.39907e-06 -1.16997e-20
1.29208e-05 -1.26285e-06 5.11865e-20
1.10545e-05 9.74813e-09 1.38963e-20
6.93344e-05 -1.84433e-06 -2.92496e-21
-6.96104e-06 -1.27802e-05 5.48582e-20
1.4796e-05 8.5209e-06 1.09675e-20
2.42783e-05 8.07366e-06 1.82776e-20
2.95305e-05 2.23484e-05 3.29067e-20
1.55171e-05 -2.652e-05 2.70609e-20
9.24393e-06 8.64337e-07 3.65742e-21
1.3457e-05 1.61931e-07 2.04752e-20
1.35039e-05 -1.43947e-07 3.87566e-20
1.04174e-05 4.21047e-07 1.46281e-20
1.10308e-05 7.4154e-06 9.50513e-21
8.72664e-06 1.08551e-06 2.12029e-20
4.77988e-06 7.08874e-06 1.6085e-20
1.17196e-05 1.89634e-06 5.1196e-21
1.30241e-05 1.68197e-06 1.34051e-27
1.20464e-05 -3.34693e-08 1.46249e-21
1.4968e-05 -1.55393e-05 5.8481e-21
1.04437e-05 -3.34134e-07 1.17018e-20
2.56248e-05 1.98484e-05 2.7061e-20
2.8722e-05 -1.80702e-05 1.68213e-20
-0.000130302 -6.62486e-05 -1.38931e-20
-0.000130601 6.27166e-05 -2.92487e-21
1.03396e-05 2.38821e-07 3.14404e-20
6.41266e-06 9.02011e-06 2.77822e-20
-2.49544e-05 -7.94119e-06 -8.04238e-21
-2.89733e-05 9.30773e-06 -1.02358e-20
3.9069e-05 -1.66031e-05 -5.11679e-21
1.19714e-05 1.56121e-06 7.31389e-21
8.33959e-06 -1.49011e-06 2.12034e-20
3.25688e-05 -9.50745e-08 -5.84772e-21
1.10688e-05 -7.15961e-06 2.92469e-20
1.46628e-05 -3.3006e-06 3.50972e-20
7.92192e-06 5.92909e-06 -1.02399e-20
1.04123e-05 -1.31133e-06 3.94831e-20
1.47366e-05 -2.3587e-06 2.5594e-20
1.25731e-05 -4.78096e-06 4.53415e-20
4.03682e-05 -1.28122e-05 2.70505e-20
1.28283e-05 -4.70627e-07 2.48646e-20
9.92714e-06 -2.59066e-06 1.16999e-20
2.00573e-05 -1.08069e-06 6.87644e-20
2.00677e-05 1.07134e-06 -7.31531e-21
6.56863e-06 1.855e-06 4.97412e-20
1.8796e-05 -9.9569e-06 6.14494e-20
1.88039e-05 9.96433e-06 1.38993e-20
1.18481e-05 3.50563e-06 -2.92555e-21
-3.37269e-05 -0.000124239 9.50441e-21
-3.3882e-05 0.000124687 2.19353e-21
1.37853e-05 -4.55682e-06 7.09557e-20
1.37757e-05 4.55567e-06 2.926e-21
1.03793e-05 2.5763e-07 3.43658e-20
9.54672e-05 -6.46007e-05 3.36373e-20
-2.30207e-05 5.32206e-05 2.19455e-21
1.19697e-05 -1.55749e-06 7.53338e-20
1.21278e-05 -1.47759e-07 4.75315e-20
1.0077e-05 4.58215e-07 4.16794e-20
1.26477e-05 6.93381e-06 -2.19412e-21
2.21567e-05 7.5776e-06 1.53549e-20
3.83549e-05 -1.58887e-05 3.65817e-21
3.83826e-05 1.59002e-05 7.31634e-21
3.69722e-05 3.15725e-05 2.26632e-20
1.14516e-05 -4.10902e-06 8.04636e-20
1.14188e-05 4.2463e-06 1.60928e-20
1.17991e-06 1.94682e-05 1.68139e-20
5.13894e-06 -8.05721e-06 8.26525e-20
1.04015e-05 -1.91106e-07 3.21713e-20
9.30832e-06 -8.85349e-07 2.6321e-20
-1.78558e-05 -3.92465e-05 2.92423e-21
-5.73499e-05 9.93052e-05 6.5807e-21
-5.77077e-05 -9.99253e-05 1.09678e-20
1.06188e-05 1.55147e-06 5.84963e-21
5.79445e-06 1.01364e-06 7.31166e-22
9.15774e-06 2.32758e-06 -1.75552e-20
1.49329e-05 6.24595e-05 -2.41393e-20
2.85903e-05 -8.08692e-05 2.63297e-20
-2.12118e-05 4.41201e-05 -2.55872e-20
2.84437e-05 3.72151e-06 1.68195e-20
1.69549e-05 -7.64805e-06 2.92542e-20
7.30096e-06 -2.44673e-06 9.58268e-20
7.16999e-06 2.26118e-06 8.92433e-20
1.11535e-05 -7.07841e-07 5.63164e-20
9.28794e-06 8.86491e-07 -1.4629e-20
1.03564e-05 -8.39551e-06 8.77825e-20
1.03166e-05 8.47975e-06 6.14477e-20
9.28994e-06 -2.35025e-06 7.31468e-20
1.17589e-05 -1.82837e-06 5.63159e-20
6.86524e-06 -4.73122e-06 1.00947e-19
6.68145e-06 4.64648e-06 6.07148e-20
9.02576e-06 1.04528e-05 -8.04184e-21
1.05613e-05 3.93671e-08 -2.19441e-20
9.13082e-06 2.28992e-06 2.99776e-20
9.42219e-06 4.60137e-05 1.60823e-20
4.77844e-06 5.01067e-09 -8.77736e-21
1.02829e-05 3.60741e-07 -4.3886e-21
-6.04322e-06 1.09236e-05 -2.9974e-20
8.97136e-06 -9.14604e-06 2.48571e-20
1.07518e-05 1.67407e-06 2.70532e-20
5.36153e-06 -6.79574e-07 2.92447e-20
1.86903e-05 -8.55022e-06 1.8282e-20
1.70867e-05 9.62246e-06 2.99834e-20
1.1128e-05 -3.89556e-08 7.53328e-20
1.0702e-06 -1.98046e-05 -7.31031e-21
1.18554e-05 -8.40565e-07 5.63165e-20
1.18752e-05 7.61418e-07 8.77657e-21
4.69648e-06 9.53479e-07 -1.97401e-20
2.56395e-05 3.14393e-05 -3.65467e-20
2.62299e-05 -3.25171e-05 -2.55823e-20
1.47488e-05 3.28334e-06 2.92495e-21
4.25064e-06 -6.23911e-06 -7.31114e-22
1.29461e-05 -3.94308e-09 1.82823e-20
1.3016e-05 -1.93874e-09 3.72959e-20
1.02441e-05 -2.57787e-08 3.07188e-20
1.11572e-05 6.47447e-07 5.85104e-21
1.13856e-05 -9.26441e-07 7.24095e-20
-4.75079e-05 8.22568e-05 -3.36527e-20
5.07099e-05 -8.79046e-05 2.7798e-20
1.02527e-05 -4.74827e-07 5.2663e-20
9.28448e-06 1.40836e-06 -1.82856e-20
6.70342e-06 -2.00186e-06 5.63244e-20
1.48627e-05 -3.35866e-06 3.43683e-20
9.70181e-07 8.26076e-06 -6.58314e-21
4.60425e-05 1.18954e-05 5.55575e-20
1.06389e-05 -1.25114e-07 8.41191e-20
9.40414e-06 -4.11637e-06 -1.17036e-20
2.2123e-05 1.58401e-05 1.38913e-20
3.26613e-06 2.59743e-08 1.30209e-19
1.13555e-05 7.90434e-07 -9.50837e-21
1.00375e-05 -4.66637e-05 -8.04127e-21
1.14104e-05 1.37236e-06 -1.46283e-20
1.04389e-05 -1.42548e-06 5.26466e-20
7.07572e-06 -1.0406e-05 -1.46223e-21
1.32869e-05 -1.9771e-07 2.63276e-20
1.33266e-05 1.64649e-07 1.09698e-20
1.04831e-05 -5.56197e-07 4.60787e-20
1.14005e-05 -1.34029e-06 6.36328e-20
1.74827e-05 1.6831e-06 1.38948e-20
1.83425e-05 -1.54665e-06 2.1939e-20
1.22176e-05 -8.05016e-08 5.41202e-20
1.22893e-05 1.11756e-07 7.31361e-21
1.17731e-06 -3.4194e-06 1.2582e-19
1.10148e-06 3.30828e-06 8.99763e-20
1.12944e-05 5.2942e-07 -1.46289e-20
4.90427e-05 -1.59097e-05 -2.19303e-21
-9.8502e-06 7.79818e-06 1.82769e-20
1.01517e-05 -2.96754e-07 7.312e-21
1.40615e-05 2.00635e-06 -3.65668e-21
1.51751e-05 -4.51604e-06 8.48565e-20
1.51825e-05 4.52093e-06 6.5837e-21
1.16092e-05 -2.31006e-06 1.0826e-19
1.15856e-05 2.28714e-06 -6.58332e-21
1.27197e-05 -3.4129e-07 5.119e-20
7.98122e-06 -6.10642e-07 4.31496e-20
1.3943e-05 -2.13986e-06 4.89997e-20
2.46363e-05 -2.03611e-05 2.85316e-20
2.46534e-05 2.03729e-05 4.38948e-20
1.12819e-05 1.4953e-06 -2.1212e-20
1.00696e-05 -6.32621e-08 1.46238e-20
9.29581e-06 -1.03325e-06 3.14523e-20
2.35351e-05 1.25636e-06 3.21729e-20
1.2028e-05 -1.00435e-05 5.1196e-20
1.03625e-05 -1.36754e-06 3.94837e-20
9.17022e-06 4.18685e-06 8.3388e-20
1.12777e-05 -1.51116e-06 8.55794e-20
2.01354e-05 2.96067e-05 3.36229e-20
-7.82999e-06 8.83526e-06 2.92579e-21
6.9837e-05 1.03383e-05 2.70538e-20
1.12899e-05 -5.11121e-07 7.60702e-20
4.60287e-06 2.1667e-05 2.33947e-20
8.63732e-06 3.25577e-07 3.43643e-20
6.82622e-06 1.9112e-07 -1.82867e-20
1.50792e-05 -9.05108e-06 1.82791e-20
1.60098e-05 -2.81736e-07 2.41312e-20
1.21121e-05 2.21071e-06 -7.31494e-22
1.34058e-05 3.60286e-06 1.17013e-20
-6.65187e-07 -6.02282e-06 7.38779e-20
1.22423e-05 1.14439e-06 4.97244e-20
1.17282e-05 6.21047e-07 3.14427e-20
1.21249e-05 -2.23547e-06 9.80163e-20
9.34003e-06 -1.05718e-06 4.90085e-20
3.92785e-05 -1.81131e-05 8.04783e-21
3.93059e-05 1.81238e-05 9.51107e-21
9.07077e-06 -1.59438e-06 6.80224e-20
-5.7751e-05 -4.98594e-05 -1.46223e-21
-6.01451e-05 4.79524e-05 -1.46224e-20
2.18633e-05 -7.48075e-06 1.46213e-21
2.03504e-05 -3.15145e-05 -6.57833e-21
1.21935e-05 -1.03353e-06 2.41342e-20
1.21043e-05 -2.05618e-07 2.19367e-21
1.22999e-05 -1.52704e-07 5.99687e-20
1.22727e-05 9.6228e-08 3.65665e-21
1.05917e-05 4.56595e-07 6.07035e-20
6.93482e-06 5.3615e-07 7.97302e-20
1.27902e-05 1.92413e-07 2.9251e-20
1.05313e-05 -4.05784e-08 2.48663e-20
9.14692e-05 4.34746e-05 -5.85011e-21
-2.12705e-05 -4.206e-05 5.77865e-20
8.92341e-06 -1.37444e-05 1.53531e-20
3.31646e-05 6.30096e-07 -5.84711e-21
1.24071e-05 1.27339e-06 2.34032e-20
1.23795e-05 -1.28295e-06 4.82693e-20
1.92588e-05 6.7324e-06 7.31004e-22
1.18944e-05 -3.79865e-06 6.21683e-20
1.65306e-05 -1.08088e-05 3.87724e-20
1.65405e-05 1.08122e-05 3.14569e-20
-3.29309e-06 1.93172e-06 3.65561e-21
4.61774e-06 -2.19336e-05 -2.1932e-21
9.39063e-06 -8.95877e-06 1.09659e-20
1.08065e-05 8.0714e-07 1.82795e-20
2.16957e-05 -1.42822e-05 1.53536e-20
1.40816e-05 3.83389e-06 3.21749e-20
1.66438e-05 1.32504e-06 4.31438e-20
1.34312e-05 -3.27651e-06 2.19397e-20
1.77341e-05 6.60874e-05 -5.11987e-21
3.74642e-05 -6.93681e-05 3.58381e-20
3.58019e-06 -6.5584e-06 1.1046e-19
3.56909e-06 6.52473e-06 9.07092e-20
-2.53438e-05 -7.78123e-06 1.46218e-21
-2.58391e-05 1.02007e-05 -1.8277e-20
-8.15247e-05 5.22239e-05 -6.58015e-21
-8.35409e-05 -5.15828e-05 -6.58012e-21
3.61094e-05 -1.82979e-05 3.95065e-20
3.61371e-05 1.83085e-05 -1.17056e-20
1.22416e-05 3.56756e-06 1.00947e-19
1.2224e-05 -3.50162e-06 -8.04651e-21
1.11512e-05 2.02414e-06 -5.55902e-20
2.27302e-05 -4.29138e-06 2.2668e-20
1.32254e-05 -3.0522e-06 4.82701e-20
1.049e-05 -1.37187e-06 5.70331e-20
1.1164e-05 -2.05571e-06 8.19224e-20
2.20634e-05 2.59269e-06 2.12055e-20
1.15131e-05 1.46328e-06 -1.97486e-20
-1.22579e-05 -3.94163e-05 7.3086e-22
-1.23799e-05 3.90575e-05 2.5583e-20
1.15436e-05 -1.46462e-06 6.58285e-20
8.70117e-06 1.61198e-05 -2.85128e-20
5.08631e-05 8.81758e-05 -2.19423e-21
-3.256e-05 -5.63755e-05 1.17059e-20
5.07074e-06 -5.29481e-06 7.31415e-20
-4.11864e-06 -9.16674e-06 2.19325e-21
3.8347e-05 -6.11353e-05 -7.31067e-21
1.21579e-05 1.19635e-06 7.02076e-20
1.15968e-05 4.99995e-07 5.41197e-20
2.20363e-06 -8.26763e-06 9.72942e-20
2.20527e-06 8.12906e-06 7.97374e-20
3.53242e-05 6.46842e-05 -2.19322e-20
1.26094e-05 3.00889e-06 -8.77641e-21
1.03187e-05 1.40322e-06 -2.63315e-20
1.42853e-05 -5.40986e-07 9.14372e-20
1.42834e-05 5.13157e-07 -1.463e-20
-0.000119774 -6.00056e-09 -1.3161e-20
-0.000119762 6.15007e-09 -1.4624e-21
8.68443e-06 -3.83833e-06 7.38744e-20
6.07413e-06 -7.81411e-07 1.82781e-20
1.03266e-05 -9.73108e-06 9.14408e-20
1.02856e-05 9.73952e-06 2.19458e-20
4.05296e-05 -1.05585e-05 2.12041e-20
3.51977e-05 -3.40126e-05 2.19309e-21
1.41308e-05 4.04357e-06 7.09368e-20
-1.59519e-05 4.62556e-05 4.38626e-21
-1.60741e-05 -4.71664e-05 -3.6552e-21
2.13099e-05 -1.66997e-05 2.77806e-20
1.03101e-05 -1.36358e-06 6.07087e-20
-5.23653e-06 -3.46771e-06 -2.33957e-20
-3.507e-05 2.50677e-05 5.84847e-21
-3.51969e-05 -2.50835e-05 -1.02349e-20
8.71459e-06 1.05713e-05 -3.14348e-20
4.54063e-06 -1.98839e-05 7.75444e-20
4.57361e-06 1.9901e-05 5.7061e-20
4.44964e-05 9.46481e-05 -4.24256e-20
4.58092e-06 -9.40984e-05 2.34074e-20
1.28933e-05 -5.13953e-07 2.63265e-20
7.83699e-06 4.93236e-07 1.75497e-20
1.24747e-05 2.0661e-06 8.9241e-20
1.25256e-05 -2.15472e-06 -9.5093e-21
5.32037e-06 7.62862e-07 6.87559e-20
1.37689e-05 1.81061e-07 7.02054e-20
9.8213e-06 3.3739e-06 5.55815e-20
1.62009e-05 3.91136e-05 -1.02427e-20
1.61902e-05 -3.90877e-05 2.63384e-20
-1.0394e-05 -7.86737e-06 -5.11748e-21
1.15276e-05 -1.49187e-06 7.02168e-20
1.30497e-05 -1.1838e-06 7.82686e-20
1.30448e-05 1.15694e-06 -1.46297e-21
1.12045e-05 -1.06269e-06 9.36245e-20
1.15039e-05 1.47898e-06 -3.6571e-21
1.29515e-05 2.38798e-08 3.43711e-20
1.30157e-05 3.62327e-10 3.51025e-20
1.04854e-05 2.71252e-09 4.82709e-20
1.12007e-05 1.03914e-06 -1.8286e-20
1.28341e-05 -2.15679e-07 4.9727e-20
1.01357e-05 -1.15384e-08 1.24306e-20
1.64464e-05 1.22379e-06 8.48547e-20
1.65019e-05 -1.38619e-06 -1.82877e-20
1.5503e-05 -1.99749e-06 8.193e-20
1.55296e-05 1.98487e-06 -9.50975e-21
1.37981e-05 7.92119e-08 2.63256e-20
9.6963e-06 3.48416e-06 1.97436e-20
1.22926e-05 6.17307e-07 2.19437e-21
1.22927e-05 -6.47381e-07 6.43687e-20
3.67804e-05 4.66553e-05 -1.0239e-20
1.2641e-05 -4.40387e-05 4.3887e-20
1.33027e-05 6.60255e-06 8.41249e-20
1.32159e-05 -6.59716e-06 -2.70662e-20
1.62436e-05 -1.34252e-05 5.70609e-20
1.62489e-05 1.34577e-05 3.29198e-20
-2.02691e-06 -2.45912e-05 -2.92439e-21
-2.20002e-06 2.40621e-05 8.77295e-21
8.78479e-05 7.8561e-05 -6.5815e-21
-0.000127989 -2.11043e-05 2.1931e-21
1.50253e-05 2.76865e-05 4.82842e-20
2.22513e-05 2.10011e-05 1.4632e-20
1.50051e-05 -2.76788e-05 3.95053e-20
2.22361e-05 -2.09888e-05 3.21905e-20
-1.94472e-05 -5.97731e-05 3.58444e-20
-0.000128075 2.06935e-05 -2.19349e-21
2.95252e-05 -1.22287e-05 -1.46318e-20
7.18257e-05 -9.45297e-06 -1.46326e-21
7.17737e-05 9.44611e-06 2.33912e-27
2.94982e-05 1.22175e-05 3.43848e-20
3.68256e-05 -1.16067e-06 -2.9263e-20
2.52101e-05 -8.85191e-06 -3.43825e-20
3.43462e-05 1.03269e-05 -1.6827e-20
3.67959e-05 1.15356e-06 4.60893e-20
3.43194e-05 -1.03204e-05 2.34115e-20
2.51915e-05 8.83748e-06 8.55906e-20
2.65627e-05 -7.96236e-06 6.07195e-20
2.6059e-05 -8.11957e-06 4.90157e-20
2.65825e-05 7.96306e-06 -2.41415e-20
2.60773e-05 8.12073e-06 4.38944e-21
-3.7965e-05 -0.000108263 -5.07333e-20
1.1507e-05 0.000100115 1.31509e-20
1.51817e-05 -9.06359e-05 4.45517e-20
-8.11275e-05 -1.4022e-05 -3.65064e-22
-0.000101627 -2.53091e-05 3.64741e-22
1.0452e-05 0.00011243 3.50742e-20
1.74853e-05 -0.000117442 3.65245e-20
-0.000109285 2.96164e-05 1.46003e-20
-3.33626e-05 5.58722e-05 -3.28672e-21
-5.99439e-05 -0.000132309 -1.24388e-19
-5.36185e-05 0.000148757 -2.77245e-20
0.000143699 7.037e-05 1.20385e-20
7.97309e-05 7.51563e-05 5.11537e-21
-7.62217e-05 -7.88728e-05 -4.42027e-20
-3.77675e-05 -7.61617e-05 -4.49006e-20
-1.21474e-05 -7.28629e-05 -4.01644e-21
-8.7086e-06 -0.000120108 -2.37412e-20
2.2469e-05 0.000109948 2.11885e-20
8.66609e-05 -5.96194e-06 -2.88422e-20
-4.56869e-05 -0.000160048 -9.59569e-20
-4.06266e-05 0.000173768 -4.05046e-20
0.000169116 5.4028e-05 2.73667e-20
-7.10092e-05 -7.17294e-05 -6.42346e-20
-0.000111206 2.87548e-05 3.94126e-20
-8.06061e-05 -7.22447e-05 -3.21242e-20
5.38032e-05 0.000121095 -6.57138e-21
-7.5846e-05 1.62687e-05 1.0222e-20
-0.000118289 -0.000240379 -1.07224e-19
-6.66036e-05 -3.29791e-05 -5.11257e-21
0.000252674 0.000132287 -1.02126e-20
2.03318e-05 0.000108606 1.02315e-20
3.78553e-06 -0.000112143 2.92286e-21
-0.000247446 0.000122892 -1.53493e-20
-0.00025264 -0.000128048 -9.94037e-20
-0.000165235 5.71405e-05 4.37829e-20
-5.93175e-05 -4.70607e-05 -1.27781e-20
-0.000102525 -5.12079e-05 -1.9726e-20
-0.000104263 5.38227e-05 2.04585e-20
-1.72567e-05 -3.51654e-05 -2.3738e-20
7.32327e-05 9.51747e-05 9.8573e-21
-0.000104393 7.41376e-05 2.26287e-20
-3.01957e-05 1.4944e-06 -9.4945e-21
-6.56835e-05 7.85012e-05 -8.76052e-21
-3.26814e-05 0.00011394 -1.75223e-20
3.40156e-05 8.98788e-05 3.36092e-20
-0.000105518 7.40253e-05 3.24772e-20
-0.000263008 -0.000262946 -6.83431e-20
0.000274251 0.000274205 -7.65521e-21
2.88431e-05 5.58823e-05 1.16899e-20
0.000275786 0.000300236 -8.91232e-20
-0.000282728 -0.000263896 -8.20088e-21
0.000104465 5.71395e-05 4.45843e-20
0.000130034 -2.28697e-05 -6.13782e-20
6.0615e-05 -1.53498e-05 -5.03876e-20
9.94771e-05 9.21994e-05 3.58098e-20
0.000121893 -8.00548e-05 -2.04587e-20
5.16605e-05 9.41518e-05 2.99444e-20
-0.000103827 0.000198452 4.45799e-20
-0.000106201 -0.000198995 -2.85012e-20
8.26022e-05 6.97277e-05 6.17364e-20
9.0507e-05 -4.94247e-05 -1.38783e-20
-0.000144626 6.69038e-05 3.39233e-20
-5.27149e-05 0.000151173 -1.16969e-20
0.000119182 -0.000184971 2.3388e-20
6.46968e-05 -7.4348e-05 -3.64572e-22
-0.000128335 0.000253771 -5.57957e-20
-0.000246729 0.000134568 -3.46365e-21
2.76753e-05 8.85178e-05 2.41065e-20
-1.02405e-05 -7.24124e-05 8.39759e-21
0.00019978 8.26947e-05 6.06951e-20
0.0002544 -0.000105425 1.33851e-19
1.39578e-05 -2.45515e-05 -4.01663e-21
8.1182e-05 5.64758e-05 2.77554e-20
8.63216e-05 -4.33144e-05 -2.11786e-20
-5.18966e-05 -3.57276e-05 -1.57012e-20
-2.21398e-05 -5.77453e-05 -4.56516e-20
-0.000152599 -3.04204e-05 2.48082e-20
0.000108379 -1.76213e-05 -8.03136e-21
-0.000132171 -1.74262e-05 7.29777e-21
-9.58926e-05 -8.03858e-05 -3.14109e-20
-0.000111722 -0.000193427 -3.80059e-20
-0.000110452 0.000191316 1.31563e-20
-0.000116888 -0.000128386 -6.02007e-20
-8.24769e-05 5.25655e-05 7.30078e-21
8.28893e-05 5.78518e-05 4.3819e-21
2.0298e-05 -0.000209037 2.85089e-20
1.80825e-06 0.000164427 8.04108e-21
-9.62893e-05 8.94885e-05 4.74852e-21
2.18065e-05 9.86807e-05 2.9227e-21
-6.88577e-06 -9.61983e-05 3.3961e-20
5.85776e-05 2.76373e-05 -5.84271e-21
5.92378e-05 -1.44808e-05 -4.74717e-20
0.000144611 -0.000103808 2.11606e-20
6.51745e-05 7.40511e-05 5.11381e-21
7.34394e-05 -6.62012e-05 -2.77588e-20
8.38394e-05 -4.10877e-05 1.27779e-20
4.02478e-05 -0.000105832 1.86159e-20
5.22415e-05 6.05162e-05 1.97227e-20
5.36377e-05 -4.52091e-05 -5.07621e-20
-8.76007e-05 4.20439e-05 5.84158e-21
5.62377e-05 6.58131e-05 2.04602e-20
-0.000107268 -7.34344e-05 -2.88322e-20
-3.80096e-05 9.00647e-06 9.1285e-21
1.69394e-05 5.77153e-05 4.16534e-20
0.000114663 2.8813e-05 3.35773e-20
-8.43298e-05 5.39701e-05 -1.31453e-20
-9.19377e-05 -4.1852e-05 -4.38077e-21
-7.17341e-05 -8.69193e-05 -4.45179e-20
-8.19984e-05 -5.35249e-05 -2.62804e-20
-1.28571e-06 -9.90909e-05 4.92907e-20
1.53013e-05 0.000102041 -2.92156e-21
0.000142587 -5.44187e-05 -3.50203e-20
-4.80072e-05 3.81965e-05 -6.9389e-21
6.98506e-05 -0.000106822 1.0218e-20
7.64768e-05 0.000122294 9.49006e-21
-8.28072e-05 5.25586e-05 5.11156e-21
-3.20744e-05 5.46076e-05 3.61585e-20
-3.39521e-05 -5.5867e-05 -1.46087e-20
-2.13057e-05 -0.000101167 -5.10885e-21
-7.66435e-05 7.99946e-05 -1.64289e-20
1.27065e-05 -0.000141094 -5.18e-20
2.54148e-05 0.000154541 -5.80117e-20
0.000150036 -7.90266e-07 7.29669e-21
0.000150905 0.000117616 8.3923e-21
0.000100053 -6.18855e-05 -2.73677e-20
0.000143192 -0.000248116 6.50872e-20
-0.000116583 0.000201985 -1.53525e-20
0.000110827 -1.62126e-05 -6.93362e-21
3.64588e-05 8.17345e-05 4.67527e-20
6.33988e-05 3.11621e-05 -2.84805e-20
-1.28967e-05 0.000108173 -1.2775e-20
3.03301e-05 -6.00541e-05 3.21378e-20
8.71061e-06 7.55735e-05 2.2657e-20
4.76512e-05 -3.51095e-05 -2.30053e-20
4.90845e-05 4.01174e-05 4.60405e-20
-1.69874e-05 -5.54131e-05 -1.46032e-20
2.85827e-05 5.34925e-06 -4.6374e-20
0.000101449 8.13604e-05 3.6417e-22
-3.23509e-05 -8.73393e-06 3.28727e-21
0.000102169 9.06597e-05 8.76042e-21
-0.000110766 0.000145035 -5.83729e-21
-5.49268e-05 4.79502e-05 -1.75266e-20
3.94232e-05 -0.000156339 2.40831e-20
5.0127e-05 0.000167847 -6.13109e-20
0.000166941 -3.5209e-05 7.2981e-21
0.000100536 -7.31957e-05 1.42335e-20
-5.49456e-07 -0.000113879 5.62176e-20
1.42566e-05 0.00012299 -1.97173e-20
8.02635e-05 -0.000141713 3.42896e-20
8.54842e-05 0.000150575 -4.19562e-20
1.01028e-05 3.57944e-05 2.92156e-21
9.61292e-06 -2.42748e-05 -8.21642e-20
6.28202e-05 7.02039e-05 1.5707e-20
3.88562e-05 5.23048e-05 1.89954e-20
-8.16766e-05 -4.87439e-05 -2.66549e-20
-0.00016379 -0.00012647 1.1489e-20
3.10327e-05 0.000120004 -1.24107e-20
8.44767e-05 6.96795e-05 4.23802e-20
0.000101382 -4.91914e-05 -1.89944e-20
8.02506e-05 6.73027e-05 4.23689e-20
8.61866e-05 -4.49363e-05 -2.92127e-21
-5.21476e-05 -0.000473748 -6.85099e-20
0.000486206 8.17248e-05 -4.02693e-20
2.14565e-05 -0.000103133 2.59103e-20
0.000126783 0.000140865 -2.92397e-21
0.000161975 -0.000145899 -3.80094e-20
8.91207e-05 7.5952e-05 3.83415e-20
-0.000204482 -1.04213e-05 3.99369e-20
2.17091e-06 8.88022e-05 3.65423e-22
6.61696e-06 -8.9623e-05 3.14002e-20
-6.9993e-05 0.000113995 1.16774e-20
3.26018e-05 9.09539e-06 -6.60932e-20
9.03903e-05 -5.55065e-05 -1.20472e-20
-1.39607e-05 -2.77999e-05 3.43215e-20
-2.76699e-05 7.79579e-05 1.82724e-20
7.75075e-05 -6.31674e-05 2.55718e-20
5.51258e-05 -3.95382e-05 1.38746e-20
-6.01825e-05 -4.10468e-05 -2.15412e-20
-0.000105341 -6.58247e-05 -1.20421e-20
0.000103386 3.50048e-05 7.29983e-21
3.74449e-05 5.95818e-05 2.77727e-20
-3.00347e-05 7.72788e-05 -4.38111e-21
-2.06901e-05 -0.00010294 2.70097e-20
7.92423e-05 6.744e-05 6.1355e-20
3.35616e-05 0.000113885 -6.20654e-21
-3.74451e-05 -5.23792e-05 -1.35119e-20
-0.000129377 0.000241716 1.56775e-20
-0.000233324 0.000135863 7.47298e-21
8.47496e-05 2.4069e-05 -3.79709e-20
7.92044e-05 -4.5937e-05 -2.84786e-20
0.000214758 0.000118754 -1.31616e-20
0.000263465 -0.000127344 1.10425e-19
1.74543e-05 -5.79258e-05 2.77477e-20
-0.000142169 0.000100816 -1.60763e-20
-0.000143343 -0.000103361 -4.38462e-20
-6.06114e-05 -2.5979e-05 3.28611e-21
-9.16859e-06 2.52882e-05 2.44706e-20
0.000137986 0.000178131 -1.38558e-20
-0.000156949 -0.000126121 -2.26074e-20
0.000133052 -0.000187737 6.30904e-20
0.00013976 0.00020291 -5.69007e-20
0.000208093 -0.000113986 6.56454e-21
1.37114e-05 -2.17404e-05 -4.01641e-20
-1.71472e-05 -0.000209615 -5.03195e-20
0.000220874 2.23735e-05 -3.20879e-20
-0.000113627 -0.000155398 -3.58082e-20
0.000109965 0.000137002 1.02318e-20
-7.05369e-05 -5.62391e-05 -6.2083e-21
-2.99191e-05 1.83051e-06 -9.86006e-21
7.63011e-05 -0.000112249 2.40795e-20
8.2873e-05 0.000128352 -2.6273e-20
-6.93198e-05 2.15662e-05 2.92101e-21
3.80716e-05 -7.40127e-05 1.78879e-20
8.8872e-05 9.62056e-05 2.99666e-20
0.000109924 -8.45511e-05 -3.14245e-20
-8.5557e-05 -4.52841e-05 -1.16854e-20
-5.59927e-05 4.29859e-05 -2.08152e-20
-6.80829e-05 -3.12278e-05 -6.20775e-21
-0.000131225 -7.15585e-05 -1.34975e-20
-1.17289e-05 6.28128e-05 1.16852e-20
-0.00027557 0.000275617 4.56492e-20
-1.1457e-05 0.000111984 -2.22689e-20
1.9875e-05 -0.000106677 2.88363e-20
2.02913e-05 -0.000208991 5.40823e-20
9.19366e-06 0.000173976 -1.5349e-20
2.6524e-05 5.73292e-05 -1.09564e-20
2.82041e-05 -4.83115e-05 -1.05181e-19
-0.000100675 -5.19434e-05 -2.66612e-20
-9.80274e-05 5.55831e-05 1.53408e-20
-0.00017521 3.34585e-05 -4.23804e-20
-0.000172895 -2.98013e-05 -5.11502e-21
0.000173295 0.000121184 1.82792e-20
0.000235116 -0.00012897 3.14391e-20
6.42472e-05 4.34262e-05 6.14e-20
6.14178e-05 3.28447e-06 -1.11022e-19
9.39621e-05 5.62182e-05 2.3367e-20
3.53519e-06 9.81719e-05 1.09583e-21
6.22938e-06 -9.18631e-05 5.07448e-20
-0.000147354 0.000106762 2.95533e-20
9.38667e-05 -3.94173e-05 2.44576e-20
-1.07296e-05 -9.82292e-05 1.64278e-20
8.61175e-05 7.6353e-05 3.32251e-20
-6.44792e-05 5.68856e-07 -1.67987e-20
-6.14298e-05 7.14013e-07 9.86204e-21
8.16544e-05 -5.70291e-05 -2.40909e-20
-6.54714e-05 6.06338e-05 8.76601e-21
0.000102282 0.000177126 -3.72858e-20
-0.000116346 -0.00020152 5.04589e-20
-2.183e-05 -7.0219e-05 -7.30707e-22
-8.59558e-05 -5.08083e-05 1.46065e-21
-9.29857e-06 -0.000114139 -6.21003e-21
0.000138746 -0.000242094 1.1996e-19
0.000243328 -0.000112443 7.8392e-20
1.36362e-05 7.3363e-05 -1.60729e-20
1.56069e-05 -6.27592e-05 -1.03371e-19
-1.31063e-05 0.00011976 2.66685e-20
2.78784e-05 0.000109674 8.76477e-21
0.00011544 7.3004e-05 2.62816e-20
8.37859e-05 6.03683e-05 4.96873e-20
9.30972e-05 -2.86905e-05 -4.85758e-20
-0.000226238 1.15048e-08 -1.16946e-20
-0.000232377 2.71717e-08 -6.43381e-20
1.81141e-05 -5.41121e-05 2.15425e-20
-8.81951e-05 -5.26523e-05 -1.20471e-20
6.48074e-05 9.0845e-05 8.03682e-21
7.31472e-05 -7.92515e-05 -7.30775e-22
2.98013e-05 6.96043e-05 -1.82632e-21
1.50636e-05 2.12168e-05 2.55679e-21
0.000264957 -0.000265008 6.14183e-20
-7.6355e-05 2.44598e-05 -1.27841e-20
-7.32633e-05 -2.3284e-05 -2.92252e-21
-1.28189e-05 5.59781e-05 -1.71649e-20
0.000115495 -5.5644e-05 5.84082e-21
-8.39113e-05 4.62175e-05 -2.19116e-21
-0.000111702 -1.47279e-05 -3.76188e-20
-0.000108241 1.71281e-05 -7.307e-22
-6.53929e-05 3.35385e-05 1.02249e-20
2.68472e-05 0.000138948 -2.55762e-20
3.17772e-05 -0.000143153 -5.33445e-20
5.50629e-05 0.000225089 -2.04708e-20
-4.54871e-05 -0.000273398 7.16449e-20
-2.50931e-05 0.00049951 -1.4579e-20
-0.000480596 2.81602e-05 -2.05918e-20
7.10529e-05 4.92594e-05 3.21526e-20
6.96209e-05 -8.89791e-06 -6.57345e-20
-7.75877e-06 -1.87278e-05 -9.49391e-21
0.000259952 -0.000318377 7.5264e-20
0.000331288 -0.000254693 1.05151e-19
0.000110373 -0.000266457 1.54318e-19
9.45546e-05 0.000228077 -1.18471e-19
-7.79367e-05 5.12974e-05 -1.09549e-20
7.09828e-05 -7.52947e-05 -1.35067e-20
7.3616e-05 6.56524e-05 4.09149e-20
7.47955e-05 -3.81944e-05 -4.1265e-20
5.32314e-05 -5.17305e-05 -1.38734e-20
7.50211e-05 9.55076e-05 5.36784e-20
-2.92678e-06 -0.000224563 -8.78933e-20
1.02884e-05 0.000219626 -4.23104e-20
0.00023502 9.27844e-06 -8.75346e-21
6.17053e-05 7.62109e-05 3.76172e-20
2.64555e-05 0.000238851 -7.14724e-20
-0.000226412 -2.77083e-05 2.24249e-20
8.70106e-05 5.23441e-05 7.67372e-20
9.8645e-05 -1.50568e-05 -9.78867e-20
8.44634e-05 6.11631e-05 4.75015e-20
9.4252e-05 -3.00628e-05 -6.83061e-20
-0.000270812 0.000338524 -1.62193e-20
-0.00032939 0.000271329 3.31656e-20
7.90188e-05 6.95256e-05 4.2735e-20
7.96649e-05 -4.16503e-05 -2.0448e-20
4.15215e-05 0.000141001 1.0233e-20
-2.73051e-05 -0.000160444 5.33539e-20
7.00179e-05 2.53961e-05 6.43223e-20
7.13558e-05 3.16592e-05 -1.3515e-19
8.78657e-05 0.000105244 -1.38842e-20
0.000108094 -0.000101017 -1.68059e-20
-6.63377e-05 -1.61158e-05 -1.71633e-20
-6.12039e-05 1.78232e-05 -1.82608e-21
-0.000224147 5.32853e-06 -2.26565e-20
0.000105953 0.000176143 -3.65551e-21
8.19749e-05 0.000180018 -2.63143e-20
0.000123299 0.000141804 -2.26649e-20
0.00010055 -0.000194412 -2.55818e-20
0.000149477 -0.000149208 3.65563e-20
-0.000108703 -0.000203391 -1.82727e-20
-0.000230662 -4.06632e-06 -6.35875e-20
0.000107123 -4.44179e-05 5.77687e-20
0.000373817 -4.93402e-05 1.799e-19
0.000476098 6.25683e-05 3.65729e-21
0.000185133 7.66358e-05 -1.17701e-19
0.000164746 4.29196e-05 3.2903e-20
0.000123151 1.5398e-05 7.16434e-20
0.00016033 6.34245e-05 4.89911e-20
0.000237071 -2.18974e-06 -7.89429e-20
0.000222212 -7.13062e-05 1.06758e-19
0.000160605 4.84305e-05 -1.48348e-19
0.000128643 8.27017e-05 4.0935e-20
0.000133726 8.11314e-05 1.09661e-20
0.000169838 -6.49757e-05 -7.08879e-20
0.000171455 -6.45e-05 -4.02039e-20
TENSORS solid_stress_TPM float
76.2174 6.41165 1.29248e-11
6.41165 84.9996 1.0882e-11
1.29248e-11 1.0882e-11 76.4099

90.2002 4.26467 -3.48946e-11
4.26467 97.4295 7.79406e-12
-3.48946e-11 7.79406e-12 91.8616

89.5797 3.41958 -3.65193e-11
3.41958 96.5229 4.71845e-12
-3.65193e-11 4.71845e-12 91.3274

89.999 1.87434 -8.66492e-12
1.87434 74.5941 -1.534e-11
-8.66492e-12 -1.534e-11 80.7904

86.4666 0.743239 2.79254e-11
0.743239 71.9019 4.16197e-12
2.79254e-11 4.16197e-12 75.403

91.2802 4.0318 -1.77835e-11
4.0318 98.6114 -3.73528e-11
-1.77835e-11 -3.73528e-11 95.8588

90.6262 3.73807 -7.33978e-13
3.73807 98.0445 3.46552e-12
-7.33978e-13 3.46552e-12 95.3996

87.3811 -0.939141 4.40069e-11
-0.939141 72.9589 9.76434e-12
4.40069e-11 9.76434e-12 76.1798

100.685 0.153159 1.39615e-11
0.153159 82.1145 1.7904e-11
1.39615e-11 1.7904e-11 91.6281

60.4262 6.23075 3.77639e-12
6.23075 70.0437 -5.69207e-11
3.77639e-12 -5.69207e-11 58.1268

59.206 -6.6629 9.03189e-12
-6.6629 68.6574 -3.10143e-11
9.03189e-12 -3.10143e-11 56.333

69.7469 6.44752 -3.83311e-11
6.44752 62.8939 -1.53377e-11
-3.83311e-11 -1.53377e-11 58.7843

96.7851 -5.27377 1.43929e-11
-5.27377 101.357 -1.34768e-11
1.43929e-11 -1.34768e-11 98.3226

97.4352 -5.96849 3.67446e-11
-5.96849 102.621 -6.76274e-13
3.67446e-11 -6.76274e-13 99.0286

77.8809 6.06365 1.17241e-11
6.06365 88.2344 2.54216e-11
1.17241e-11 2.54216e-11 81.5371

84.2546 7.2599 2.40356e-12
7.2599 94.4906 -2.32975e-11
2.40356e-12 -2.32975e-11 89.4088

90.2832 -2.75898 3.2007e-11
-2.75898 97.6284 -1.22261e-11
3.2007e-11 -1.22261e-11 95.0562

90.715 -2.97892 1.55208e-11
-2.97892 98.0797 3.00343e-11
1.55208e-11 3.00343e-11 95.4162

95.0257 2.76721 -4.62208e-12
2.76721 85.9098 -2.45443e-11
-4.62208e-12 -2.45443e-11 88.701

66.7159 2.41068 8.06459e-12
2.41068 79.5401 3.65932e-11
8.06459e-12 3.65932e-11 65.4925

66.4989 -2.30549 4.26326e-11
-2.30549 79.4986 -4.23928e-12
4.26326e-11 -4.23928e-12 65.1236

79.4946 1.97756 -2.28203e-11
1.97756 70.5837 1.01134e-12
-2.28203e-11 1.01134e-12 66.7246

75.654 7.16227 1.27572e-11
7.16227 82.5591 -9.24312e-12
1.27572e-11 -9.24312e-12 75.437

80.1802 -3.66334 -3.51289e-12
-3.66334 68.4136 -1.21546e-11
-3.51289e-12 -1.21546e-11 70.0859

82.8349 6.57309 4.05332e-11
6.57309 85.05 -4.42683e-12
4.05332e-11 -4.42683e-12 81.1876

78.0437 7.15988 -2.43079e-11
7.15988 86.9964 4.07255e-11
-2.43079e-11 4.07255e-11 78.1264

91.4361 -1.55101 -1.75245e-11
-1.55101 75.0852 1.46471e-11
-1.75245e-11 1.46471e-11 81.8382

57.5714 5.54506 1.62818e-11
5.54506 68.1318 -4.72893e-11
1.62818e-11 -4.72893e-11 50.4685

97.7148 0.68956 -7.69755e-13
0.68956 79.8548 -1.83732e-11
-7.69755e-13 -1.83732e-11 89.2311

66.5855 5.55794 3.64816e-11
5.55794 59.7291 4.67105e-11
3.64816e-11 4.67105e-11 50.6768

99.6896 0.876287 -1.73617e-11
0.876287 102.968 -2.67619e-11
-1.73617e-11 -2.67619e-11 99.6802

99.6576 0.298844 -3.34489e-12
0.298844 102.801 8.47174e-12
-3.34489e-12 8.47174e-12 99.6258

111.541 3.12176 1.92516e-11
3.12176 105.771 2.98461e-12
1.92516e-11 2.98461e-12 106.086

111.618 -2.99463 -2.27143e-11
-2.99463 105.911 -2.07857e-11
-2.27143e-11 -2.07857e-11 106.067

77.1566 -2.32109 -2.60044e-11
-2.32109 64.89 1.40576e-11
-2.60044e-11 1.40576e-11 62.7496

83.3912 7.06577 -1.27101e-11
7.06577 88.7185 -2.87887e-11
-1.27101e-11 -2.87887e-11 85.1819

100.661 1.29898 2.69666e-12
1.29898 97.6383 2.08893e-11
2.69666e-12 2.08893e-11 98.3783

100.996 -1.18086 -3.35018e-11
-1.18086 98.1517 1.08763e-11
-3.35018e-11 1.08763e-11 98.8923

101.628 0.0162994 -1.69433e-11
0.0162994 81.2269 -1.39931e-11
-1.69433e-11 -1.39931e-11 91.8662

76.8621 7.75034 1.93493e-11
7.75034 86.3389 -2.01217e-11
1.93493e-11 -2.01217e-11 77.4036

81.55 -4.74324 -2.00751e-11
-4.74324 74.8602 -2.22874e-11
-2.00751e-11 -2.22874e-11 73.0896

99.767 -0.45675 2.69636e-12
-0.45675 78.9074 2.7241e-11
2.69636e-12 2.7241e-11 89.759

74.9968 -7.17722 -3.9968e-12
-7.17722 82.2854 -4.52601e-12
-3.9968e-12 -4.52601e-12 74.8018

76.2022 -6.14948 1.37669e-11
-6.14948 85.1028 1.26111e-11
1.37669e-11 1.26111e-11 76.3647

86.337 8.16367 4.95759e-12
8.16367 96.6278 -3.3693e-12
4.95759e-12 -3.3693e-12 90.9526

74.7363 -7.66072 8.52444e-12
-7.66072 71.8771 -7.18048e-12
8.52444e-12 -7.18048e-12 67.7869

22.4052 15.6492 3.143e-11
15.6492 33.1819 1.86313e-11
3.143e-11 1.86313e-11 17.2977

31.6357 15.4642 4.28398e-13
15.4642 23.2304 -6.05442e-13
4.28398e-13 -6.05442e-13 16.9675

89.0708 -7.29602 -3.99458e-12
-7.29602 98.1429 2.11808e-12
-3.99458e-12 2.11808e-12 94.5807

38.8238 6.56504 -2.31225e-11
6.56504 52.0273 1.41798e-11
-2.31225e-11 1.41798e-11 30.9188

49.804 5.88345 3.35616e-11
5.88345 40.2084 -2.42769e-14
3.35616e-11 -2.42769e-14 31.0138

102.634 -5.129 -2.72398e-11
-5.129 107.06 1.82896e-11
-2.72398e-11 1.82896e-11 104.36

102.609 5.10982 -3.02219e-11
5.10982 107.002 8.8526e-12
-3.02219e-11 8.8526e-12 104.361

101.441 0.148255 -1.63668e-11
0.148255 90.1067 -2.15971e-11
-1.63668e-11 -2.15971e-11 94.6775

102.648 -4.47103 -5.25553e-11
-4.47103 105.689 3.07087e-11
-5.25553e-11 3.07087e-11 104.535

102.631 4.4573 -2.35774e-11
4.4573 105.673 8.94906e-12
-2.35774e-11 8.94906e-12 104.547

79.7752 7.16036 -9.26503e-12
7.16036 90.6352 4.78728e-13
-9.26503e-12 4.78728e-13 83.2353

110.05 2.92574 2.36801e-11
2.92574 101.089 -4.03289e-11
2.36801e-11 -4.03289e-11 103.971

110.134 -2.90399 3.85088e-12
-2.90399 101.044 2.21401e-12
3.85088e-12 2.21401e-12 103.94

96.2773 -5.91825 5.08267e-11
-5.91825 99.3591 -1.05443e-11
5.08267e-11 -1.05443e-11 97.6021

96.2477 5.88225 2.80109e-11
5.88225 99.3562 -1.68158e-12
2.80109e-11 -1.68158e-12 97.6345

66.6864 -6.36189 -3.98247e-11
-6.36189 58.3227 1.28583e-11
-3.98247e-11 1.28583e-11 54.8277

102.263 2.85738 1.5796e-11
2.85738 109.699 2.312e-12
1.5796e-11 2.312e-12 104.221

101.752 2.25935 -6.55524e-12
2.25935 109.3 3.00327e-11
-6.55524e-12 3.00327e-11 103.801

77.0716 -7.89719 -9.59973e-13
-7.89719 86.7333 -2.91741e-11
-9.59973e-13 -2.91741e-11 77.7417

54.2024 -5.22844 1.78602e-11
-5.22844 66.8562 1.02108e-11
1.78602e-11 1.02108e-11 47.6885

65.1438 -5.18218 1.63768e-11
-5.18218 54.2028 -3.16221e-12
1.63768e-11 -3.16221e-12 46.9929

83.8974 6.2354 -3.3578e-12
6.2354 94.7566 -8.56974e-12
-3.3578e-12 -8.56974e-12 88.5814

82.8579 5.7972 8.59022e-12
5.7972 93.0775 -8.0882e-12
8.59022e-12 -8.0882e-12 87.6305

117.427 -8.64734 6.60267e-11
-8.64734 111.656 -5.63083e-11
6.60267e-11 -5.63083e-11 113.365

117.424 8.64489 -2.7328e-11
8.64489 111.671 -9.22982e-11
-2.7328e-11 -9.22982e-11 113.378

86.9538 8.83536 -2.86438e-13
8.83536 96.5281 2.01219e-11
-2.86438e-13 2.01219e-11 92.0786

95.8896 4.35147 1.7137e-11
4.35147 92.3968 2.93133e-11
1.7137e-11 2.93133e-11 93.7061

95.8532 -4.42764 4.43795e-11
-4.42764 92.151 -1.70408e-11
4.43795e-11 -1.70408e-11 93.483

86.264 8.4465 1.61757e-11
8.4465 94.0771 3.36967e-11
1.61757e-11 3.36967e-11 90.8259

90.3526 -7.71811 2.41464e-13
-7.71811 99.7713 -1.14574e-11
2.41464e-13 -1.14574e-11 95.5821

75.3414 -0.0875946 -2.44142e-11
-0.0875946 61.0503 4.1477e-11
-2.44142e-11 4.1477e-11 61.0396

81.0658 3.45174 -2.14267e-11
3.45174 68.1484 2.92684e-11
-2.14267e-11 2.92684e-11 69.2466

98.6858 1.40456 -1.08791e-11
1.40456 89.3143 3.56271e-12
-1.08791e-11 3.56271e-12 95.2066

108.282 -2.16425 -4.23306e-12
-2.16425 107.166 -4.19639e-11
-4.23306e-12 -4.19639e-11 106.19

108.304 1.86321 -1.5034e-10
1.86321 107.337 7.55557e-11
-1.5034e-10 7.55557e-11 106.278

69.5834 6.39257 1.21334e-11
6.39257 72.8191 -2.11389e-11
1.21334e-11 -2.11389e-11 63.1946

82.2397 -5.58002 -3.03266e-11
-5.58002 79.4811 -2.65224e-11
-3.03266e-11 -2.65224e-11 78.9012

95.6009 3.34919 1.18419e-11
3.34919 88.4876 2.22392e-11
1.18419e-11 2.22392e-11 89.4597

104.51 1.82595 -3.56254e-11
1.82595 109.676 1.09703e-11
-3.56254e-11 1.09703e-11 105.474

104.42 1.55513 -5.71209e-11
1.55513 109.59 3.65959e-12
-5.71209e-11 3.65959e-12 105.331

99.3177 -1.03046 -1.72304e-11
-1.03046 90.4631 4.04203e-12
-1.72304e-11 4.04203e-12 96.067

89.3967 -2.17958 3.70721e-11
-2.17958 96.6333 1.61724e-11
3.70721e-11 1.61724e-11 91.1995

89.7956 -2.967 3.38965e-11
-2.967 97.2863 1.69408e-11
3.38965e-11 1.69408e-11 91.5946

103.958 -2.05668 -2.06972e-11
-2.05668 94.2701 1.81451e-11
-2.06972e-11 1.81451e-11 99.3001

104.139 2.07979 4.29334e-11
2.07979 94.3348 2.26926e-11
4.29334e-11 2.26926e-11 99.5186

72.7643 -6.34449 -6.21133e-12
-6.34449 72.572 -1.56448e-11
-6.21133e-12 -1.56448e-11 64.1483

91.1892 0.395694 2.33028e-11
0.395694 81.3942 -1.22919e-11
2.33028e-11 -1.22919e-11 82.1434

104.711 -3.11863 -2.80598e-11
-3.11863 99.1012 -1.571e-11
-2.80598e-11 -1.571e-11 102.594

104.672 3.0893 -4.10069e-11
3.0893 99.1824 -5.0295e-11
-4.10069e-11 -5.0295e-11 102.668

95.5182 -3.47556 -3.15805e-11
-3.47556 88.6002 3.51887e-11
-3.15805e-11 3.51887e-11 89.3264

78.3975 -7.19147 -1.45375e-11
-7.19147 87.841 -9.91725e-12
-1.45375e-11 -9.91725e-12 78.6758

103.986 -2.31599 8.85588e-12
-2.31599 95.4579 -1.36918e-11
8.85588e-12 -1.36918e-11 99.072

104.156 2.33713 5.42927e-11
2.33713 95.5246 2.83247e-11
5.42927e-11 2.83247e-11 99.3089

92.0338 -1.51825 1.46357e-11
-1.51825 80.2248 -8.47411e-12
1.46357e-11 -8.47411e-12 84.5431

89.2461 10.0903 -1.91555e-11
10.0903 98.5576 -1.13629e-11
-1.91555e-11 -1.13629e-11 93.6273

79.9314 5.56288 -6.06774e-12
5.56288 77.4415 -3.39428e-11
-6.06774e-12 -3.39428e-11 73.393

87.0683 8.53718 -9.53504e-12
8.53718 97.3064 -3.21556e-11
-9.53504e-12 -3.21556e-11 92.6

88.7165 9.53261 1.15041e-11
9.53261 99.2612 1.50191e-11
1.15041e-11 1.50191e-11 93.7639

84.0325 4.12975 -1.92735e-12
4.12975 75.0091 5.75155e-12
-1.92735e-12 5.75155e-12 74.8283

89.9845 -3.41711 3.17749e-11
-3.41711 84.9554 -1.75702e-11
3.17749e-11 -1.75702e-11 87.9913

90.8372 1.86992 -1.54046e-11
1.86992 79.8963 -1.39533e-12
-1.54046e-11 -1.39533e-12 83.2237

72.8943 7.03734 -7.85002e-12
7.03734 74.7288 -2.87429e-11
-7.85002e-12 -2.87429e-11 69.4408

81.2094 5.71347 3.70674e-11
5.71347 78.9389 5.30687e-13
3.70674e-11 5.30687e-13 78.2315

81.44 0.494025 9.9637e-12
0.494025 92.0683 -6.4498e-12
9.9637e-12 -6.4498e-12 86.8111

81.5807 0.781967 1.10949e-11
0.781967 92.1588 5.10377e-12
1.10949e-11 5.10377e-12 86.8843

70.4647 -7.1758 1.18442e-11
-7.1758 64.7745 1.67451e-12
1.18442e-11 1.67451e-12 59.9926

86.3504 -8.5128 -2.64736e-11
-8.5128 94.239 7.89494e-12
-2.64736e-11 7.89494e-12 90.9743

75.0887 -8.41035 -1.52651e-11
-8.41035 80.819 4.97839e-11
-1.52651e-11 4.97839e-11 72.1802

74.932 8.61432 -3.80362e-12
8.61432 80.5223 1.4347e-11
-3.80362e-12 1.4347e-11 71.9892

90.0458 -3.13252 2.37838e-11
-3.13252 82.3658 -1.78169e-12
2.37838e-11 -1.78169e-12 84.0348

102.565 -0.467784 4.23631e-12
-0.467784 83.6765 1.52092e-11
4.23631e-12 1.52092e-11 94.7854

102.497 0.523315 1.82943e-11
0.523315 83.6882 2.71427e-11
1.82943e-11 2.71427e-11 94.5562

70.5788 4.56876 -6.45191e-12
4.56876 81.8619 7.03156e-12
-6.45191e-12 7.03156e-12 72.001

82.8284 -6.91381 1.63913e-12
-6.91381 84.8826 -2.61879e-11
1.63913e-12 -2.61879e-11 80.9714

59.3913 -0.154257 -3.40755e-11
-0.154257 75.789 4.33609e-12
-3.40755e-11 4.33609e-12 61.0238

59.1915 0.339562 9.71471e-12
0.339562 75.8081 3.32416e-12
9.71471e-12 3.32416e-12 60.7671

76.0195 -0.0557285 -2.01756e-11
-0.0557285 62.4015 3.71809e-11
-2.01756e-11 3.71809e-11 62.0328

72.6744 6.73681 -2.35489e-11
6.73681 72.8261 1.64149e-11
-2.35489e-11 1.64149e-11 64.0409

77.4661 -7.89995 -2.51303e-11
-7.89995 76.5501 8.66981e-12
-2.51303e-11 8.66981e-12 72.0895

106.08 -3.87332 1.14554e-10
-3.87332 114.478 -4.67953e-11
1.14554e-10 -4.67953e-11 107.592

106.183 -3.57219 8.44258e-11
-3.57219 114.529 3.69564e-11
8.44258e-11 3.69564e-11 107.679

84.9337 -4.04666 1.56953e-11
-4.04666 75.4656 -8.52241e-12
1.56953e-11 -8.52241e-12 75.628

84.5842 9.37484 -3.12576e-12
9.37484 94.857 2.7727e-11
-3.12576e-12 2.7727e-11 87.9503

101.418 -0.248267 -3.42733e-11
-0.248267 89.9854 2.64128e-11
-3.42733e-11 2.64128e-11 94.5197

70.5892 -4.49596 2.32507e-11
-4.49596 82.3541 2.7539e-11
2.32507e-11 2.7539e-11 72.1902

90.6076 8.39147 -2.28465e-12
8.39147 100.514 4.29342e-11
-2.28465e-12 4.29342e-11 96.1009

88.6877 7.89777 4.72041e-12
7.89777 98.6002 2.54174e-11
4.72041e-12 2.54174e-11 94.7687

89.4095 -10.0709 -3.94618e-12
-10.0709 98.6658 1.13585e-11
-3.94618e-12 1.13585e-11 93.7538

89.5831 9.71056 -5.79018e-13
9.71056 100.916 -6.16139e-12
-5.79018e-13 -6.16139e-12 95.0127

82.6519 8.19516 1.79555e-11
8.19516 92.2095 2.06057e-11
1.79555e-11 2.06057e-11 86.2626

110.252 0.0181574 -7.89265e-12
0.0181574 99.324 -1.76732e-11
-7.89265e-12 -1.76732e-11 105.782

77.3561 7.75267 -6.73979e-12
7.75267 75.6334 2.98958e-11
-6.73979e-12 2.98958e-11 71.4873

87.0672 -8.6103 -2.74294e-11
-8.6103 97.2492 -4.90005e-11
-2.74294e-11 -4.90005e-11 92.587

79.2002 6.77519 -7.41259e-12
6.77519 82.2841 1.78228e-12
-7.41259e-12 1.78228e-12 75.4312

67.2045 -5.84974 -5.67161e-11
-5.84974 71.2572 -1.70977e-11
-5.67161e-11 -1.70977e-11 60.8628

83.4486 -7.15907 1.35746e-11
-7.15907 89.1423 4.90992e-12
1.35746e-11 4.90992e-12 85.3379

69.0076 -4.08158 1.68869e-11
-4.08158 82.1708 2.01747e-11
1.68869e-11 2.01747e-11 67.8445

68.636 3.97881 -4.83203e-11
3.97881 81.7323 -3.33733e-11
-4.83203e-11 -3.33733e-11 67.5081

80.6569 -2.80322 1.14125e-11
-2.80322 72.3792 -7.84602e-12
1.14125e-11 -7.84602e-12 68.3402

79.1503 -6.96066 -3.17703e-11
-6.96066 82.2548 5.01095e-12
-3.17703e-11 5.01095e-12 75.2615

80.1888 1.07903 6.75044e-12
1.07903 90.9531 -2.6971e-12
6.75044e-12 -2.6971e-12 81.2959

80.1311 -0.0129338 1.45239e-11
-0.0129338 90.7827 -2.98471e-11
1.45239e-11 -2.98471e-11 81.236

64.8019 -8.03509 1.31459e-11
-8.03509 69.8641 -1.83012e-11
1.31459e-11 -1.83012e-11 59.2877

64.5277 8.13432 -1.05986e-11
8.13432 70.2624 -2.05143e-11
-1.05986e-11 -2.05143e-11 59.6969

109.053 -0.718083 3.19584e-11
-0.718083 96.6356 5.00533e-12
3.19584e-11 5.00533e-12 103.975

109.123 0.752608 -2.32951e-11
0.752608 96.6761 9.84257e-12
-2.32951e-11 9.84257e-12 104.058

86.3299 8.83717 2.83035e-11
8.83717 95.8612 1.26172e-11
2.83035e-11 1.26172e-11 89.5823

88.6237 -8.0367 7.07797e-12
-8.0367 98.7688 -2.02179e-11
7.07797e-12 -2.02179e-11 94.6128

86.6721 5.85325 3.52308e-11
5.85325 89.7571 -4.20659e-11
3.52308e-11 -4.20659e-11 88.274

66.8882 6.48237 -1.03044e-11
6.48237 58.439 -1.43507e-11
-1.03044e-11 -1.43507e-11 52.8638

71.7425 5.54521 -6.85866e-12
5.54521 84.6485 3.3895e-11
-6.85866e-12 3.3895e-11 73.5172

101.841 3.8762 -4.30285e-11
3.8762 101.388 -1.63144e-11
-4.30285e-11 -1.63144e-11 101.645

101.877 -3.90422 -8.46967e-12
-3.90422 101.416 -2.21377e-11
-8.46967e-12 -2.21377e-11 101.623

96.4273 -5.28529 5.41056e-11
-5.28529 95.3902 -2.57056e-11
5.41056e-11 -2.57056e-11 94.141

96.3751 5.2438 1.24178e-11
5.2438 95.376 4.91281e-12
1.24178e-11 4.91281e-12 94.1769

42.3455 1.7319 3.11432e-11
1.7319 63.1522 4.53267e-12
3.11432e-11 4.53267e-12 33.7049

60.8419 1.79267 1.41623e-11
1.79267 44.3196 -9.5004e-12
1.41623e-11 -9.5004e-12 33.66

71.582 -5.26135 9.94268e-12
-5.26135 84.9525 -2.97556e-11
9.94268e-12 -2.97556e-11 73.7868

110.537 -4.20192 -2.25215e-11
-4.20192 111.648 -1.49137e-11
-2.25215e-11 -1.49137e-11 110.614

110.509 4.21558 2.36747e-11
4.21558 111.64 3.0894e-11
2.36747e-11 3.0894e-11 110.616

88.3303 6.44548 -2.40667e-11
6.44548 88.6139 -7.23273e-13
-2.40667e-11 -7.23273e-13 85.3389

69.0947 3.5318 -1.10969e-11
3.5318 55.2524 1.87547e-11
-1.10969e-11 1.87547e-11 52.4783

91.2179 -0.672661 4.04376e-11
-0.672661 81.4591 -1.39147e-11
4.04376e-11 -1.39147e-11 82.1696

82.8935 -4.62504 -2.26828e-11
-4.62504 92.9579 -3.94751e-12
-2.26828e-11 -3.94751e-12 87.6461

84.0053 -5.06008 -8.4594e-12
-5.06008 94.1572 9.91636e-12
-8.4594e-12 9.91636e-12 88.5355

72.6436 -7.65571 -4.01899e-11
-7.65571 75.4632 -8.32419e-11
-4.01899e-11 -8.32419e-11 68.7493

89.661 -9.75163 -3.56359e-12
-9.75163 101.084 1.36699e-11
-3.56359e-12 1.36699e-11 95.1224

88.3144 -6.51497 2.84948e-11
-6.51497 88.6981 1.28955e-11
2.84948e-11 1.28955e-11 85.2439

85.6994 9.3391 -1.89653e-11
9.3391 96.3972 -8.85814e-12
-1.89653e-11 -8.85814e-12 91.8885

97.259 6.75067 2.41725e-11
6.75067 102.695 1.59824e-11
2.41725e-11 1.59824e-11 99.2151

96.5865 6.13104 -2.61666e-11
6.13104 101.154 1.4535e-11
-2.61666e-11 1.4535e-11 98.4273

86.4143 -8.87599 -2.07086e-12
-8.87599 96.1885 6.25973e-12
-2.07086e-12 6.25973e-12 89.825

84.2586 8.01104 -1.69405e-11
8.01104 92.7748 4.48652e-11
-1.69405e-11 4.48652e-11 87.451

77.6828 5.5475 -1.43003e-11
5.5475 69.275 -1.55519e-11
-1.43003e-11 -1.55519e-11 68.2228

88.6926 10.2784 -1.54488e-11
10.2784 99.4945 7.21848e-12
-1.54488e-11 7.21848e-12 94.1361

78.0362 -6.28249 4.3554e-12
-6.28249 88.7422 6.16129e-12
4.3554e-12 6.16129e-12 81.8555

74.1114 2.44701 -4.5106e-11
2.44701 86.9962 -2.89842e-13
-4.5106e-11 -2.89842e-13 77.6204

89.0224 7.46587 1.93478e-11
7.46587 92.3034 -4.79024e-13
1.93478e-11 -4.79024e-13 89.3887

75.5168 3.14424 -2.23356e-11
3.14424 87.929 -1.05797e-12
-2.23356e-11 -1.05797e-12 78.5816

90.6506 -8.72246 8.61463e-12
-8.72246 100.747 -5.20043e-12
8.61463e-12 -5.20043e-12 95.9586

48.2316 -7.49715 -5.39998e-12
-7.49715 49.0613 -6.81242e-11
-5.39998e-12 -6.81242e-11 37.4266

48.4547 -7.57915 3.08743e-11
-7.57915 48.4954 9.86914e-13
3.08743e-11 9.86914e-13 37.2755

89.0222 -7.51023 3.72588e-11
-7.51023 92.3085 -5.30131e-12
3.72588e-11 -5.30131e-12 89.3485

94.8724 -2.83984 -3.89921e-11
-2.83984 85.8392 1.2726e-11
-3.89921e-11 1.2726e-11 88.5348

117.878 8.90064 3.65711e-11
8.90064 113.871 5.96727e-11
3.65711e-11 5.96727e-11 113.915

117.881 -8.90144 3.6185e-11
-8.90144 113.874 8.13156e-11
3.6185e-11 8.13156e-11 113.906

84.8863 -9.31751 2.60368e-11
-9.31751 95.3569 2.24271e-11
2.60368e-11 2.24271e-11 88.47

100.996 1.95792 4.42624e-12
1.95792 102.668 -4.23598e-12
4.42624e-12 -4.23598e-12 101.904

101.123 -1.80003 -2.29075e-11
-1.80003 102.794 -2.31012e-11
-2.29075e-11 -2.31012e-11 101.95

96.2644 0.123291 7.79791e-12
0.123291 77.6719 -2.86812e-11
7.79791e-12 -2.86812e-11 85.6456

85.65 -9.38429 9.43375e-12
-9.38429 96.5176 -4.81526e-12
9.43375e-12 -4.81526e-12 91.8502

53.1416 9.13587 4.70258e-11
9.13587 53.9453 1.96773e-11
4.70258e-11 1.96773e-11 43.6237

52.2026 8.65288 -2.01652e-11
8.65288 53.9383 1.1844e-11
-2.01652e-11 1.1844e-11 43.6583

56.3323 -6.50125 -9.89786e-12
-6.50125 68.2872 2.74992e-11
-9.89786e-12 2.74992e-11 51.0987

57.4665 6.81694 3.32863e-11
6.81694 69.3085 2.9383e-11
3.32863e-11 2.9383e-11 52.2012

67.485 -5.40843 1.02588e-11
-5.40843 58.5818 7.96933e-12
1.02588e-11 7.96933e-12 51.4405

88.7302 -10.3227 -2.08864e-11
-10.3227 99.7997 -2.88784e-11
-2.08864e-11 -2.88784e-11 94.2179

44.5762 2.39546 3.51765e-11
2.39546 62.8952 -1.35826e-11
3.51765e-11 -1.35826e-11 43.8188

62.0129 3.05897 -4.79231e-12
3.05897 47.4776 -1.4374e-11
-4.79231e-12 -1.4374e-11 44.4769

100.118 -3.18732 -1.18615e-11
-3.18732 105.364 -4.60102e-11
-1.18615e-11 -4.60102e-11 101.913

100.763 -3.85864 6.14842e-13
-3.85864 105.86 1.40518e-11
6.14842e-13 1.40518e-11 102.363

97.742 1.21696 5.97078e-12
1.21696 87.7838 4.04447e-12
5.97078e-12 4.04447e-12 91.2824

101.345 0.0753257 -4.02446e-11
0.0753257 79.4734 -2.04734e-13
-4.02446e-11 -2.04734e-13 91.4878

66.6809 -5.89877 3.85099e-12
-5.89877 77.1924 5.87708e-12
3.85099e-12 5.87708e-12 65.3516

66.2997 5.76914 7.21941e-12
5.76914 76.8994 -7.02999e-11
7.21941e-12 -7.02999e-11 65.0901

96.3492 -0.000449965 2.7911e-12
-0.000449965 77.5205 1.71876e-11
2.7911e-12 1.71876e-11 85.9124

80.0561 -7.1204 3.31964e-12
-7.1204 91.1961 2.18575e-11
3.31964e-12 2.18575e-11 83.7376

108.927 -3.05656 -3.72539e-11
-3.05656 108.239 1.33811e-11
-3.72539e-11 1.33811e-11 108.217

108.862 3.05046 1.07792e-11
3.05046 108.209 -1.05403e-11
1.07792e-11 -1.05403e-11 108.212

90.9614 4.20143 -1.69445e-11
4.20143 91.7001 -9.1472e-12
-1.69445e-11 -9.1472e-12 90.127

84.0114 -7.97562 -1.27995e-11
-7.97562 92.7502 -1.60763e-11
-1.27995e-11 -1.60763e-11 87.3486

95.7026 1.21471 -7.60636e-12
1.21471 80.3978 -4.33187e-12
-7.60636e-12 -4.33187e-12 88.1408

67.9631 6.65841 -1.50247e-11
6.65841 66.7245 -1.10978e-12
-1.50247e-11 -1.10978e-12 60.3156

82.7354 -8.19165 2.26256e-11
-8.19165 92.263 -2.19523e-11
2.26256e-11 -2.19523e-11 86.3578

24.8457 -14.3969 -4.67037e-11
-14.3969 25.3583 1.8785e-11
-4.67037e-11 1.8785e-11 14.0472

74.5054 -1.96313 2.50569e-11
-1.96313 86.7299 2.69399e-12
2.50569e-11 2.69399e-12 77.672

75.6215 -2.68934 1.11682e-11
-2.68934 87.4635 -7.9939e-12
1.11682e-11 -7.9939e-12 78.4022

100.953 -0.635022 -1.6393e-11
-0.635022 104.738 3.21494e-11
-1.6393e-11 3.21494e-11 102.43

101.065 -0.364861 -3.98127e-12
-0.364861 104.674 4.71658e-11
-3.98127e-12 4.71658e-11 102.453

111.257 -2.23513 3.11866e-11
-2.23513 101.939 2.38678e-11
3.11866e-11 2.38678e-11 107.805

111.252 2.23889 -1.50151e-11
2.23889 101.975 1.37628e-11
-1.50151e-11 1.37628e-11 107.866

93.008 -4.3969 8.85455e-12
-4.3969 94.0007 7.69984e-12
8.85455e-12 7.69984e-12 94.5343

92.7556 4.53682 -3.37153e-12
4.53682 93.0131 -2.50407e-12
-3.37153e-12 -2.50407e-12 93.8965

100.037 -3.90018 -1.36665e-11
-3.90018 104.29 -1.15508e-11
-1.36665e-11 -1.15508e-11 101.451

99.9328 4.05964 2.19435e-11
4.05964 104.237 -1.70381e-11
2.19435e-11 -1.70381e-11 101.403

113.502 6.06814 3.38751e-11
6.06814 113.026 3.85081e-12
3.38751e-11 3.85081e-12 111.996

113.507 -6.05913 -5.48651e-11
-6.05913 113.031 6.16032e-11
-5.48651e-11 6.16032e-11 111.987

93.6947 -10.0051 2.31178e-12
-10.0051 102.537 -8.76067e-12
2.31178e-12 -8.76067e-12 98.3901

93.7311 10.0396 3.34028e-11
10.0396 102.443 6.45535e-12
3.34028e-11 6.45535e-12 98.4122

87.7667 5.98421 -3.60079e-11
5.98421 84.9727 1.11631e-11
-3.60079e-11 1.11631e-11 83.7989

81.6714 -4.71406 1.85104e-12
-4.71406 91.0356 2.93647e-11
1.85104e-12 2.93647e-11 83.5089

82.6517 -5.88623 -6.2359e-12
-5.88623 92.9094 3.19651e-11
-6.2359e-12 3.19651e-11 84.6695

69.5049 -5.95283 -1.12198e-11
-5.95283 67.8169 1.2513e-12
-1.12198e-11 1.2513e-12 59.9708

87.7087 -5.97477 2.66667e-11
-5.97477 85.1322 5.12615e-11
2.66667e-11 5.12615e-11 83.7302

81.4184 4.44858 1.23453e-11
4.44858 90.6107 -2.21393e-12
1.23453e-11 -2.21393e-12 83.1892

82.9762 8.37677 -3.47562e-11
8.37677 86.1761 -1.15576e-11
-3.47562e-11 -1.15576e-11 81.2898

89.4814 -8.66565 5.49005e-12
-8.66565 98.0911 -4.56318e-11
5.49005e-12 -4.56318e-11 95.1014

89.6207 8.50647 -4.7266e-11
8.50647 98.1185 -3.14826e-11
-4.7266e-11 -3.14826e-11 95.1931

82.7961 -8.5022 1.32839e-11
-8.5022 86.0679 -1.29966e-11
1.32839e-11 -1.29966e-11 81.1114

98.6748 -0.848176 -8.56863e-12
-0.848176 88.9039 4.04306e-12
-8.56863e-12 4.04306e-12 92.5602

106.572 2.40223 -1.64072e-11
2.40223 110.697 -3.15712e-11
-1.64072e-11 -3.15712e-11 106.853

106.826 2.11032 -4.32043e-11
2.11032 110.627 -1.13586e-11
-4.32043e-11 -1.13586e-11 106.965

89.388 -7.46308 1.98309e-11
-7.46308 98.1681 -1.73319e-11
1.98309e-11 -1.73319e-11 92.4239

88.6553 3.65804 -1.76178e-11
3.65804 83.9049 -9.64488e-13
-1.76178e-11 -9.64488e-13 86.6638

105.185 -0.895301 4.21635e-11
-0.895301 92.673 -3.20029e-11
4.21635e-11 -3.20029e-11 98.6799

51.7669 -8.03864 -2.51118e-11
-8.03864 53.0028 -3.636e-11
-2.51118e-11 -3.636e-11 40.8926

52.1806 -7.85128 -9.8271e-12
-7.85128 53.2578 1.01166e-11
-9.8271e-12 1.01166e-11 41.2335

110.718 -2.52442 2.90702e-11
-2.52442 101.155 -1.17916e-11
2.90702e-11 -1.17916e-11 107.005

110.624 2.56651 3.65768e-11
2.56651 101.176 -3.79903e-11
3.65768e-11 -3.79903e-11 107.029

105.449 0.736399 3.75492e-12
0.736399 93.1474 1.3329e-11
3.75492e-12 1.3329e-11 98.9888

82.6408 5.84372 -4.16828e-11
5.84372 92.5751 4.03958e-12
-4.16828e-11 4.03958e-12 84.5113

85.8468 4.60943 -1.63454e-12
4.60943 80.9011 2.50331e-11
-1.63454e-12 2.50331e-11 77.862

96.3921 -6.65986 1.7323e-11
-6.65986 101.026 5.05344e-11
1.7323e-11 5.05344e-11 97.7469

96.3613 6.6082 5.75096e-13
6.6082 101.016 3.27216e-12
5.75096e-13 3.27216e-12 97.7681

110.633 -1.20638 1.25139e-11
-1.20638 104.177 4.27607e-11
1.25139e-11 4.27607e-11 106.336

110.825 1.21964 -8.08598e-12
1.21964 105.145 3.69079e-11
-8.08598e-12 3.69079e-11 106.682

85.9448 -8.55272 2.02334e-12
-8.55272 96.6111 -2.75343e-11
2.02334e-12 -2.75343e-11 91.0183

89.4152 3.67296 -1.36714e-11
3.67296 82.0799 5.48924e-12
-1.36714e-11 5.48924e-12 82.9422

105.541 2.55277 -2.94541e-11
2.55277 102.394 7.26456e-12
-2.94541e-11 7.26456e-12 103.663

105.606 -2.56587 -4.2257e-11
-2.56587 102.394 -4.12392e-11
-4.2257e-11 -4.12392e-11 103.644

88.1379 -6.63715 8.71316e-12
-6.63715 96.2082 -2.05066e-11
8.71316e-12 -2.05066e-11 91.2601

86.344 -9.12569 2.34421e-11
-9.12569 96.5279 -1.61757e-11
2.34421e-11 -1.61757e-11 91.8295

25.696 -14.9277 2.04281e-14
-14.9277 26.4909 4.23957e-12
2.04281e-14 4.23957e-12 14.8286

92.949 6.22354 -5.46744e-11
6.22354 101.673 -1.72356e-11
-5.46744e-11 -1.72356e-11 97.6611

92.9077 -6.31737 3.7443e-11
-6.31737 101.768 9.14847e-14
3.7443e-11 9.14847e-14 97.7038

83.8355 -7.90727 3.20582e-11
-7.90727 94.3667 -1.42522e-11
3.20582e-11 -1.42522e-11 89.3869

86.8352 -4.9733 2.58045e-11
-4.9733 81.4003 4.14935e-11
2.58045e-11 4.14935e-11 78.6087

92.1239 -3.96415 2.67653e-11
-3.96415 92.3747 -8.28108e-12
2.67653e-11 -8.28108e-12 91.0288

92.9752 5.38944 -1.34735e-11
5.38944 97.385 2.55104e-11
-1.34735e-11 2.55104e-11 95.4302

92.925 -5.59331 8.61385e-13
-5.59331 97.6247 4.17771e-11
8.61385e-13 4.17771e-11 95.5254

96.4069 -0.809813 -1.27086e-11
-0.809813 80.8911 6.93153e-12
-1.27086e-11 6.93153e-12 89.2022

111.704 1.98531 2.73347e-11
1.98531 106.384 1.23206e-11
2.73347e-11 1.23206e-11 109.558

111.825 -1.96597 2.36771e-11
-1.96597 106.395 -3.08005e-12
2.36771e-11 -3.08005e-12 109.585

106.308 0.873602 1.9718e-11
0.873602 115.932 -2.17532e-11
1.9718e-11 -2.17532e-11 107.38

106.447 0.581432 6.39287e-11
0.581432 115.958 -3.0032e-11
6.39287e-11 -3.0032e-11 107.443

40.5275 0.627238 8.94425e-12
0.627238 62.5386 1.71714e-13
8.94425e-12 1.71714e-13 32.8796

59.6237 0.557879 -8.62717e-13
0.557879 40.6725 2.80824e-11
-8.62717e-13 2.80824e-11 32.3194

92.2326 -8.54739 -3.13764e-11
-8.54739 101.36 -1.8484e-11
-3.13764e-11 -1.8484e-11 95.8763

92.2443 8.52309 -2.26213e-11
8.52309 101.317 -3.052e-11
-2.26213e-11 -3.052e-11 95.8965

88.0863 -9.72507 -1.14532e-11
-9.72507 99.3426 -2.3874e-11
-1.14532e-11 -2.3874e-11 93.5387

34.8312 -7.01538 -1.87873e-11
-7.01538 51.0398 -4.16425e-11
-1.87873e-11 -4.16425e-11 27.9893

49.7587 -6.70609 1.45863e-11
-6.70609 36.585 3.64121e-11
1.45863e-11 3.64121e-11 28.2923

111.681 -8.93203 -5.15693e-11
-8.93203 118.611 -1.21259e-10
-5.15693e-11 -1.21259e-10 114.299

111.672 8.93054 -1.57592e-11
8.93054 118.613 2.05286e-10
-1.57592e-11 2.05286e-10 114.306

86.8897 -5.90489 4.52705e-12
-5.90489 89.9893 -4.62304e-12
4.52705e-12 -4.62304e-12 88.6128

83.3456 -8.2074 -3.87956e-11
-8.2074 89.0536 -4.67904e-11
-3.87956e-11 -4.67904e-11 83.0688

91.3164 -8.63981 -7.70107e-11
-8.63981 97.8318 3.93823e-11
-7.70107e-11 3.93823e-11 94.1443

91.2987 8.60615 -2.00232e-11
8.60615 97.794 1.61707e-11
-2.00232e-11 1.61707e-11 94.1548

85.3085 -9.26983 -2.45399e-11
-9.26983 93.3713 -5.72826e-11
-2.45399e-11 -5.72826e-11 87.5743

83.3245 8.20991 -4.68855e-11
8.20991 88.7844 -2.1477e-11
-4.68855e-11 -2.1477e-11 82.9808

55.5918 -2.66201 -1.52157e-11
-2.66201 70.9375 2.40874e-12
-1.52157e-11 2.40874e-12 52.08

54.7858 3.22347 8.66814e-12
3.22347 69.8537 5.18684e-11
8.66814e-12 5.18684e-11 51.8162

69.7172 -2.02828 4.24105e-12
-2.02828 58.7853 1.83698e-11
4.24105e-12 1.83698e-11 52.7602

85.283 9.22189 1.64639e-11
9.22189 93.226 3.86084e-11
1.64639e-11 3.86084e-11 87.4798

43.873 -1.65571 -1.2194e-13
-1.65571 63.1477 3.34722e-11
-1.2194e-13 3.34722e-11 43.1679

61.3394 -1.60344 -5.82467e-12
-1.60344 44.2626 1.90988e-11
-5.82467e-12 1.90988e-11 42.6071

95.9105 -8.44064 7.79701e-11
-8.44064 102.574 -5.27653e-11
7.79701e-11 -5.27653e-11 99.1824

95.9481 8.39205 6.54425e-12
8.39205 102.553 -1.44367e-11
6.54425e-12 -1.44367e-11 99.2183

97.2105 -7.34799 9.09554e-11
-7.34799 104.328 6.23627e-11
9.09554e-11 6.23627e-11 100.617

97.2184 7.31901 -2.97442e-11
7.31901 104.284 -1.54393e-12
-2.97442e-11 -1.54393e-12 100.633

33.1681 -7.05421 -2.51076e-11
-7.05421 49.0149 -3.6828e-11
-2.51076e-11 -3.6828e-11 25.9427

47.6107 -6.5248 -8.97652e-13
-6.5248 33.6142 4.19951e-11
-8.97652e-13 4.19951e-11 25.6687

89.8778 7.79095 1.15533e-11
7.79095 95.6515 4.35157e-11
1.15533e-11 4.35157e-11 90.9559

89.912 -7.8538 1.96465e-11
-7.8538 95.7582 -3.16767e-11
1.96465e-11 -3.16767e-11 90.961

102.954 -1.25587 2.82344e-11
-1.25587 105.975 2.11823e-12
2.82344e-11 2.11823e-12 103.533

103.12 -1.66814 4.43728e-11
-1.66814 106.286 -3.90827e-11
4.43728e-11 -3.90827e-11 103.712

95.9323 -8.47394 7.69836e-12
-8.47394 106.354 2.38703e-11
7.69836e-12 2.38703e-11 101.092

95.9129 8.51281 6.35551e-12
8.51281 106.29 2.06024e-11
6.35551e-12 2.06024e-11 101.103

107.835 -3.33713 -1.16454e-11
-3.33713 104.181 4.14124e-12
-1.16454e-11 4.14124e-12 106.953

107.779 3.33802 -7.60177e-12
3.33802 104.197 1.38073e-11
-7.60177e-12 1.38073e-11 106.959

88.9171 7.01436 6.25713e-11
7.01436 95.8243 2.19554e-11
6.25713e-11 2.19554e-11 92.2443

88.9136 -6.98529 -2.33931e-11
-6.98529 96.1479 1.52123e-11
-2.33931e-11 1.52123e-11 92.3754

102.322 -2.62232 -8.06325e-12
-2.62232 112.642 2.69462e-12
-8.06325e-12 2.69462e-12 105.25

114.597 -4.78912 -3.84211e-13
-4.78912 112.173 3.07946e-12
-3.84211e-13 3.07946e-12 113.067

114.083 -4.92644 -4.42707e-11
-4.92644 112.167 4.62948e-11
-4.42707e-11 4.62948e-11 112.965

114.52 4.81568 2.11764e-12
4.81568 112.161 -8.85325e-12
2.11764e-12 -8.85325e-12 113.047

114.061 4.93825 6.92942e-12
4.93825 112.161 2.07886e-11
6.92942e-12 2.07886e-11 112.967

101.77 -2.03516 1.14304e-11
-2.03516 112.431 5.39124e-12
1.14304e-11 5.39124e-12 104.887

106.27 -5.36592 6.16396e-12
-5.36592 106.068 -2.02124e-11
6.16396e-12 -2.02124e-11 104.479

106.041 5.54983 -9.43268e-12
5.54983 106.158 4.04406e-12
-9.43268e-12 4.04406e-12 104.528

110.453 -6.96934 -3.05889e-12
-6.96934 114.323 -6.80473e-11
-3.05889e-12 -6.80473e-11 110.439

131.979 -5.19908 4.36572e-10
-5.19908 113.655 -1.28734e-10
4.36572e-10 -1.28734e-10 116.429

131.98 5.19528 -6.25641e-11
5.19528 113.672 -9.55409e-12
-6.25641e-11 -9.55409e-12 116.443

110.436 6.97279 1.13984e-10
6.97279 114.314 2.22348e-10
1.13984e-10 2.22348e-10 110.448

111.64 -7.39319 -1.08712e-11
-7.39319 111.381 -5.36066e-11
-1.08712e-11 -5.36066e-11 109.458

103.854 -5.96481 -7.79821e-12
-5.96481 109.769 -5.10046e-12
-7.79821e-12 -5.10046e-12 105.748

113.367 -5.7015 2.07941e-11
-5.7015 113.351 -1.41766e-10
2.07941e-11 -1.41766e-10 112.017

111.628 7.39683 -2.14634e-11
7.39683 111.349 -3.14751e-11
-2.14634e-11 -3.14751e-11 109.464

113.362 5.70637 -9.24831e-12
5.70637 113.356 -1.43214e-10
-9.24831e-12 -1.43214e-10 112.029

103.851 5.96319 1.06857e-11
5.96319 109.726 -8.64272e-13
1.06857e-11 -8.64272e-13 105.755

104.139 -6.15297 -2.80056e-11
-6.15297 109.954 -1.57821e-11
-2.80056e-11 -1.57821e-11 106.807

110.372 -5.01315 -2.07906e-11
-5.01315 112.263 1.05912e-11
-2.07906e-11 1.05912e-11 110.352

104.138 6.1487 3.35909e-11
6.1487 109.921 5.01524e-11
3.35909e-11 5.01524e-11 106.815

110.344 5.00603 4.50431e-11
5.00603 112.228 4.52378e-11
4.50431e-11 4.52378e-11 110.351

88.9455 4.02644 5.36608e-15
4.02644 93.9942 1.03978e-11
5.36608e-15 1.03978e-11 90.9301

83.8008 -1.16296 9.62274e-12
-1.16296 96.121 5.77405e-12
9.62274e-12 5.77405e-12 90.5973

86.4171 -1.29744 -5.58265e-12
-1.29744 74.6217 -6.53592e-12
-5.58265e-12 -6.53592e-12 81.6812

83.0648 0.0411962 2.44489e-11
0.0411962 71.8369 -2.17595e-11
2.44489e-11 -2.17595e-11 77.0324

90.174 4.03724 9.23898e-12
4.03724 96.1368 -5.004e-12
9.23898e-12 -5.004e-12 94.997

85.898 -1.75743 1.28992e-11
-1.75743 102.523 -3.9282e-11
1.28992e-11 -3.9282e-11 95.5065

83.1676 2.26869 1.32858e-11
2.26869 71.9905 1.90633e-11
1.32858e-11 1.90633e-11 77.3562

94.3658 2.88766 6.35492e-12
2.88766 82.8096 -3.19604e-11
6.35492e-12 -3.19604e-11 91.3706

59.3625 5.75493 1.31023e-11
5.75493 67.4707 1.11685e-11
1.31023e-11 1.11685e-11 62.0909

59.754 5.57652 -3.66551e-12
5.57652 67.5957 -3.64017e-11
-3.66551e-12 -3.64017e-11 61.4938

66.1872 5.01802 -6.00974e-11
5.01802 58.8622 1.27099e-11
-6.00974e-11 1.27099e-11 60.5563

95.684 2.53184 -3.3303e-11
2.53184 102.324 -1.9252e-12
-3.3303e-11 -1.9252e-12 98.3956

96.4296 -4.8821 -4.36984e-11
-4.8821 99.1879 8.0859e-12
-4.36984e-11 8.0859e-12 97.8831

83.1138 -6.21875 -3.62019e-11
-6.21875 84.847 2.81082e-11
-3.62019e-11 2.81082e-11 83.4433

85.6293 2.10965 -3.61918e-11
2.10965 102.568 2.3491e-11
-3.61918e-11 2.3491e-11 95.2164

89.695 -2.3356 -1.29012e-11
-2.3356 95.4379 -3.46893e-12
-1.29012e-11 -3.46893e-12 94.568

89.5558 1.60831 2.2436e-11
1.60831 75.6746 2.27178e-11
2.2436e-11 2.27178e-11 82.7821

64.3243 2.65319 -7.12615e-12
2.65319 75.5508 2.61885e-11
-7.12615e-12 2.61885e-11 67.6018

65.9389 2.02083 -3.94492e-12
2.02083 74.6141 -7.89842e-12
-3.94492e-12 -7.89842e-12 67.3923

74.1332 1.5512 3.94677e-12
1.5512 64.5602 -2.40703e-11
3.94677e-12 -2.40703e-11 66.2733

75.4482 6.20215 -4.13721e-12
6.20215 82.5183 3.8323e-11
-4.13721e-12 3.8323e-11 77.1476

73.2363 -3.72103 7.70066e-12
-3.72103 82.4513 4.35201e-11
7.70066e-12 4.35201e-11 77.3343

87.2205 3.5771 9.42979e-12
3.5771 74.6584 4.81953e-12
9.42979e-12 4.81953e-12 82.3818

56.1888 4.20679 -1.57923e-11
4.20679 62.2859 -5.66288e-11
-1.57923e-11 -5.66288e-11 56.4293

93.5182 -1.60258 -8.8581e-12
-1.60258 78.9829 -1.69413e-11
-8.8581e-12 -1.69413e-11 89.2709

99.0482 1.08223 2.54115e-11
1.08223 100.365 -2.60889e-11
2.54115e-11 -2.60889e-11 98.9895

96.4142 -0.286536 -6.16219e-12
-0.286536 105.371 -3.92731e-11
-6.16219e-12 -3.92731e-11 99.3543

120.437 6.26738 2.96375e-11
6.26738 109.551 -2.54098e-11
2.96375e-11 -2.54098e-11 108.09

119.064 -2.80944 5.38917e-12
-2.80944 103.764 1.21264e-11
5.38917e-12 1.21264e-11 107.267

80.4291 -7.10523 -3.04251e-11
-7.10523 83.7456 -6.15952e-12
-3.04251e-11 -6.15952e-12 81.984

73.6947 -5.98687 -1.3484e-11
-5.98687 80.9313 2.31178e-12
-1.3484e-11 2.31178e-12 76.1049

72.8014 -0.0700262 1.7141e-11
-0.0700262 62.0339 -7.69114e-12
1.7141e-11 -7.69114e-12 65.476

104.138 3.8835 2.92661e-11
3.8835 97.1634 -2.07899e-11
2.92661e-11 -2.07899e-11 99.3523

102.542 -1.06698 -8.86054e-12
-1.06698 95.5409 1.32842e-11
-8.86054e-12 1.32842e-11 98.711

94.0815 -0.630064 2.34927e-11
-0.630064 79.5521 -3.34989e-11
2.34927e-11 -3.34989e-11 91.044

72.255 -4.54812 -4.20723e-11
-4.54812 79.6474 -6.92972e-12
-4.20723e-11 -6.92972e-12 76.0484

92.5308 0.884852 1.26139e-11
0.884852 77.2424 3.7541e-11
1.26139e-11 3.7541e-11 89.0622

78.277 -4.46803 3.6983e-11
-4.46803 73.4223 -1.61767e-11
3.6983e-11 -1.61767e-11 73.868

73.8595 6.57335 1.11754e-11
6.57335 78.2835 4.0057e-11
1.11754e-11 4.0057e-11 75.906

78.8346 4.88066 5.12306e-11
4.88066 68.4751 3.08335e-12
5.12306e-11 3.08335e-12 72.3973

77.214 -2.82282 4.64109e-11
-2.82282 67.7287 1.50191e-11
4.64109e-11 1.50191e-11 71.4706

74.1115 5.54254 5.08331e-11
5.54254 82.163 7.32051e-12
5.08331e-11 7.32051e-12 77.1637

80.1394 -4.12032 3.56193e-12
-4.12032 93.215 2.69266e-12
3.56193e-12 2.69266e-12 89.1856

83.8889 7.35697 -1.53705e-12
7.35697 93.0139 3.88961e-11
-1.53705e-12 3.88961e-11 89.325

75.5121 -5.18512 1.73331e-11
-5.18512 82.0517 -2.70524e-12
1.73331e-11 -2.70524e-12 77.1998

74.2163 6.80964 1.75235e-11
6.80964 81.6326 2.61871e-11
1.75235e-11 2.61871e-11 76.3351

43.8316 -5.75047 3.35156e-11
-5.75047 44.7897 -1.15929e-12
3.35156e-11 -1.15929e-12 44.6544

43.3336 6.60815 -2.73507e-11
6.60815 45.7291 3.25544e-11
-2.73507e-11 3.25544e-11 44.3315

85.1033 5.6474 3.94659e-11
5.6474 97.7944 -2.3123e-12
3.94659e-11 -2.3123e-12 94.1106

88.7518 -6.59476 1.61708e-11
-6.59476 96.2984 2.11812e-11
1.61708e-11 2.11812e-11 94.2819

77.1995 6.22066 -4.24046e-12
6.22066 86.6437 -4.21731e-11
-4.24046e-12 -4.21731e-11 81.8125

43.5206 2.1272 -2.92846e-11
2.1272 43.7668 -5.96767e-12
-2.92846e-11 -5.96767e-12 45.4952

43.5564 -0.0353214 -1.27184e-11
-0.0353214 45.7115 -1.30956e-11
-1.27184e-11 -1.30956e-11 46.2261

97.1926 -4.74307 1.40288e-12
-4.74307 99.206 -3.07998e-11
1.40288e-12 -3.07998e-11 99.1753

98.1133 2.31496 2.09961e-11
2.31496 101.212 7.08456e-11
2.09961e-11 7.08456e-11 99.554

94.8333 -0.134503 2.50846e-11
-0.134503 78.5574 -1.03993e-11
2.50846e-11 -1.03993e-11 86.8634

97.3417 -4.41918 -7.22281e-12
-4.41918 99.4175 6.27538e-11
-7.22281e-12 6.27538e-11 99.176

97.6649 1.59028 -2.63271e-13
1.59028 98.1522 2.65691e-11
-2.63271e-13 2.65691e-11 98.8416

75.0081 -3.91598 -1.42573e-11
-3.91598 86.5872 4.0823e-11
-1.42573e-11 4.0823e-11 81.9794

112.832 5.9255 -5.85222e-11
5.9255 106.087 1.46296e-11
-5.85222e-11 1.46296e-11 105.195

113.204 -4.8839 -1.00055e-11
-4.8839 100.587 -2.00208e-11
-1.00055e-11 -2.00208e-11 104.763

91.047 -4.74448 -1.40594e-11
-4.74448 90.7826 -1.0978e-11
-1.40594e-11 -1.0978e-11 92.5773

91.4804 3.61413 -5.67901e-12
3.61413 91.8245 8.09397e-12
-5.67901e-12 8.09397e-12 92.626

102.154 0.376063 -3.9079e-11
0.376063 115.187 -3.31126e-11
-3.9079e-11 -3.31126e-11 104.796

101.515 2.86129 7.1223e-12
2.86129 107.66 6.44803e-12
7.1223e-12 6.44803e-12 103.399

53.3904 1.96819 4.83486e-11
1.96819 59.672 -3.14011e-11
4.83486e-11 -3.14011e-11 54.5748

59.3123 2.01283 4.60291e-11
2.01283 53.5859 4.66168e-11
4.60291e-11 4.66168e-11 54.5687

82.1623 5.90574 -2.04082e-11
5.90574 91.6322 -2.50444e-12
-2.04082e-11 -2.50444e-12 87.5501

78.2993 -3.60267 4.42731e-12
-3.60267 92.2673 -4.626e-12
4.42731e-12 -4.626e-12 87.3093

115.561 -7.77522 1.81859e-10
-7.77522 124.415 -7.58564e-11
1.81859e-10 -7.58564e-11 111.726

116.514 4.63242 -2.33613e-12
4.63242 108.663 7.41099e-11
-2.33613e-12 7.41099e-11 108.854

78.1818 6.26897 -1.07877e-11
6.26897 74.4662 -6.93393e-12
-1.07877e-11 -6.93393e-12 75.0381

90.6717 2.41133 -3.05197e-11
2.41133 82.4425 -3.90058e-13
-3.05197e-11 -3.90058e-13 87.7269

90.1599 -3.15427 -2.23347e-11
-3.15427 82.1399 3.65801e-11
-2.23347e-11 3.65801e-11 87.6336

99.3471 -3.38903 -1.15544e-11
-3.38903 87.236 1.13609e-11
-1.15544e-11 1.13609e-11 95.5143

72.583 1.43329 3.45886e-12
1.43329 61.9951 -5.23758e-11
3.45886e-12 -5.23758e-11 65.6062

124.02 0.437067 -2.54209e-11
0.437067 108.047 5.00766e-12
-2.54209e-11 5.00766e-12 109.6

123.284 -0.884948 -1.23206e-11
-0.884948 119.189 3.04141e-11
-1.23206e-11 3.04141e-11 111.025

81.3799 7.52349 3.00423e-11
7.52349 77.5337 2.6994e-12
3.00423e-11 2.6994e-12 80.0575

90.6881 1.99384 -2.49845e-12
1.99384 80.0978 3.33088e-11
-2.49845e-12 3.33088e-11 84.3774

67.4953 6.12595 5.39864e-12
6.12595 69.8062 -2.91885e-11
5.39864e-12 -2.91885e-11 66.0782

107.836 -3.48008 5.90925e-11
-3.48008 118.821 -4.73518e-11
5.90925e-11 -4.73518e-11 107.381

104.239 2.17694 7.04558e-11
2.17694 107.969 1.79077e-11
7.04558e-11 1.79077e-11 104.927

101.387 6.31614 2.77292e-11
6.31614 91.1765 3.46521e-11
2.77292e-11 3.46521e-11 96.8354

88.6157 -1.97977 -1.2544e-12
-1.97977 93.646 -2.02206e-11
-1.2544e-12 -2.02206e-11 90.6815

83.5312 1.40167 -6.23757e-11
1.40167 96.2846 1.34768e-11
-6.23757e-11 1.34768e-11 90.4027

96.1549 -0.967371 -4.95833e-12
-0.967371 80.7085 -8.85771e-12
-4.95833e-12 -8.85771e-12 89.9577

97.0779 0.714251 9.43653e-12
0.714251 80.4846 -4.62208e-12
9.43653e-12 -4.62208e-12 90.1422

69.5256 -4.03454 1.94659e-13
-4.03454 67.0022 -2.57971e-11
1.94659e-13 -2.57971e-11 65.4069

85.9963 0.209586 -1.48296e-11
0.209586 72.8096 -8.85584e-12
-1.48296e-11 -8.85584e-12 77.887

98.5848 0.81058 3.63451e-11
0.81058 87.2141 6.73313e-12
3.63451e-11 6.73313e-12 94.3586

97.2331 -1.73101 -3.07639e-11
-1.73101 88.2191 4.62025e-11
-3.07639e-11 4.62025e-11 94.364

89.9772 -2.36391 4.57372e-11
-2.36391 79.1218 -2.46456e-11
4.57372e-11 -2.46456e-11 84.133

97.0744 -1.11377 -1.51146e-11
-1.11377 84.8394 1.63661e-11
-1.51146e-11 1.63661e-11 91.4397

98.2597 0.481022 -8.78645e-12
0.481022 85.102 -1.90576e-11
-8.78645e-12 -1.90576e-11 91.7307

89.4255 4.98244 -9.22995e-12
4.98244 79.5037 -3.42763e-11
-9.22995e-12 -3.42763e-11 85.0999

71.1336 -6.61066 -2.61831e-11
-6.61066 70.4253 -1.48163e-11
-2.61831e-11 -1.48163e-11 69.3293

85.5521 8.61126 5.96234e-12
8.61126 93.9616 -3.3118e-11
5.96234e-12 -3.3118e-11 90.8017

83.3411 -7.32756 1.6218e-11
-7.32756 90.0945 -3.35049e-11
1.6218e-11 -3.35049e-11 90.2702

82.6418 -5.46991 -6.45333e-12
-5.46991 90.8188 2.69566e-11
-6.45333e-12 2.69566e-11 90.9311

86.7068 9.08948 -7.60312e-12
9.08948 96.156 1.65575e-11
-7.60312e-12 1.65575e-11 92.1006

79.7252 3.16129 -2.31193e-12
3.16129 67.8943 -2.46453e-11
-2.31193e-12 -2.46453e-11 72.397

62.4091 -3.77345 -2.27412e-11
-3.77345 57.9918 -5.08535e-11
-2.27412e-11 -5.08535e-11 57.7807

91.2186 7.18545 2.506e-12
7.18545 83.7064 1.11646e-11
2.506e-12 1.11646e-11 88.7489

88.1881 -2.40653 2.49252e-12
-2.40653 78.8681 -3.64878e-12
2.49252e-12 -3.64878e-12 83.8274

63.5443 -2.93485 1.38708e-11
-2.93485 57.5387 9.5964e-13
1.38708e-11 9.5964e-13 58.2194

80.7312 -5.8369 -1.7719e-11
-5.8369 77.2081 6.34611e-12
-1.7719e-11 6.34611e-12 79.2977

76.9505 0.0392506 -3.34982e-11
0.0392506 94.0301 2.69655e-11
-3.34982e-11 2.69655e-11 86.8533

80.6277 0.905433 -2.83015e-11
0.905433 89.2932 4.43083e-12
-2.83015e-11 4.43083e-12 86.3985

72.0141 7.4832 1.50256e-11
7.4832 72.2588 -1.30938e-11
1.50256e-11 -1.30938e-11 71.2983

67.5395 -4.33811 2.1186e-12
-4.33811 60.1652 3.96729e-11
2.1186e-12 3.96729e-11 62.1117

86.8395 7.97056 -1.94472e-11
7.97056 89.2711 -1.54691e-12
-1.94472e-11 -1.54691e-12 90.7959

86.537 -7.63643 2.23303e-11
-7.63643 91.7845 -3.65967e-12
2.23303e-11 -3.65967e-12 90.5002

70.9476 -5.64438 1.15219e-12
-5.64438 75.6057 3.06999e-12
1.15219e-12 3.06999e-12 71.7384

71.7299 -6.2224 -3.27575e-12
-6.2224 75.021 4.10263e-11
-3.27575e-12 4.10263e-11 71.2639

88.6551 5.80802 -2.31085e-11
5.80802 80.1591 -7.51739e-12
-2.31085e-11 -7.51739e-12 84.5197

99.4655 3.57165 2.50301e-11
3.57165 81.3661 -1.30953e-11
2.50301e-11 -1.30953e-11 94.2517

99.2546 -2.43507 -2.38783e-11
-2.43507 79.3864 3.08003e-11
-2.38783e-11 3.08003e-11 93.8772

70.1912 4.61785 -4.62215e-12
4.61785 80.1169 1.00157e-11
-4.62215e-12 1.00157e-11 73.4441

82.4938 7.0994 9.67966e-13
7.0994 81.125 2.00266e-11
9.67966e-13 2.00266e-11 81.6403

58.2866 0.668051 1.57974e-11
0.668051 72.5694 5.04636e-11
1.57974e-11 5.04636e-11 64.1311

59.8912 0.371717 -2.98522e-11
0.371717 72.0121 1.73861e-12
-2.98522e-11 1.73861e-12 64.0126

71.8696 0.303818 3.49626e-11
0.303818 58.4666 1.46361e-11
3.49626e-11 1.46361e-11 63.201

73.5141 -5.33572 -1.063e-12
-5.33572 69.7851 6.14879e-12
-1.063e-12 6.14879e-12 70.9728

106.496 -3.65923 2.42544e-11
-3.65923 113.273 2.77926e-13
2.42544e-11 2.77926e-13 107.364

126.081 1.88497 1.96519e-10
1.88497 126.142 -1.5e-11
1.96519e-10 -1.5e-11 113.271

76.3492 6.40357 1.90722e-11
6.40357 68.1333 3.42843e-11
1.90722e-11 3.42843e-11 71.191

80.3232 -2.66615 1.03027e-11
-2.66615 68.2483 4.42861e-11
1.03027e-11 4.42861e-11 73.1297

63.6315 4.49651 -1.86753e-11
4.49651 56.9764 -1.27092e-11
-1.86753e-11 -1.27092e-11 58.6287

78.3219 -4.66731 4.37021e-11
-4.66731 87.8419 2.88833e-11
4.37021e-11 2.88833e-11 85.4874

82.1259 8.45159 4.12995e-11
8.45159 90.712 -3.81473e-13
4.12995e-11 -3.81473e-13 86.1955

94.7954 -0.12395 9.95811e-12
-0.12395 78.4504 -1.73254e-11
9.95811e-12 -1.73254e-11 86.7845

67.3972 4.25421 -3.33119e-11
4.25421 79.5945 7.31755e-12
-3.33119e-11 7.31755e-12 73.145

83.1136 -5.6516 -1.79033e-11
-5.6516 97.7616 -2.61841e-11
-1.79033e-11 -2.61841e-11 94.0063

88.6623 7.92977 7.41329e-12
7.92977 97.702 2.11799e-11
7.41329e-12 2.11799e-11 94.6236

66.6805 4.98313 -3.32313e-11
4.98313 69.6755 -3.84321e-11
-3.32313e-11 -3.84321e-11 65.2453

68.631 5.25451 -3.33196e-11
5.25451 67.7155 -5.58605e-12
-3.33196e-11 -5.58605e-12 64.7802

64.1601 4.03633 -2.38824e-11
4.03633 57.4847 -1.73315e-11
-2.38824e-11 -1.73315e-11 59.0147

86.4227 8.72459 -4.95703e-12
8.72459 97.3545 2.48382e-11
-4.95703e-12 2.48382e-11 92.507

82.6464 -6.30699 1.1452e-11
-6.30699 89.0127 1.23188e-11
1.1452e-11 1.23188e-11 90.874

100.166 0.253783 4.33046e-12
0.253783 80.9674 -3.73485e-11
4.33046e-12 -3.73485e-11 92.0596

85.3478 5.9596 -8.27919e-12
5.9596 89.4162 2.61877e-11
-8.27919e-12 2.61877e-11 91.4208

87.0118 -7.43019 1.19357e-11
-7.43019 95.6034 3.2719e-12
1.19357e-11 3.2719e-12 92.39

83.0742 7.21478 -2.54203e-11
7.21478 84.4531 -1.19387e-11
-2.54203e-11 -1.19387e-11 85.259

64.8869 -1.56289 2.90813e-11
-1.56289 76.1873 7.20311e-11
2.90813e-11 7.20311e-11 68.4923

66.9072 -2.06987 -4.62034e-12
-2.06987 75.9231 -3.73726e-11
-4.62034e-12 -3.73726e-11 68.5413

74.6488 -1.27174 -5.77938e-12
-1.27174 65.2889 3.46707e-11
-5.77938e-12 3.46707e-11 67.4314

74.9598 -4.40797 5.68197e-12
-4.40797 74.8838 -9.63851e-12
5.68197e-12 -9.63851e-12 73.8179

79.0611 0.768163 -2.61833e-11
0.768163 86.6783 -1.53818e-12
-2.61833e-11 -1.53818e-12 81.0655

74.5851 0.253714 -5.77681e-12
0.253714 88.0937 -8.46923e-12
-5.77681e-12 -8.46923e-12 80.7563

62.3393 -4.9322 1.42605e-11
-4.9322 67.3085 -2.75454e-11
1.42605e-11 -2.75454e-11 62.2847

61.8724 -4.69448 -1.8198e-11
-4.69448 65.9132 -2.69618e-11
-1.8198e-11 -2.69618e-11 62.0731

100.953 -0.27806 -2.73907e-11
-0.27806 82.0519 -1.25124e-11
-2.73907e-11 -1.25124e-11 92.5236

100.092 0.309744 1.03523e-12
0.309744 82.3861 -1.15497e-12
1.03523e-12 -1.15497e-12 92.3847

81.2148 -5.82944 3.5596e-12
-5.82944 86.8811 -1.15528e-11
3.5596e-12 -1.15528e-11 86.6312

83.0938 7.65788 6.06056e-12
7.65788 91.8561 -1.5986e-11
6.06056e-12 -1.5986e-11 87.3499

83.08 4.9392 -2.38753e-11
4.9392 96.9191 -1.61754e-11
-2.38753e-11 -1.61754e-11 93.6625

88.4275 -7.2538 -3.23469e-11
-7.2538 96.8414 1.82935e-11
-3.23469e-11 1.82935e-11 94.3036

87.076 -5.81098 -3.84818e-12
-5.81098 86.1461 1.57822e-11
-3.84818e-12 1.57822e-11 88.0047

67.7606 -3.0525 6.55002e-12
-3.0525 80.5465 2.96563e-11
6.55002e-12 2.96563e-11 73.5929

96.7588 0.921524 6.2564e-12
0.921524 93.6899 2.79115e-11
6.2564e-12 2.79115e-11 95.9083

95.4298 -2.90885 6.51161e-11
-2.90885 92.3747 -2.64776e-11
6.51161e-11 -2.64776e-11 95.5427

83.7181 -4.48931 2.21509e-11
-4.48931 80.3005 3.73535e-11
2.21509e-11 3.73535e-11 81.9175

91.0856 -3.81198 -2.93657e-11
-3.81198 86.0338 -1.8483e-11
-2.93657e-11 -1.8483e-11 89.2043

92.0279 3.21338 -3.2106e-11
3.21338 88.3652 -3.11894e-11
-3.2106e-11 -3.11894e-11 89.6161

41.202 -1.75611 -7.73807e-13
-1.75611 34.8999 1.73387e-11
-7.73807e-13 1.73387e-11 43.5716

72.133 7.57019 7.0289e-12
7.57019 75.1231 -3.37034e-11
7.0289e-12 -3.37034e-11 71.5649

37.3595 3.62576 -4.60412e-11
3.62576 42.2282 1.23354e-11
-4.60412e-11 1.23354e-11 44.0916

70.2402 -4.06908 -8.85292e-12
-4.06908 80.0029 1.7315e-12
-8.85292e-12 1.7315e-12 73.6419

103.909 -3.98264 -6.02089e-12
-3.98264 108.452 -3.11787e-11
-6.02089e-12 -3.11787e-11 104.651

106.392 1.59873 -2.34885e-11
1.59873 104.663 3.25302e-11
-2.34885e-11 3.25302e-11 104.339

84.392 4.9262 -5.8719e-12
4.9262 82.3631 -1.65588e-11
-5.8719e-12 -1.65588e-11 82.1269

85.9029 -0.267427 -3.26401e-11
-0.267427 72.3606 3.31217e-11
-3.26401e-11 3.31217e-11 77.8446

74.3947 6.14146 6.5592e-12
6.14146 69.6845 3.0617e-11
6.5592e-12 3.0617e-11 70.53

78.9154 2.97282 -1.92565e-11
2.97282 93.8416 -1.92513e-11
-1.92565e-11 -1.92513e-11 87.717

82.2356 -4.10147 9.58289e-13
-4.10147 90.4405 -7.12349e-12
9.58289e-13 -7.12349e-12 87.3795

96.3842 6.80175 2.86865e-11
6.80175 100.107 1.92538e-11
2.86865e-11 1.92538e-11 98.2128

96.0899 -3.76656 -3.98512e-11
-3.76656 101.499 -1.91588e-11
-3.98512e-11 -1.91588e-11 98.5285

85.65 9.2628 8.68805e-13
9.2628 95.9483 2.32983e-11
8.68805e-13 2.32983e-11 91.8866

78.3697 -8.77954 1.44092e-12
-8.77954 90.5832 1.92261e-12
1.44092e-12 1.92261e-12 90.2359

75.6833 4.80412 2.07834e-11
4.80412 86.2597 -1.61765e-11
2.07834e-11 -1.61765e-11 82.004

73.5113 2.43569 3.14812e-11
2.43569 84.1351 -3.33141e-11
3.14812e-11 -3.33141e-11 78.1635

84.4066 -5.3911 3.7061e-11
-5.3911 83.5352 9.62186e-12
3.7061e-11 9.62186e-12 85.5353

84.8545 5.70405 -1.14554e-11
5.70405 85.4006 -5.58487e-12
-1.14554e-11 -5.58487e-12 85.6615

76.5189 5.81519 -1.23241e-11
5.81519 76.9651 -4.02509e-11
-1.23241e-11 -4.02509e-11 74.3014

77.3733 -5.69914 3.85299e-12
-5.69914 86.3027 7.69858e-12
3.85299e-12 7.69858e-12 82.0149

71.2181 -1.0119 4.13031e-11
-1.0119 86.116 3.38929e-11
4.13031e-11 3.38929e-11 78.5598

50.9002 4.10754 2.42878e-11
4.10754 53.7527 8.93772e-11
2.42878e-11 8.93772e-11 50.543

53.3227 4.25083 6.26098e-11
4.25083 51.1239 5.52793e-11
6.26098e-11 5.52793e-11 50.5436

65.5626 -4.92886 -2.4453e-11
-4.92886 67.2036 -2.52305e-11
-2.4453e-11 -2.52305e-11 63.7247

89.0269 -1.84732 4.46213e-11
-1.84732 75.5577 -1.77132e-11
4.46213e-11 -1.77132e-11 82.6691

113.168 -6.18263 1.94694e-10
-6.18263 116.7 -6.94363e-12
1.94694e-10 -6.94363e-12 109.515

118.416 6.41764 -7.91596e-12
6.41764 109.029 7.12352e-12
-7.91596e-12 7.12352e-12 109.057

106.249 6.28203 -3.11898e-11
6.28203 106.356 -4.73617e-11
-3.11898e-11 -4.73617e-11 103.435

103.038 -1.64613 1.7324e-11
-1.64613 99.5815 -1.09722e-11
1.7324e-11 -1.09722e-11 101.871

89.5051 -0.0700354 -1.52095e-11
-0.0700354 77.0508 -1.11645e-11
-1.52095e-11 -1.11645e-11 85.4792

85.7255 -8.23104 1.15521e-11
-8.23104 94.6592 -1.40576e-11
1.15521e-11 -1.40576e-11 91.6625

79.9591 8.59919 3.04179e-11
8.59919 90.397 2.69929e-12
3.04179e-11 2.69929e-12 90.3314

53.3808 -4.00388 -1.52227e-11
-4.00388 55.2956 -1.67589e-11
-1.52227e-11 -1.67589e-11 52.6277

53.8478 5.16569 -1.368e-11
5.16569 53.9405 8.571e-12
-1.368e-11 8.571e-12 52.824

53.6085 -1.8653 1.92672e-11
-1.8653 61.9742 -6.58716e-11
1.92672e-11 -6.58716e-11 56.2228

56.1501 -2.29499 -8.27375e-12
-2.29499 63.0937 3.07976e-12
-8.27375e-12 3.07976e-12 57.1848

62.52 -1.60514 1.78194e-11
-1.60514 54.1358 -7.89709e-12
1.78194e-11 -7.89709e-12 56.2193

66.5242 6.07797 -1.86805e-11
6.07797 65.3565 3.85131e-11
-1.86805e-11 3.85131e-11 64.2466

48.5895 1.81143 -3.10174e-11
1.81143 58.8494 -4.54623e-11
-3.10174e-11 -4.54623e-11 52.7435

58.2635 0.399206 2.25409e-11
0.399206 48.9495 -2.70682e-12
2.25409e-11 -2.70682e-12 52.687

100.494 -0.718755 -3.48389e-11
-0.718755 110.198 1.19362e-11
-3.48389e-11 1.19362e-11 102.771

99.9484 -2.6417 3.84744e-12
-2.6417 103.398 5.32319e-11
3.84744e-12 5.32319e-11 101.49

94.413 -2.05702 2.92657e-11
-2.05702 85.6747 -2.8298e-11
2.92657e-11 -2.8298e-11 90.9775

94.7046 0.90961 4.31349e-11
0.90961 74.0181 -1.13617e-11
4.31349e-11 -1.13617e-11 90.1395

63.6775 -4.00762 2.98501e-11
-4.00762 71.9286 7.51029e-12
2.98501e-11 7.51029e-12 65.9258

63.3757 -2.88574 -1.85831e-11
-2.88574 72.0133 -4.61942e-12
-1.85831e-11 -4.61942e-12 66.3828

90.7511 1.92062 -2.58028e-11
1.92062 77.9352 7.71438e-13
-2.58028e-11 7.71438e-13 86.1647

101.392 -1.90928 -7.29183e-11
-1.90928 102.601 3.73548e-11
-7.29183e-11 3.73548e-11 101.791

103.93 -0.0231269 2.41817e-11
-0.0231269 100.726 -1.92542e-12
2.41817e-11 -1.92542e-12 101.838

90.544 -4.05524 -6.92735e-12
-4.05524 88.9828 -1.71371e-11
-6.92735e-12 -1.71371e-11 90.1591

84.0741 6.71589 -2.59966e-11
6.71589 86.7093 -2.38779e-11
-2.59966e-11 -2.38779e-11 87.0542

82.6623 -7.06231 -2.0796e-11
-7.06231 90.2337 1.02089e-11
-2.0796e-11 1.02089e-11 86.7272

92.5152 -1.82928 3.07362e-12
-1.82928 79.0268 1.38588e-11
3.07362e-12 1.38588e-11 88.1759

79.873 5.63942 8.08165e-12
5.63942 87.5715 -3.31182e-11
8.08165e-12 -3.31182e-11 85.7902

82.3351 -7.48231 -1.09773e-11
-7.48231 89.4007 2.06031e-11
-1.09773e-11 2.06031e-11 86.1178

41.8249 -8.37529 -1.21397e-11
-8.37529 42.4383 -8.09208e-12
-1.21397e-11 -8.09208e-12 42.8624

71.2673 1.79153 -2.29103e-11
1.79153 85.7911 7.31652e-12
-2.29103e-11 7.31652e-12 78.2715

74.1656 -1.62538 1.00117e-11
-1.62538 83.5623 1.32848e-11
1.00117e-11 1.32848e-11 78.181

99.3274 0.880959 1.73195e-11
0.880959 114.388 6.12229e-11
1.73195e-11 6.12229e-11 103.655

100.6 -0.0990122 4.36984e-11
-0.0990122 103.03 8.75907e-12
4.36984e-11 8.75907e-12 101.94

100.912 -0.344095 -1.58365e-11
-0.344095 85.8033 1.88675e-11
-1.58365e-11 1.88675e-11 95.0559

102.331 0.553253 -4.66601e-12
0.553253 85.0257 2.79123e-11
-4.66601e-12 2.79123e-11 95.1874

96.4747 8.06328 1.61695e-11
8.06328 92.4226 -1.4638e-11
1.61695e-11 -1.4638e-11 95.1822

93.7826 -4.59784 -4.08194e-11
-4.59784 90.5378 1.80991e-11
-4.08194e-11 1.80991e-11 94.0131

107.527 2.95138 1.61703e-11
2.95138 103.34 6.16091e-12
1.61703e-11 6.16091e-12 102.578

103.629 -1.61159 2.30989e-11
-1.61159 103.193 1.11611e-11
2.30989e-11 1.11611e-11 102.068

110.789 3.35968 -8.18981e-11
3.35968 107.508 -9.43553e-12
-8.18981e-11 -9.43553e-12 106.78

111.511 -9.51961 -8.10507e-12
-9.51961 115.714 7.62381e-11
-8.10507e-12 7.62381e-11 108.549

89.5834 8.39269 -2.37588e-13
8.39269 98.2201 2.69562e-11
-2.37588e-13 2.69562e-11 95.1434

85.2173 -10.3773 -6.44037e-11
-10.3773 92.1575 1.8114e-11
-6.44037e-11 1.8114e-11 93.715

83.3151 4.49516 9.43912e-12
4.49516 76.9466 2.71526e-11
9.43912e-12 2.71526e-11 79.8781

76.7639 3.57174 -3.87021e-11
3.57174 88.3447 1.30963e-11
-3.87021e-11 1.30963e-11 83.0416

78.3029 -5.81663 -7.21497e-12
-5.81663 78.1253 8.0936e-12
-7.21497e-12 8.0936e-12 78.5979

80.8802 -4.46571 1.27071e-11
-4.46571 88.0098 3.42729e-11
1.27071e-11 3.42729e-11 83.5173

82.8187 -4.18366 1.90653e-11
-4.18366 76.3084 -3.11964e-11
1.90653e-11 -3.11964e-11 79.9174

80.6389 4.97214 -7.27168e-12
4.97214 88.3597 -4.52531e-11
-7.27168e-12 -4.52531e-11 83.3721

79.5457 7.06542 4.4677e-11
7.06542 79.8981 -1.88716e-11
4.4677e-11 -1.88716e-11 78.8179

89.0879 9.32431 -9.82244e-12
9.32431 93.139 3.04198e-11
-9.82244e-12 3.04198e-11 94.452

90.4721 -6.94027 -1.63662e-11
-6.94027 96.3316 1.54051e-11
-1.63662e-11 1.54051e-11 95.0462

96.5493 4.25825 2.04112e-11
4.25825 87.5587 6.17047e-12
2.04112e-11 6.17047e-12 92.4604

125.747 3.14262 -8.93061e-11
3.14262 123.965 9.2476e-12
-8.93061e-11 9.2476e-12 112.66

106.728 3.00387 -8.02725e-11
3.00387 108.922 -4.89971e-11
-8.02725e-11 -4.89971e-11 106.467

88.6224 -4.30451 2.00283e-11
-4.30451 82.4048 -1.61682e-11
2.00283e-11 -1.61682e-11 87.175

103.558 0.278565 -1.88644e-11
0.278565 91.7415 -1.17405e-11
-1.88644e-11 -1.17405e-11 98.7418

51.6835 -3.65492 2.52178e-11
-3.65492 54.5139 4.27625e-11
2.52178e-11 4.27625e-11 51.4368

54.5307 -3.00809 -3.27443e-11
-3.00809 51.4741 -7.126e-12
-3.27443e-11 -7.126e-12 51.4727

101.198 0.335323 1.75951e-11
0.335323 89.4056 3.31094e-11
1.75951e-11 3.31094e-11 96.7424

103.388 -0.497361 1.1652e-11
-0.497361 88.5456 2.02097e-11
1.1652e-11 2.02097e-11 96.9459

104.39 0.867318 -1.15514e-11
0.867318 96.9212 3.3109e-11
-1.15514e-11 3.3109e-11 99.6555

76.7576 -2.61953 1.81914e-11
-2.61953 88.7546 2.54154e-11
1.81914e-11 2.54154e-11 83.2112

81.4971 3.48791 2.10938e-11
3.48791 73.9123 3.81245e-11
2.10938e-11 3.81245e-11 75.166

91.0039 -5.43433 1.10217e-11
-5.43433 91.2052 2.4251e-11
1.10217e-11 2.4251e-11 93.0069

92.0937 4.49799 2.01143e-11
4.49799 95.4033 5.00836e-12
2.01143e-11 5.00836e-12 93.7123

122.036 0.541353 8.0068e-11
0.541353 127.403 3.26863e-11
8.0068e-11 3.26863e-11 112.65

116.281 5.11717 3.15669e-11
5.11717 104.759 -1.42587e-11
3.15669e-11 -1.42587e-11 107.638

86.7955 -3.40897 9.24283e-12
-3.40897 79.9276 -4.6166e-12
9.24283e-12 -4.6166e-12 83.274

100.373 -0.145023 4.9214e-11
-0.145023 93.3812 -7.70547e-12
4.9214e-11 -7.70547e-12 96.8919

99.0054 -1.20709 -3.10474e-11
-1.20709 94.4095 -1.08963e-10
-3.10474e-11 -1.08963e-10 96.932

87.659 -6.16289 -7.89415e-12
-6.16289 93.7031 -2.09859e-11
-7.89415e-12 -2.09859e-11 90.9325

83.9791 3.19388 2.36821e-11
3.19388 93.5853 4.19792e-11
2.36821e-11 4.19792e-11 90.5473

83.0615 5.90209 -8.47585e-12
5.90209 89.9005 -1.88712e-11
-8.47585e-12 -1.88712e-11 90.6391

86.125 -8.35198 -3.65787e-11
-8.35198 94.7592 -1.48208e-11
-3.65787e-11 -1.48208e-11 91.6205

44.4418 10.6914 -3.8188e-13
10.6914 43.4532 -1.92305e-12
-3.8188e-13 -1.92305e-12 43.9479

93.5658 6.12454 1.03968e-11
6.12454 99.0841 -1.17418e-11
1.03968e-11 -1.17418e-11 97.4284

93.7198 -4.69258 -9.62445e-12
-4.69258 99.7117 -4.61868e-12
-9.62445e-12 -4.61868e-12 97.5458

81.1717 5.59435 8.66818e-12
5.59435 91.0868 3.92792e-11
8.66818e-12 3.92792e-11 89.0276

83.6431 -7.05663 -2.79197e-11
-7.05663 92.222 -5.77375e-12
-2.79197e-11 -5.77375e-12 89.224

81.9421 -3.32555 3.56589e-12
-3.32555 73.2737 -8.47182e-12
3.56589e-12 -8.47182e-12 75.7934

92.4333 6.0495 -4.03973e-12
6.0495 88.6542 3.00365e-11
-4.03973e-12 3.00365e-11 90.9708

97.7082 6.48103 -1.81005e-11
6.48103 93.0354 -1.07874e-11
-1.81005e-11 -1.07874e-11 95.8632

94.707 -4.2893 -2.67639e-11
-4.2893 94.6046 1.36786e-11
-2.67639e-11 1.36786e-11 95.4122

94.427 4.07247 2.48432e-11
4.07247 79.9648 -2.07927e-11
2.48432e-11 -2.07927e-11 89.4454

103.285 0.789765 1.88629e-11
0.789765 98.6276 -8.7012e-11
1.88629e-11 -8.7012e-11 100.716

105.007 -1.15398 9.32251e-12
-1.15398 96.0456 -3.31111e-11
9.32251e-12 -3.31111e-11 100.468

106.19 1.37302 -7.54543e-11
1.37302 114.784 1.65557e-11
-7.54543e-11 1.65557e-11 107.048

108.848 -2.16715 1.34646e-12
-2.16715 123.408 2.6561e-11
1.34646e-12 2.6561e-11 108.781

44.0602 -1.00342 4.41251e-11
-1.00342 37.7427 -1.05986e-11
4.41251e-11 -1.05986e-11 44.4326

35.4032 -0.209748 -3.46049e-12
-0.209748 43.8622 -4.93236e-11
-3.46049e-12 -4.93236e-11 44.0537

88.4865 6.99485 -2.5557e-11
6.99485 96.7751 -4.81032e-12
-2.5557e-11 -4.81032e-12 92.7169

86.8537 -6.02298 2.50754e-11
-6.02298 90.7242 -6.35452e-11
2.50754e-11 -6.35452e-11 91.742

42.4358 3.76 -3.82102e-13
3.76 42.0662 5.97241e-11
-3.82102e-13 5.97241e-11 44.6611

43.1422 4.86046 4.81822e-12
4.86046 41.188 -7.70828e-12
4.81822e-12 -7.70828e-12 44.6038

98.6129 -7.699 3.12611e-11
-7.699 123.039 6.15491e-12
3.12611e-11 6.15491e-12 108.098

107.313 5.74357 6.1634e-11
5.74357 119.1 -4.67817e-11
6.1634e-11 -4.67817e-11 109.031

89.7365 7.35296 -8.27982e-12
7.35296 86.5028 3.91539e-13
-8.27982e-12 3.91539e-13 89.2328

87.0976 6.70137 5.72801e-12
6.70137 92.028 3.08205e-12
5.72801e-12 3.08205e-12 90.5577

86.5458 -6.70927 -5.91453e-12
-6.70927 89.1427 2.04056e-11
-5.91453e-12 2.04056e-11 90.334

80.0162 6.76657 -2.23351e-11
6.76657 83.5385 2.32938e-11
-2.23351e-11 2.32938e-11 80.8687

78.9729 -5.39989 -1.67496e-11
-5.39989 82.1374 -5.38414e-12
-1.67496e-11 -5.38414e-12 80.8246

54.5319 -0.856207 -3.89475e-13
-0.856207 62.9416 -5.8946e-11
-3.89475e-13 -5.8946e-11 57.0712

56.0076 -1.73708 -1.96464e-11
-1.73708 63.2227 1.48326e-11
-1.96464e-11 1.48326e-11 57.2866

63.1947 -0.735689 2.28287e-11
-0.735689 55.2565 -5.3933e-12
2.28287e-11 -5.3933e-12 56.8759

81.8872 7.79984 4.14232e-12
7.79984 87.9691 2.48387e-11
4.14232e-12 2.48387e-11 84.9201

80.429 -6.04773 -2.89766e-11
-6.04773 85.2722 -2.54169e-11
-2.89766e-11 -2.54169e-11 84.6067

50.2626 1.21025 1.32849e-11
1.21025 58.5851 -9.44148e-12
1.32849e-11 -9.44148e-12 52.7993

58.3028 1.86835 4.82556e-11
1.86835 50.3774 1.04114e-11
4.82556e-11 1.04114e-11 52.7665

90.8512 -7.72874 -1.05327e-11
-7.72874 92.8192 -4.73619e-11
-1.05327e-11 -4.73619e-11 94.8353

91.5812 6.36639 5.84794e-11
6.36639 97.5597 1.48277e-11
5.84794e-11 1.48277e-11 95.4656

92.2483 -6.83706 2.88255e-11
-6.83706 96.7746 -1.23315e-11
2.88255e-11 -1.23315e-11 96.2106

92.7555 5.08508 3.5336e-11
5.08508 98.3235 4.3514e-11
3.5336e-11 4.3514e-11 96.2968

40.5567 -3.17634 -6.22179e-11
-3.17634 41.2486 8.36176e-11
-6.22179e-11 8.36176e-11 43.4429

40.5929 -3.19482 3.17909e-12
-3.19482 41.2857 -2.6397e-11
3.17909e-12 -2.6397e-11 43.6116

86.1137 6.1668 -2.12082e-12
6.1668 90.4402 -4.42979e-12
-2.12082e-12 -4.42979e-12 87.8627

85.2723 -5.64872 2.08926e-11
-5.64872 86.5576 2.11695e-11
2.08926e-11 2.11695e-11 87.3724

104.463 1.61355 -2.11544e-12
1.61355 111.659 4.96636e-11
-2.11544e-12 4.96636e-11 104.553

102.591 -0.912252 -1.65599e-11
-0.912252 103.981 7.62342e-11
-1.65599e-11 7.62342e-11 103.019

89.1126 -7.09132 -1.18325e-11
-7.09132 98.6749 2.65718e-11
-1.18325e-11 2.65718e-11 96.7121

91.7763 6.66292 3.05066e-11
6.66292 101.606 -6.2187e-11
3.05066e-11 -6.2187e-11 97.3759

99.6436 -1.48402 -7.24621e-11
-1.48402 95.4258 -9.31739e-11
-7.24621e-11 -9.31739e-11 99.2548

102.184 0.145224 1.40741e-11
0.145224 94.246 -1.90561e-11
1.40741e-11 -1.90561e-11 99.4419

89.2504 6.56597 -1.42452e-11
6.56597 90.5545 -5.006e-12
-1.42452e-11 -5.006e-12 91.8905

89.0634 -6.44754 7.69969e-12
-6.44754 92.9391 1.86694e-11
7.69969e-12 1.86694e-11 91.7431

109.096 1.98645 1.34523e-11
1.98645 102.014 -8.53732e-12
1.34523e-11 -8.53732e-12 104.18

109.743 0.591225 7.00257e-11
0.591225 106.163 -4.56211e-11
7.00257e-11 -4.56211e-11 106.257

105.691 -1.78503 -1.59051e-11
-1.78503 103.969 -1.35258e-11
-1.59051e-11 -1.35258e-11 103.957

103.162 -0.233784 6.83463e-11
-0.233784 111.015 7.89309e-11
6.83463e-11 7.89309e-11 105.952

103.119 1.15133 -2.90639e-11
1.15133 118.234 2.10942e-15
-2.90639e-11 2.10942e-15 105.944

113.861 6.5107 1.30884e-11
6.5107 109.085 6.81464e-11
1.30884e-11 6.81464e-11 106.213

107.908 -2.54662 -4.42756e-11
-2.54662 104.446 -1.94448e-11
-4.42756e-11 -1.94448e-11 104.576

101.66 -1.5328 -5.77612e-12
-1.5328 110.684 -3.10909e-11
-5.77612e-12 -3.10909e-11 104.501

104.539 3.81007 1.23557e-10
3.81007 109.003 2.20418e-10
1.23557e-10 2.20418e-10 105.359

134.858 3.87102 4.41536e-10
3.87102 103.413 -5.30294e-10
4.41536e-10 -5.30294e-10 111.555

131.674 -2.54592 6.64263e-10
-2.54592 129.853 5.02644e-10
6.64263e-10 5.02644e-10 116.056

109.437 -8.76184 4.38105e-10
-8.76184 116.945 -5.09504e-10
4.38105e-10 -5.09504e-10 107.924

106.951 4.94215 -7.54482e-11
4.94215 106.61 -9.81754e-11
-7.54482e-11 -9.81754e-11 104.822

99.5881 3.59159 2.555e-11
3.59159 105.159 -4.83157e-11
2.555e-11 -4.83157e-11 101.549

109.658 1.05558 -4.84188e-11
1.05558 108.058 -3.36907e-11
-4.84188e-11 -3.36907e-11 106.968

110.188 -8.17703 -1.44293e-11
-8.17703 107.423 7.08413e-11
-1.44293e-11 7.08413e-11 105.712

112.483 -9.39422 -2.08873e-11
-9.39422 120.643 3.27328e-11
-2.08873e-11 3.27328e-11 109.961

99.7664 -4.59082 -2.58918e-11
-4.59082 102.525 1.46345e-11
-2.58918e-11 1.46345e-11 101.302

101.283 -7.66039 2.59607e-12
-7.66039 105.812 2.34845e-11
2.59607e-12 2.34845e-11 102.698

103.638 -5.09497 3.10091e-11
-5.09497 108.485 -9.24486e-12
3.10091e-11 -9.24486e-12 104.82

99.3264 3.21211 7.45937e-12
3.21211 103.928 7.12369e-11
7.45937e-12 7.12369e-11 101.799

106.755 1.92269 2.43626e-11
1.92269 106.397 1.46263e-11
2.43626e-11 1.46263e-11 104.985

75.4402 5.46537 -3.773e-11
5.46537 80.5869 9.05202e-12
-3.773e-11 9.05202e-12 77.1721

87.336 2.74133 -3.61948e-11
2.74133 94.5214 -3.17376e-12
-3.61948e-11 -3.17376e-12 90.8901

85.3842 2.34753 -1.05887e-11
2.34753 93.5141 -2.68638e-11
-1.05887e-11 -2.68638e-11 90.5537

87.2969 3.10311 -2.85009e-11
3.10311 74.118 1.31128e-11
-2.85009e-11 1.31128e-11 81.5458

83.2639 1.05196 -3.27377e-11
1.05196 70.2629 4.15066e-11
-3.27377e-11 4.15066e-11 76.4296

89.0395 1.68049 -9.24392e-12
1.68049 97.7146 -5.79832e-13
-9.24392e-12 -5.79832e-13 95.2128

87.0347 3.8718 -2.38714e-11
3.8718 98.7809 3.94721e-11
-2.38714e-11 3.94721e-11 95.2816

84.4329 -1.23537 -1.92628e-11
-1.23537 71.5411 -1.24256e-11
-1.92628e-11 -1.24256e-11 77.2614

94.5227 -2.48099 -6.74349e-12
-2.48099 83.0745 2.0936e-11
-6.74349e-12 2.0936e-11 91.3697

61.0021 4.97677 -1.11692e-11
4.97677 66.1643 9.7781e-12
-1.11692e-11 9.7781e-12 62.1248

60.1065 -4.97244 -1.38668e-11
-4.97244 65.0172 -8.23341e-12
-1.38668e-11 -8.23341e-12 61.0678

67.1999 -4.55911 2.19561e-11
-4.55911 58.8272 -1.66563e-12
2.19561e-11 -1.66563e-12 61.076

94.0275 -4.68411 1.53684e-12
-4.68411 99.9446 1.02052e-11
1.53684e-12 1.02052e-11 97.9781

96.7986 -3.23959 -3.08061e-12
-3.23959 100.337 -8.57277e-12
-3.08061e-12 -8.57277e-12 98.3049

77.0149 4.65617 -2.00225e-11
4.65617 83.9446 -1.1656e-11
-2.00225e-11 -1.1656e-11 81.7664

81.7877 5.60366 2.1955e-11
5.60366 90.7649 1.4538e-11
2.1955e-11 1.4538e-11 89.1307

87.0654 -3.63067 3.04183e-11
-3.63067 98.6885 -1.78102e-11
3.04183e-11 -1.78102e-11 95.0081

88.17 -1.06109 -3.45649e-12
-1.06109 97.4928 3.27664e-12
-3.45649e-12 3.27664e-12 94.8711

90.1396 1.42904 -1.07844e-11
1.42904 75.0811 -1.70084e-11
-1.07844e-11 -1.70084e-11 82.7464

66.068 1.79092 -3.85181e-12
1.79092 74.3012 7.52346e-12
-3.85181e-12 7.52346e-12 67.6495

65.7721 -1.4632 -2.04166e-11
-1.4632 73.7898 -1.68517e-11
-2.04166e-11 -1.68517e-11 67.3829

75.2067 -1.26377 -5.77538e-12
-1.26377 64.157 -6.95644e-12
-5.77538e-12 -6.95644e-12 66.4566

75.326 6.28091 -2.79237e-11
6.28091 77.3295 -2.33114e-11
-2.79237e-11 -2.33114e-11 76.2299

79.1675 -4.17594 -9.63081e-12
-4.17594 67.0291 1.66031e-11
-9.63081e-12 1.66031e-11 72.2106

83.1387 6.65373 3.65863e-11
6.65373 79.9883 -3.90414e-12
3.65863e-11 -3.90414e-12 81.5921

75.1374 5.303 -2.54172e-11
5.303 82.2477 2.04117e-11
-2.54172e-11 2.04117e-11 77.4032

87.8313 -2.63334 1.15568e-11
-2.63334 74.2688 -1.34948e-11
1.15568e-11 -1.34948e-11 82.2992

57.9049 3.49954 7.48438e-13
3.49954 61.4363 -1.25893e-11
7.48438e-13 -1.25893e-11 56.5515

94.2247 3.26508 1.65605e-11
3.26508 80.7345 -1.31644e-11
1.65605e-11 -1.31644e-11 89.558

61.9253 -3.02457 4.16089e-11
-3.02457 55.7893 1.40671e-11
4.16089e-11 1.40671e-11 55.7776

97.1941 -1.15189 2.38759e-11
-1.15189 101.756 -7.70495e-12
2.38759e-11 -7.70495e-12 99.0666

97.0737 2.04393 1.88712e-11
2.04393 101.945 -3.07443e-12
1.88712e-11 -3.07443e-12 99.1148

120.474 -6.22324 -3.34979e-11
-6.22324 109.626 6.35044e-12
-3.34979e-11 6.35044e-12 108.129

120.299 6.43915 1.77178e-11
6.43915 109.455 5.03356e-11
1.77178e-11 5.03356e-11 108.095

73.7131 -1.66205 -7.26139e-11
-1.66205 62.3788 2.77343e-11
-7.26139e-11 2.77343e-11 65.7624

84.0102 7.27151 8.27842e-12
7.27151 83.4101 -3.9673e-11
8.27842e-12 -3.9673e-11 85.2636

104.306 -3.77265 -3.08005e-12
-3.77265 97.0549 -1.54976e-11
-3.08005e-12 -1.54976e-11 99.3895

103.565 3.75891 -2.15586e-11
3.75891 96.4099 2.86956e-13
-2.15586e-11 2.86956e-13 98.7895

94.2618 1.30883 -1.38638e-11
1.30883 81.2717 -9.03796e-13
-1.38638e-11 -9.03796e-13 91.1701

73.7556 5.99215 2.27185e-11
5.99215 81.3434 -1.88676e-11
2.27185e-11 -1.88676e-11 76.393

80.0019 -5.1848 -2.77319e-11
-5.1848 71.2619 -4.21733e-11
-2.77319e-11 -4.21733e-11 74.3951

92.8354 -0.322193 -7.414e-12
-0.322193 78.2371 2.8985e-12
-7.414e-12 2.8985e-12 89.1923

74.6372 -6.30363 1.34723e-11
-6.30363 77.0215 7.80176e-12
1.34723e-11 7.80176e-12 75.726

75.4528 -5.16876 -4.39027e-11
-5.16876 80.6347 -2.02194e-11
-4.39027e-11 -2.02194e-11 77.2071

83.5584 5.90153 -2.50159e-12
5.90153 93.1516 -3.36972e-11
-2.50159e-12 -3.36972e-11 89.3907

74.0973 -7.21001 8.0882e-12
-7.21001 68.8365 -1.75718e-11
8.0882e-12 -1.75718e-11 70.0765

45.9984 -5.49853 -5.00876e-11
-5.49853 42.8735 -3.77979e-12
-5.00876e-11 -3.77979e-12 44.5809

45.5825 7.63783 -3.08975e-12
7.63783 44.5415 -2.68864e-11
-3.08975e-12 -2.68864e-11 44.8218

85.0354 -7.04572 -3.6576e-11
-7.04572 96.3181 -1.90639e-11
-3.6576e-11 -1.90639e-11 94.1456

46.492 1.00248 -6.16573e-12
1.00248 43.1194 -2.92661e-11
-6.16573e-12 -2.92661e-11 46.1192

44.1882 -1.84624 -3.19759e-11
-1.84624 43.1904 4.67182e-12
-3.19759e-11 4.67182e-12 45.837

98.0714 -1.65339 -3.84877e-12
-1.65339 100.083 8.85669e-12
-3.84877e-12 8.85669e-12 99.2902

98.1508 1.71654 4.87061e-11
1.71654 99.9778 6.64391e-12
4.87061e-11 6.64391e-12 99.3028

95.9614 -0.117324 -9.24364e-12
-0.117324 77.8299 4.16593e-12
-9.24364e-12 4.16593e-12 86.8933

97.6147 -0.898456 -3.48406e-11
-0.898456 96.9623 9.38472e-12
-3.48406e-11 9.38472e-12 98.5394

97.7155 0.98735 2.63754e-11
0.98735 96.991 6.15124e-11
2.63754e-11 6.15124e-11 98.5821

77.0132 5.496 -1.84791e-11
5.496 86.8703 3.062e-11
-1.84791e-11 3.062e-11 82.1001

112.928 -5.82506 2.42603e-11
-5.82506 106.292 -2.71427e-11
2.42603e-11 -2.71427e-11 105.247

112.759 5.85243 1.57798e-11
5.85243 106.178 -3.25796e-11
1.57798e-11 -3.25796e-11 105.248

91.4608 -2.92343 3.48486e-11
-2.92343 90.8028 2.54104e-11
3.48486e-11 2.54104e-11 92.3742

91.5124 2.94859 3.66018e-12
2.94859 90.8074 1.92949e-12
3.66018e-12 1.92949e-12 92.4172

66.1795 -4.96911 -4.23809e-12
-4.96911 57.2039 5.75396e-11
-4.23809e-12 5.75396e-11 60.1725

99.0922 2.88854 -2.88704e-11
2.88854 112.975 -1.5397e-11
-2.88704e-11 -1.5397e-11 104.263

102.598 -0.553674 -2.65675e-11
-0.553674 107.701 -3.73472e-11
-2.65675e-11 -3.73472e-11 103.655

74.0751 -6.05673 -5.57791e-12
-6.05673 81.6204 -1.13629e-11
-5.57791e-12 -1.13629e-11 76.6664

53.5866 -1.52376 4.61853e-12
-1.52376 58.3889 -4.29606e-11
4.61853e-12 -4.29606e-11 54.4001

59.4458 -1.57339 -2.58119e-11
-1.57339 51.0972 1.68077e-11
-2.58119e-11 1.68077e-11 53.9623

81.1256 4.71936 1.2704e-11
4.71936 91.7694 -1.42496e-11
1.2704e-11 -1.42496e-11 87.5134

80.3715 4.70771 -2.19519e-11
4.70771 89.6699 -1.71405e-11
-2.19519e-11 -1.71405e-11 87.3489

116.476 -4.68892 5.75688e-13
-4.68892 105.095 -1.29639e-10
5.75688e-13 -1.29639e-10 107.998

116.684 4.33555 1.01061e-10
4.33555 106.418 5.36223e-11
1.01061e-10 5.36223e-11 108.369

83.1702 6.17718 1.4245e-11
6.17718 89.835 -1.90633e-11
1.4245e-11 -1.90633e-11 90.965

90.8909 1.88513 -3.67741e-11
1.88513 81.5869 3.12392e-11
-3.67741e-11 3.12392e-11 87.6007

90.7502 -1.9602 1.3482e-11
-1.9602 81.2917 -2.67151e-11
1.3482e-11 -2.67151e-11 87.3475

86.7865 8.28926 1.30932e-11
8.28926 88.4385 2.0117e-11
1.30932e-11 2.0117e-11 90.5984

88.28 -5.5829 3.5038e-11
-5.5829 96.7112 4.90822e-12
3.5038e-11 4.90822e-12 94.298

72.4956 -0.0959796 -5.08475e-11
-0.0959796 59.9432 -1.97389e-11
-5.08475e-11 -1.97389e-11 64.6087

86.7499 0.119728 -3.77449e-11
0.119728 72.2724 -3.14705e-11
-3.77449e-11 -3.14705e-11 77.838

78.9358 3.72658 3.08213e-12
3.72658 66.9128 1.25865e-11
3.08213e-12 1.25865e-11 71.3739

100.623 6.19815 -1.1939e-11
6.19815 89.7414 5.24699e-12
-1.1939e-11 5.24699e-12 95.9374

123.436 -0.92052 -1.0701e-10
-0.92052 118.698 9.1776e-11
-1.0701e-10 9.1776e-11 111.011

123.299 0.915373 1.44743e-10
0.915373 119.243 4.2942e-11
1.44743e-10 4.2942e-11 111.048

69.0843 5.41674 -7.12631e-11
5.41674 68.4699 9.81778e-12
-7.12631e-11 9.81778e-12 66.1238

82.5127 -6.90087 -5.81484e-11
-6.90087 76.5805 -3.85617e-13
-5.81484e-11 -3.85617e-13 79.9181

90.9682 -1.71492 -3.56213e-11
-1.71492 79.4382 8.66122e-13
-3.56213e-11 8.66122e-13 84.1792

104.635 6.66214 -1.23152e-11
6.66214 116.541 -2.73395e-11
-1.23152e-11 -2.73395e-11 106.848

105.431 -1.75139 -3.0414e-11
-1.75139 107.71 -4.52427e-11
-3.0414e-11 -4.52427e-11 105.129

101.693 -6.06195 -1.23177e-11
-6.06195 91.3833 -1.61728e-11
-1.23177e-11 -1.61728e-11 96.9342

85.4662 -1.75517 5.81444e-11
-1.75517 93.8358 9.34364e-12
5.81444e-11 9.34364e-12 90.4657

86.5951 -1.83593 8.73005e-14
-1.83593 94.4515 -1.25146e-11
8.73005e-14 -1.25146e-11 90.6731

97.4916 -0.484891 5.9693e-12
-0.484891 79.2971 -4.8848e-12
5.9693e-12 -4.8848e-12 89.715

97.8515 0.456627 3.235e-11
0.456627 79.2915 3.4293e-11
3.235e-11 3.4293e-11 89.9482

70.2919 4.66735 -2.55177e-11
4.66735 67.3403 8.47441e-12
-2.55177e-11 8.47441e-12 65.4825

98.9623 -0.370585 -4.67407e-11
-0.370585 85.9828 5.10207e-12
-4.67407e-11 5.10207e-12 94.0461

98.9956 0.336155 1.47296e-11
0.336155 86.1017 1.22288e-11
1.47296e-11 1.22288e-11 94.1113

91.2442 1.70177 -3.85025e-13
1.70177 79.4439 7.20601e-11
-3.85025e-13 7.20601e-11 84.308

75.3981 -5.38939 7.70695e-12
-5.38939 82.6768 1.27104e-11
7.70695e-12 1.27104e-11 77.7511

98.7872 -0.181135 7.70399e-12
-0.181135 84.1747 -2.06479e-11
7.70399e-12 -2.06479e-11 91.4283

99.1446 0.229722 2.07975e-11
0.229722 84.2572 6.68909e-12
2.07975e-11 6.68909e-12 91.6953

90.2185 -4.13259 9.25053e-12
-4.13259 79.4131 -2.03092e-11
9.25053e-12 -2.03092e-11 85.168

85.351 7.60665 2.88643e-12
7.60665 93.1691 -1.46316e-11
2.88643e-12 -1.46316e-11 90.6711

78.867 5.79023 2.27264e-11
5.79023 73.1293 2.86808e-13
2.27264e-11 2.86808e-13 74.5439

85.4377 6.17259 -2.11793e-11
6.17259 89.1183 -5.39372e-12
-2.11793e-11 -5.39372e-12 91.436

86.3205 7.5683 4.42707e-12
7.5683 95.1597 -1.2996e-11
4.42707e-12 -1.2996e-11 91.9305

80.2566 -2.94328 -3.46567e-12
-2.94328 67.5461 1.02805e-11
-3.46567e-12 1.02805e-11 72.4491

91.8671 -6.76008 -1.98344e-11
-6.76008 83.5497 1.54002e-11
-1.98344e-11 1.54002e-11 88.8493

89.0631 4.127 -2.1178e-11
4.127 78.7635 3.78787e-11
-2.1178e-11 3.78787e-11 83.8665

73.1781 6.75398 -1.42448e-11
6.75398 71.1436 2.27166e-11
-1.42448e-11 2.27166e-11 71.3206

81.833 6.93703 3.46634e-11
6.93703 75.9243 -3.27175e-12
3.46634e-11 -3.27175e-12 79.2727

79.067 0.635763 -3.85983e-12
0.635763 90.679 -2.01186e-11
-3.85983e-12 -2.01186e-11 86.6502

79.3007 0.224333 1.53627e-12
0.224333 90.6751 2.22354e-11
1.53627e-12 2.22354e-11 86.6854

68.1302 4.88097 -2.43664e-11
4.88097 59.8041 -4.67174e-11
-2.43664e-11 -4.67174e-11 62.0301

86.9606 -8.28137 -3.58112e-11
-8.28137 88.5915 3.58155e-11
-3.58112e-11 3.58155e-11 90.8164

72.2174 -6.60219 -4.21686e-11
-6.60219 75.4891 1.71472e-11
-4.21686e-11 1.71472e-11 71.847

71.9581 6.68395 2.00375e-11
6.68395 75.6708 7.76268e-13
2.00375e-11 7.76268e-13 71.7374

89.0396 -4.98247 4.39096e-11
-4.98247 78.9978 2.46144e-12
4.39096e-11 2.46144e-12 84.3206

99.6537 -3.2993 2.04107e-11
-3.2993 82.0436 -1.45327e-11
2.04107e-11 -1.45327e-11 94.3552

99.24 3.32562 3.35042e-11
3.32562 82.4902 1.93442e-11
3.35042e-11 1.93442e-11 94.1405

69.3575 3.65664 6.54203e-12
3.65664 77.5157 -8.66788e-12
6.54203e-12 -8.66788e-12 72.9238

83.3658 -6.95214 -3.00505e-11
-6.95214 80.0109 2.91701e-11
-3.00505e-11 2.91701e-11 81.5613

59.8806 -0.282961 1.42475e-11
-0.282961 71.2554 1.89228e-11
1.42475e-11 1.89228e-11 64.095

59.8024 0.112707 1.00075e-11
0.112707 71.2372 1.82876e-12
1.00075e-11 1.82876e-12 64.04

72.6271 0.351543 1.11737e-11
0.351543 58.3004 7.65728e-12
1.11737e-11 7.65728e-12 63.2859

69.6679 -4.84208 -1.07899e-11
-4.84208 67.4491 -3.55832e-11
-1.07899e-11 -3.55832e-11 65.1477

74.1233 5.88672 -1.00161e-11
5.88672 69.9783 4.62625e-11
-1.00161e-11 4.62625e-11 70.925

111.864 -11.9721 -5.39058e-12
-11.9721 117.204 -6.83206e-11
-5.39058e-12 -6.83206e-11 109.191

116.33 5.17461 8.89272e-11
5.17461 119.732 -3.04163e-11
8.89272e-11 -3.04163e-11 110.68

80.728 2.68179 1.23278e-11
2.68179 67.9471 -4.26518e-11
1.23278e-11 -4.26518e-11 72.9298

81.4393 7.32559 -2.77233e-11
7.32559 90.1393 -6.06544e-12
-2.77233e-11 -6.06544e-12 86.0638

95.8694 0.107355 -1.23245e-11
0.107355 77.7126 1.85463e-11
-1.23245e-11 1.85463e-11 86.7092

69.4565 -3.53652 -1.92257e-12
-3.53652 77.8887 -3.90982e-11
-1.92257e-12 -3.90982e-11 73.1812

82.527 7.29432 6.9401e-12
7.29432 96.2636 2.56117e-11
6.9401e-12 2.56117e-11 93.875

88.8266 5.97244 -1.03948e-11
5.97244 97.2515 8.95336e-12
-1.03948e-11 8.95336e-12 94.6673

85.4273 -7.58838 -1.2706e-11
-7.58838 93.1594 3.5141e-11
-1.2706e-11 3.5141e-11 90.7124

86.0829 7.66735 -2.12093e-12
7.66735 95.9681 -2.72434e-11
-2.12093e-12 -2.72434e-11 92.2461

80.3074 5.8143 3.77431e-11
5.8143 86.0735 2.25322e-11
3.77431e-11 2.25322e-11 85.6739

101.385 0.065758 3.79348e-11
0.065758 79.5278 3.31263e-14
3.79348e-11 3.31263e-14 91.7201

74.1541 -5.81035 -6.16242e-11
-5.81035 69.5175 -1.65561e-11
-6.16242e-11 -1.65561e-11 70.4946

85.4783 -6.20163 -1.6943e-11
-6.20163 89.1991 -1.46308e-11
-1.6943e-11 -1.46308e-11 91.549

76.0168 -4.97018 -2.09828e-11
-4.97018 76.449 3.23044e-11
-2.09828e-11 3.23044e-11 74.1137

66.9434 -4.81844 -4.62785e-12
-4.81844 67.0737 -4.12588e-12
-4.62785e-12 -4.12588e-12 64.5358

83.939 -7.17635 3.00375e-11
-7.17635 83.755 -6.03653e-11
3.00375e-11 -6.03653e-11 85.4387

66.8986 -2.94302 3.15818e-11
-2.94302 75.5174 9.00346e-12
3.15818e-11 9.00346e-12 68.7367

66.7624 2.79192 1.53503e-12
2.79192 75.4992 -1.94544e-11
1.53503e-12 -1.94544e-11 68.6391

75.0372 1.68408 7.70658e-12
1.68408 65.361 -7.44446e-11
7.70658e-12 -7.44446e-11 67.3899

75.892 5.18281 -9.60417e-13
5.18281 76.3562 7.16915e-12
-9.60417e-13 7.16915e-12 74.0476

77.2816 0.915985 1.19406e-11
0.915985 86.6409 2.27181e-11
1.19406e-11 2.27181e-11 80.9856

77.1999 -0.196448 2.69813e-12
-0.196448 86.5243 -1.21344e-11
2.69813e-12 -1.21344e-11 80.9186

63.0234 -5.67483 3.27005e-12
-5.67483 65.9091 -1.55606e-11
3.27005e-12 -1.55606e-11 62.3176

63.122 5.68502 9.82199e-12
5.68502 65.723 -7.88688e-12
9.82199e-12 -7.88688e-12 62.17

101.876 0.455454 3.40837e-11
0.455454 80.943 -8.92767e-12
3.40837e-11 -8.92767e-12 92.1838

102.077 -0.432075 -1.98332e-11
-0.432075 80.8864 3.30888e-11
-1.98332e-11 3.30888e-11 92.2783

82.7773 6.67877 1.34825e-12
6.67877 91.1469 -2.05061e-11
1.34825e-12 -2.05061e-11 87.2402

81.4097 -6.51266 -2.42549e-11
-6.51266 95.4028 -8.17975e-12
-2.42549e-11 -8.17975e-12 93.3698

89.8062 7.34556 -1.15826e-12
7.34556 85.2535 -5.0154e-11
-1.15826e-12 -5.0154e-11 88.7742

64.6333 3.40896 -3.38939e-11
3.40896 55.583 4.00141e-11
-3.38939e-11 4.00141e-11 58.3789

69.829 4.43132 2.77262e-11
4.43132 80.3875 1.11718e-11
2.77262e-11 1.11718e-11 73.8345

96.9933 0.437744 -4.96709e-11
0.437744 92.6905 1.54549e-11
-4.96709e-11 1.54549e-11 95.7176

96.957 -0.391673 -1.46318e-11
-0.391673 92.7382 1.94404e-11
-1.46318e-11 1.94404e-11 95.6925

84.5361 4.27923 3.06155e-11
4.27923 81.7198 -1.59287e-11
3.06155e-11 -1.59287e-11 82.0655

92.2318 -2.646 8.47056e-12
-2.646 87.5529 4.2452e-11
8.47056e-12 4.2452e-11 89.4455

92.2623 2.69683 -1.46335e-11
2.69683 87.6127 -4.62066e-11
-1.46335e-11 -4.62066e-11 89.4964

43.2076 -2.6832 2.32069e-12
-2.6832 37.1373 -2.92119e-11
2.32069e-12 -2.92119e-11 44.4114

34.6611 3.38226 1.4803e-16
3.38226 40.9197 4.25008e-12
1.4803e-16 4.25008e-12 43.2794

69.6965 -4.3547 1.42528e-11
-4.3547 80.521 3.6683e-11
1.42528e-11 3.6683e-11 73.9624

106.539 -0.982239 -9.62637e-12
-0.982239 103.37 -3.0416e-11
-9.62637e-12 -3.0416e-11 104.021

106.6 1.11931 -3.34931e-11
1.11931 103.486 5.77908e-13
-3.34931e-11 5.77908e-13 104.065

65.0081 2.93033 4.62356e-12
2.93033 55.1873 -3.63291e-11
4.62356e-12 -3.63291e-11 58.3486

80.2555 -3.60968 3.08042e-11
-3.60968 91.0212 -1.37623e-11
3.08042e-11 -1.37623e-11 87.6087

81.4087 -3.52292 3.92829e-11
-3.52292 91.8156 1.7235e-11
3.92829e-11 1.7235e-11 87.6904

72.8466 -7.09588 2.77291e-11
-7.09588 71.4822 -1.40513e-11
2.77291e-11 -1.40513e-11 70.819

86.1102 -7.71591 5.79721e-13
-7.71591 95.9084 -2.61869e-11
5.79721e-13 -2.61869e-11 92.2094

79.7164 9.20575 9.62193e-12
9.20575 89.9251 -3.81255e-11
9.62193e-12 -3.81255e-11 90.3914

96.7417 4.16992 -1.42482e-11
4.16992 99.8081 -7.41488e-12
-1.42482e-11 -7.41488e-12 98.2985

94.164 5.75574 -4.23485e-11
5.75574 99.6357 -2.79636e-12
-4.23485e-11 -2.79636e-12 98.1524

82.8343 -6.74507 -9.62541e-12
-6.74507 91.3341 7.60503e-12
-9.62541e-12 7.60503e-12 87.4048

84.9067 7.08118 -4.22854e-12
7.08118 85.8083 2.46418e-11
-4.22854e-12 2.46418e-11 87.2191

84.5197 -4.34447 2.48403e-11
-4.34447 81.8172 -9.23913e-12
2.48403e-11 -9.23913e-12 82.1131

76.6484 5.18486 2.6575e-11
5.18486 66.3056 -1.79135e-11
2.6575e-11 -1.79135e-11 70.3269

86.695 -0.159007 -4.67996e-11
-0.159007 72.2533 -9.57371e-12
-4.67996e-11 -9.57371e-12 77.9001

85.5193 8.04513 -2.11814e-12
8.04513 95.0836 2.31163e-12
-2.11814e-12 2.31163e-12 91.7979

77.0877 -4.84601 -1.96358e-11
-4.84601 84.2877 -1.92735e-13
-1.96358e-11 -1.92735e-13 82.0888

72.6388 1.76887 8.47111e-12
1.76887 83.4819 -2.09942e-11
8.47111e-12 -2.09942e-11 78.0593

84.7402 4.9613 1.54188e-12
4.9613 84.6564 -5.70884e-11
1.54188e-12 -5.70884e-11 85.5033

73.3842 2.19725 -9.24124e-12
2.19725 84.6014 -5.2068e-12
-9.24124e-12 -5.2068e-12 78.5709

89.0922 -6.213 -3.85307e-12
-6.213 97.3671 2.45498e-11
-3.85307e-12 2.45498e-11 94.5115

51.1732 -3.48567 1.42534e-11
-3.48567 51.9232 6.73677e-11
1.42534e-11 6.73677e-11 50.2436

53.9827 -3.50793 -1.57948e-11
-3.50793 48.822 1.31266e-11
-1.57948e-11 1.31266e-11 50.1173

89.8219 -1.40205 -4.14992e-11
-1.40205 75.0005 5.77011e-12
-4.14992e-11 5.77011e-12 82.6014

84.6824 -4.97367 -1.40588e-11
-4.97367 84.5731 2.97518e-11
-1.40588e-11 2.97518e-11 85.4566

118.696 -6.65405 6.85326e-11
-6.65405 106.922 1.62586e-11
6.85326e-11 1.62586e-11 108.577

118.912 6.37348 1.48232e-10
6.37348 107.465 5.46829e-11
1.48232e-10 5.46829e-11 108.761

81.8207 -7.2254 -1.52093e-11
-7.2254 90.5561 -2.7724e-11
-1.52093e-11 -2.7724e-11 86.5227

106.383 -6.19302 3.38837e-11
-6.19302 106.43 -2.53171e-11
3.38837e-11 -2.53171e-11 103.504

106.046 6.29427 5.00573e-11
6.29427 106.242 3.82176e-11
5.00573e-11 3.82176e-11 103.383

90.0608 1.36176 2.34899e-11
1.36176 77.449 -3.2461e-11
2.34899e-11 -3.2461e-11 85.5109

79.5123 -9.21745 3.82416e-13
-9.21745 89.6609 2.04126e-11
3.82416e-13 2.04126e-11 90.3024

53.9004 -4.15037 9.25267e-12
-4.15037 53.518 -2.06201e-11
9.25267e-12 -2.06201e-11 52.3192

55.7927 4.16604 -4.2375e-12
4.16604 52.8424 3.00509e-11
-4.2375e-12 3.00509e-11 52.991

56.2709 -3.09381 1.54149e-11
-3.09381 62.0924 9.67774e-12
1.54149e-11 9.67774e-12 56.9487

54.9815 2.87729 1.50267e-11
2.87729 61.7798 6.4091e-12
1.50267e-11 6.4091e-12 56.3794

62.2953 1.77305 3.39038e-11
1.77305 53.374 1.87093e-11
3.39038e-11 1.87093e-11 55.8671

85.4971 -8.10738 1.32835e-11
-8.10738 95.1463 6.83339e-12
1.32835e-11 6.83339e-12 91.7496

49.8722 0.921691 3.082e-11
0.921691 57.8207 5.56266e-12
3.082e-11 5.56266e-12 52.8495

58.977 -1.00316 1.19447e-11
-1.00316 48.9356 -2.80742e-11
1.19447e-11 -2.80742e-11 52.5383

97.3998 -2.55629 -2.88727e-11
-2.55629 107.636 -5.9295e-11
-2.88727e-11 -5.9295e-11 102.107

101.392 -0.157341 -1.53992e-11
-0.157341 104.324 5.39369e-12
-1.53992e-11 5.39369e-12 102.026

95.4742 4.02729 -4.04416e-11
4.02729 85.8906 -4.50546e-11
-4.04416e-11 -4.50546e-11 91.1091

94.9079 -0.285283 1.57891e-11
-0.285283 75.449 -5.68026e-12
1.57891e-11 -5.68026e-12 90.2738

64.7875 4.0899 1.9449e-11
4.0899 72.2752 6.83971e-12
1.9449e-11 6.83971e-12 66.5738

64.8033 -4.27994 -3.2722e-12
-4.27994 72.3651 4.85808e-11
-3.2722e-12 4.85808e-11 66.6839

91.2471 -0.767004 2.42641e-11
-0.767004 78.1124 -1.19182e-11
2.42641e-11 -1.19182e-11 86.1534

77.318 -5.48142 7.6991e-12
-5.48142 87.4908 -6.16233e-11
7.6991e-12 -6.16233e-11 82.5627

104.253 0.572797 6.74172e-12
0.572797 99.4331 2.03086e-11
6.74172e-12 2.03086e-11 101.565

104.214 -0.49509 2.84885e-11
-0.49509 99.4562 8.73008e-11
2.84885e-11 8.73008e-11 101.57

91.8132 6.11926 -4.23556e-11
6.11926 87.5282 4.62304e-12
-4.23556e-11 4.62304e-12 90.1273

84.7673 -6.9062 4.42901e-11
-6.9062 85.7843 -1.54676e-12
4.42901e-11 -1.54676e-12 87.2129

93.5954 3.67234 -1.57859e-11
3.67234 79.3799 3.17173e-11
-1.57859e-11 3.17173e-11 88.3499

67.9944 5.40957 -5.31624e-11
5.40957 63.7811 -2.95622e-11
-5.31624e-11 -2.95622e-11 64.0333

80.5547 -5.98667 1.67531e-11
-5.98667 86.502 -2.61933e-11
1.67531e-11 -2.61933e-11 85.9426

43.0835 9.30993 -2.15803e-11
9.30993 41.0445 -5.23142e-11
-2.15803e-11 -5.23142e-11 42.9606

73.0385 -1.32217 2.88838e-11
-1.32217 83.5067 2.21364e-12
2.88838e-11 2.21364e-12 78.2143

73.4702 -1.96825 -1.27032e-11
-1.96825 84.1125 -2.23377e-11
-1.27032e-11 -2.23377e-11 78.3614

98.614 2.72552 6.08189e-11
2.72552 108.225 -4.81163e-12
6.08189e-11 -4.81163e-12 102.722

100.032 -4.07572 2.92472e-11
-4.07572 106.919 1.67516e-11
2.92472e-11 1.67516e-11 102.701

102.948 -0.216198 1.27089e-11
-0.216198 83.8238 2.73347e-11
1.27089e-11 2.73347e-11 94.7846

103.029 0.201892 -3.04231e-11
0.201892 83.7798 1.53765e-11
-3.04231e-11 1.53765e-11 94.8397

96.773 -7.99413 -1.34761e-11
-7.99413 92.311 -6.64158e-12
-1.34761e-11 -6.64158e-12 95.2655

96.3122 8.06326 -4.81284e-11
8.06326 90.7703 4.80616e-12
-4.81284e-11 4.80616e-12 94.4818

107.617 -2.91262 6.62231e-11
-2.91262 103.311 6.73395e-12
6.62231e-11 6.73395e-12 102.642

107.347 2.90592 3.88845e-11
2.90592 103.267 7.61012e-12
3.88845e-11 7.61012e-12 102.552

110.634 -2.54266 -1.28019e-10
-2.54266 105.45 3.37857e-11
-1.28019e-10 3.37857e-11 106.24

110.765 2.7366 1.48247e-11
2.7366 105.905 3.81119e-11
1.48247e-11 3.81119e-11 106.399

89.1453 -7.65076 5.00607e-12
-7.65076 96.9015 -2.04102e-11
5.00607e-12 -2.04102e-11 94.7858

89.3365 7.6114 -1.17443e-11
7.6114 97.0017 -2.98471e-12
-1.17443e-11 -2.98471e-12 94.921

83.4986 -3.96829 3.62027e-11
-3.96829 76.4265 8.473e-12
3.62027e-11 8.473e-12 79.8798

78.676 -3.35219 1.96389e-11
-3.35219 86.7193 4.92949e-11
1.96389e-11 4.92949e-11 83.2167

79.2599 6.45168 -4.37145e-11
6.45168 79.1867 -1.69555e-11
-4.37145e-11 -1.69555e-11 78.6897

79.5266 -4.70016 2.65668e-11
-4.70016 88.6253 -4.19815e-11
2.65668e-11 -4.19815e-11 83.5785

68.3487 -4.99743 9.6397e-13
-4.99743 64.5203 -1.2519e-11
9.6397e-13 -1.2519e-11 63.8425

83.3779 3.91733 -1.92616e-12
3.91733 76.2493 5.84411e-11
-1.92616e-12 5.84411e-11 79.7097

78.7906 3.33292 -2.55038e-11
3.33292 86.4375 -4.75639e-11
-2.55038e-11 -4.75639e-11 82.9694

89.0554 -9.51208 8.47182e-12
-9.51208 92.8447 -5.58324e-12
8.47182e-12 -5.58324e-12 94.4992

89.0773 9.51861 3.00349e-11
9.51861 92.7805 1.05957e-11
3.00349e-11 1.05957e-11 94.4859

96.7707 -3.82601 -4.38996e-11
-3.82601 87.2976 1.36634e-11
-4.38996e-11 1.36634e-11 92.4426

116.686 -7.1204 3.77232e-11
-7.1204 122.644 3.4629e-12
3.77232e-11 3.4629e-12 111.14

112.089 7.28659 -3.77323e-11
7.28659 107.556 1.42339e-11
-3.77323e-11 1.42339e-11 107.309

87.2041 -5.38924 2.02156e-11
-5.38924 94.5792 1.64596e-11
2.02156e-11 1.64596e-11 91.0906

90.3879 6.73201 -5.18057e-11
6.73201 82.3314 -3.26835e-11
-5.18057e-11 -3.26835e-11 87.509

103.821 0.434009 5.19777e-11
0.434009 96.2379 -2.4696e-11
5.19777e-11 -2.4696e-11 99.2558

79.272 -6.30909 1.271e-11
-6.30909 79.5396 -2.73478e-11
1.271e-11 -2.73478e-11 78.7849

52.8398 4.03906 3.86854e-12
4.03906 54.2998 -2.11397e-11
3.86854e-12 -2.11397e-11 51.5434

54.7007 3.99454 -1.42479e-11
3.99454 50.7101 3.2121e-11
-1.42479e-11 3.2121e-11 51.2154

104.024 0.795139 2.8891e-12
0.795139 87.4799 1.91294e-11
2.8891e-12 1.91294e-11 96.6842

103.854 -0.802653 -3.40811e-11
-0.802653 87.397 -1.9828e-11
-3.40811e-11 -1.9828e-11 96.634

104.406 -0.704434 -2.6917e-12
-0.704434 97.0017 -1.07356e-11
-2.6917e-12 -1.07356e-11 99.6505

79.6415 4.47644 1.15065e-11
4.47644 88.3933 -1.85829e-11
1.15065e-11 -1.85829e-11 83.4799

82.0721 -3.1517 -6.54602e-12
-3.1517 73.6987 1.82475e-11
-6.54602e-12 1.82475e-11 75.361

92.062 -3.8276 3.67775e-11
-3.8276 94.3191 -4.56337e-11
3.67775e-11 -4.56337e-11 93.4727

92.1271 3.83308 1.8095e-11
3.83308 94.3711 2.7904e-12
1.8095e-11 2.7904e-12 93.5248

122.079 -0.525773 -7.31268e-11
-0.525773 127.438 9.52469e-11
-7.31268e-11 9.52469e-11 112.688

122.098 0.518428 -8.84937e-12
0.518428 127.285 -1.42365e-11
-8.84937e-12 -1.42365e-11 112.695

83.0657 -6.53398 -1.34783e-11
-6.53398 92.8406 1.71409e-11
-1.34783e-11 1.71409e-11 89.2684

87.9775 5.17747 2.04115e-11
5.17747 78.4279 -1.1533e-12
2.04115e-11 -1.1533e-12 83.151

100.767 -0.632551 1.60797e-11
-0.632551 92.1861 -7.06017e-11
1.60797e-11 -7.06017e-11 96.6568

100.763 0.689542 -6.41158e-11
0.689542 92.1522 1.63899e-12
-6.41158e-11 1.63899e-12 96.6301

83.8946 -4.15056 -3.96701e-11
-4.15056 91.8004 2.08888e-11
-3.96701e-11 2.08888e-11 90.4303

82.8935 -6.63037 -1.73289e-11
-6.63037 89.2818 1.86774e-11
-1.73289e-11 1.86774e-11 90.7317

43.5051 -9.65707 -2.42785e-11
-9.65707 43.7963 9.77759e-12
-2.42785e-11 9.77759e-12 43.8206

93.6821 -6.19295 2.69538e-11
-6.19295 99.0486 6.25431e-12
2.69538e-11 6.25431e-12 97.5199

93.6437 6.24749 3.2339e-11
6.24749 98.8835 3.62025e-11
3.2339e-11 3.62025e-11 97.4354

81.5638 -6.37412 -1.00119e-11
-6.37412 89.51 2.40702e-11
-1.00119e-11 2.40702e-11 89.0099

82.6272 3.3425 1.54336e-12
3.3425 74.0146 5.71921e-11
1.54336e-12 5.71921e-11 75.8004

93.1136 -5.87485 1.63666e-11
-5.87485 88.2523 5.19725e-12
1.63666e-11 5.19725e-12 91.0559

97.9171 -6.52229 7.31045e-12
-6.52229 92.7223 2.8971e-11
7.31045e-12 2.8971e-11 95.9136

98.0051 6.36441 1.00129e-11
6.36441 92.3627 6.7224e-13
1.00129e-11 6.7224e-13 95.766

94.7771 -3.64705 -4.04409e-11
-3.64705 80.2284 2.65166e-11
-4.04409e-11 2.65166e-11 89.5211

105.523 1.59559 9.61527e-13
1.59559 94.7227 -4.82235e-11
9.61527e-13 -4.82235e-11 100.169

105.399 -1.56541 -3.54211e-11
-1.56541 94.7891 -2.51232e-11
-3.54211e-11 -2.51232e-11 100.135

105.269 -2.52974 6.50592e-11
-2.52974 118.752 -7.1263e-12
6.50592e-11 -7.1263e-12 107.661

107.864 5.52144 5.23599e-11
5.52144 117.766 -1.01981e-11
5.23599e-11 -1.01981e-11 108.037

44.0101 0.820556 -7.01225e-11
0.820556 34.5227 1.3024e-11
-7.01225e-11 1.3024e-11 43.8655

37.8347 1.53502 1.19416e-11
1.53502 42.4873 -3.98852e-11
1.19416e-11 -3.98852e-11 44.2802

88.2283 6.1004 3.79992e-13
6.1004 95.6067 -1.67513e-11
3.79992e-13 -1.67513e-11 92.4811

88.1674 -6.10413 2.46381e-11
-6.10413 95.5535 5.7761e-11
2.46381e-11 5.7761e-11 92.4113

85.5079 -7.79363 -7.50941e-12
-7.79363 94.999 1.36714e-11
-7.50941e-12 1.36714e-11 91.5388

41.8389 -4.07252 -2.46508e-11
-4.07252 41.0198 -3.82228e-12
-2.46508e-11 -3.82228e-12 44.2164

42.7581 -3.36217 -6.74344e-11
-3.36217 41.4458 4.26211e-11
-6.74344e-11 4.26211e-11 44.5519

107.752 5.3776 2.75492e-11
5.3776 118.478 1.66417e-10
2.75492e-11 1.66417e-10 108.882

107.609 -5.65249 9.9668e-11
-5.65249 117.913 2.56319e-10
9.9668e-11 2.56319e-10 108.74

90.1604 -7.38724 -8.08686e-12
-7.38724 85.7173 -4.14054e-12
-8.08686e-12 -4.14054e-12 89.2212

79.7986 -5.96874 3.67791e-11
-5.96874 83.4845 6.73713e-12
3.67791e-11 6.73713e-12 80.9407

86.9478 5.88115 3.21524e-11
5.88115 91.223 5.10851e-12
3.21524e-11 5.10851e-12 90.4023

86.903 -5.87869 5.00955e-12
-5.87869 91.1665 -5.0641e-11
5.00955e-12 -5.0641e-11 90.3558

81.5494 -6.9456 5.00274e-12
-6.9456 87.4171 1.91564e-11
5.00274e-12 1.91564e-11 84.8761

79.876 6.05194 -7.76712e-13
6.05194 83.3378 -4.67971e-11
-7.76712e-13 -4.67971e-11 80.8873

56.1276 -2.22554 2.54269e-11
-2.22554 62.4221 -5.49146e-12
2.54269e-11 -5.49146e-12 57.3182

56.1085 1.87181 2.81148e-11
1.87181 62.7583 8.82035e-12
2.81148e-11 8.82035e-12 57.2046

62.7534 1.60138 2.83162e-11
1.60138 54.7498 -3.66993e-12
2.83162e-11 -3.66993e-12 56.6068

81.5266 6.9284 2.40639e-11
6.9284 87.346 -1.72314e-11
2.40639e-11 -1.72314e-11 84.8053

50.4743 -1.0521 -4.04488e-11
-1.0521 57.3212 -4.39314e-11
-4.04488e-11 -4.39314e-11 52.592

58.3824 -0.632402 1.23304e-11
-0.632402 48.5156 -4.29387e-11
1.23304e-11 -4.29387e-11 52.4704

91.2701 -5.68386 -2.06044e-11
-5.68386 96.3989 3.70632e-11
-2.06044e-11 3.70632e-11 95.1578

91.4189 5.65567 2.84885e-11
5.65567 96.4983 -1.24137e-11
2.84885e-11 -1.24137e-11 95.256

92.5293 -4.31854 -5.02466e-11
-4.31854 97.2128 -3.18643e-11
-5.02466e-11 -3.18643e-11 96.0163

92.6094 4.31752 -1.75229e-11
4.31752 97.1418 5.68157e-12
-1.75229e-11 5.68157e-12 96.0433

41.9454 3.74117 7.71209e-12
3.74117 39.6801 4.84339e-11
7.71209e-12 4.84339e-11 43.6498

41.4197 3.56861 3.46982e-12
3.56861 39.7103 -8.60582e-12
3.46982e-12 -8.60582e-12 43.3986

86.0209 5.4011 -2.50155e-12
5.4011 89.7316 8.47307e-12
-2.50155e-12 8.47307e-12 87.7432

86.0064 -5.43697 -4.85216e-11
-5.43697 89.7588 5.77716e-12
-4.85216e-11 5.77716e-12 87.7307

101.819 -5.22839 4.31203e-11
-5.22839 109.259 -2.71447e-11
4.31203e-11 -2.71447e-11 104.02

103.391 2.35553 2.00186e-11
2.35553 104.638 2.50319e-11
2.00186e-11 2.50319e-11 103.389

91.4855 -5.8595 5.19725e-12
-5.8595 100.35 -1.25319e-12
5.19725e-12 -1.25319e-12 97.0866

91.5123 5.86247 -1.07824e-11
5.86247 100.217 -4.44753e-11
-1.07824e-11 -4.44753e-11 97.086

102.521 0.375674 -5.19792e-12
0.375674 93.0639 -1.35714e-11
-5.19792e-12 -1.35714e-11 99.175

102.489 -0.32098 7.27796e-11
-0.32098 93.0947 -5.27468e-11
7.27796e-11 -5.27468e-11 99.1747

89.7066 -6.63882 -4.73686e-11
-6.63882 90.3066 2.47487e-11
-4.73686e-11 2.47487e-11 92.0266

89.7474 6.7237 3.92767e-11
6.7237 89.9121 -2.66587e-11
3.92767e-11 -2.66587e-11 91.8377

109.398 1.61737 1.54151e-12
1.61737 100.878 1.15367e-12
1.54151e-12 1.15367e-12 103.843

110.04 0.281747 2.77214e-11
0.281747 104.881 -5.58282e-11
2.77214e-11 -5.58282e-11 105.943

109.449 -1.64002 1.96371e-11
-1.64002 100.955 -4.38887e-11
1.96371e-11 -4.38887e-11 103.898

110.033 -0.444838 -2.10942e-12
-0.444838 104.579 -5.76548e-11
-2.10942e-12 -5.76548e-11 105.889

102.937 0.272448 1.92542e-12
0.272448 110.196 1.82894e-11
1.92542e-12 1.82894e-11 104.703

113.871 6.52335 1.84779e-11
6.52335 109.066 1.17419e-11
1.84779e-11 1.17419e-11 106.274

113.906 -6.49799 -3.77347e-11
-6.49799 109.114 5.47683e-11
-3.77347e-11 5.47683e-11 106.27

100.099 -3.49645 -2.11774e-11
-3.49645 116.944 1.19379e-11
-2.11774e-11 1.19379e-11 105.598

104.64 -3.08263 2.11386e-10
-3.08263 106.45 -2.98112e-10
2.11386e-10 -2.98112e-10 104.759

135.119 -4.4677 1.83896e-09
-4.4677 98.5322 6.47753e-10
1.83896e-09 6.47753e-10 110.469

104.332 3.24634 8.47025e-11
3.24634 107.04 -1.14544e-11
8.47025e-11 -1.14544e-11 104.908

135.181 4.13106 1.33688e-10
4.13106 99.8896 -2.62516e-10
1.33688e-10 -2.62516e-10 110.861

106.873 -4.22596 -9.22088e-11
-4.22596 105.094 4.36072e-11
-9.22088e-11 4.36072e-11 104.444

99.3609 -2.95095 3.04161e-11
-2.95095 103.837 7.40998e-12
3.04161e-11 7.40998e-12 101.246

109.338 -0.247422 -9.37484e-11
-0.247422 105.191 -2.97951e-12
-9.37484e-11 -2.97951e-12 106.202

106.741 4.43594 3.2917e-11
4.43594 105.185 -1.5496e-11
3.2917e-11 -1.5496e-11 104.488

99.4383 3.05156 -8.08783e-12
3.05156 103.666 -5.25581e-11
-8.08783e-12 -5.25581e-11 101.235

109.463 0.278751 4.50459e-11
0.278751 106.019 -5.59192e-11
4.50459e-11 -5.59192e-11 106.479

99.0684 -2.43695 3.33029e-11
-2.43695 102.636 -9.4529e-11
3.33029e-11 -9.4529e-11 101.447

106.857 -1.3686 1.07806e-11
-1.3686 104.976 -5.04371e-11
1.07806e-11 -5.04371e-11 104.644

99.2009 2.55164 -2.06002e-11
2.55164 102.661 -3.30176e-11
-2.06002e-11 -3.30176e-11 101.506

106.93 1.43019 -3.25353e-11
1.43019 105.035 -5.53459e-11
-3.25353e-11 -5.53459e-11 104.697

75.2424 5.75105 -1.5594e-11
5.75105 81.8876 -1.17454e-11
-1.5594e-11 -1.17454e-11 76.7847

83.8178 1.16204 -9.23895e-12
1.16204 96.0512 1.07844e-11
-9.23895e-12 1.07844e-11 90.5922

88.8883 3.09547 5.00462e-12
3.09547 93.6843 3.08063e-11
5.00462e-12 3.08063e-11 90.8629

86.9756 -3.76555 -2.27255e-11
-3.76555 74.4631 1.42502e-11
-2.27255e-11 1.42502e-11 81.7464

82.9511 -2.30176 1.44376e-11
-2.30176 71.534 7.7538e-13
1.44376e-11 7.7538e-13 76.962

85.9292 1.76374 -1.65567e-11
1.76374 102.522 -1.03991e-11
-1.65567e-11 -1.03991e-11 95.5132

90.1144 3.19655 2.71458e-11
3.19655 95.8961 -2.61808e-11
2.71458e-11 -2.61808e-11 94.9447

83.2137 -0.0214773 5.19747e-12
-0.0214773 72.3327 -1.03944e-11
5.19747e-12 -1.03944e-11 77.4424

93.9827 1.45598 -1.69459e-11
1.45598 80.6579 -2.04103e-11
-1.69459e-11 -2.04103e-11 91.0521

60.6579 4.97512 1.42543e-11
4.97512 67.9565 -3.65263e-12
1.42543e-11 -3.65263e-12 62.224

58.3052 3.93792 2.25301e-11
3.93792 67.3296 6.55106e-12
2.25301e-11 6.55106e-12 61.3818

65.7573 3.94581 4.074e-11
3.94581 58.7161 1.54089e-11
4.074e-11 1.54089e-11 60.5496

96.5693 -6.00794 3.07776e-12
-6.00794 99.9309 3.46554e-11
3.07776e-12 3.46554e-11 98.057

95.6614 -2.52537 2.30999e-11
-2.52537 102.326 1.27083e-11
2.30999e-11 1.27083e-11 98.3729

83.4106 -6.94495 1.92641e-11
-6.94495 82.5193 1.54188e-12
1.92641e-11 1.54188e-12 83.2191

76.8558 5.58155 -8.08679e-12
5.58155 85.6126 5.01036e-12
-8.08679e-12 5.01036e-12 81.3709

84.0005 6.51776 -4.43047e-12
6.51776 92.1448 2.0216e-11
-4.43047e-12 2.0216e-11 89.2039

89.7512 -3.14988 3.04166e-11
-3.14988 95.6781 1.0589e-11
3.04166e-11 1.0589e-11 94.6542

85.5965 -2.08898 -1.55933e-11
-2.08898 102.557 4.73637e-11
-1.55933e-11 4.73637e-11 95.1933

89.249 1.75414 -4.1888e-11
1.75414 75.6035 2.31059e-11
-4.1888e-11 2.31059e-11 82.7684

65.9038 1.63442 1.75241e-11
1.63442 75.2454 -1.44428e-11
1.75241e-11 -1.44428e-11 67.578

63.7704 0.723 1.17502e-11
0.723 74.9197 -5.01036e-12
1.17502e-11 -5.01036e-12 67.2978

74.0343 0.679808 3.47337e-12
0.679808 64.0095 2.07972e-11
3.47337e-12 2.07972e-11 66.1958

72.9867 3.93258 2.32998e-11
3.93258 82.5485 -1.03997e-11
2.32998e-11 -1.03997e-11 77.0592

74.5706 6.42567 -2.11828e-11
6.42567 80.0467 -2.56127e-11
-2.11828e-11 -2.56127e-11 76.0709

86.8187 1.09423 8.28064e-12
1.09423 74.7658 -1.34779e-11
8.28064e-12 -1.34779e-11 82.3635

56.8642 2.97284 7.9039e-12
2.97284 62.4746 -1.56007e-11
7.9039e-12 -1.56007e-11 56.4388

93.8612 -4.02242 1.73298e-11
-4.02242 80.2023 -2.2334e-11
1.73298e-11 -2.2334e-11 89.4629

96.4143 0.305136 -3.08012e-11
0.305136 105.353 -5.00933e-12
-3.08012e-11 -5.00933e-12 99.3428

99.0293 0.0852209 -8.27941e-12
0.0852209 100.285 -1.76163e-11
-8.27941e-12 -1.76163e-11 98.9706

119.219 2.69859 -4.58165e-11
2.69859 104.017 3.65482e-12
-4.58165e-11 3.65482e-12 107.356

120.297 -6.49526 -4.38928e-11
-6.49526 109.4 -2.30933e-11
-4.38928e-11 -2.30933e-11 108.1

80.6752 -7.36949 -3.84663e-12
-7.36949 82.634 -1.15549e-11
-3.84663e-12 -1.15549e-11 82.0945

72.7869 -5.96157 4.81918e-12
-5.96157 79.408 -2.46529e-11
4.81918e-12 -2.46529e-11 75.8998

72.7603 -2.05213 9.44074e-12
-2.05213 61.7328 8.4713e-12
9.44074e-12 8.4713e-12 65.4458

103.332 1.06056 -1.92542e-12
1.06056 96.0129 -2.61831e-11
-1.92542e-12 -2.61831e-11 99.3041

103.422 -3.84925 -3.08427e-12
-3.84925 96.588 2.81049e-11
-3.08427e-12 2.81049e-11 98.8111

94.2538 -1.70968 -8.46945e-12
-1.70968 80.8735 -1.77115e-11
-8.46945e-12 -1.77115e-11 91.2042

92.737 -0.507777 -1.86793e-11
-0.507777 77.5582 -7.31783e-12
-1.86793e-11 -7.31783e-12 89.2399

78.5132 -6.07865 2.27263e-11
-6.07865 72.5553 -6.54454e-12
2.27263e-11 -6.54454e-12 73.8447

78.788 2.80972 1.61714e-11
2.80972 68.6279 -7.12904e-12
1.61714e-11 -7.12904e-12 72.4091

77.4638 -4.96029 2.79194e-11
-4.96029 67.6577 5.77886e-12
2.79194e-11 5.77886e-12 71.5443

80.1246 4.08524 -1.40576e-11
4.08524 93.2194 -1.46326e-11
-1.40576e-11 -1.46326e-11 89.1869

73.7071 -4.93862 -9.04691e-12
-4.93862 82.2282 1.34805e-11
-9.04691e-12 1.34805e-11 77.1955

72.4393 4.7492 2.34008e-11
4.7492 79.5285 -1.50203e-11
2.34008e-11 -1.50203e-11 75.9495

45.0679 -7.5441 1.07871e-11
-7.5441 45.3998 -1.44467e-11
1.07871e-11 -1.44467e-11 44.943

42.471 4.64059 1.02115e-11
4.64059 44.8852 -3.12124e-11
1.02115e-11 -3.12124e-11 44.0514

85.0358 -5.64972 -1.80937e-11
-5.64972 97.7849 -9.62785e-12
-1.80937e-11 -9.62785e-12 94.0831

74.6758 3.75107 2.3878e-11
3.75107 86.4534 -4.62178e-12
2.3878e-11 -4.62178e-12 81.7294

42.7471 0.784862 2.17642e-11
0.784862 43.436 -5.38917e-12
2.17642e-11 -5.38917e-12 45.3883

43.7793 -1.52781 -5.97433e-12
-1.52781 46.1114 4.03877e-12
-5.97433e-12 4.03877e-12 46.2887

97.993 -2.24902 3.65854e-11
-2.24902 101.367 -1.92513e-11
3.65854e-11 -1.92513e-11 99.5497

97.2312 4.74989 -5.80366e-11
4.74989 99.174 2.00184e-11
-5.80366e-11 2.00184e-11 99.1688

94.8222 0.0502796 2.08475e-11
0.0502796 78.4738 -1.21282e-11
2.08475e-11 -1.21282e-11 86.8676

97.5192 -1.50894 5.26068e-11
-1.50894 98.172 -5.3711e-11
5.26068e-11 -5.3711e-11 98.8052

97.3763 4.43257 -5.20641e-11
4.43257 99.3787 -1.77128e-11
-5.20641e-11 -1.77128e-11 99.1673

113.342 4.86338 7.69579e-12
4.86338 100.712 -5.20228e-12
7.69579e-12 -5.20228e-12 104.78

112.653 -5.95024 9.62154e-12
-5.95024 106.04 2.15571e-11
9.62154e-12 2.15571e-11 105.237

91.3756 -3.59894 1.98327e-11
-3.59894 91.8888 -3.90364e-11
1.98327e-11 -3.90364e-11 92.5996

91.0893 4.75112 -1.56488e-11
4.75112 90.7581 -7.08122e-12
-1.56488e-11 -7.08122e-12 92.5851

102.183 -0.376024 3.11826e-11
-0.376024 115.188 -3.85321e-13
3.11826e-11 -3.85321e-13 104.8

101.551 1.70516 4.02322e-11
1.70516 107.491 -1.44262e-12
4.02322e-11 -1.44262e-12 103.396

74.3282 -6.78984 3.82203e-11
-6.78984 82.071 2.29137e-11
3.82203e-11 2.29137e-11 76.7518

52.5639 0.715267 1.30956e-11
0.715267 59.7123 -3.85499e-12
1.30956e-11 -3.85499e-12 54.5918

59.2033 0.921626 -1.02031e-11
0.921626 53.3433 -5.08536e-11
-1.02031e-11 -5.08536e-11 54.5747

78.2898 3.56781 4.04402e-12
3.56781 92.2754 -2.81168e-11
4.04402e-12 -2.81168e-11 87.3148

82.1839 5.23519 1.67474e-11
5.23519 90.768 3.85255e-12
1.67474e-11 3.85255e-12 87.405

116.287 -4.9579 -3.43234e-11
-4.9579 107.437 -1.92433e-11
-3.43234e-11 -1.92433e-11 108.501

115.646 7.70304 -2.20863e-10
7.70304 124.489 2.19222e-11
-2.20863e-10 2.19222e-11 111.739

78.1812 4.80024 -2.61918e-11
4.80024 75.6253 -9.66412e-13
-2.61918e-11 -9.66412e-13 75.1822

86.6314 8.09771 1.15348e-12
8.09771 94.7564 9.63082e-13
1.15348e-12 9.63082e-13 91.8554

90.286 3.08011 2.03556e-11
3.08011 82.2797 4.42829e-11
2.03556e-11 4.42829e-11 87.7711

90.507 -2.4549 -3.85592e-11
-2.4549 82.3391 -3.85395e-12
-3.85592e-11 -3.85395e-12 87.577

86.8514 7.69283 -1.80996e-11
7.69283 92.0111 -2.5416e-11
-1.80996e-11 -2.5416e-11 90.9729

88.8641 -7.58845 -2.95527e-11
-7.58845 97.1601 -2.50037e-12
-2.95527e-11 -2.50037e-12 94.3823

100.298 -6.49509 -1.03987e-11
-6.49509 89.5701 2.42576e-11
-1.03987e-11 2.42576e-11 95.8794

72.6686 -0.58061 4.1398e-12
-0.58061 62.2274 -1.13625e-11
4.1398e-12 -1.13625e-11 65.6643

123.457 0.904369 4.31095e-11
0.904369 118.695 -8.0765e-12
4.31095e-11 -8.0765e-12 111.036

123.871 -0.560349 -6.54221e-12
-0.560349 108.484 -3.77242e-11
-6.54221e-12 -3.77242e-11 109.658

81.1032 5.90827 -1.77061e-11
5.90827 78.4867 2.27213e-11
-1.77061e-11 2.27213e-11 80.1174

90.1202 2.24769 -3.46626e-11
2.24769 78.9616 -4.42856e-11
-3.46626e-11 -4.42856e-11 84.1797

67.7804 5.04134 -1.9643e-11
5.04134 70.0923 1.32895e-11
-1.9643e-11 1.32895e-11 65.9998

104.162 1.19645 1.21269e-11
1.19645 107.881 -3.65485e-12
1.21269e-11 -3.65485e-12 104.893

107.842 3.48459 4.02277e-11
3.48459 118.821 -5.77449e-12
4.02277e-11 -5.77449e-12 107.377

100.411 3.22451 -7.31526e-12
3.22451 88.431 2.34857e-11
-7.31526e-12 2.34857e-11 96.4425

83.4995 -1.36517 -7.41342e-12
-1.36517 96.2668 7.31578e-12
-7.41342e-12 7.31578e-12 90.3709

88.6825 -2.91874 9.33865e-12
-2.91874 93.9557 -1.9275e-12
9.33865e-12 -1.9275e-12 90.7867

96.3578 0.937444 3.29994e-11
0.937444 80.6464 -1.91935e-12
3.29994e-11 -1.91935e-12 90.0731

96.846 -0.735028 2.46914e-11
-0.735028 80.5115 7.6981e-13
2.46914e-11 7.6981e-13 90.0096

69.994 -5.05876 -3.0143e-11
-5.05876 67.6416 1.61748e-11
-3.0143e-11 1.61748e-11 65.4307

85.8719 0.0137678 4.29286e-13
0.0137678 72.2724 2.36855e-11
4.29286e-13 2.36855e-11 77.7869

98.5485 -0.825789 5.67792e-11
-0.825789 87.1666 -1.55923e-11
5.67792e-11 -1.55923e-11 94.3206

97.2377 1.66624 -1.80679e-11
1.66624 88.275 -1.69428e-11
-1.80679e-11 -1.69428e-11 94.3903

90.5085 -2.10865 -1.38614e-11
-2.10865 80.3164 -8.467e-12
-1.38614e-11 -8.467e-12 84.3228

76.0155 -5.99298 -1.36671e-11
-5.99298 82.9356 -5.89292e-11
-1.36671e-11 -5.89292e-11 77.8422

98.0589 -0.485844 3.6682e-11
-0.485844 85.1763 2.79171e-11
3.6682e-11 2.79171e-11 91.6035

97.2604 1.07439 2.48883e-11
1.07439 84.7931 4.04314e-11
2.48883e-11 4.04314e-11 91.5619

88.9681 2.44336 7.89013e-12
2.44336 79.2542 -3.27708e-12
7.89013e-12 -3.27708e-12 85.0357

70.6513 -7.62952 1.81002e-11
-7.62952 69.6408 5.00666e-12
1.81002e-11 5.00666e-12 69.2383

83.3553 7.35329 2.08849e-11
7.35329 90.1125 -2.07961e-11
2.08849e-11 -2.07961e-11 90.2752

87.3192 7.22315 -1.07784e-11
7.22315 95.8882 3.56194e-11
-1.07784e-11 3.56194e-11 92.6518

82.6563 5.45118 -1.56905e-11
5.45118 90.8632 3.8509e-11
-1.56905e-11 3.8509e-11 90.9513

79.5271 2.66138 1.07847e-11
2.66138 67.8037 2.65797e-11
1.07847e-11 2.65797e-11 72.4189

62.3033 -5.26166 -1.44479e-11
-5.26166 57.6859 1.69535e-11
-1.44479e-11 1.69535e-11 57.8023

89.8038 4.44376 -1.63637e-11
4.44376 83.6354 -4.81933e-12
-1.63637e-11 -4.81933e-12 88.5355

88.6637 -4.73317 -8.68357e-12
-4.73317 78.9627 2.84993e-11
-8.68357e-12 2.84993e-11 83.9003

63.256 -4.56047 -2.13841e-11
-4.56047 57.3961 -1.57873e-11
-2.13841e-11 -1.57873e-11 58.1935

81.5375 -7.60056 1.23202e-11
-7.60056 76.4421 1.92424e-12
1.23202e-11 1.92424e-12 79.399

80.5549 0.192935 -2.07981e-11
0.192935 89.2828 8.8578e-12
-2.07981e-11 8.8578e-12 86.3841

76.999 0.00053288 1.13599e-11
0.00053288 94.0091 -1.4247e-11
1.13599e-11 -1.4247e-11 86.8483

72.2251 6.47898 -1.40492e-11
6.47898 72.7948 3.89041e-11
-1.40492e-11 3.89041e-11 71.2519

67.9163 -5.39884 -1.29085e-11
-5.39884 60.358 -4.31393e-11
-1.29085e-11 -4.31393e-11 62.1024

86.5753 -7.88284 8.84944e-12
-7.88284 89.2859 2.00244e-11
8.84944e-12 2.00244e-11 90.3987

72.3712 -7.05281 2.90763e-11
-7.05281 76.0056 -1.25189e-11
2.90763e-11 -1.25189e-11 71.9116

71.4099 -7.12978 -8.45916e-12
-7.12978 74.6148 -3.73593e-11
-8.45916e-12 -3.73593e-11 71.3414

88.0238 3.64831 9.82311e-12
3.64831 81.1532 9.05476e-12
9.82311e-12 9.05476e-12 84.608

99.7699 2.30215 3.35055e-11
2.30215 79.1479 3.46245e-12
3.35055e-11 3.46245e-12 94.1669

99.0664 -3.62599 -3.54297e-11
-3.62599 81.914 3.00287e-11
-3.54297e-11 3.00287e-11 94.0826

69.8307 4.04876 1.52187e-11
4.04876 79.0615 5.78204e-13
1.52187e-11 5.78204e-13 73.0436

67.4448 2.76646 8.64235e-13
2.76646 80.2909 -8.85795e-12
8.64235e-13 -8.85795e-12 73.2582

59.9057 -0.589138 1.96485e-11
-0.589138 72.1145 1.92675e-12
1.96485e-11 1.92675e-12 64.1132

58.4253 -0.783246 -3.38926e-11
-0.783246 72.5359 -5.77775e-12
-3.38926e-11 -5.77775e-12 64.0742

71.8866 -0.519279 7.69281e-12
-0.519279 58.5766 3.12013e-11
7.69281e-12 3.12013e-11 63.2115

74.1901 -6.43019 4.0254e-11
-6.43019 70.4523 -2.06043e-11
4.0254e-11 -2.06043e-11 71.0068

106.038 -4.7316 -6.56397e-11
-4.7316 113.2 -1.44339e-11
-6.56397e-11 -1.44339e-11 107.251

126.087 -1.88117 -1.50136e-11
-1.88117 126.141 -1.42492e-11
-1.50136e-11 -1.42492e-11 113.266

75.9826 4.53024 -7.31607e-12
4.53024 68.378 1.15589e-11
-7.31607e-12 1.15589e-11 71.1161

80.4852 -3.092 8.76055e-12
-3.092 68.4817 -2.06075e-11
8.76055e-12 -2.06075e-11 73.1124

63.7977 2.83088 -3.62093e-11
2.83088 57.2596 1.11731e-11
-3.62093e-11 1.11731e-11 58.6421

78.3133 4.64599 -2.09895e-11
4.64599 87.9407 -5.58446e-11
-2.09895e-11 -5.58446e-11 85.4882

94.8222 0.0735085 5.29391e-12
0.0735085 78.5697 2.54155e-11
5.29391e-12 2.54155e-11 86.7817

88.4426 7.07419 -1.07813e-11
7.07419 96.7481 5.58368e-12
-1.07813e-11 5.58368e-12 94.4539

83.1386 5.62316 -2.0202e-12
5.62316 97.7723 2.73412e-11
-2.0202e-12 2.73412e-11 94.0218

65.5955 3.64659 2.95606e-11
3.64659 69.5262 6.74024e-12
2.95606e-11 6.74024e-12 65.2402

68.0192 4.05869 3.80343e-11
4.05869 66.924 1.1561e-11
3.80343e-11 1.1561e-11 64.6822

85.6009 -8.55254 3.46641e-12
-8.55254 93.9639 1.92587e-13
3.46641e-12 1.92587e-13 90.8569

64.3733 2.28769 -2.19649e-11
2.28769 57.4427 -1.96403e-11
-2.19649e-11 -1.96403e-11 59.0256

82.6497 6.31805 -1.34974e-12
6.31805 89.0154 2.3087e-12
-1.34974e-12 2.3087e-12 90.8771

82.1045 7.69887 -2.25264e-11
7.69887 89.3153 9.81667e-12
-2.25264e-11 9.81667e-12 85.8495

100.191 -0.110513 1.40321e-11
-0.110513 80.9299 -1.21291e-11
1.40321e-11 -1.21291e-11 92.0581

84.8878 -5.83649 1.67517e-11
-5.83649 89.514 2.46459e-11
1.67517e-11 2.46459e-11 91.283

81.7923 6.30114 2.17587e-11
6.30114 82.2012 -1.15582e-11
2.17587e-11 -1.15582e-11 81.4665

67.4909 -3.09039 -3.31265e-11
-3.09039 76.0933 2.59983e-11
-3.31265e-11 2.59983e-11 68.8418

64.9615 -2.94167 -1.7326e-11
-2.94167 76.0526 -1.19395e-11
-1.7326e-11 -1.19395e-11 68.4449

74.7887 -2.19395 -1.153e-12
-2.19395 65.9758 -1.57935e-11
-1.153e-12 -1.57935e-11 67.5207

76.03 -5.77423 4.29381e-11
-5.77423 76.8767 -3.46752e-12
4.29381e-11 -3.46752e-12 74.1207

74.6021 -0.379913 3.85517e-12
-0.379913 87.8538 2.54207e-11
3.85517e-12 2.54207e-11 80.7112

79.0523 -0.056561 6.73753e-12
-0.056561 86.8795 -2.70021e-12
6.73753e-12 -2.70021e-12 81.0952

63.2191 -6.1836 -1.71462e-11
-6.1836 66.059 2.85111e-11
-1.71462e-11 2.85111e-11 62.1447

61.4772 -6.00733 -2.69732e-11
-6.00733 67.0363 4.3524e-11
-2.69732e-11 4.3524e-11 62.2491

100.297 -0.305729 -6.18613e-12
-0.305729 82.3323 -8.08542e-12
-6.18613e-12 -8.08542e-12 92.4707

100.761 0.316398 1.70656e-11
0.316398 82.0996 -1.36681e-11
1.70656e-11 -1.36681e-11 92.4387

81.2497 5.88893 -6.84171e-12
5.88893 86.95 -1.65616e-11
-6.84171e-12 -1.65616e-11 86.6346

83.0401 -4.96052 1.84889e-11
-4.96052 96.9332 -1.54121e-12
1.84889e-11 -1.54121e-12 93.6391

89.0365 -7.62795 -1.30875e-11
-7.62795 84.7982 -9.62682e-12
-1.30875e-11 -9.62682e-12 88.2504

95.4433 2.90806 1.28919e-11
2.90806 92.3228 1.15471e-12
1.28919e-11 1.15471e-12 95.538

96.6892 -0.891402 6.62062e-11
-0.891402 93.7945 -2.10701e-11
6.62062e-11 -2.10701e-11 95.8983

91.9231 -3.18676 -5.4881e-11
-3.18676 88.4103 2.57974e-11
-5.4881e-11 2.57974e-11 89.5827

91.1432 3.83124 1.77103e-11
3.83124 86.0175 -2.69222e-12
1.77103e-11 -2.69222e-12 89.22

41.8773 -3.20092 1.56001e-11
-3.20092 34.8813 5.24e-11
1.56001e-11 5.24e-11 43.5707

70.8454 6.07104 1.27138e-11
6.07104 74.6626 4.24283e-12
1.27138e-11 4.24283e-12 71.521

37.57 2.20799 -8.66329e-12
2.20799 42.1634 -3.0827e-11
-8.66329e-12 -3.0827e-11 44.1309

82.9697 6.82574 5.39065e-12
6.82574 86.7916 -9.82044e-12
5.39065e-12 -9.82044e-12 85.4169

70.4837 -4.78457 -9.52901e-12
-4.78457 80.7459 -3.0622e-11
-9.52901e-12 -3.0622e-11 74.0296

67.6227 -4.26542 6.73613e-12
-4.26542 80.137 3.35099e-11
6.73613e-12 3.35099e-11 73.4439

106.295 -1.4679 -1.68432e-11
-1.4679 104.582 2.88739e-12
-1.68432e-11 2.88739e-12 104.298

103.957 4.01642 2.32096e-12
4.01642 108.412 1.77024e-11
2.32096e-12 1.77024e-11 104.634

83.7746 4.53179 -2.57989e-11
4.53179 80.271 1.03985e-11
-2.57989e-11 1.03985e-11 81.8831

86.0487 -0.464645 -2.08051e-11
-0.464645 72.9742 -2.48416e-11
-2.08051e-11 -2.48416e-11 77.9473

73.8203 5.07754 4.32276e-12
5.07754 69.1264 -2.88889e-11
4.32276e-12 -2.88889e-11 70.5172

78.8997 -2.92922 -4.8118e-12
-2.92922 93.8307 -4.08232e-11
-4.8118e-12 -4.08232e-11 87.6804

82.4012 -4.828 1.92539e-11
-4.828 91.0335 -1.25152e-11
1.92539e-11 -1.25152e-11 87.5849

86.4505 -8.77341 -3.13335e-12
-8.77341 97.3669 4.64043e-11
-3.13335e-12 4.64043e-11 92.4975

84.2965 -4.8829 -1.9358e-11
-4.8829 82.4082 6.16143e-11
-1.9358e-11 6.16143e-11 82.1494

85.7496 8.16637 -9.04922e-12
8.16637 94.585 6.16174e-12
-9.04922e-12 6.16174e-12 91.7243

96.1149 3.77252 1.88662e-11
3.77252 101.503 8.56811e-12
1.88662e-11 8.56811e-12 98.539

96.2649 5.71088 1.94439e-11
5.71088 99.209 -2.11646e-12
1.94439e-11 -2.11646e-12 98.0413

83.1185 -7.68344 -6.92646e-12
-7.68344 92.0829 -2.25275e-11
-6.92646e-12 -2.25275e-11 87.5553

83.7278 6.97595 2.15633e-11
6.97595 90.4089 -2.30867e-12
2.15633e-11 -2.30867e-12 87.1949

78.3677 8.78628 -6.64219e-12
8.78628 90.6269 4.50561e-11
-6.64219e-12 4.50561e-11 90.2499

70.7379 0.825965 -3.47533e-11
0.825965 85.9131 1.92553e-11
-3.47533e-11 1.92553e-11 78.2967

73.187 1.91208 2.48375e-11
1.91208 83.8836 -3.6201e-11
2.48375e-11 -3.6201e-11 77.9437

84.4318 5.42202 -4.3997e-11
5.42202 83.505 2.92587e-11
-4.3997e-11 2.92587e-11 85.5335

75.5902 4.55942 -1.45433e-11
4.55942 75.0329 1.50213e-11
-1.45433e-11 1.50213e-11 74.0147

75.4926 -4.72196 -7.70302e-12
-4.72196 86.4852 2.3112e-11
-7.70302e-12 2.3112e-11 82.041

88.7039 -8.24468 -2.10822e-11
-8.24468 97.7113 1.11022e-15
-2.10822e-11 1.11022e-15 94.3744

50.1561 2.73385 1.7334e-11
2.73385 54.0436 7.69755e-13
1.7334e-11 7.69755e-13 50.5794

53.1698 2.8502 3.17968e-12
2.8502 50.9468 -4.85614e-11
3.17968e-12 -4.85614e-11 50.5697

65.1812 -6.10808 3.69334e-13
-6.10808 66.6935 2.58004e-11
3.69334e-13 2.58004e-11 63.6908

84.7457 -5.67762 8.27753e-12
-5.67762 85.4502 4.33251e-11
8.27753e-12 4.33251e-11 85.6424

89.2916 -1.69892 7.65787e-12
-1.69892 75.6509 -1.63666e-11
7.65787e-12 -1.63666e-11 82.6665

113.282 6.14165 -1.77659e-10
6.14165 116.709 5.35009e-11
-1.77659e-10 5.35009e-11 109.519

118.189 -6.68004 -1.71012e-11
-6.68004 108.543 5.44758e-11
-1.71012e-11 5.44758e-11 108.885

82.3524 -8.38911 4.62438e-12
-8.38911 91.0092 -2.56108e-11
4.62438e-12 -2.56108e-11 86.641

103.483 1.55711 -1.92525e-11
1.55711 99.8565 2.89013e-12
-1.92525e-11 2.89013e-12 102.054

105.967 -6.36891 4.04294e-11
-6.36891 106.18 -6.69924e-11
4.04294e-11 -6.69924e-11 103.364

89.6947 -2.21525 -2.09894e-11
-2.21525 77.3779 1.57848e-11
-2.09894e-11 1.57848e-11 85.5493

80.0621 -8.70649 1.2712e-11
-8.70649 90.2195 -2.31049e-12
1.2712e-11 -2.31049e-12 90.298

52.6361 -5.3351 -5.80203e-13
-5.3351 54.9242 4.93168e-11
-5.80203e-13 4.93168e-11 52.5326

54.6128 3.88731 3.46419e-12
3.88731 54.404 3.36967e-12
3.46419e-12 3.36967e-12 52.9596

54.3693 -3.18068 2.02283e-11
-3.18068 62.0421 -1.54025e-12
2.02283e-11 -1.54025e-12 56.2071

55.5093 -3.48841 5.20265e-12
-3.48841 62.9856 1.11795e-11
5.20265e-12 1.11795e-11 57.2149

62.7453 -2.64968 -3.9782e-11
-2.64968 54.4246 -2.64889e-11
-3.9782e-11 -2.64889e-11 56.2328

67.1052 4.71793 -2.48465e-11
4.71793 66.1567 1.25252e-11
-2.48465e-11 1.25252e-11 64.4228

85.6214 -9.32505 -9.91429e-14
-9.32505 96.1308 1.69441e-11
-9.91429e-14 1.69441e-11 91.8637

49.3275 0.473035 1.40654e-11
0.473035 58.9809 1.07865e-11
1.40654e-11 1.07865e-11 52.7502

58.2312 -1.41452 -1.96391e-11
-1.41452 49.0263 -1.57957e-11
-1.96391e-11 -1.57957e-11 52.7112

100.473 0.72612 -1.98249e-11
0.72612 110.185 -3.65824e-11
-1.98249e-11 -3.65824e-11 102.749

100.04 -3.79298 4.08106e-11
-3.79298 103.651 4.43726e-11
4.08106e-11 4.43726e-11 101.522

94.9838 -4.35603 1.17515e-11
-4.35603 85.9226 5.01095e-12
1.17515e-11 5.01095e-12 90.9914

94.6143 -0.271662 -9.24231e-12
-0.271662 73.8347 7.69431e-13
-9.24231e-12 7.69431e-13 90.0812

62.6185 -4.6828 -1.67439e-11
-4.6828 71.2862 -5.23895e-11
-1.67439e-11 -5.23895e-11 65.8179

64.8802 -4.67189 -1.15589e-11
-4.67189 72.7797 3.79451e-11
-1.15589e-11 3.79451e-11 66.6908

90.7033 -0.258961 -2.36886e-11
-0.258961 77.1628 8.08413e-12
-2.36886e-11 8.08413e-12 86.0271

77.9004 -6.41398 -6.67836e-13
-6.41398 87.3846 -7.70228e-12
-6.67836e-13 -7.70228e-12 82.5639

103.933 0.0913453 -3.47224e-11
0.0913453 100.751 -3.71528e-11
-3.47224e-11 -3.71528e-11 101.839

101.382 1.9181 -2.46411e-11
1.9181 102.554 -1.27048e-11
-2.46411e-11 -1.27048e-11 101.766

91.5527 -6.04412 2.13739e-11
-6.04412 87.4811 -2.69695e-12
2.13739e-11 -2.69695e-12 90.0459

82.1518 -6.17395 1.05858e-11
-6.17395 86.3147 3.69721e-11
1.05858e-11 3.69721e-11 86.2664

93.1343 -4.34035 -7.7102e-12
-4.34035 79.3447 1.11734e-11
-7.7102e-12 1.11734e-11 88.2338

79.8046 -5.43743 6.92553e-12
-5.43743 88.0451 1.84871e-11
6.92553e-12 1.84871e-11 85.8065

42.167 -10.3611 -5.3928e-12
-10.3611 43.1726 -2.92834e-11
-5.3928e-12 -2.92834e-11 43.1388

74.2365 -2.38484 1.46313e-11
-2.38484 83.8423 3.77328e-13
1.46313e-11 3.77328e-13 78.2807

71.662 -1.79664 1.34785e-12
-1.79664 85.8773 1.15553e-11
1.34785e-12 1.15553e-11 78.4434

99.3361 -0.875671 -1.36661e-11
-0.875671 114.382 -1.73297e-11
-1.36661e-11 -1.73297e-11 103.648

100.577 -1.03562 -1.21287e-11
-1.03562 103.051 -1.22231e-11
-1.21287e-11 -1.22231e-11 101.939

102.28 -0.582939 -1.00629e-11
-0.582939 85.1282 1.69376e-11
-1.00629e-11 1.69376e-11 95.1596

100.963 0.287001 7.21867e-13
0.287001 85.7632 9.62475e-12
7.21867e-13 9.62475e-12 95.0979

94.1838 4.53052 -3.04149e-11
4.53052 91.4922 1.7136e-11
-3.04149e-11 1.7136e-11 94.7009

95.9205 -8.13145 -3.85065e-11
-8.13145 90.9391 1.88665e-11
-3.85065e-11 1.88665e-11 94.4075

103.931 1.62046 1.69396e-11
1.62046 103.073 7.72882e-13
1.69396e-11 7.72882e-13 102.124

107.314 -2.90097 6.23703e-11
-2.90097 103.218 -8.6707e-12
6.23703e-11 -8.6707e-12 102.528

110.635 -3.16788 3.00178e-11
-3.16788 107.104 5.10144e-11
3.00178e-11 5.10144e-11 106.631

111.568 9.50956 2.73778e-11
9.50956 115.706 8.43135e-11
2.73778e-11 8.43135e-11 108.541

89.362 -8.39796 -1.7808e-12
-8.39796 98.1788 9.24043e-12
-1.7808e-12 9.24043e-12 95.0253

85.2216 10.3966 6.83475e-12
10.3966 92.1638 -1.07794e-11
6.83475e-12 -1.07794e-11 93.7159

82.8649 4.20463 -1.30901e-11
4.20463 76.0593 -1.46352e-11
-1.30901e-11 -1.46352e-11 79.811

76.7712 -3.58669 -1.81067e-11
-3.58669 88.453 3.23466e-11
-1.81067e-11 3.23466e-11 83.1212

80.962 -5.43955 5.39631e-12
-5.43955 88.7375 -3.42747e-11
5.39631e-12 -3.42747e-11 83.7435

83.2646 -4.42721 -2.19436e-11
-4.42721 77.274 -1.42458e-11
-2.19436e-11 -1.42458e-11 79.9857

80.6541 4.09206 4.09592e-11
4.09206 87.614 -2.17573e-11
4.09592e-11 -2.17573e-11 83.1496

76.6913 2.4169 1.95353e-11
2.4169 88.7464 -9.24401e-12
1.95353e-11 -9.24401e-12 83.0601

78.3877 5.80986 -5.6873e-12
5.80986 78.108 1.61642e-11
-5.6873e-12 1.61642e-11 78.5645

90.582 6.9662 -8.08605e-12
6.9662 96.4653 1.52096e-11
-8.08605e-12 1.52096e-11 95.2574

89.1864 -9.31083 -2.98396e-11
-9.31083 92.9541 2.65747e-11
-2.98396e-11 2.65747e-11 94.4039

79.3507 -7.11582 -1.26184e-11
-7.11582 79.9379 3.48589e-11
-1.26184e-11 3.48589e-11 78.8232

95.9729 2.06284 -2.82996e-11
2.06284 87.1056 3.65685e-12
-2.82996e-11 3.65685e-12 92.4655

125.748 -3.14045 8.87345e-11
-3.14045 123.958 3.0417e-11
8.87345e-11 3.0417e-11 112.65

107.164 1.91051 -4.36949e-11
1.91051 108.988 1.54944e-11
-4.36949e-11 1.54944e-11 106.556

87.6656 -7.04558 -1.76157e-11
-7.04558 94.6164 -1.86666e-13
-1.76157e-11 -1.86666e-13 91.0754

89.8718 -6.98257 1.50221e-11
-6.98257 82.4209 -7.32022e-12
1.50221e-11 -7.32022e-12 87.3809

103.824 -0.603953 -1.84834e-11
-0.603953 96.232 1.38591e-11
-1.84834e-11 1.38591e-11 99.3094

52.3584 -4.90536 4.83051e-12
-4.90536 54.2486 -1.1558e-11
4.83051e-12 -1.1558e-11 51.3886

54.717 -4.37873 -1.19349e-11
-4.37873 51.7208 -2.1082e-11
-1.19349e-11 -2.1082e-11 51.4641

103.519 0.479573 -3.7256e-11
0.479573 88.6424 -1.13591e-11
-3.7256e-11 -1.13591e-11 96.9985

101.033 -0.376626 3.48509e-11
-0.376626 89.2695 -2.00198e-11
3.48509e-11 -2.00198e-11 96.6735

104.083 -0.0904258 1.42463e-11
-0.0904258 92.2696 2.84865e-11
1.42463e-11 2.84865e-11 99.0912

80.9937 2.97712 -6.74631e-12
2.97712 72.5234 -3.04217e-11
-6.74631e-12 -3.04217e-11 74.955

91.9785 -4.49171 4.22561e-11
-4.49171 95.4196 -1.3475e-11
4.22561e-11 -1.3475e-11 93.6758

91.041 5.45316 -8.36131e-12
5.45316 91.1834 3.54245e-11
-8.36131e-12 3.54245e-11 93.0061

116.299 -4.98454 -2.00167e-11
-4.98454 105.163 -3.64241e-11
-2.00167e-11 -3.64241e-11 107.772

122.101 -0.531497 -4.42639e-11
-0.531497 127.338 4.55311e-11
-4.42639e-11 4.55311e-11 112.716

83.4725 -7.91339 1.25229e-12
-7.91339 93.1684 -3.85055e-12
1.25229e-12 -3.85055e-12 89.3197

87.4922 -5.55716 1.17454e-11
-5.55716 78.9836 1.46355e-11
1.17454e-11 1.46355e-11 83.2288

98.9839 1.21929 -4.652e-11
1.21929 94.3815 4.92823e-11
-4.652e-11 4.92823e-11 96.9226

100.353 0.185902 6.02357e-11
0.185902 93.3962 -6.73994e-12
6.02357e-11 -6.73994e-12 96.8793

83.9874 -3.18385 -1.73277e-11
-3.18385 93.6178 -2.92715e-11
-1.73277e-11 -2.92715e-11 90.5383

82.9407 -5.83516 5.39771e-12
-5.83516 90.008 -2.75324e-11
5.39771e-12 -2.75324e-11 90.611

44.1525 8.76006 -4.52719e-11
8.76006 42.7594 -8.67528e-12
-4.52719e-11 -8.67528e-12 43.6899

94.028 4.67045 1.38625e-11
4.67045 99.7871 2.00235e-11
1.38625e-11 2.00235e-11 97.769

93.6527 -6.07861 -3.8888e-11
-6.07861 98.8643 2.31907e-12
-3.8888e-11 2.31907e-12 97.3393

80.9411 -5.52116 -2.40587e-11
-5.52116 91.2036 -5.39065e-12
-2.40587e-11 -5.39065e-12 88.981

82.3661 -3.73011 2.29227e-11
-3.73011 74.6596 -4.08226e-11
2.29227e-11 -4.08226e-11 75.9745

91.5561 4.05122 -2.46459e-11
4.05122 90.2288 -3.70074e-15
-2.46459e-11 -3.70074e-15 91.1506

95.2314 4.25237 -1.69467e-11
4.25237 95.9354 -3.63859e-11
-1.69467e-11 -3.63859e-11 96.0244

97.5941 -6.54814 -5.89149e-11
-6.54814 92.0935 -3.00247e-11
-5.89149e-11 -3.00247e-11 95.5092

93.9122 1.63715 -2.38771e-11
1.63715 79.833 2.50422e-12
-2.38771e-11 2.50422e-12 89.4926

103.177 -0.752829 3.58799e-11
-0.752829 98.5897 4.81287e-11
3.58799e-11 4.81287e-11 100.659

105.091 1.17845 -5.4445e-11
1.17845 96.0086 6.92949e-12
-5.4445e-11 6.92949e-12 100.5

108.845 2.16949 1.71301e-11
2.16949 123.405 1.4627e-11
1.71301e-11 1.4627e-11 108.772

106.199 0.409929 -9.04703e-11
0.409929 114.855 -3.94635e-11
-9.04703e-11 -3.94635e-11 107.054

43.3377 -2.24122 9.82888e-12
-2.24122 37.6049 -2.08069e-11
9.82888e-12 -2.08069e-11 44.3975

35.4143 -1.49001 -3.27587e-11
-1.49001 43.9178 8.85913e-12
-3.27587e-11 8.85913e-12 44.0631

88.3637 -6.9708 -2.89013e-12
-6.9708 96.7823 -2.50192e-12
-2.89013e-12 -2.50192e-12 92.6645

86.895 6.04649 2.45934e-11
6.04649 90.7088 -1.77062e-11
2.45934e-11 -1.77062e-11 91.7428

85.9532 -9.32543 2.30966e-12
-9.32543 96.1674 5.0064e-12
2.30966e-12 5.0064e-12 91.749

42.4771 2.38852 -3.29401e-11
2.38852 42.1364 2.69503e-12
-3.29401e-11 2.69503e-12 44.5709

43.1992 3.60123 -5.19703e-12
3.60123 40.839 -7.77045e-13
-5.19703e-12 -7.77045e-13 44.5009

98.7962 7.62789 7.80076e-11
7.62789 123.083 3.19453e-11
7.80076e-11 3.19453e-11 108.119

107.13 -6.01184 1.06914e-10
-6.01184 118.58 2.35246e-10
1.06914e-10 2.35246e-10 108.893

87.7155 5.63634 -2.92687e-11
5.63634 87.956 -1.86804e-11
-2.92687e-11 -1.86804e-11 89.002

79.9572 -6.72745 -3.81297e-11
-6.72745 83.9267 3.77468e-11
-3.81297e-11 3.77468e-11 81.0207

87.0013 -6.68285 2.92193e-11
-6.68285 92.0625 -2.40674e-11
2.92193e-11 -2.40674e-11 90.5364

86.5837 6.72636 3.92226e-11
6.72636 89.1229 7.70606e-12
3.92226e-11 7.70606e-12 90.333

81.8453 -7.80357 -7.314e-12
-7.80357 88.0651 -2.13746e-11
-7.314e-12 -2.13746e-11 85.0245

79.004 5.42475 2.9562e-11
5.42475 81.9261 -6.92557e-12
2.9562e-11 -6.92557e-12 80.7652

54.3852 -2.84589 -4.17917e-11
-2.84589 62.9058 1.96471e-11
-4.17917e-11 1.96471e-11 57.1034

56.1096 -2.44871 -1.14959e-12
-2.44871 62.9622 1.90514e-13
-1.14959e-12 1.90514e-13 57.1916

63.2739 -1.99358 -2.70578e-11
-1.99358 55.228 1.92724e-12
-2.70578e-11 1.92724e-12 56.8587

80.4541 6.08683 -1.37609e-11
6.08683 85.2581 -2.88835e-11
-1.37609e-11 -2.88835e-11 84.5886

49.4444 -0.313793 3.1204e-11
-0.313793 58.5832 -3.3135e-11
3.1204e-11 -3.3135e-11 52.8108

58.2146 0.622868 -1.77363e-11
0.622868 50.4319 3.42932e-11
-1.77363e-11 3.42932e-11 52.7673

91.3908 -6.37688 2.27682e-11
-6.37688 97.5211 -4.35109e-11
2.27682e-11 -4.35109e-11 95.3836

90.8865 7.74648 -1.42978e-11
7.74648 92.8 -2.5029e-11
-1.42978e-11 -2.5029e-11 94.8342

92.6213 -5.08033 3.10379e-11
-5.08033 98.443 2.90691e-11
3.10379e-11 2.90691e-11 96.2785

92.2827 6.85178 5.61773e-14
6.85178 96.7383 1.73367e-11
5.61773e-14 1.73367e-11 96.2051

40.6018 -4.57371 1.67602e-11
-4.57371 41.2803 -3.15958e-11
1.67602e-11 -3.15958e-11 43.5679

40.5295 -4.45941 1.48499e-11
-4.45941 41.7629 -5.08548e-11
1.48499e-11 -5.08548e-11 43.7333

85.3054 5.67747 -3.51312e-11
5.67747 86.5628 -4.08237e-11
-3.51312e-11 -4.08237e-11 87.3755

86.028 -6.1613 4.79912e-13
-6.1613 90.514 -2.69466e-12
4.79912e-13 -2.69466e-12 87.8641

104.462 -1.60499 2.75326e-11
-1.60499 111.651 -2.34907e-11
2.75326e-11 -2.34907e-11 104.541

102.614 -1.92239 -6.3723e-11
-1.92239 104.202 -3.42698e-11
-6.3723e-11 -3.42698e-11 103.058

91.704 -6.63503 7.45789e-12
-6.63503 101.784 4.17791e-11
7.45789e-12 4.17791e-11 97.3868

89.1255 7.09549 -6.54691e-12
7.09549 98.657 1.03957e-11
-6.54691e-12 1.03957e-11 96.7065

102.177 -0.0951626 -1.51868e-11
-0.0951626 94.2466 4.29309e-11
-1.51868e-11 4.29309e-11 99.4426

99.6381 1.50639 -5.20065e-11
1.50639 95.4076 5.81375e-11
-5.20065e-11 5.81375e-11 99.2363

89.1819 6.31013 -8.86202e-12
6.31013 93.6793 -4.04362e-11
-8.86202e-12 -4.04362e-11 92.3934

89.4208 -6.6874 -1.19359e-11
-6.6874 89.6546 -1.80996e-11
-1.19359e-11 -1.80996e-11 91.3514

101.728 -2.75566 3.61899e-11
-2.75566 110.761 -5.51575e-11
3.61899e-11 -5.51575e-11 104.493

108.133 2.6805 -2.57936e-11
2.6805 104.561 -3.31157e-11
-2.57936e-11 -3.31157e-11 104.66

113.874 -6.52503 -9.23994e-12
-6.52503 109.024 2.23311e-11
-9.23994e-12 2.23311e-11 106.265

103.101 -1.15108 -5.97233e-12
-1.15108 118.224 4.92815e-11
-5.97233e-12 4.92815e-11 105.926

105.677 1.83328 4.86585e-11
1.83328 103.921 -1.81877e-11
4.86585e-11 -1.81877e-11 103.912

103.275 0.236495 7.72029e-11
0.236495 111.006 1.34786e-11
7.72029e-11 1.34786e-11 105.949

109.111 -2.00845 2.90458e-11
-2.00845 102.105 -1.60737e-11
2.90458e-11 -1.60737e-11 104.232

109.699 -0.743766 3.84315e-11
-0.743766 105.907 1.25096e-11
3.84315e-11 1.25096e-11 106.207

104.797 -3.62918 -1.06398e-10
-3.62918 108.475 -1.42262e-10
-1.06398e-10 -1.42262e-10 105.216

109.454 8.75069 1.59992e-10
8.75069 116.952 3.27341e-10
1.59992e-10 3.27341e-10 107.916

131.689 2.51343 7.25262e-11
2.51343 129.868 3.96708e-11
7.25262e-11 3.96708e-11 116.044

134.813 -4.17781 -6.60289e-10
-4.17781 102.142 -5.79521e-10
-6.60289e-10 -5.79521e-10 111.186

107.048 -4.72142 3.24406e-11
-4.72142 106.567 -3.98463e-11
3.24406e-11 -3.98463e-11 104.786

99.4744 -3.47646 -4.2641e-11
-3.47646 105.372 1.9448e-11
-4.2641e-11 1.9448e-11 101.568

110.212 8.16762 -1.95391e-11
8.16762 107.413 -7.23828e-11
-1.95391e-11 -7.23828e-11 105.703

99.8058 4.58399 -1.9637e-11
4.58399 102.517 7.69297e-12
-1.9637e-11 7.69297e-12 101.301

112.53 9.35387 -5.51936e-12
9.35387 120.668 -2.4832e-10
-5.51936e-12 -2.4832e-10 109.959

109.505 -1.0086 1.36633e-11
-1.0086 107.298 -4.54284e-11
1.36633e-11 -4.54284e-11 106.702

99.161 -3.09634 -5.26627e-11
-3.09634 103.948 1.13975e-10
-5.26627e-11 1.13975e-10 101.748

106.651 -1.85874 -5.32873e-11
-1.85874 106.384 6.06417e-11
-5.32873e-11 6.06417e-11 104.939

101.315 7.66286 4.67858e-11
7.66286 105.77 7.81638e-11
4.67858e-11 7.81638e-11 102.685

103.704 5.08196 8.00471e-13
5.08196 108.459 1.11528e-11
8.00471e-13 1.11528e-11 104.813

83.9639 1.79126 9.62857e-12
1.79126 96.6975 -4.00528e-11
9.62857e-12 -4.00528e-11 91.0713

97.4395 -0.688489 -2.69755e-12
-0.688489 101.068 -1.02055e-11
-2.69755e-12 -1.02055e-11 98.1804

89.414 1.72128 4.05393e-11
1.72128 75.3031 1.73308e-11
4.05393e-11 1.73308e-11 82.1005

85.6041 0.417902 -1.99797e-11
0.417902 72.5407 -4.03955e-12
-1.99797e-11 -4.03955e-12 77.2997

86.1068 2.02729 -1.98258e-11
2.02729 102.985 1.38589e-11
-1.98258e-11 1.38589e-11 95.9493

99.3627 0.531298 -1.5411e-12
0.531298 104.58 3.36768e-12
-1.5411e-12 3.36768e-12 103.13

86.0992 -0.661838 -2.9369e-11
-0.661838 72.7956 -3.36768e-15
-2.9369e-11 -3.36768e-15 77.8682

99.104 -0.396639 1.47564e-11
-0.396639 83.57 -1.03952e-11
1.47564e-11 -1.03952e-11 92.1756

58.7762 -3.9769 -1.66592e-11
-3.9769 67.5807 -7.72567e-13
-1.66592e-11 -7.72567e-13 61.5266

64.2436 6.44303 1.88749e-11
6.44303 71.1174 3.23615e-11
1.88749e-11 3.23615e-11 64.6473

67.6491 6.09794 -4.02551e-11
6.09794 61.0591 -1.16159e-12
-4.02551e-11 -1.16159e-12 62.6808

100.968 7.36697 1.02004e-11
7.36697 105.404 -2.88692e-11
1.02004e-11 -2.88692e-11 102.405

95.3793 -2.49925 8.75914e-12
-2.49925 102.858 -7.69237e-13
8.75914e-12 -7.69237e-13 98.7813

85.894 6.28052 -4.61971e-12
6.28052 89.2115 -2.61852e-11
-4.61971e-12 -2.61852e-11 85.8108

95.3945 5.54368 9.53204e-12
5.54368 102.853 -1.34737e-11
9.53204e-12 -1.34737e-11 100.018

85.1464 -1.994 -1.95425e-11
-1.994 102.983 3.0036e-11
-1.95425e-11 3.0036e-11 95.5331

91.7656 -1.2361 4.62549e-12
-1.2361 78.2532 6.93268e-12
4.62549e-12 6.93268e-12 86.1583

69.916 2.93992 3.2442e-11
2.93992 78.993 2.1958e-11
3.2442e-11 2.1958e-11 70.6845

64.0531 -0.769098 -1.24216e-11
-0.769098 75.9768 2.27303e-11
-1.24216e-11 2.27303e-11 67.7705

76.0831 2.99649 1.86777e-11
2.99649 66.0586 -2.38883e-11
1.86777e-11 -2.38883e-11 68.3764

79.261 -3.10606 6.16233e-12
-3.10606 68.782 1.15097e-12
6.16233e-12 1.15097e-12 72.6718

74.7478 5.34846 -1.19381e-11
5.34846 83.2439 -4.0446e-11
-1.19381e-11 -4.0446e-11 78.2091

84.7764 -4.05906 -3.6459e-12
-4.05906 87.8203 -3.04226e-11
-3.6459e-12 -3.04226e-11 83.661

90.3312 -2.0003 -2.92251e-11
-2.0003 75.5224 -3.82823e-13
-2.92251e-11 -3.82823e-13 82.9953

59.8892 4.04835 -3.37048e-11
4.04835 64.5303 -5.74046e-11
-3.37048e-11 -5.74046e-11 58.4173

97.0502 0.427063 -3.11216e-11
0.427063 81.0921 1.35125e-12
-3.11216e-11 1.35125e-12 90.051

62.0149 4.37338 2.67718e-11
4.37338 57.7243 -9.61905e-12
2.67718e-11 -9.61905e-12 57.1437

96.2178 0.481506 2.07907e-11
0.481506 105.868 1.15542e-11
2.07907e-11 1.15542e-11 99.722

104.925 2.54115 -4.36928e-11
2.54115 107.287 -2.63765e-11
-4.36928e-11 -2.63765e-11 105.233

109.069 -6.52186 1.20809e-11
-6.52186 109.747 -9.62523e-12
1.20809e-11 -9.62523e-12 106.657

111.771 2.8379 8.40024e-12
2.8379 107.238 -3.04133e-11
8.40024e-12 -3.04133e-11 106.707

74.8158 -0.928288 4.43068e-12
-0.928288 64.5819 3.65966e-11
4.43068e-12 3.65966e-11 66.5313

82.8865 7.64302 -4.97731e-11
7.64302 87.1486 1.53982e-11
-4.97731e-11 1.53982e-11 84.2614

100.861 1.14136 3.6795e-12
1.14136 99.3816 -1.94406e-11
3.6795e-12 -1.94406e-11 99.3228

98.5559 -3.48041 -2.46262e-11
-3.48041 97.8379 1.23239e-11
-2.46262e-11 1.23239e-11 98.9576

100.614 -0.453394 -1.47798e-11
-0.453394 82.3576 2.65673e-11
-1.47798e-11 2.65673e-11 92.3905

73.6393 6.32094 -3.85344e-12
6.32094 79.9937 -3.5825e-11
-3.85344e-12 -3.5825e-11 76.8789

81.5047 -5.76144 -1.93919e-13
-5.76144 86.0278 -4.23395e-12
-1.93919e-13 -4.23395e-12 82.0805

80.2256 -4.0671 2.485e-11
-4.0671 73.4671 -1.09542e-14
2.485e-11 -1.09542e-14 75.014

98.1104 -0.964389 1.08788e-11
-0.964389 80.0558 3.38841e-11
1.08788e-11 3.38841e-11 90.2589

77.7647 7.45459 -2.29115e-11
7.45459 85.31 1.86731e-11
-2.29115e-11 1.86731e-11 78.9844

72.8749 -5.1429 -1.13591e-11
-5.1429 79.4816 -3.15817e-11
-1.13591e-11 -3.15817e-11 76.0923

79.0418 6.8938 4.20743e-11
6.8938 86.3255 -2.23332e-11
4.20743e-11 -2.23332e-11 80.1236

73.1714 -4.13234 2.51295e-11
-4.13234 83.2953 7.68866e-13
2.51295e-11 7.68866e-13 77.5237

97.9984 -3.41246 7.69044e-12
-3.41246 100.867 4.67821e-11
7.69044e-12 4.67821e-11 99.3688

81.6146 4.80484 2.21423e-11
4.80484 93.6491 -3.83249e-13
2.21423e-11 -3.83249e-13 89.8907

73.2533 -5.99558 2.33977e-11
-5.99558 70.8083 3.47367e-12
2.33977e-11 3.47367e-12 70.4581

46.3025 -5.30686 3.12053e-11
-5.30686 45.5416 1.34791e-11
3.12053e-11 1.34791e-11 45.8629

43.8108 -5.70313 1.81055e-11
-5.70313 46.672 1.65661e-11
1.81055e-11 1.65661e-11 45.4966

93.0464 8.93193 -4.33342e-12
8.93193 102.525 -1.82929e-11
-4.33342e-12 -1.82929e-11 98.3199

84.186 -5.8241 2.25273e-11
-5.8241 98.0648 9.62837e-12
2.25273e-11 9.62837e-12 94.3573

44.1424 -1.1467 -3.85344e-12
-1.1467 44.1969 -2.38907e-11
-3.85344e-12 -2.38907e-11 46.3706

45.1403 -1.23001 -8.67047e-12
-1.23001 46.0277 -3.84211e-13
-8.67047e-12 -3.84211e-13 47.0751

104.375 5.1127 2.50339e-11
5.1127 98.9492 -2.65679e-11
2.50339e-11 -2.65679e-11 100.695

111.448 -3.89672 2.30956e-12
-3.89672 103.788 2.12016e-12
2.30956e-12 2.12016e-12 107.602

92.9408 -0.176192 -1.44469e-11
-0.176192 79.9809 3.15754e-11
-1.44469e-11 3.15754e-11 89.1946

103.467 7.18331 1.11674e-11
7.18331 98.201 5.42793e-11
1.11674e-11 5.42793e-11 100.376

109.832 -5.18802 9.60387e-12
-5.18802 99.3746 7.41155e-11
9.60387e-12 7.41155e-11 105.738

76.3486 5.0742 -1.53226e-12
5.0742 87.0902 -7.3214e-12
-1.53226e-12 -7.3214e-12 82.7296

86.8848 -4.00052 -1.34418e-12
-4.00052 93.0167 -3.25377e-11
-1.34418e-12 -3.25377e-11 89.2058

109.855 2.50574 -5.5346e-11
2.50574 102.29 -3.57943e-11
-5.5346e-11 -3.57943e-11 104.412

106.307 -3.29495 1.19863e-11
-3.29495 104.075 -2.61742e-11
1.19863e-11 -2.61742e-11 104.058

95.2096 7.74956 2.11738e-11
7.74956 89.9783 1.73328e-12
2.11738e-11 1.73328e-12 93.7317

102.292 -6.12875 -1.84743e-11
-6.12875 94.1182 -6.78842e-12
-1.84743e-11 -6.78842e-12 99.296

66.1448 -4.14323 2.86141e-13
-4.14323 59.4994 1.61794e-11
2.86141e-13 1.61794e-11 60.7499

102.135 -0.211397 1.75207e-11
-0.211397 115.45 7.70073e-12
1.75207e-11 7.70073e-12 105.128

110.857 1.55798 -1.77086e-11
1.55798 115.184 1.83805e-11
-1.77086e-11 1.83805e-11 112.749

52.7917 -0.73062 3.7364e-11
-0.73062 60.4757 -5.27856e-11
3.7364e-11 -5.27856e-11 54.8245

60.1353 -0.907355 1.66625e-11
-0.907355 53.5439 6.54758e-12
1.66625e-11 6.54758e-12 54.7359

78.9652 4.30378 -2.2908e-11
4.30378 92.546 -3.46612e-12
-2.2908e-11 -3.46612e-12 87.8336

91.8391 -2.50955 3.32983e-11
-2.50955 98.6141 3.77414e-11
3.32983e-11 3.77414e-11 95.4269

127.54 -1.48711 -1.31264e-10
-1.48711 132.626 9.16095e-11
-1.31264e-10 9.16095e-11 115.516

128.337 -4.74269 -9.51422e-11
-4.74269 114.024 1.32379e-10
-9.51422e-11 1.32379e-10 117.308

92.7636 6.88497 -1.21356e-11
6.88497 82.9194 -2.04054e-11
-1.21356e-11 -2.04054e-11 89.2725

96.9396 -4.54054 1.17505e-11
-4.54054 85.4872 -2.32998e-11
1.17505e-11 -2.32998e-11 92.7649

73.9478 0.116608 8.27442e-12
0.116608 62.8086 3.27482e-12
8.27442e-12 3.27482e-12 65.6203

87.0578 0.223915 -3.84996e-12
0.223915 75.1766 1.92864e-12
-3.84996e-12 1.92864e-12 80.5693

79.9368 3.3486 -4.41959e-11
3.3486 68.7835 -2.31245e-12
-4.41959e-11 -2.31245e-12 72.0049

98.8106 1.22817 -1.73535e-12
1.22817 90.623 1.29021e-11
-1.73535e-12 1.29021e-11 96.0516

100.868 -2.43568 -6.32146e-11
-2.43568 115.318 -7.08571e-11
-6.32146e-11 -7.08571e-11 106.597

108.118 1.25057 -6.03676e-11
1.25057 109.176 3.04146e-11
-6.03676e-11 3.04146e-11 106.834

70.9036 5.80955 -8.9558e-12
5.80955 73.212 3.0425e-11
-8.9558e-12 3.0425e-11 68.0818

80.8969 -5.03979 -2.20653e-12
-5.03979 78.1525 -7.31422e-12
-2.20653e-12 -7.31422e-12 80.1071

90.1287 5.52442 -4.22551e-12
5.52442 79.8165 -3.42808e-11
-4.22551e-12 -3.42808e-11 85.4557

109.822 2.3709 -1.61108e-10
2.3709 114.398 1.26906e-11
-1.61108e-10 1.26906e-11 112.002

107.601 3.5021 6.08219e-11
3.5021 118.956 3.65815e-11
6.08219e-11 3.65815e-11 107.642

97.5275 -2.92162 -1.41483e-11
-2.92162 92.2797 -2.34834e-11
-1.41483e-11 -2.34834e-11 96.6424

94.0406 4.53564 -2.3681e-11
4.53564 99.6992 -1.90642e-11
-2.3681e-11 -1.90642e-11 95.6401

83.2121 -0.824742 -1.26092e-11
-0.824742 97.0844 1.84817e-11
-1.26092e-11 1.84817e-11 90.8385

95.8611 3.42259 1.00138e-11
3.42259 80.5915 1.23252e-11
1.00138e-11 1.23252e-11 91.5616

97.6755 -0.687595 1.15123e-12
-0.687595 80.9829 3.1579e-11
1.15123e-12 3.1579e-11 93.0695

74.0218 -4.50877 7.99553e-12
-4.50877 71.126 4.21774e-11
7.99553e-12 4.21774e-11 68.973

100.16 6.17511 -1.02064e-11
6.17511 87.7542 1.50149e-11
-1.02064e-11 1.50149e-11 95.7741

103.32 -3.89897 7.75927e-12
-3.89897 87.827 -2.17428e-11
7.75927e-12 -2.17428e-11 98.6635

92.6607 -3.01584 1.0405e-11
-3.01584 82.6562 9.65228e-13
1.0405e-11 9.65228e-13 88.0812

96.2795 4.48538 -4.23483e-12
4.48538 85.0146 -5.19714e-12
-4.23483e-12 -5.19714e-12 92.4846

98.3285 -2.28576 1.07803e-11
-2.28576 86.545 -5.86486e-12
1.07803e-11 -5.86486e-12 95.1177

90.8234 -1.92021 -2.12269e-11
-1.92021 80.2596 4.63081e-12
-2.12269e-11 4.63081e-12 85.4822

86.0167 8.07366 -1.2325e-11
8.07366 89.9538 -8.47411e-12
-1.2325e-11 -8.47411e-12 91.06

103.303 -6.92537 7.74788e-13
-6.92537 99.9239 -2.11726e-11
7.74788e-13 -2.11726e-11 101.868

80.485 5.44416 -2.36908e-11
5.44416 78.5515 -2.50489e-12
-2.36908e-11 -2.50489e-12 76.3156

101.159 -5.06365 1.82929e-11
-5.06365 104.919 -3.67693e-11
1.82929e-11 -3.67693e-11 104.118

83.3627 5.6273 1.09749e-11
5.6273 91.1726 4.23706e-12
1.09749e-11 4.23706e-12 91.4532

80.732 4.96991 2.42628e-11
4.96991 69.8152 3.89725e-13
2.42628e-11 3.89725e-13 74.4472

89.0807 -4.4422 2.99411e-11
-4.4422 84.637 -6.19998e-11
2.99411e-11 -6.19998e-11 88.7846

90.7182 1.86444 5.1957e-12
1.86444 81.356 -3.77393e-11
5.1957e-12 -3.77393e-11 84.7337

74.7451 7.08717 -3.34157e-11
7.08717 75.9689 -1.52149e-11
-3.34157e-11 -1.52149e-11 73.3163

82.9757 5.72285 3.75433e-12
5.72285 79.7943 2.46508e-11
3.75433e-12 2.46508e-11 80.7992

87.3426 2.27929 2.1753e-11
2.27929 96.3024 -1.94489e-11
2.1753e-11 -1.94489e-11 92.1907

77.0683 0.638515 -7.31046e-12
0.638515 94.6782 -2.58075e-11
-7.31046e-12 -2.58075e-11 87.3413

71.5484 -4.35499 1.63395e-12
-4.35499 62.6992 -3.26872e-12
1.63395e-12 -3.26872e-12 65.0219

83.944 -7.90717 -1.59884e-11
-7.90717 90.3629 5.93015e-11
-1.59884e-11 5.93015e-11 90.9968

88.0063 8.6738 1.01112e-11
8.6738 96.2694 4.81366e-11
1.01112e-11 4.81366e-11 92.5236

79.5133 -6.40464 -4.81008e-12
-6.40464 80.1263 -4.31319e-11
-4.81008e-12 -4.31319e-11 76.7444

72.5507 7.71491 -4.6303e-12
7.71491 76.46 5.81551e-11
-4.6303e-12 5.81551e-11 72.7693

88.7433 -3.58949 4.85538e-13
-3.58949 80.8264 -1.44373e-12
4.85538e-13 -1.44373e-12 84.8011

100.084 -0.923618 -3.03383e-12
-0.923618 85.5799 1.57857e-11
-3.03383e-12 1.57857e-11 95.0592

101.848 0.268213 2.93417e-12
0.268213 85.0232 2.94557e-11
2.93417e-12 2.94557e-11 95.0648

81.4617 -6.00998 4.43171e-12
-6.00998 82.518 -4.91044e-11
4.43171e-12 -4.91044e-11 81.9378

64.1714 1.23209 -5.39339e-12
1.23209 76.3554 -8.08982e-12
-5.39339e-12 -8.08982e-12 67.5644

58.9088 1.05629 -1.75291e-11
1.05629 73.3986 3.46684e-11
-1.75291e-11 3.46684e-11 64.6756

73.3744 1.11967 -1.92305e-12
1.11967 60.7787 -5.58971e-12
-1.92305e-12 -5.58971e-12 65.4131

69.7699 6.38514 -4.25563e-11
6.38514 68.2819 -3.85321e-12
-4.25563e-11 -3.85321e-12 66.2613

79.9875 -6.26719 3.15781e-11
-6.26719 73.86 -5.20221e-12
3.15781e-11 -5.20221e-12 75.2913

109.531 7.14948 -1.75145e-11
7.14948 118.402 2.88618e-11
-1.75145e-11 2.88618e-11 113.444

125.913 -1.87872 -5.85189e-11
-1.87872 126.298 1.32414e-10
-5.85189e-11 1.32414e-10 113.544

83.2927 -2.1272 1.77186e-11
-2.1272 71.0002 8.27405e-12
1.77186e-11 8.27405e-12 76.1583

79.5292 5.64196 3.65596e-12
5.64196 87.9512 1.19388e-11
3.65596e-12 1.19388e-11 86.1088

94.3711 -6.37374 -7.65758e-13
-6.37374 96.556 -3.00346e-11
-7.65758e-13 -3.00346e-11 94.9845

93.1936 2.92207 2.07967e-11
2.92207 79.5998 4.62576e-12
2.07967e-11 4.62576e-12 88.6179

74.5968 5.9593 1.54083e-11
5.9593 84.4556 -4.50617e-11
1.54083e-11 -4.50617e-11 76.989

67.571 -2.65118 -1.47321e-11
-2.65118 80.7369 1.15546e-11
-1.47321e-11 1.15546e-11 73.6512

83.6082 5.99542 -1.55942e-11
5.99542 98.1795 1.1533e-12
-1.55942e-11 1.1533e-12 94.4917

105.052 -2.46721 1.48209e-11
-2.46721 108.609 -1.92631e-12
1.48209e-11 -1.92631e-12 107.86

84.7361 6.06808 7.50659e-12
6.06808 89.5627 4.38987e-11
7.50659e-12 4.38987e-11 91.6477

104.153 -6.14411 9.82229e-12
-6.14411 104.865 -1.55908e-11
9.82229e-12 -1.55908e-11 105.395

97.6202 0.492898 -1.19402e-11
0.492898 74.6278 1.07785e-11
-1.19402e-11 1.07785e-11 92.6476

75.143 7.73964 3.37123e-11
7.73964 70.8789 2.65704e-11
3.37123e-11 2.65704e-11 71.9682

89.2989 9.26116 5.48432e-12
9.26116 100.241 -2.02173e-11
5.48432e-12 -2.02173e-11 94.6425

83.1116 -6.86588 -1.6301e-12
-6.86588 89.2457 -1.50203e-11
-1.6301e-12 -1.50203e-11 91.5312

76.4433 6.55516 4.33283e-11
6.55516 75.5944 -3.38883e-11
4.33283e-11 -3.38883e-11 74.9524

65.9167 -3.98328 -5.00637e-12
-3.98328 69.6756 3.66344e-12
-5.00637e-12 3.66344e-12 65.0166

81.6828 -5.97728 3.08575e-12
-5.97728 85.7689 -3.23469e-11
3.08575e-12 -3.23469e-11 85.7124

72.9713 -1.27189 -5.9696e-11
-1.27189 80.3845 2.40557e-11
-5.9696e-11 2.40557e-11 72.827

65.7484 3.39164 1.05899e-11
3.39164 77.1997 4.3529e-11
1.05899e-11 4.3529e-11 69.2674

77.3002 -1.30537 -5.57302e-12
-1.30537 68.4508 2.10081e-11
-5.57302e-12 2.10081e-11 70.2532

81.8975 -5.61895 2.96561e-11
-5.61895 80.5021 -1.88661e-11
2.96561e-11 -1.88661e-11 78.8223

74.6831 0.925141 -8.65996e-12
0.925141 88.9063 -3.00435e-11
-8.65996e-12 -3.00435e-11 81.2829

85.1952 1.29384 2.92688e-11
1.29384 92.2569 3.697e-11
2.92688e-11 3.697e-11 86.0328

68.1422 -5.32184 -3.46566e-11
-5.32184 69.7042 -9.579e-13
-3.46566e-11 -9.579e-13 65.7958

63.1505 6.61777 -2.29134e-11
6.61777 67.6098 -1.73367e-11
-2.29134e-11 -1.73367e-11 63.4

95.257 1.27436 2.54173e-11
1.27436 81.6952 1.54465e-12
2.54173e-11 1.54465e-12 93.1967

95.7168 0.0125454 2.23338e-11
0.0125454 81.1877 2.46452e-11
2.23338e-11 2.46452e-11 93.9651

83.7271 6.75102 1.5596e-11
6.75102 87.1306 -2.58016e-11
1.5596e-11 -2.58016e-11 87.5384

96.342 -5.60229 -5.58072e-12
-5.60229 97.8121 -2.17577e-11
-5.58072e-12 -2.17577e-11 96.5953

92.2257 9.14777 3.36742e-12
9.14777 102.528 -4.42631e-12
3.36742e-12 -4.42631e-12 97.8156

82.0992 -5.198 -1.0977e-11
-5.198 97.2658 2.54143e-11
-1.0977e-11 2.54143e-11 93.9477

87.7003 6.02937 6.59428e-12
6.02937 90.0236 -1.34748e-11
6.59428e-12 -1.34748e-11 89.576

65.84 3.76662 1.3967e-11
3.76662 59.1564 -1.85037e-13
1.3967e-11 -1.85037e-13 59.7195

76.6854 -3.42491 -1.27002e-11
-3.42491 85.1459 -3.46689e-11
-1.27002e-11 -3.46689e-11 78.6311

68.3049 4.62023 -1.79038e-11
4.62023 81.0882 -1.15629e-11
-1.79038e-11 -1.15629e-11 74.2021

101.158 5.51585 -6.00731e-11
5.51585 91.9822 -1.62855e-11
-6.00731e-11 -1.62855e-11 97.0532

106.146 -3.16939 1.77199e-11
-3.16939 95.5953 -8.36864e-12
1.77199e-11 -8.36864e-12 102.058

90.9879 -5.24579 -2.8295e-11
-5.24579 85.8583 -2.73405e-11
-2.8295e-11 -2.73405e-11 87.5087

93.6618 6.5162 -8.66729e-12
6.5162 86.041 -2.88794e-11
-8.66729e-12 -2.88794e-11 90.3711

98.5005 -4.5526 2.09822e-11
-4.5526 91.157 2.15595e-11
2.09822e-11 2.15595e-11 95.1176

44.441 -1.73246 1.23214e-11
-1.73246 36.4415 7.14748e-11
1.23214e-11 7.14748e-11 45.3714

35.7533 -2.1504 1.58031e-11
-2.1504 43.147 -6.16937e-12
1.58031e-11 -6.16937e-12 44.8551

114.395 7.34263 -9.23973e-11
7.34263 107.677 -3.50438e-11
-9.23973e-11 -3.50438e-11 106.591

118.165 -5.16375 -1.69169e-11
-5.16375 104.338 -1.94374e-11
-1.69169e-11 -1.94374e-11 110.716

85.8575 7.162 -4.06287e-11
7.162 80.847 -7.24067e-11
-4.06287e-11 -7.24067e-11 83.1933

65.937 3.40922 1.74355e-11
3.40922 57.7529 7.52343e-12
1.74355e-11 7.52343e-12 59.2789

86.816 6.38914 -2.0985e-11
6.38914 96.6921 -2.21455e-11
-2.0985e-11 -2.21455e-11 91.6176

78.1757 -2.47312 -7.69925e-12
-2.47312 94.5457 4.23513e-12
-7.69925e-12 4.23513e-12 88.0727

71.126 -6.08109 -2.09764e-11
-6.08109 73.9616 -1.46406e-11
-2.09764e-11 -1.46406e-11 71.1613

96.0794 3.9342 2.13684e-11
3.9342 101.82 3.08981e-11
2.13684e-11 3.08981e-11 98.8904

106.072 -2.22281 -6.93113e-12
-2.22281 108.88 3.33957e-11
-6.93113e-12 3.33957e-11 108.026

78.0147 4.79009 -2.63792e-11
4.79009 69.7171 -1.92794e-12
-2.63792e-11 -1.92794e-12 71.4528

86.175 2.58575 -1.92661e-12
2.58575 74.0735 6.5461e-12
-1.92661e-12 6.5461e-12 79.9152

79.7957 8.95222 1.05902e-11
8.95222 91.1055 -1.03962e-11
1.05902e-11 -1.03962e-11 90.9043

106.734 -4.59497 -1.02005e-11
-4.59497 106.459 -9.81659e-12
-1.02005e-11 -9.81659e-12 106.969

81.1903 7.406 3.41743e-11
7.406 91.6437 1.88775e-11
3.41743e-11 1.88775e-11 85.4077

74.8975 -3.96761 3.65879e-11
-3.96761 87.2085 -2.00286e-11
3.65879e-11 -2.00286e-11 82.4704

87.3126 8.0887 -1.05939e-11
8.0887 83.6063 -3.61925e-11
-1.05939e-11 -3.61925e-11 86.7124

95.1202 -6.88652 -8.85958e-12
-6.88652 89.1562 -8.08894e-12
-8.85958e-12 -8.08894e-12 92.2889

72.0733 2.29417 -3.87019e-11
2.29417 86.8254 7.69858e-12
-3.87019e-11 7.69858e-12 79.2295

81.4592 -0.170063 2.05984e-11
-0.170063 90.0985 -2.87844e-12
2.05984e-11 -2.87844e-12 84.0127

50.4685 -2.6225 3.96749e-11
-2.6225 54.7222 2.61987e-11
3.96749e-11 2.61987e-11 50.7835

54.0249 -2.54452 1.06809e-11
-2.54452 51.188 3.04364e-11
1.06809e-11 3.04364e-11 50.753

89.6833 4.20055 3.1779e-12
4.20055 77.364 9.62344e-12
3.1779e-12 9.62344e-12 84.7566

129.457 1.27809 -3.19617e-11
1.27809 119.639 1.42427e-10
-3.19617e-11 1.42427e-10 113.133

127.755 -4.58103 -1.53265e-12
-4.58103 111.173 5.39465e-12
-1.53265e-12 5.39465e-12 115.917

100.949 -6.07486 1.35521e-11
-6.07486 107.551 -1.69477e-11
1.35521e-11 -1.69477e-11 103.345

101.41 1.9051 2.21862e-11
1.9051 104.329 -1.02038e-11
2.21862e-11 -1.02038e-11 102.712

95.1747 -0.35855 -2.45374e-12
-0.35855 78.8557 3.79309e-11
-2.45374e-12 3.79309e-11 86.6354

88.2226 9.9533 -1.81951e-11
9.9533 99.5281 -2.31085e-11
-1.81951e-11 -2.31085e-11 94.1962

77.9047 -9.34497 2.91653e-11
-9.34497 90.6626 7.31526e-12
2.91653e-11 7.31526e-12 90.5

53.8326 4.97399 2.27258e-11
4.97399 55.9225 3.0879e-12
2.27258e-11 3.0879e-12 53.5062

57.3652 5.22438 -4.71882e-11
5.22438 56.6299 -2.25437e-11
-4.71882e-11 -2.25437e-11 54.6434

57.5785 -1.90723 3.08214e-11
-1.90723 65.4824 -5.22024e-11
3.08214e-11 -5.22024e-11 59.0797

56.0593 3.94487 2.71553e-11
3.94487 63.7545 -6.16055e-12
2.71553e-11 -6.16055e-12 57.8568

64.4968 -0.952845 8.47633e-12
-0.952845 56.1499 1.20384e-11
8.47633e-12 1.20384e-11 58.2541

52.3134 2.32543 -1.32899e-11
2.32543 61.666 -6.97343e-11
-1.32899e-11 -6.97343e-11 55.0202

59.4458 2.72571 -1.81154e-11
2.72571 51.3466 -1.14416e-12
-1.81154e-11 -1.14416e-12 54.1697

100.108 0.695463 -1.53987e-11
0.695463 110.472 3.4656e-12
-1.53987e-11 3.4656e-12 103.068

104.43 5.23631 -2.38725e-11
5.23631 110.11 4.51383e-11
-2.38725e-11 4.51383e-11 106.394

97.5164 0.845252 5.20132e-12
0.845252 88.943 2.63777e-11
5.20132e-12 2.63777e-11 92.3269

100.147 -0.160021 -5.29377e-12
-0.160021 80.9016 -1.0397e-11
-5.29377e-12 -1.0397e-11 91.961

69.808 -3.16836 -3.06234e-11
-3.16836 76.6953 3.81294e-11
-3.06234e-11 3.81294e-11 70.5791

64.339 4.75785 -1.161e-12
4.75785 72.6927 2.46591e-11
-1.161e-12 2.46591e-11 67.1895

95.0693 -0.236741 -1.78169e-11
-0.236741 78.3867 4.81347e-11
-1.78169e-11 4.81347e-11 86.7702

108.667 4.05837 3.92758e-11
4.05837 102.098 9.58678e-11
3.92758e-11 9.58678e-11 103.31

112.932 -2.88952 -4.69649e-11
-2.88952 102.191 1.52081e-11
-4.69649e-11 1.52081e-11 107.895

92.0067 3.93475 -2.85549e-13
3.93475 93.1377 -4.35209e-11
-2.85549e-13 -4.35209e-11 91.7581

82.0094 -6.51605 2.72474e-11
-6.51605 87.4679 2.81143e-11
2.72474e-11 2.81143e-11 87.3296

85.5418 8.36832 -5.31371e-11
8.36832 95.1679 1.52044e-11
-5.31371e-11 1.52044e-11 89.3738

95.4837 0.834915 1.30989e-11
0.834915 81.5319 -6.43001e-11
1.30989e-11 -6.43001e-11 89.2231

69.5128 5.98548 2.16726e-11
5.98548 67.8239 3.50586e-11
2.16726e-11 3.50586e-11 65.5609

78.6433 -4.95984 3.46652e-12
-4.95984 88.962 3.00411e-11
3.46652e-12 3.00411e-11 86.315

85.6101 8.94404 1.8676e-11
8.94404 94.307 -1.84821e-11
1.8676e-11 -1.84821e-11 89.1222

43.2763 10.4551 -1.25207e-11
10.4551 44.0611 3.12051e-11
-1.25207e-11 3.12051e-11 43.8055

70.9926 -0.626331 -1.55942e-11
-0.626331 86.5607 2.00249e-11
-1.55942e-11 2.00249e-11 78.7095

78.4875 3.40882 -4.23883e-12
3.40882 88.9444 4.37095e-11
-4.23883e-12 4.37095e-11 82.1719

99.1329 -0.823568 2.12695e-12
-0.823568 114.639 -2.2333e-11
2.12695e-12 -2.2333e-11 103.962

106.745 4.14016 -4.17773e-11
4.14016 110.152 -5.46755e-11
-4.17773e-11 -5.46755e-11 108.484

100.578 3.38188 2.50312e-11
3.38188 81.3604 3.0866e-12
2.50312e-11 3.0866e-12 95.4834

102.522 -2.30313 3.46597e-11
-2.30313 79.4267 2.5226e-11
3.46597e-11 2.5226e-11 97.0564

93.5416 4.53462 1.67452e-11
4.53462 94.673 -2.57977e-11
1.67452e-11 -2.57977e-11 95.0627

92.6152 -6.82631 -3.45053e-11
-6.82631 93.9926 9.32587e-15
-3.45053e-11 9.32587e-15 95.285

100.516 3.83683 -2.03078e-11
3.83683 106.201 -2.50748e-12
-2.03078e-11 -2.50748e-12 102.349

100.251 -5.36315 3.97042e-11
-5.36315 102.361 2.31006e-11
3.97042e-11 2.31006e-11 101.713

120.299 7.03634 -3.00386e-11
7.03634 116.468 2.00232e-11
-3.00386e-11 2.00232e-11 110.29

124.086 -4.97271 2.2717e-11
-4.97271 110.186 2.34988e-11
2.2717e-11 2.34988e-11 114.861

88.3155 9.86367 8.85862e-12
9.86367 92.7427 9.62942e-12
8.85862e-12 9.62942e-12 94.6076

112.611 -5.29341 -5.48617e-11
-5.29341 106.651 1.19291e-11
-5.48617e-11 1.19291e-11 109.841

84.9465 7.30928 -2.23395e-11
7.30928 77.4646 -1.19479e-11
-2.23395e-11 -1.19479e-11 81.5705

85.3424 6.31496 -3.00375e-11
6.31496 93.2144 2.1369e-11
-3.00375e-11 2.1369e-11 87.3329

76.3428 -2.52377 -1.09656e-11
-2.52377 89.5759 -2.54222e-11
-1.09656e-11 -2.54222e-11 83.5555

87.3585 -7.40084 -3.06747e-12
-7.40084 83.6815 -1.82907e-11
-3.06747e-12 -1.82907e-11 84.4825

68.2429 -3.99084 9.63229e-12
-3.99084 66.6464 5.31542e-11
9.63229e-12 5.31542e-11 64.3778

89.5085 -5.31926 -2.63756e-11
-5.31926 80.4781 1.52139e-11
-2.63756e-11 1.52139e-11 84.6296

80.1631 8.05174 7.89058e-12
8.05174 78.825 -6.39269e-11
7.89058e-12 -6.39269e-11 79.784

85.166 -10.7893 -1.43863e-11
-10.7893 93.2073 -3.427e-11
-1.43863e-11 -3.427e-11 94.3669

91.0665 8.59619 3.46767e-12
8.59619 100.405 1.82894e-11
3.46767e-12 1.82894e-11 96.5905

96.8232 -1.90341 2.54878e-12
-1.90341 88.3741 -5.65986e-11
2.54878e-12 -5.65986e-11 92.866

125.586 -3.17854 3.34791e-11
-3.17854 124.044 7.199e-11
3.34791e-11 7.199e-11 112.925

112.749 2.74327 -1.04132e-10
2.74327 117.475 -3.06038e-11
-1.04132e-10 -3.06038e-11 112.925

89.8755 3.30282 1.19362e-11
3.30282 85.4033 1.63641e-11
1.19362e-11 1.63641e-11 88.5197

104.721 -1.3109 9.72241e-12
-1.3109 94.1174 7.12312e-12
9.72241e-12 7.12312e-12 99.2481

55.5922 -3.72221 1.8104e-13
-3.72221 57.9284 3.65987e-11
1.8104e-13 3.65987e-11 54.0432

58.082 -3.52954 -4.39155e-11
-3.52954 53.7034 -3.27368e-12
-4.39155e-11 -3.27368e-12 53.7078

102.853 1.08458 5.39085e-11
1.08458 88.5273 3.00354e-11
5.39085e-11 3.00354e-11 97.8004

104.644 0.276673 3.849e-12
0.276673 87.7995 1.02095e-11
3.849e-12 1.02095e-11 100.199

103.003 0.103576 -2.57233e-11
0.103576 96.0257 8.85366e-12
-2.57233e-11 8.85366e-12 99.4758

90.0053 -2.92812 5.16901e-11
-2.92812 94.438 1.73639e-12
5.16901e-11 1.73639e-12 90.3593

77.5076 3.81096 -3.19073e-11
3.81096 89.3045 4.04336e-11
-3.19073e-11 4.04336e-11 83.8276

82.0299 5.87149 3.2215e-11
5.87149 73.9528 2.388e-11
3.2215e-11 2.388e-11 76.6353

95.8213 6.70423 2.67697e-11
6.70423 91.0042 -8.43167e-11
2.67697e-11 -8.43167e-11 94.2575

103.834 -5.24792 -3.89022e-13
-5.24792 98.711 3.81151e-11
-3.89022e-13 3.81151e-11 101.412

111.281 0.874017 9.19235e-12
0.874017 107.769 -5.61978e-12
9.19235e-12 -5.61978e-12 107.529

112.429 -7.42198 -4.35793e-11
-7.42198 122.435 1.71755e-11
-4.35793e-11 1.71755e-11 110.635

89.6677 2.94812 -1.19427e-11
2.94812 83.5293 2.8488e-11
-1.19427e-11 2.8488e-11 84.8524

101.968 4.72596 -6.625e-12
4.72596 94.1742 -8.97065e-11
-6.625e-12 -8.97065e-11 98.0403

105.42 -3.5226 -1.07635e-11
-3.5226 95.1538 -2.67609e-11
-1.07635e-11 -2.67609e-11 101.78

83.3361 -2.86286 1.68478e-11
-2.86286 94.6066 2.23363e-11
1.68478e-11 2.23363e-11 91.0117

91.8463 8.1057 -1.10716e-11
8.1057 99.2851 -1.09754e-11
-1.10716e-11 -1.09754e-11 94.6868

89.792 10.3197 1.52076e-11
10.3197 100.028 -4.42664e-12
1.52076e-11 -4.42664e-12 94.7108

82.0288 -6.20199 -7.60603e-12
-6.20199 90.1917 2.07945e-11
-7.60603e-12 2.07945e-11 90.9533

47.344 11.9357 -2.15817e-11
11.9357 47.6738 5.00052e-12
-2.15817e-11 5.00052e-12 46.2561

94.2424 6.39446 -4.80949e-13
6.39446 103.746 -1.55955e-11
-4.80949e-13 -1.55955e-11 98.8901

90.0431 -7.29289 1.87435e-12
-7.29289 99.2146 2.40689e-11
1.87435e-12 2.40689e-11 97.471

79.4433 -5.65734 -7.51292e-12
-5.65734 91.6324 1.80975e-11
-7.51292e-12 1.80975e-11 89.2289

86.8704 8.86194 1.42446e-11
8.86194 97.6669 -1.71347e-11
1.42446e-11 -1.71347e-11 92.3757

85.6956 -3.92745 -1.366e-11
-3.92745 77.439 -2.02285e-11
-1.366e-11 -2.02285e-11 79.5711

90.592 -4.75614 1.10793e-11
-4.75614 89.6334 -5.23681e-11
1.10793e-11 -5.23681e-11 91.2191

93.5804 5.20504 -2.67129e-11
5.20504 98.6296 8.27756e-12
-2.67129e-11 8.27756e-12 96.4354

92.4407 -7.08696 2.78592e-12
-7.08696 93.5094 4.77457e-11
2.78592e-12 4.77457e-11 95.5485

94.8257 -1.85912 1.31472e-11
-1.85912 81.4356 -3.11853e-11
1.31472e-11 -3.11853e-11 89.7904

106.194 1.95359 1.61713e-11
1.95359 100.946 -8.08376e-12
1.61713e-11 -8.08376e-12 102.237

108.306 -2.00083 -1.38773e-11
-2.00083 97.6774 6.19898e-11
-1.38773e-11 6.19898e-11 104.843

108.505 2.17484 1.30864e-11
2.17484 123.527 7.96907e-11
1.30864e-11 7.96907e-11 109.021

110.799 2.88986 1.88637e-11
2.88986 119.865 3.19541e-11
1.88637e-11 3.19541e-11 112.719

43.8101 2.25635 -7.49445e-11
2.25635 37.8782 3.58193e-11
-7.49445e-11 3.58193e-11 44.8482

38.5465 2.24776 9.92806e-12
2.24776 45.2437 4.24596e-12
9.92806e-12 4.24596e-12 45.2389

90.2991 6.51374 -3.31142e-11
6.51374 90.4927 1.92505e-11
-3.31142e-11 1.92505e-11 92.6516

103.082 -6.68893 -2.09668e-11
-6.68893 101.413 -6.39124e-11
-2.09668e-11 -6.39124e-11 102.432

45.1268 4.44708 -3.66581e-12
4.44708 44.514 6.31847e-11
-3.66581e-12 6.31847e-11 46.5889

44.2246 4.86537 -1.55609e-12
4.86537 44.502 -1.73448e-11
-1.55609e-12 -1.73448e-11 46.4195

125.477 -1.7467 -4.85009e-11
-1.7467 120.862 2.08959e-12
-4.85009e-11 2.08959e-12 117.254

126.38 -1.12412 1.88727e-11
-1.12412 128.812 -1.18188e-10
1.88727e-11 -1.18188e-10 114.523

86.3559 -6.41311 -6.44129e-12
-6.41311 87.4738 -2.00289e-11
-6.44129e-12 -2.00289e-11 89.2079

90.3514 8.26315 -4.04243e-11
8.26315 88.575 -6.16329e-12
-4.04243e-11 -6.16329e-12 91.3296

101.582 -6.94953 -5.21813e-11
-6.94953 96.0529 4.40885e-11
-5.21813e-11 4.40885e-11 99.2325

81.3596 7.27399 -2.5604e-11
7.27399 82.7544 -2.58143e-11
-2.5604e-11 -2.58143e-11 81.9334

89.9735 -5.76932 3.9284e-11
-5.76932 88.6227 -1.00078e-11
3.9284e-11 -1.00078e-11 87.6564

59.9588 -1.06781 -1.61723e-11
-1.06781 66.5678 -5.12381e-11
-1.61723e-11 -5.12381e-11 60.1256

54.9186 3.00104 -1.02061e-11
3.00104 63.8079 -1.7339e-11
-1.02061e-11 -1.7339e-11 57.7096

65.1054 -0.443786 2.13694e-11
-0.443786 57.4714 1.75242e-11
2.13694e-11 1.75242e-11 58.9018

82.5492 7.7119 1.73787e-12
7.7119 85.2277 -4.24172e-12
1.73787e-12 -4.24172e-12 85.448

93.7592 -7.58769 2.3484e-11
-7.58769 92.4768 3.79297e-11
2.3484e-11 3.79297e-11 92.6794

49.8937 0.482847 -4.46868e-11
0.482847 59.3299 -4.35384e-11
-4.46868e-11 -4.35384e-11 53.2762

59.2051 -0.0519545 9.68114e-13
-0.0519545 51.3561 -2.70213e-12
9.68114e-13 -2.70213e-12 53.4154

96.0443 7.86543 2.11811e-11
7.86543 92.7699 2.07981e-11
2.11811e-11 2.07981e-11 96.043

108.7 -5.60654 -7.49541e-12
-5.60654 102.551 -3.33097e-11
-7.49541e-12 -3.33097e-11 105.911

96.6775 7.77555 4.44844e-11
7.77555 95.6642 -5.19714e-11
4.44844e-11 -5.19714e-11 97.0811

107.488 -6.81553 4.02641e-12
-6.81553 101.186 3.29164e-11
4.02641e-12 3.29164e-11 104.995

41.924 4.55929 -7.31718e-12
4.55929 42.132 4.46881e-11
-7.31718e-12 4.46881e-11 44.2651

41.9519 4.2093 -6.93504e-12
4.2093 42.7087 1.02102e-11
-6.93504e-12 1.02102e-11 44.3138

88.412 7.36848 -1.14575e-12
7.36848 86.5652 -1.6937e-11
-1.14575e-12 -1.6937e-11 88.4367

97.0114 -6.0892 -1.50176e-11
-6.0892 94.7212 -7.69977e-12
-1.50176e-11 -7.69977e-12 95.408

107.756 4.76555 2.90638e-11
4.76555 111.183 8.28804e-12
2.90638e-11 8.28804e-12 108.822

104.188 -1.53911 -2.30968e-11
-1.53911 111.941 5.37799e-12
-2.30968e-11 5.37799e-12 104.852

92.4481 6.19951 -1.34951e-12
6.19951 98.8476 4.23657e-12
-1.34951e-12 4.23657e-12 97.52

111.165 -7.05089 -5.46763e-11
-7.05089 107.002 2.55944e-11
-5.46763e-11 2.55944e-11 109.382

106.561 5.56342 2.81057e-11
5.56342 95.478 -3.69491e-11
2.81057e-11 -3.69491e-11 101.008

110.829 -3.61269 -6.00563e-11
-3.61269 95.1551 3.07843e-11
-6.00563e-11 3.07843e-11 104.967

90.4174 7.48665 3.35495e-11
7.48665 97.3226 2.69977e-12
3.35495e-11 2.69977e-12 93.4744

86.7454 -6.27927 4.42609e-14
-6.27927 91.7355 2.84947e-11
4.42609e-14 2.84947e-11 92.2022

106.196 4.5531 -7.31422e-12
4.5531 117.007 1.39556e-11
-7.31422e-12 1.39556e-11 109.518

106.381 5.26768 -2.24053e-11
5.26768 108.024 -5.64038e-11
-2.24053e-11 -5.64038e-11 105.282

108.744 -9.38017 6.79508e-12
-9.38017 108.475 6.62171e-11
6.79508e-12 6.62171e-11 105.916

102.716 -1.27916 -4.33217e-11
-1.27916 118.335 7.8148e-11
-4.33217e-11 7.8148e-11 106.191

114.177 5.51805 2.11746e-11
5.51805 106.322 8.86069e-12
2.11746e-11 8.86069e-12 106.266

122.105 1.17085 1.21277e-10
1.17085 113.372 -3.84784e-11
1.21277e-10 -3.84784e-11 110.068

117.134 -5.09187 6.58402e-11
-5.09187 101.952 2.081e-11
6.58402e-11 2.081e-11 109.404

123.472 -1.67419 4.64782e-12
-1.67419 107.822 -2.32873e-11
4.64782e-12 -2.32873e-11 113.312

113.109 6.48142 -5.54683e-11
6.48142 118.665 2.16733e-10
-5.54683e-11 2.16733e-10 108.867

133.537 -1.2967 -1.75226e-10
-1.2967 129.947 3.76409e-10
-1.75226e-10 3.76409e-10 116.228

131.2 -4.53692 -2.76484e-10
-4.53692 113.614 1.63778e-10
-2.76484e-10 1.63778e-10 118.389

126.794 -5.58019 1.61286e-10
-5.58019 113.139 -7.40599e-11
1.61286e-10 -7.40599e-11 117.527

114.58 6.2352 -3.00271e-11
6.2352 108.738 -4.73529e-11
-3.00271e-11 -4.73529e-11 106.753

106.019 2.78757 7.314e-12
2.78757 103.735 -1.00141e-11
7.314e-12 -1.00141e-11 102.795

119.644 3.11992 -8.0833e-11
3.11992 124.021 1.9236e-11
-8.0833e-11 1.9236e-11 111.881

124.863 -4.37553 2.15466e-11
-4.37553 110.383 3.59872e-11
2.15466e-11 3.59872e-11 115.755

124.924 -5.21199 -3.0807e-11
-5.21199 112.706 6.87062e-11
-3.0807e-11 6.87062e-11 116.421

116.571 -3.57048 3.1181e-11
-3.57048 110.119 1.94463e-11
3.1181e-11 1.94463e-11 112.471

107.149 7.26252 3.19589e-11
7.26252 104.251 -1.92454e-11
3.19589e-11 -1.92454e-11 103.564

115.812 3.51534 -4.54296e-11
3.51534 108.829 -2.38726e-11
-4.54296e-11 -2.38726e-11 107.243

115.689 -5.47739 9.25785e-12
-5.47739 105.559 -2.15547e-11
9.25785e-12 -2.15547e-11 110.592

119.802 -3.22465 2.88908e-11
-3.22465 108.157 -3.00163e-11
2.88908e-11 -3.00163e-11 112.618

116.809 0.588876 -2.73318e-11
0.588876 117.104 2.79161e-12
-2.73318e-11 2.79161e-12 118.494

124.829 -0.313267 3.15699e-11
-0.313267 122.562 -5.09985e-11
3.15699e-11 -5.09985e-11 122.885

121.553 1.12182 1.79004e-11
1.12182 118.02 9.52599e-12
1.79004e-11 9.52599e-12 119.578

115.268 -1.16707 -2.48308e-11
-1.16707 110.65 1.76307e-11
-2.48308e-11 1.76307e-11 115.796

116.149 0.199354 1.27041e-11
0.199354 112.765 1.83005e-11
1.27041e-11 1.83005e-11 116.853

125.322 -1.66852 3.90699e-11
-1.66852 123.458 2.89058e-12
3.90699e-11 2.89058e-12 123.083

120.893 2.99248 1.69301e-11
2.99248 117.199 -3.54144e-11
1.69301e-11 -3.54144e-11 118.998

116.184 -0.281741 2.82951e-11
-0.281741 112.215 3.90697e-12
2.82951e-11 3.90697e-12 116.719

114.459 1.34632 3.46552e-12
1.34632 106.169 -3.70496e-12
3.46552e-12 -3.70496e-12 112.419

118.888 0.281911 -2.34813e-11
0.281911 117.928 6.01575e-12
-2.34813e-11 6.01575e-12 119.871

119.008 -0.262589 -1.11645e-11
-0.262589 118.151 3.22388e-11
-1.11645e-11 3.22388e-11 119.974

123.317 0.15678 -5.77396e-12
0.15678 124.325 2.03527e-11
-5.77396e-12 2.03527e-11 124.086

123.044 -1.6999 3.88853e-11
-1.6999 115.167 -2.23238e-11
3.88853e-11 -2.23238e-11 117.9

127.995 0.120334 3.38734e-11
0.120334 125.199 5.28754e-12
3.38734e-11 5.28754e-12 124.196

116.381 2.20951 -4.27302e-11
2.20951 115.615 7.21954e-12
-4.27302e-11 7.21954e-12 117.711

114.224 3.13255 2.09813e-11
3.13255 114.418 1.64553e-11
2.09813e-11 1.64553e-11 115.778

121.62 -2.96398 -1.11636e-11
-2.96398 117.961 -5.96879e-12
-1.11636e-11 -5.96879e-12 119.743

124.734 1.55078 -3.07619e-12
1.55078 123.1 2.67522e-11
-3.07619e-12 2.67522e-11 122.685

126.08 0.084638 -5.19616e-12
0.084638 127.501 -3.20883e-12
-5.19616e-12 -3.20883e-12 126.439

118.896 0.300779 -2.50219e-11
0.300779 119.74 -1.11622e-11
-2.50219e-11 -1.11622e-11 120.471

118.925 -0.338613 -1.54012e-12
-0.338613 119.833 9.52745e-12
-1.54012e-12 9.52745e-12 120.518

123.6 -0.358518 3.54119e-11
-0.358518 125.299 4.33051e-12
3.54119e-11 4.33051e-12 124.642

116.493 0.986401 2.35762e-11
0.986401 115.823 -2.78137e-11
2.35762e-11 -2.78137e-11 117.955

116.11 0.805466 -2.34825e-11
0.805466 113.574 -2.72354e-11
-2.34825e-11 -2.72354e-11 117.392

114.846 0.773498 -8.66389e-12
0.773498 115.307 -2.94491e-11
-8.66389e-12 -2.94491e-11 117.131

123.654 -0.523942 1.65517e-11
-0.523942 123.408 2.9838e-12
1.65517e-11 2.9838e-12 123.6

115.749 0.979435 1.32818e-11
0.979435 110.733 -5.59336e-12
1.32818e-11 -5.59336e-12 115.807

118.731 0.172371 -3.041e-11
0.172371 119.443 7.98861e-12
-3.041e-11 7.98861e-12 120.39

114.818 -1.33016 -3.04142e-11
-1.33016 106.185 -5.57565e-12
-3.04142e-11 -5.57565e-12 113.571

122.387 -0.355236 -2.77138e-11
-0.355236 123.538 -4.39042e-12
-2.77138e-11 -4.39042e-12 123.497

126.74 -0.297379 1.61685e-11
-0.297379 122.018 -6.92903e-12
1.61685e-11 -6.92903e-12 122.266

126.438 0.444194 -1.77074e-11
0.444194 120.575 4.4295e-12
-1.77074e-11 4.4295e-12 121.748

119.912 -1.49967 2.75245e-11
-1.49967 117.641 2.48271e-11
2.75245e-11 2.48271e-11 117.419

119.969 1.50804 3.46445e-12
1.50804 117.805 9.5272e-12
3.46445e-12 9.5272e-12 117.476

117.245 -0.347089 -1.67452e-11
-0.347089 115.254 -1.53497e-11
-1.67452e-11 -1.53497e-11 118.266

113.861 0.279314 -2.11847e-12
0.279314 114.47 -1.16452e-11
-2.11847e-12 -1.16452e-11 116.328

115.064 -2.40145 3.6585e-12
-2.40145 115.086 6.40477e-11
3.6585e-12 6.40477e-11 116.292

114.917 2.54652 -2.88727e-12
2.54652 115.14 4.1383e-12
-2.88727e-12 4.1383e-12 116.253

114.614 -1.1734 1.19349e-11
-1.1734 105.805 1.85022e-11
1.19349e-11 1.85022e-11 111.953

123.493 -0.669519 6.35275e-12
-0.669519 125.033 -2.7714e-11
6.35275e-12 -2.7714e-11 124.197

116.169 0.0209429 -1.40512e-11
0.0209429 115.119 1.49887e-11
-1.40512e-11 1.49887e-11 117.729

114.266 1.01948 4.81541e-13
1.01948 105.396 -3.11573e-11
4.81541e-13 -3.11573e-11 111.982

116.598 -0.917006 2.00183e-11
-0.917006 116.027 -7.79412e-12
2.00183e-11 -7.79412e-12 118.062

116.716 -0.602896 6.93046e-12
-0.602896 117.166 -2.4251e-11
6.93046e-12 -2.4251e-11 118.483

125.647 -1.27487 -2.30812e-12
-1.27487 124.882 -9.33379e-12
-2.30812e-12 -9.33379e-12 124.447

116.911 0.0486593 -7.69607e-13
0.0486593 115.365 -9.43074e-12
-7.69607e-13 -9.43074e-12 118.212

119.218 0.494249 5.77449e-12
0.494249 119.106 2.01609e-11
5.77449e-12 2.01609e-11 120.628

121.012 0.638814 3.07937e-11
0.638814 121.543 2.79798e-11
3.07937e-11 2.79798e-11 122.299

117.108 -4.67862 2.48349e-11
-4.67862 111.387 -2.56945e-11
2.48349e-11 -2.56945e-11 115.117

120.899 -0.261319 2.3865e-11
-0.261319 121.718 1.69134e-11
2.3865e-11 1.69134e-11 122.2

118.533 0.287297 7.69977e-13
0.287297 118.849 1.95361e-11
7.69977e-13 1.95361e-11 120.138

128.928 0.850753 1.96291e-11
0.850753 129.549 -1.55895e-11
1.96291e-11 -1.55895e-11 128.089

128.925 -0.847416 5.54241e-11
-0.847416 129.551 2.82912e-11
5.54241e-11 2.82912e-11 128.087

126.76 -0.343101 -1.80905e-11
-0.343101 128.043 2.20705e-11
-1.80905e-11 2.20705e-11 126.903

128.855 0.370755 3.00198e-11
0.370755 129.913 -3.52191e-11
3.00198e-11 -3.52191e-11 128.216

128.852 -0.369118 3.04065e-11
-0.369118 129.912 1.76097e-11
3.04065e-11 1.76097e-11 128.214

123.829 -1.05267 2.23262e-11
-1.05267 124.507 -1.09698e-11
2.23262e-11 -1.09698e-11 123.921

117.267 -1.95784 8.27656e-12
-1.95784 113.077 2.06979e-12
8.27656e-12 2.06979e-12 114.937

117.267 2.0211 -3.13751e-11
2.0211 113.087 -2.79343e-12
-3.13751e-11 -2.79343e-12 114.948

127.315 0.492618 -1.07762e-11
0.492618 128.666 4.62853e-11
-1.07762e-11 4.62853e-11 127.23

127.315 -0.493405 -3.92601e-11
-0.493405 128.674 1.30853e-11
-3.92601e-11 1.30853e-11 127.231

117.41 0.322485 4.36919e-11
0.322485 116.19 -1.48191e-11
4.36919e-11 -1.48191e-11 118.816

122.894 2.79195 2.27203e-11
2.79195 118.118 2.17452e-11
2.27203e-11 2.17452e-11 118.205

130.421 -2.26189 5.7756e-12
-2.26189 127.618 -7.69609e-12
5.7756e-12 -7.69609e-12 124.835

123.494 0.656995 -5.38869e-12
0.656995 125.075 9.04518e-12
-5.38869e-12 9.04518e-12 124.219

118.763 -0.311012 8.4671e-12
-0.311012 119.672 6.13982e-11
8.4671e-12 6.13982e-11 120.521

118.222 -0.457112 -4.61948e-12
-0.457112 117.544 4.60741e-12
-4.61948e-12 4.60741e-12 119.482

123.877 -1.05316 -1.96284e-11
-1.05316 124.532 -2.14609e-11
-1.96284e-11 -2.14609e-11 123.546

118.216 2.85562 3.46538e-12
2.85562 115.281 3.07889e-12
3.46538e-12 3.07889e-12 117.83

132.566 0.593826 -1.97063e-10
0.593826 133.403 -4.81075e-11
-1.97063e-10 -4.81075e-11 130.141

132.561 -0.589511 1.32787e-10
-0.589511 133.393 5.29604e-12
1.32787e-10 5.29604e-12 130.137

114.918 3.82718 1.5205e-11
3.82718 111.271 -4.81437e-12
1.5205e-11 -4.81437e-12 113.689

126.725 0.232182 1.50118e-11
0.232182 128.144 4.37831e-11
1.50118e-11 4.37831e-11 126.877

126.733 -0.229025 -4.31091e-11
-0.229025 128.186 -2.93575e-12
-4.31091e-11 -2.93575e-12 126.894

110.268 1.84095 -1.50126e-11
1.84095 113.326 3.62853e-11
-1.50126e-11 3.62853e-11 114.051

126.172 1.2872 2.96378e-11
1.2872 126.292 -3.46668e-12
2.96378e-11 -3.46668e-12 124.428

116.966 0.342086 -1.9055e-11
0.342086 115.115 4.35469e-12
-1.9055e-11 4.35469e-12 118.193

116.616 -0.579987 7.89169e-12
-0.579987 113.458 1.26553e-11
7.89169e-12 1.26553e-11 117.511

114.358 -2.85522 -1.5394e-12
-2.85522 110.553 2.40125e-11
-1.5394e-12 2.40125e-11 114.98

115.683 3.12893 1.04896e-10
3.12893 119.904 3.77384e-11
1.04896e-10 3.77384e-11 116.821

115.743 -3.26522 -1.36638e-11
-3.26522 119.596 3.10875e-11
-1.36638e-11 3.10875e-11 116.754

117.422 0.531082 1.15486e-11
0.531082 117.446 9.335e-12
1.15486e-11 9.335e-12 119.097

115.024 0.781601 -1.5206e-11
0.781601 113.586 -1.26558e-11
-1.5206e-11 -1.26558e-11 116.906

126.147 -0.637374 -3.04083e-11
-0.637374 127.37 2.98542e-11
-3.04083e-11 2.98542e-11 126.392

129.662 -0.0467498 -9.62207e-11
-0.0467498 128.727 -4.15907e-11
-9.62207e-11 -4.15907e-11 124.404

130.312 2.35825 -8.54448e-11
2.35825 119.576 3.48421e-11
-8.54448e-11 3.48421e-11 121.303

114.252 3.01131 -3.84937e-12
3.01131 110.838 -1.42915e-11
-3.84937e-12 -1.42915e-11 114.997

122.239 -0.962715 -3.12766e-11
-0.962715 119.047 4.32673e-12
-3.12766e-11 4.32673e-12 120.372

124.217 0.292179 -1.03938e-11
0.292179 121.926 -5.87045e-12
-1.03938e-11 -5.87045e-12 122.391

127.184 -0.00113072 -1.65509e-11
-0.00113072 128.688 -1.02e-11
-1.65509e-11 -1.02e-11 127.309

127.205 0.0141008 -1.15473e-12
0.0141008 128.687 1.65752e-11
-1.15473e-12 1.65752e-11 127.32

123.125 0.616313 -2.62721e-11
0.616313 124.318 -4.78744e-11
-2.62721e-11 -4.78744e-11 124.026

125.28 -0.392082 -2.54039e-11
-0.392082 126.791 2.10483e-12
-2.54039e-11 2.10483e-12 125.865

128.021 0.244107 -2.26606e-11
0.244107 129.217 -1.51594e-12
-2.26606e-11 -1.51594e-12 127.774

128.023 -0.239465 2.9253e-11
-0.239465 129.219 -3.22598e-11
2.9253e-11 -3.22598e-11 127.775

126.097 0.643936 6.15918e-12
0.643936 127.361 4.59246e-11
6.15918e-12 4.59246e-11 126.375

123.636 0.475822 5.39035e-12
0.475822 123.448 2.54043e-11
5.39035e-12 2.54043e-11 123.609

127.433 0.606695 -3.57961e-11
0.606695 128.484 -7.6017e-12
-3.57961e-11 -7.6017e-12 127.32

127.476 -0.588139 1.84759e-11
-0.588139 128.491 -2.40804e-11
1.84759e-11 -2.40804e-11 127.337

115.362 1.29466 -1.69385e-11
1.29466 110.506 1.35696e-11
-1.69385e-11 1.35696e-11 115.689

126.982 -0.760549 3.84777e-12
-0.760549 126.947 3.51231e-11
3.84777e-12 3.51231e-11 126.084

116.407 0.225581 1.5206e-11
0.225581 115.36 3.89724e-12
1.5206e-11 3.89724e-12 117.861

110.638 2.97819 -1.92476e-13
2.97819 111.975 8.27708e-12
-1.92476e-13 8.27708e-12 112.474

126.31 -0.798599 -1.34721e-11
-0.798599 126.266 1.08741e-11
-1.34721e-11 1.08741e-11 124.969

124.658 0.123085 1.92457e-11
0.123085 125.998 -3.17795e-11
1.92457e-11 -3.17795e-11 125.294

113.487 1.82578 3.0701e-11
1.82578 111.921 9.57766e-12
3.0701e-11 9.57766e-12 115.763

115.467 -1.02787 -4.23385e-12
-1.02787 111.143 -1.27506e-11
-4.23385e-12 -1.27506e-11 115.966

116.426 -0.216845 3.6572e-12
-0.216845 115.873 2.9833e-12
3.6572e-12 2.9833e-12 118.275

114.765 -0.746494 -1.7709e-11
-0.746494 113.703 -2.53096e-11
-1.7709e-11 -2.53096e-11 116.913

121.096 1.98545 -2.07872e-11
1.98545 119.502 -3.65621e-12
-2.07872e-11 -3.65621e-12 120.797

121.854 -1.79321 6.31347e-11
-1.79321 120.429 -4.2145e-11
6.31347e-11 -4.2145e-11 121.344

123.246 -0.141582 -1.56859e-11
-0.141582 124.468 -2.2217e-11
-1.56859e-11 -2.2217e-11 124.136

110.072 -1.96031 -5.77148e-12
-1.96031 113.324 -2.42524e-11
-5.77148e-12 -2.42524e-11 113.964

123.441 0.19411 1.7321e-11
0.19411 124.086 5.96532e-12
1.7321e-11 5.96532e-12 123.939

123.376 -0.189935 -3.46367e-12
-0.189935 123.998 -1.19325e-11
-3.46367e-12 -1.19325e-11 123.887

115.091 0.881035 -7.89152e-12
0.881035 113.55 -8.08423e-12
-7.89152e-12 -8.08423e-12 116.595

113.398 2.50485 -4.61919e-12
2.50485 102.975 8.18079e-12
-4.61919e-12 8.18079e-12 110.731

113.422 -2.16563 1.98284e-11
-2.16563 102.952 2.29043e-11
1.98284e-11 2.29043e-11 110.722

119.523 1.07776 6.161e-12
1.07776 118.032 3.18533e-11
6.161e-12 3.18533e-11 119.964

114.599 -0.67626 -9.04612e-12
-0.67626 115.394 -1.3185e-11
-9.04612e-12 -1.3185e-11 117.122

120.552 0.857645 2.88687e-11
0.857645 120.563 -1.98254e-11
2.88687e-11 -1.98254e-11 121.453

120.654 -0.840102 -5.77451e-12
-0.840102 120.606 9.43114e-12
-5.77451e-12 9.43114e-12 121.499

123.935 0.0572339 4.88842e-11
0.0572339 124.673 -1.12468e-11
4.88842e-11 -1.12468e-11 124.508

122.973 -0.614337 -3.07928e-11
-0.614337 124.23 -2.11231e-11
-3.07928e-11 -2.11231e-11 123.948

124.012 0.0790378 -2.77145e-11
0.0790378 125.368 -1.45304e-11
-2.77145e-11 -1.45304e-11 124.719

136.495 0.900043 1.16499e-12
0.900043 128.902 -3.2125e-11
1.16499e-12 -3.2125e-11 125.386

135.861 -4.48472 1.73316e-11
-4.48472 126.025 -9.62819e-12
1.73316e-11 -9.62819e-12 123.871

124.805 -0.0535703 4.46495e-11
-0.0535703 126.043 1.1595e-11
4.46495e-11 1.1595e-11 125.36

125.144 -0.417097 -3.8472e-12
-0.417097 125.533 -2.13632e-11
-3.8472e-12 -2.13632e-11 124.704

126.693 0.353272 -1.80906e-11
0.353272 128.023 -1.17519e-11
-1.80906e-11 -1.17519e-11 126.878

119.483 -1.03584 2.11747e-11
-1.03584 118.118 -3.39699e-11
2.11747e-11 -3.39699e-11 119.947

127.685 -2.00178 -1.15337e-12
-2.00178 126.253 -9.61666e-13
-1.15337e-12 -9.61666e-13 124.909

113.018 5.29845 6.16492e-12
5.29845 110.338 2.80056e-11
6.16492e-12 2.80056e-11 112.842

127.044 0.831315 3.34876e-11
0.831315 126.95 2.07838e-11
3.34876e-11 2.07838e-11 126.106

126.887 -0.975541 -1.23168e-11
-0.975541 127.314 -1.92438e-12
-1.23168e-11 -1.92438e-12 126.111

115.277 1.79349 2.38729e-11
1.79349 114.753 4.40761e-11
2.38729e-11 4.40761e-11 116.265

127.456 -0.0100873 1.80902e-11
-0.0100873 129.301 1.12358e-11
1.80902e-11 1.12358e-11 127.6

124.027 -0.0607513 2.0785e-11
-0.0607513 125.157 2.96392e-11
2.0785e-11 2.96392e-11 124.648

110.44 -2.9804 -8.27869e-12
-2.9804 112.019 1.63521e-12
-8.27869e-12 1.63521e-12 112.418

123.983 -0.673183 1.19325e-11
-0.673183 125.588 -3.31977e-12
1.19325e-11 -3.31977e-12 124.711

117.119 -0.337827 3.00249e-11
-0.337827 117.603 2.1366e-11
3.00249e-11 2.1366e-11 119.14

114.068 -0.368824 -2.17507e-11
-0.368824 114.463 1.7996e-11
-2.17507e-11 1.7996e-11 116.351

121.75 0.251423 1.1545e-12
0.251423 121.506 -4.04202e-12
1.1545e-12 -4.04202e-12 122.226

121.757 -0.277528 -9.62208e-12
-0.277528 121.465 -1.1933e-11
-9.62208e-12 -1.1933e-11 122.212

123.693 0.321894 6.54349e-12
0.321894 125.491 8.26375e-12
6.54349e-12 8.26375e-12 124.743

123.988 0.691348 -4.5035e-11
0.691348 125.528 3.03157e-12
-4.5035e-11 3.03157e-12 124.704

121.765 -0.404889 4.77325e-11
-0.404889 120.689 -5.38516e-12
4.77325e-11 -5.38516e-12 121.475

121.556 0.479607 -2.38662e-11
0.479607 120.454 -1.34688e-12
-2.38662e-11 -1.34688e-12 121.261

122.364 -0.0688128 2.38647e-11
-0.0688128 123.159 -1.78038e-11
2.38647e-11 -1.78038e-11 123.196

122.338 0.0540265 -1.80906e-11
0.0540265 123.263 -1.8477e-11
-1.80906e-11 -1.8477e-11 123.209

127.854 0.199985 1.9245e-11
0.199985 128.945 1.18596e-11
1.9245e-11 1.18596e-11 127.614

127.865 -0.190395 1.77052e-11
-0.190395 128.946 3.6133e-11
1.77052e-11 3.6133e-11 127.618

125.624 -1.11626 -2.6927e-12
-1.11626 126.466 -1.20286e-11
-2.6927e-12 -1.20286e-11 125.379

112.035 -4.81505 5.97204e-12
-4.81505 110.47 -1.31824e-11
5.97204e-12 -1.31824e-11 112.242

111.777 0.0673656 -3.46468e-11
0.0673656 113.886 -5.38852e-12
-3.46468e-11 -5.38852e-12 115.621

117.478 0.178304 -2.04028e-11
0.178304 117.363 -3.34417e-11
-2.04028e-11 -3.34417e-11 119.164

121.684 -0.494583 -1.80915e-11
-0.494583 122.817 9.33328e-12
-1.80915e-11 9.33328e-12 122.569

128.376 0.703337 3.84936e-12
0.703337 128.999 3.17545e-11
3.84936e-12 3.17545e-11 127.767

128.377 -0.698474 2.00148e-11
-0.698474 129.005 4.76311e-12
2.00148e-11 4.76311e-12 127.768

126.773 0.870249 2.44412e-11
0.870249 127.824 7.31277e-12
2.44412e-11 7.31277e-12 126.749

126.766 -0.874003 7.69736e-13
-0.874003 127.827 1.45299e-11
7.69736e-13 1.45299e-11 126.749

119.785 -0.13186 -2.38652e-11
-0.13186 120.771 4.27762e-11
-2.38652e-11 4.27762e-11 121.342

122.115 -0.0868453 1.11626e-11
-0.0868453 122.961 1.80194e-11
1.11626e-11 1.80194e-11 123.108

121.68 0.571557 -1.42423e-11
0.571557 122.851 9.9122e-12
-1.42423e-11 9.9122e-12 122.571

130.561 0.0448365 3.15612e-11
0.0448365 131.19 3.53126e-11
3.15612e-11 3.53126e-11 129.128

130.559 -0.0432244 2.30933e-11
-0.0432244 131.183 -1.91985e-13
2.30933e-11 -1.91985e-13 129.126

125.565 -0.765519 2.69553e-12
-0.765519 126.607 -2.33354e-11
2.69553e-12 -2.33354e-11 125.765

117.708 -0.311321 2.5022e-11
-0.311321 115.922 -5.7381e-12
2.5022e-11 -5.7381e-12 118.814

125.275 0.403255 -5.27356e-16
0.403255 126.803 -3.08851e-11
-5.27356e-16 -3.08851e-11 125.868

118.543 -2.61489 -3.7339e-11
-2.61489 116.662 -1.06176e-12
-3.7339e-11 -1.06176e-12 118.49

123.879 1.31832 3.96487e-11
1.31832 123.391 1.90504e-11
3.96487e-11 1.90504e-11 123.152

116.474 0.17068 1.96318e-11
0.17068 116.602 2.11732e-11
1.96318e-11 2.11732e-11 118.498

126.966 0.968705 2.57876e-11
0.968705 127.304 -1.52052e-11
2.57876e-11 -1.52052e-11 126.133

125.514 0.783214 -2.84838e-11
0.783214 126.611 -5.09997e-12
-2.84838e-11 -5.09997e-12 125.75

107.56 4.76732 -9.0488e-12
4.76732 109.509 3.36916e-12
-9.0488e-12 3.36916e-12 110.458

128.369 -0.059405 7.70439e-13
-0.059405 126.009 3.75393e-12
7.70439e-13 3.75393e-12 124.548

122.608 2.37909 4.81212e-11
2.37909 113.528 2.80701e-13
4.81212e-11 2.80701e-13 117.127

125.611 1.15986 -3.11758e-11
1.15986 126.475 2.75224e-11
-3.11758e-11 2.75224e-11 125.39

112.86 2.30805 -5.00254e-12
2.30805 113.906 2.86795e-11
-5.00254e-12 2.86795e-11 115.347

116.095 -0.284127 1.55913e-11
-0.284127 115.288 2.27599e-11
1.55913e-11 2.27599e-11 117.902

127.665 -1.46474 -7.31443e-12
-1.46474 126.532 2.49223e-11
-7.31443e-12 2.49223e-11 125.726

116.557 -2.2733 -3.54161e-11
-2.2733 115.658 1.76102e-11
-3.54161e-11 1.76102e-11 117.702

119.21 1.54808 2.19399e-11
1.54808 118.895 -9.81747e-12
2.19399e-11 -9.81747e-12 120.095

125.955 -0.406338 1.77054e-11
-0.406338 127.405 8.56485e-12
1.77054e-11 8.56485e-12 126.194

122.23 -1.13403 7.68866e-13
-1.13403 121.743 1.46269e-11
7.68866e-13 1.46269e-11 122.274

128.205 1.74104 -4.65725e-11
1.74104 126.213 2.73303e-11
-4.65725e-11 2.73303e-11 125.096

118.639 0.192616 1.46276e-11
0.192616 118.76 9.55152e-12
1.46276e-11 9.55152e-12 120.241

118.527 -0.104338 -1.57835e-11
-0.104338 117.756 2.36077e-11
-1.57835e-11 2.36077e-11 119.833

125.96 0.411182 -4.11844e-11
0.411182 127.406 2.30954e-11
-4.11844e-11 2.30954e-11 126.196

126.074 -0.0563566 -7.21701e-12
-0.0563566 127.514 -7.99891e-13
-7.21701e-12 -7.99891e-13 126.434

132.659 0.420965 -1.92446e-10
0.420965 132.278 -4.96469e-11
-1.92446e-10 -4.96469e-11 129.917

132.655 -0.416446 3.38696e-11
-0.416446 132.271 5.22497e-11
3.38696e-11 5.22497e-11 129.914

125.216 0.499845 -3.73348e-11
0.499845 125.505 3.42586e-11
-3.73348e-11 3.42586e-11 124.714

113.887 -2.74984 -2.75244e-11
-2.74984 115.746 -3.14689e-11
-2.75244e-11 -3.14689e-11 115.96

113.872 2.79836 3.27199e-12
2.79836 115.883 9.91319e-12
3.27199e-12 9.91319e-12 115.989

115.826 -0.360743 -1.98268e-11
-0.360743 109.053 -1.06837e-11
-1.98268e-11 -1.06837e-11 114.727

107.406 -4.69503 -1.5403e-11
-4.69503 109.608 1.95374e-11
-1.5403e-11 1.95374e-11 110.397

121.81 0.280085 2.50198e-11
0.280085 122.742 -3.63207e-12
2.50198e-11 -3.63207e-12 122.893

118.572 0.0215762 -2.38675e-11
0.0215762 117.689 -3.05778e-11
-2.38675e-11 -3.05778e-11 119.806

121.393 0.535216 2.27094e-11
0.535216 122.006 -2.54062e-11
2.27094e-11 -2.54062e-11 122.457

121.453 -0.545431 2.29025e-11
-0.545431 122.023 2.72826e-11
2.29025e-11 2.72826e-11 122.506

122.826 0.240636 -4.31115e-11
0.240636 123.555 -2.31434e-11
-4.31115e-11 -2.31434e-11 123.635

127.693 1.41353 1.50103e-11
1.41353 126.572 -8.18064e-12
1.50103e-11 -8.18064e-12 125.737

119.776 0.486897 -2.04006e-11
0.486897 119.942 3.57994e-11
-2.04006e-11 3.57994e-11 121.075

122.719 0.140092 -4.23414e-11
0.140092 123.259 2.40452e-13
-4.23414e-11 2.40452e-13 123.507

123.137 -1.64595 8.36368e-15
-1.64595 117.438 -6.06266e-11
8.36368e-15 -6.06266e-11 118.364

130.096 1.78481 1.80915e-11
1.78481 125.812 7.50347e-12
1.80915e-11 7.50347e-12 124.494

115.63 -1.95484 -1.73237e-11
-1.95484 112.354 -2.61751e-11
-1.73237e-11 -2.61751e-11 115.82

112.856 -0.326618 1.52083e-11
-0.326618 100.545 -1.75395e-11
1.52083e-11 -1.75395e-11 109.303

122.116 -0.72194 -3.04095e-11
-0.72194 123.233 7.60133e-12
-3.04095e-11 7.60133e-12 123.077

122.124 0.713952 2.38671e-11
0.713952 123.321 5.10023e-11
2.38671e-11 5.10023e-11 123.119

115.438 -0.24818 -1.001e-11
-0.24818 107.575 -1.94777e-11
-1.001e-11 -1.94777e-11 114.285

123.82 1.0944 4.23385e-11
1.0944 124.599 -3.58965e-11
4.23385e-11 -3.58965e-11 123.919

129.426 0.65917 9.62199e-12
0.65917 130.302 -8.7091e-12
9.62199e-12 -8.7091e-12 128.589

129.426 -0.65569 1.27014e-11
-0.65569 130.299 2.67507e-11
1.27014e-11 2.67507e-11 128.588

114.306 -0.746146 -1.36654e-11
-0.746146 114.495 2.31948e-11
-1.36654e-11 2.31948e-11 116.416

112.728 -2.35616 -3.2914e-11
-2.35616 113.867 -4.42853e-12
-3.2914e-11 -4.42853e-12 115.293

114.94 -2.05625 -1.82863e-11
-2.05625 109.751 -9.28566e-12
-1.82863e-11 -9.28566e-12 114.97

117.397 0.0561132 1.34827e-12
0.0561132 115.828 3.96494e-11
1.34827e-12 3.96494e-11 118.659

114.925 -1.75326 1.77058e-11
-1.75326 114.755 2.08858e-11
1.77058e-11 2.08858e-11 116.159

118.909 -0.3776 -2.07868e-11
-0.3776 118.915 -3.50025e-12
-2.07868e-11 -3.50025e-12 120.511

119.208 -1.45632 3.27231e-11
-1.45632 119.214 -3.0697e-11
3.27231e-11 -3.0697e-11 120.198

122.171 1.10821 -2.54056e-11
1.10821 121.239 3.27218e-12
-2.54056e-11 3.27218e-12 122.097

127.72 -1.72198 -2.61814e-11
-1.72198 123.828 2.25124e-11
-2.61814e-11 2.25124e-11 122.671

126.65 1.24995 -5.38883e-11
1.24995 123.24 1.23259e-11
-5.38883e-11 1.23259e-11 122.168

128.027 0.0382767 -1.0392e-11
0.0382767 129.578 1.42412e-11
-1.0392e-11 1.42412e-11 127.933

128.012 -0.0412546 -3.69497e-11
-0.0412546 129.571 -5.26855e-12
-3.69497e-11 -5.26855e-12 127.929

112.536 -1.27902 1.23198e-11
-1.27902 113.708 2.91605e-11
1.23198e-11 2.91605e-11 115.646

112.363 1.34509 1.44363e-11
1.34509 113.854 -8.18028e-12
1.44363e-11 -8.18028e-12 115.594

112.561 -0.685968 -2.79106e-11
-0.685968 116.073 -1.05826e-12
-2.79106e-11 -1.05826e-12 114.977

112.507 0.765674 2.46382e-11
0.765674 115.994 -2.72344e-11
2.46382e-11 -2.72344e-11 114.942

131.586 0.0406306 -4.00273e-11
0.0406306 131.943 7.12194e-12
-4.00273e-11 7.12194e-12 129.558

131.581 -0.0379651 -3.61809e-11
-0.0379651 131.935 3.28109e-11
-3.61809e-11 3.28109e-11 129.555

128.464 0.942986 -3.08018e-12
0.942986 127.729 -6.63899e-12
-3.08018e-12 -6.63899e-12 126.96

128.46 -0.953544 -1.38553e-11
-0.953544 127.746 -1.48193e-11
-1.38553e-11 -1.48193e-11 126.964

125.3 -0.205338 -7.69766e-12
-0.205338 126.954 -1.44825e-11
-7.69766e-12 -1.44825e-11 125.867

119.373 -1.04189 -1.34739e-11
-1.04189 117.502 2.10745e-11
-1.34739e-11 2.10745e-11 119.123

123.387 0.240984 -1.92853e-12
0.240984 123.194 -5.1099e-11
-1.92853e-12 -5.1099e-11 123.083

117.601 -0.487573 2.59848e-11
-0.487573 116.429 -2.40104e-11
2.59848e-11 -2.40104e-11 118.875

125.307 0.218649 -1.80894e-11
0.218649 126.957 6.0143e-11
-1.80894e-11 6.0143e-11 125.864

118.887 0.864709 2.51618e-11
0.864709 117.834 -3.87862e-11
2.51618e-11 -3.87862e-11 119.1

124.563 -0.362463 -4.27244e-11
-0.362463 126.179 -5.29371e-12
-4.27244e-11 -5.29371e-12 125.211

106.334 -2.98621 3.4836e-11
-2.98621 111.317 2.21356e-12
3.4836e-11 2.21356e-12 111.023

106.366 2.99617 3.06073e-11
2.99617 111.237 8.27723e-12
3.06073e-11 8.27723e-12 111.02

124.528 0.373475 -8.46802e-11
0.373475 126.155 4.52491e-12
-8.46802e-11 4.52491e-12 125.193

115.431 2.20641 2.65628e-11
2.20641 112.393 -1.74175e-11
2.65628e-11 -1.74175e-11 115.729

136.418 0.49931 -1.92557e-12
0.49931 118.119 3.07835e-12
-1.92557e-12 3.07835e-12 122.052

136.23 -1.05981 -1.57932e-11
-1.05981 132.079 -6.62002e-11
-1.57932e-11 -6.62002e-11 126.109

125.833 0.476372 1.77061e-11
0.476372 124.65 4.78774e-13
1.77061e-11 4.78774e-13 124.126

113.535 -1.69667 -3.54172e-11
-1.69667 111.976 -4.90596e-12
-3.54172e-11 -4.90596e-12 115.856

115.539 -3.22429 1.07797e-11
-3.22429 110.773 1.86687e-11
1.07797e-11 1.86687e-11 114.163

121.598 -0.179712 3.61836e-11
-0.179712 122.004 3.18279e-11
3.61836e-11 3.18279e-11 122.576

121.686 0.0534701 -1.73218e-11
0.0534701 123.198 -1.13072e-11
-1.73218e-11 -1.13072e-11 123.072

128.862 0.349933 -3.46414e-12
0.349933 129.455 1.27521e-12
-3.46414e-12 1.27521e-12 128.145

128.871 -0.334268 1.3472e-11
-0.334268 129.45 -2.99984e-11
1.3472e-11 -2.99984e-11 128.146

115.599 3.21994 -1.9441e-11
3.21994 110.936 -2.84091e-12
-1.9441e-11 -2.84091e-12 114.21

123.54 -0.339929 -2.19648e-11
-0.339929 123.128 4.23241e-12
-2.19648e-11 4.23241e-12 123.172

124.629 -0.645998 3.81063e-11
-0.645998 126.145 8.17981e-12
3.81063e-11 8.17981e-12 125.317

127.366 0.986957 -1.00134e-11
0.986957 128.305 -1.14028e-10
-1.00134e-11 -1.14028e-10 127.077

127.365 -0.98445 -1.88568e-11
-0.98445 128.311 -4.898e-11
-1.88568e-11 -4.898e-11 127.078

118.141 -4.73016 9.62597e-12
-4.73016 115.709 3.98137e-12
9.62597e-12 3.98137e-12 116.465

118.025 4.81736 -1.13539e-11
4.81736 115.734 9.41354e-12
-1.13539e-11 9.41354e-12 116.449

125.627 1.40824 -4.27252e-11
1.40824 125.711 1.3185e-11
-4.27252e-11 1.3185e-11 124.702

115.503 -0.597438 -1.90555e-11
-0.597438 113.76 9.09557e-12
-1.90555e-11 9.09557e-12 116.794

128.135 0.742084 -3.56982e-11
0.742084 129.511 3.97891e-11
-3.56982e-11 3.97891e-11 127.915

128.138 -0.739378 6.40866e-11
-0.739378 129.509 -1.18355e-11
6.40866e-11 -1.18355e-11 127.915

118.676 -2.08338 -5.57798e-12
-2.08338 115.18 -2.95469e-11
-5.57798e-12 -2.95469e-11 117.086

113.695 -4.03472 5.00407e-12
-4.03472 110.945 5.00555e-12
5.00407e-12 5.00555e-12 112.93

120.553 -0.584785 2.92544e-11
-0.584785 121.454 -4.57523e-13
2.92544e-11 -4.57523e-13 122.087

110.347 0.282449 4.29221e-11
0.282449 115.243 7.02253e-12
4.29221e-11 7.02253e-12 114.008

110.283 -0.283396 1.78999e-11
-0.283396 115.203 -9.43438e-12
1.78999e-11 -9.43438e-12 113.98

113.422 -3.98788 2.04063e-11
-3.98788 112.656 -2.50208e-11
2.04063e-11 -2.50208e-11 114.799

124.708 0.647389 4.13777e-11
0.647389 126.117 7.89013e-12
4.13777e-11 7.89013e-12 125.349

114.262 0.794937 1.97286e-11
0.794937 114.554 -7.02447e-12
1.97286e-11 -7.02447e-12 116.362

111.344 0.24839 4.38865e-11
0.24839 114.311 1.24138e-11
4.38865e-11 1.24138e-11 114.937

111.225 -0.295193 1.69396e-11
-0.295193 114.379 -1.2413e-11
1.69396e-11 -1.2413e-11 114.907

114.549 2.52429 3.38784e-11
2.52429 109.054 3.32258e-12
3.38784e-11 3.32258e-12 114.652

129.033 0.472221 -2.00147e-11
0.472221 130.399 -7.9577e-11
-2.00147e-11 -7.9577e-11 128.521

129.034 -0.468409 2.07836e-11
-0.468409 130.391 1.53968e-12
2.07836e-11 1.53968e-12 128.518

130.297 -0.11412 2.85042e-11
-0.11412 127.011 -6.06157e-11
2.85042e-11 -6.06157e-11 123.249

130.037 2.27702 -3.84971e-11
2.27702 127.123 -3.13601e-11
-3.84971e-11 -3.13601e-11 123.727

120.023 0.160959 -2.27113e-11
0.160959 120.999 3.32245e-11
-2.27113e-11 3.32245e-11 121.521

119.481 -0.101887 -5.77413e-12
-0.101887 117.796 -5.17239e-12
-5.77413e-12 -5.17239e-12 119.982

126.856 0.920088 6.16004e-12
0.920088 127.962 3.64691e-11
6.16004e-12 3.64691e-11 126.602

126.874 -0.916323 -1.34729e-11
-0.916323 127.965 3.29094e-11
-1.34729e-11 3.29094e-11 126.607

126.3 1.01349 -6.46649e-11
1.01349 126.321 9.14392e-12
-6.46649e-11 9.14392e-12 125.074

120.688 0.230068 3.15645e-11
0.230068 121.339 2.31436e-11
3.15645e-11 2.31436e-11 121.954

122.059 -0.0850396 -6.92887e-12
-0.0850396 122.057 -4.14998e-11
-6.92887e-12 -4.14998e-11 122.824

132.074 -0.515325 -5.88864e-11
-0.515325 132.991 -2.01109e-11
-5.88864e-11 -2.01109e-11 129.976

132.078 0.519508 -2.61666e-11
0.519508 132.997 2.06012e-10
-2.61666e-11 2.06012e-10 129.979

111.591 -0.0866711 2.29066e-11
-0.0866711 113.747 -2.57916e-11
2.29066e-11 -2.57916e-11 115.5

125.076 0.704015 -1.61663e-11
0.704015 125.504 1.03933e-11
-1.61663e-11 1.03933e-11 125.022

126.94 0.622011 5.15739e-11
0.622011 127.724 -6.42815e-11
5.15739e-11 -6.42815e-11 126.585

126.94 -0.617864 1.07804e-11
-0.617864 127.728 -5.77364e-11
1.07804e-11 -5.77364e-11 126.586

125.356 0.444364 -2.3866e-11
0.444364 126.469 -1.84752e-11
-2.3866e-11 -1.84752e-11 125.453

125.069 -0.670201 -7.31328e-12
-0.670201 125.468 5.87022e-12
-7.31328e-12 5.87022e-12 125.01

120.326 -0.036526 8.08228e-12
-0.036526 121.329 -3.29128e-11
8.08228e-12 -3.29128e-11 121.701

120.407 -0.047937 -6.54412e-12
-0.047937 121.532 1.82846e-11
-6.54412e-12 1.82846e-11 121.796

122.747 -0.17227 -3.61823e-11
-0.17227 124.261 -2.70167e-11
-3.61823e-11 -2.70167e-11 123.883

125.337 -0.433559 -4.1185e-11
-0.433559 126.473 -1.73265e-12
-4.1185e-11 -1.73265e-12 125.447

120.113 -0.440643 -2.31013e-12
-0.440643 120.108 1.91264e-11
-2.31013e-12 1.91264e-11 121.265

117.922 0.255432 1.53977e-11
0.255432 117.234 -2.43234e-11
1.53977e-11 -2.43234e-11 119.343

128.042 0.854569 -1.5349e-12
0.854569 128.309 8.25625e-11
-1.5349e-12 8.25625e-11 127.219

128.043 -0.859 1.30865e-11
-0.859 128.31 1.39537e-11
1.30865e-11 1.39537e-11 127.219

128.018 0.576337 -7.62123e-11
0.576337 129.162 -5.6579e-11
-7.62123e-11 -5.6579e-11 127.569

128.019 -0.573663 3.61791e-11
-0.573663 129.164 4.56122e-11
3.61791e-11 4.56122e-11 127.57

119.175 -0.447499 -7.89134e-12
-0.447499 119.968 2.33851e-11
-7.89134e-12 2.33851e-11 120.883

118.85 -0.403022 -4.23449e-12
-0.403022 118.837 1.99566e-11
-4.23449e-12 1.99566e-11 120.205

126.046 -0.979049 3.84924e-11
-0.979049 127.18 -2.04956e-11
3.84924e-11 -2.04956e-11 126.081

126.038 0.988303 -4.96529e-11
0.988303 127.166 1.15487e-11
-4.96529e-11 1.15487e-11 126.076

128.257 -0.551966 6.85347e-11
-0.551966 118.834 -7.83139e-11
6.85347e-11 -7.83139e-11 121.082

128.856 -0.0482209 1.42391e-11
-0.0482209 125.651 -2.25196e-11
1.42391e-11 -2.25196e-11 123.619

128.409 0.598353 5.38782e-12
0.598353 129.058 6.73161e-13
5.38782e-12 6.73161e-13 127.554

128.433 -0.585764 -1.96265e-11
-0.585764 129.054 -4.28206e-11
-1.96265e-11 -4.28206e-11 127.557

129.282 0.314494 2.77125e-11
0.314494 130.138 -1.86682e-11
2.77125e-11 -1.86682e-11 128.48

129.282 -0.313568 4.65735e-11
-0.313568 130.133 -5.29223e-11
4.65735e-11 -5.29223e-11 128.478

112.235 -0.712196 3.09911e-11
-0.712196 114.608 -1.56843e-11
3.09911e-11 -1.56843e-11 115.119

112.417 0.716531 4.81086e-12
0.716531 114.539 -1.63603e-11
4.81086e-12 -1.63603e-11 115.182

123.92 -4.00437 2.46336e-11
-4.00437 118.489 1.8864e-11
2.46336e-11 1.8864e-11 118.356

113.27 0.201045 3.65759e-12
0.201045 116.799 -1.78018e-11
3.65759e-12 -1.78018e-11 114.968

130.421 0.112777 5.08054e-11
0.112777 131.217 1.95341e-11
5.08054e-11 1.95341e-11 129.132

131.732 -0.35804 3.46462e-12
-0.35804 131.635 -3.2699e-12
3.46462e-12 -3.2699e-12 129.574

130.419 -0.110369 -8.39073e-11
-0.110369 131.229 -3.01173e-11
-8.39073e-11 -3.01173e-11 129.134

131.735 0.360305 -8.15967e-11
0.360305 131.643 2.69544e-12
-8.15967e-11 2.69544e-12 129.577

130.62 2.4416 2.2695e-11
2.4416 128.884 -7.37109e-11
2.2695e-11 -7.37109e-11 125.02

113.294 -0.176757 1.34621e-12
-0.176757 116.771 -1.2992e-11
1.34621e-12 -1.2992e-11 114.966

131.401 -0.00254349 2.87894e-10
-0.00254349 131.399 2.78769e-10
2.87894e-10 2.78769e-10 129.274

133.168 -0.378916 5.15761e-10
-0.378916 132.697 -9.55248e-11
5.15761e-10 -9.55248e-11 130.121

133.169 0.381816 -3.59875e-10
0.381816 132.706 -2.50176e-10
-3.59875e-10 -2.50176e-10 130.123

131.41 0.0075464 -4.42597e-11
0.0075464 131.403 -6.34075e-11
-4.42597e-11 -6.34075e-11 129.277

131.095 -0.252633 -2.57848e-11
-0.252633 130.528 -6.0718e-11
-2.57848e-11 -6.0718e-11 128.961

129.539 -0.927355 4.23415e-11
-0.927355 129.531 -3.32927e-11
4.23415e-11 -3.32927e-11 128.225

131.58 -0.276678 -4.61489e-12
-0.276678 132.582 -9.40113e-11
-4.61489e-12 -9.40113e-11 129.707

131.101 0.258921 -1.53961e-11
0.258921 130.533 1.95321e-11
-1.53961e-11 1.95321e-11 128.965

131.586 0.279352 -4.23375e-11
0.279352 132.59 2.66548e-11
-4.23375e-11 2.66548e-11 129.71

129.543 0.932935 -2.73285e-11
0.932935 129.538 -3.17595e-12
-2.73285e-11 -3.17595e-12 128.228

129.909 0.321476 2.07834e-11
0.321476 130.406 -1.84768e-11
2.07834e-11 -1.84768e-11 128.623

130.646 0.643343 -1.50111e-11
0.643343 130.825 -4.04164e-12
-1.50111e-11 -4.04164e-12 129.058

129.905 -0.319568 3.5025e-11
-0.319568 130.403 2.00153e-11
3.5025e-11 2.00153e-11 128.62

130.644 -0.639056 5.69632e-11
-0.639056 130.82 3.4353e-11
5.69632e-11 3.4353e-11 129.056

73.2989 4.43507 1.57998e-11
4.43507 83.3154 4.15946e-11
1.57998e-11 4.15946e-11 77.6078

97.4791 0.717269 -3.07539e-12
0.717269 101.014 4.69758e-11
-3.07539e-12 4.69758e-11 98.1693

83.6709 1.25075 8.85507e-12
1.25075 96.7971 8.08346e-12
8.85507e-12 8.08346e-12 91.0509

88.8879 2.27507 -4.5058e-11
2.27507 75.0758 8.47942e-12
-4.5058e-11 8.47942e-12 82.044

85.3505 0.653585 -2.42621e-11
0.653585 71.8441 1.38661e-11
-2.42621e-11 1.38661e-11 77.1947

99.4148 -0.495057 -8.8558e-12
-0.495057 104.584 -4.18699e-11
-8.8558e-12 -4.18699e-11 103.134

85.702 1.89926 1.25089e-11
1.89926 102.984 -1.16055e-12
1.25089e-11 -1.16055e-12 95.8909

86.3439 -0.630359 -3.33693e-11
-0.630359 73.8972 6.16196e-12
-3.33693e-11 6.16196e-12 78.1322

99.8059 0.513044 1.3816e-11
0.513044 83.4586 9.04558e-12
1.3816e-11 9.04558e-12 92.2716

60.006 3.98176 2.40622e-12
3.98176 68.6887 9.62756e-12
2.40622e-12 9.62756e-12 62.7554

62.9236 -6.43964 -3.63956e-11
-6.43964 69.8244 -3.0234e-11
-3.63956e-11 -3.0234e-11 63.3254

70.4257 4.01038 -1.30989e-11
4.01038 62.1428 -4.24098e-12
-1.30989e-11 -4.24098e-12 64.1396

100.973 -7.34953 3.17539e-12
-7.34953 105.451 -3.44602e-11
3.17539e-12 -3.44602e-11 102.389

95.5813 -2.56927 -4.23417e-12
-2.56927 102.868 1.07805e-11
-4.23417e-12 1.07805e-11 98.8627

74.9339 3.812 -1.69574e-11
3.812 86.9151 -8.12668e-11
-1.69574e-11 -8.12668e-11 82.2481

80.024 4.42272 -5.87116e-12
4.42272 93.7229 3.23493e-11
-5.87116e-12 3.23493e-11 89.6066

85.4401 -2.10389 -3.06074e-11
-2.10389 103.091 -3.07991e-12
-3.06074e-11 -3.07991e-12 95.6575

95.396 -5.50345 -7.70306e-12
-5.50345 102.863 -3.36913e-11
-7.70306e-12 -3.36913e-11 99.9937

89.979 -3.9202 -2.40673e-11
-3.9202 77.4294 1.17488e-11
-2.40673e-11 1.17488e-11 84.9234

64.4538 1.25798 -3.3219e-11
1.25798 76.6589 1.46395e-11
-3.3219e-11 1.46395e-11 68.1795

69.3163 -2.51179 -2.38754e-11
-2.51179 78.2687 -1.40531e-11
-2.38754e-11 -1.40531e-11 70.1979

76.9602 0.943182 -1.55967e-11
0.943182 67.3362 -2.92671e-11
-1.55967e-11 -2.92671e-11 69.2032

73.6843 5.14042 8.38648e-12
5.14042 79.7876 2.00249e-11
8.38648e-12 2.00249e-11 76.6995

80.3151 -3.53356 -1.63617e-12
-3.53356 69.4107 -1.9829e-11
-1.63617e-12 -1.9829e-11 73.0373

81.3749 5.64562 -2.59854e-11
5.64562 82.4348 4.25553e-11
-2.59854e-11 4.25553e-11 82.0421

84.8657 3.99864 1.73239e-12
3.99864 87.6901 2.69074e-12
1.73239e-12 2.69074e-12 83.678

90.9278 -1.20964 1.57424e-11
-1.20964 75.867 -3.54274e-11
1.57424e-11 -3.54274e-11 83.1794

57.2266 2.70097 -1.00106e-11
2.70097 63.4508 2.69236e-12
-1.00106e-11 2.69236e-12 57.1743

96.2684 1.35392 3.15073e-11
1.35392 81.2042 2.69362e-12
3.15073e-11 2.69362e-12 89.9247

63.7255 2.51868 1.57869e-11
2.51868 59.1921 2.73398e-11
1.57869e-11 2.73398e-11 58.2636

104.951 -2.50578 -2.27155e-11
-2.50578 107.287 -4.16767e-11
-2.27155e-11 -4.16767e-11 105.222

96.1741 0.318818 -1.65547e-11
0.318818 105.936 1.80983e-11
-1.65547e-11 1.80983e-11 99.7455

111.891 -2.68547 -3.86226e-11
-2.68547 107.378 3.33038e-11
-3.86226e-11 3.33038e-11 106.692

108.872 6.497 -9.04454e-11
6.497 109.553 4.34993e-11
-9.04454e-11 4.34993e-11 106.604

75.1821 -1.714 2.89546e-13
-1.714 65.737 -5.38799e-12
2.89546e-13 -5.38799e-12 66.8734

81.7195 5.98876 -3.79273e-11
5.98876 85.5783 2.96059e-16
-3.79273e-11 2.96059e-16 85.6033

98.2469 3.42455 -3.53621e-12
3.42455 97.2125 1.96336e-11
-3.53621e-12 1.96336e-11 98.4388

101.172 -0.96565 2.91296e-11
-0.96565 99.814 2.77195e-11
2.91296e-11 2.77195e-11 99.7746

99.9203 0.517734 -5.03072e-12
0.517734 82.4872 -1.15522e-12
-5.03072e-12 -1.15522e-12 92.2866

81.6818 5.64155 1.33227e-15
5.64155 86.027 1.03963e-11
1.33227e-15 1.03963e-11 82.1556

81.7177 -4.4718 -2.56179e-11
-4.4718 75.9277 -6.35492e-12
-2.56179e-11 -6.35492e-12 75.8906

98.823 -0.0531862 8.39921e-12
-0.0531862 79.9809 -1.96373e-11
8.39921e-12 -1.96373e-11 90.3742

76.889 -7.69028 -1.05883e-11
-7.69028 84.1567 1.15539e-11
-1.05883e-11 1.15539e-11 78.1227

78.7228 -6.70455 1.82883e-12
-6.70455 86.089 3.7163e-11
1.82883e-12 3.7163e-11 79.7466

98.0473 3.39347 -2.07956e-11
3.39347 100.835 -1.46267e-11
-2.07956e-11 -1.46267e-11 99.3923

75.5786 -7.6994 -3.96737e-11
-7.6994 73.21 -9.64266e-13
-3.96737e-11 -9.64266e-13 71.5771

46.1584 -7.67453 -1.98467e-11
-7.67453 45.5715 -1.69452e-11
-1.98467e-11 -1.69452e-11 45.582

45.7362 -8.13298 -3.35184e-11
-8.13298 47.8519 -2.92743e-11
-3.35184e-11 -2.92743e-11 46.3442

92.9985 -8.93211 4.01399e-11
-8.93211 102.544 -1.63719e-11
4.01399e-11 -1.63719e-11 98.2633

46.2568 -3.03721 -2.21553e-11
-3.03721 45.6237 2.17693e-11
-2.21553e-11 2.17693e-11 47.5279

44.3772 -2.48828 -5.52866e-11
-2.48828 46.0517 -2.04132e-11
-5.52866e-11 -2.04132e-11 46.7447

111.581 3.88037 1.14671e-12
3.88037 103.816 -5.58043e-12
1.14671e-12 -5.58043e-12 107.669

104.388 -5.13441 -2.04114e-11
-5.13441 98.9487 -6.12069e-11
-2.04114e-11 -6.12069e-11 100.702

92.8245 -2.68157 2.96571e-11
-2.68157 79.6148 1.96341e-11
2.96571e-11 1.96341e-11 88.7383

109.969 5.2227 -5.7751e-11
5.2227 99.4978 9.64036e-12
-5.7751e-11 9.64036e-12 105.824

103.465 -7.20134 -3.46782e-12
-7.20134 98.1339 3.85062e-12
-3.46782e-12 3.85062e-12 100.367

86.9975 3.94716 -2.50141e-12
3.94716 92.9794 -7.12615e-12
-2.50141e-12 -7.12615e-12 89.2432

109.947 -2.4925 -1.26805e-11
-2.4925 102.224 4.01294e-12
-1.26805e-11 4.01294e-12 104.377

106.251 3.35078 1.34805e-12
3.35078 104.106 1.91758e-12
1.34805e-12 1.91758e-12 104.084

102.38 6.11634 3.04243e-11
6.11634 94.1561 1.16938e-11
3.04243e-11 1.16938e-11 99.3443

95.257 -7.77798 8.85344e-12
-7.77798 89.9482 -3.51885e-12
8.85344e-12 -3.51885e-12 93.7451

67.5163 -5.31332 7.776e-13
-5.31332 60.2224 -1.07887e-11
7.776e-13 -1.07887e-11 61.3035

110.898 -1.51913 -2.82946e-11
-1.51913 115.194 7.31533e-12
-2.82946e-11 7.31533e-12 112.753

101.942 -0.249046 -6.15482e-12
-0.249046 115.419 3.88857e-11
-6.15482e-12 3.88857e-11 105.108

73.7512 -6.49585 4.06296e-11
-6.49585 80.2502 2.54077e-11
4.06296e-11 2.54077e-11 77.1465

55.2517 -2.23934 -1.98582e-13
-2.23934 61.825 -9.68936e-11
-1.98582e-13 -9.68936e-11 56.0805

60.6497 -2.09553 1.34914e-12
-2.09553 54.4795 1.348e-11
1.34914e-12 1.348e-11 55.153

91.916 2.51604 3.21509e-11
2.51604 98.5988 1.1549e-11
3.21509e-11 1.1549e-11 95.4434

78.2674 3.79111 -9.65764e-13
3.79111 92.713 2.4648e-11
-9.65764e-13 2.4648e-11 87.7524

128.485 4.9489 -4.28409e-12
4.9489 114.07 3.13555e-11
-4.28409e-12 3.13555e-11 117.421

127.526 1.47042 -1.80941e-10
1.47042 132.618 -7.50396e-11
-1.80941e-10 -7.50396e-11 115.516

82.5101 5.70362 2.33894e-11
5.70362 91.0678 3.84892e-12
2.33894e-11 3.84892e-12 91.2961

96.9015 4.51362 -4.46711e-11
4.51362 85.3034 -5.39176e-12
-4.46711e-11 -5.39176e-12 92.5978

92.9105 -6.87197 -1.75207e-11
-6.87197 83.2107 -1.07701e-11
-1.75207e-11 -1.07701e-11 89.5076

83.8609 7.82783 -2.50333e-11
7.82783 90.2975 -2.23293e-11
-2.50333e-11 -2.23293e-11 90.8423

85.2065 -5.95193 2.19478e-11
-5.95193 98.0705 -1.15552e-12
2.19478e-11 -1.15552e-12 94.527

73.8573 -0.564523 -2.21171e-12
-0.564523 62.1962 7.32259e-12
-2.21171e-12 7.32259e-12 65.4563

86.7803 -2.27778 9.81985e-12
-2.27778 74.1424 -2.92639e-11
9.81985e-12 -2.92639e-11 79.9956

79.2342 2.79591 1.45453e-11
2.79591 68.528 1.77168e-11
1.45453e-11 1.77168e-11 71.8707

96.9127 3.10372 1.86982e-11
3.10372 90.9062 -1.27041e-11
1.86982e-11 -1.27041e-11 95.761

100.859 2.11393 -8.34351e-11
2.11393 114.76 2.88857e-11
-8.34351e-11 2.88857e-11 106.511

108.147 -1.55646 4.66068e-11
-1.55646 109.016 2.94449e-11
4.66068e-11 2.94449e-11 106.756

68.4643 4.49118 4.69897e-11
4.49118 71.0625 -1.48231e-11
4.69897e-11 -1.48231e-11 66.7882

83.1901 -5.77378 -2.94667e-11
-5.77378 80.8942 1.81025e-11
-2.94667e-11 1.81025e-11 81.147

92.6606 3.12476 2.00301e-11
3.12476 82.699 2.67624e-11
2.00301e-11 2.67624e-11 88.074

107.579 3.4816 -1.05786e-11
3.4816 118.965 3.54239e-11
-1.05786e-11 3.54239e-11 107.659

109.863 -2.3327 -1.05866e-10
-2.3327 114.406 -5.56732e-12
-1.05866e-10 -5.56732e-12 112.002

99.4107 -0.852972 1.81023e-11
-0.852972 91.8249 1.44392e-11
1.81023e-11 1.44392e-11 96.8709

94.0422 -4.491 1.34962e-12
-4.491 99.7146 1.69444e-11
1.34962e-12 1.69444e-11 95.6078

83.471 -1.45231 -2.90698e-11
-1.45231 97.1961 3.73532e-11
-2.90698e-11 3.73532e-11 90.954

97.461 0.995565 2.61805e-11
0.995565 81.0031 -1.75178e-11
2.61805e-11 -1.75178e-11 92.9019

96.1356 -3.13073 -8.47078e-12
-3.13073 80.5675 4.81294e-11
-8.47078e-12 4.81294e-11 91.7883

70.6293 -6.37955 3.2372e-11
-6.37955 67.9048 1.23104e-11
3.2372e-11 1.23104e-11 66.5294

103.374 3.93699 5.1352e-11
3.93699 87.8248 5.57406e-12
5.1352e-11 5.57406e-12 98.6811

100.182 -6.12343 -1.2949e-11
-6.12343 87.8895 -1.77116e-11
-1.2949e-11 -1.77116e-11 95.8365

90.2575 -5.45402 -2.34951e-11
-5.45402 79.7766 1.80972e-11
-2.34951e-11 1.80972e-11 85.5252

74.9279 -5.43277 -8.08694e-12
-5.43277 83.7553 -1.11711e-11
-8.08694e-12 -1.11711e-11 78.6142

98.1944 2.36822 5.38236e-12
2.36822 86.7456 -2.73327e-11
5.38236e-12 -2.73327e-11 94.9898

96.4878 -4.39261 -6.93171e-12
-4.39261 84.8914 1.25044e-12
-6.93171e-12 1.25044e-12 92.678

91.8279 -1.43801 -1.97412e-12
-1.43801 81.5441 -1.67495e-11
-1.97412e-12 -1.67495e-11 85.9196

103.341 6.84653 -1.74416e-12
6.84653 99.949 -1.42449e-11
-1.74416e-12 -1.42449e-11 101.922

78.5687 4.54192 -1.02959e-11
4.54192 75.4816 -2.08069e-11
-1.02959e-11 -2.08069e-11 75.1674

83.1196 6.80291 -5.58146e-12
6.80291 89.298 3.92814e-11
-5.58146e-12 3.92814e-11 91.4796

101.224 5.0575 -2.46429e-11
5.0575 104.947 -7.11816e-12
-2.46429e-11 -7.11816e-12 104.155

82.8287 2.52701 -1.21402e-11
2.52701 70.7352 -2.69583e-11
-1.21402e-11 -2.69583e-11 75.725

90.4713 -3.38671 -4.69254e-14
-3.38671 86.3494 2.69552e-11
-4.69254e-14 2.69552e-11 89.3422

89.4701 2.11555 -2.84035e-11
2.11555 79.6175 -2.1947e-11
-2.84035e-11 -2.1947e-11 84.1873

71.4637 5.43734 -6.34707e-12
5.43734 73.4235 -3.85795e-12
-6.34707e-12 -3.85795e-12 71.7055

80.0312 5.13623 -2.34984e-11
5.13623 77.6637 -4.58242e-11
-2.34984e-11 -4.58242e-11 79.5083

76.9235 0.060844 3.25338e-11
0.060844 94.7214 1.7326e-11
3.25338e-11 1.7326e-11 87.3323

87.3909 -2.21493 -3.36871e-11
-2.21493 96.2921 3.37022e-11
-3.36871e-11 3.37022e-11 92.1724

68.7656 -6.40436 3.65949e-11
-6.40436 61.5313 3.6968e-11
3.65949e-11 3.6968e-11 63.5082

88.0895 -8.7345 3.06108e-11
-8.7345 96.4142 -2.15695e-11
3.06108e-11 -2.15695e-11 92.7976

72.7271 -7.70452 -3.29122e-12
-7.70452 76.6736 4.99822e-12
-3.29122e-12 4.99822e-12 72.9607

79.6 6.25046 -1.92693e-11
6.25046 79.7968 -5.60399e-11
-1.92693e-11 -5.60399e-11 76.7308

90.1073 -2.85604 4.43097e-12
-2.85604 83.5251 2.24303e-11
4.43097e-12 2.24303e-11 85.5804

102.01 -0.222964 -9.13751e-13
-0.222964 84.983 3.21486e-11
-9.13751e-13 3.21486e-11 95.2937

100.163 0.917406 1.78183e-12
0.917406 85.6164 3.46345e-12
1.78183e-12 3.46345e-12 94.8691

67.5134 2.86554 2.31396e-12
2.86554 80.5422 3.35126e-11
2.31396e-12 3.35126e-11 73.5183

83.8917 -6.88228 -4.90955e-12
-6.88228 86.2157 1.15502e-11
-4.90955e-12 1.15502e-11 83.2627

58.9065 -0.944152 -9.04955e-12
-0.944152 73.6208 1.92643e-11
-9.04955e-12 1.92643e-11 64.8357

64.224 -1.19646 3.89003e-11
-1.19646 76.1274 -1.38735e-11
3.89003e-11 -1.38735e-11 67.4169

73.3805 -1.58289 -1.23201e-11
-1.58289 60.6647 -4.24329e-12
-1.23201e-11 -4.24329e-12 65.3511

73.1548 4.55133 -2.40673e-11
4.55133 71.2079 2.29206e-11
-2.40673e-11 2.29206e-11 68.6424

75.2212 -7.90469 -1.14871e-12
-7.90469 70.8949 1.00103e-11
-1.14871e-12 1.00103e-11 72.2852

125.915 -1.87546 -5.94698e-11
-1.87546 126.292 8.09345e-12
-5.94698e-11 8.09345e-12 113.561

109.612 -7.11897 -7.41066e-11
-7.11897 118.423 -1.13475e-11
-7.41066e-11 -1.13475e-11 113.454

81.2168 -4.68138 1.69475e-11
-4.68138 69.92 -3.00275e-11
1.69475e-11 -3.00275e-11 74.8457

94.4501 6.32338 -3.34988e-11
6.32338 96.5461 1.54277e-12
-3.34988e-11 1.54277e-12 95.029

93.4674 0.420852 3.8132e-11
0.420852 80.1138 2.73326e-11
3.8132e-11 2.73326e-11 89.2358

74.4212 -5.7366 -3.06176e-11
-5.7366 84.2269 4.67986e-11
-3.06176e-11 4.67986e-11 76.6928

82.8855 5.9703 1.06796e-11
5.9703 98.095 8.47019e-12
1.06796e-11 8.47019e-12 94.379

105.086 2.48258 3.4629e-12
2.48258 108.602 -3.29174e-11
3.4629e-12 -3.29174e-11 107.872

86.2898 -8.13358 -1.69444e-11
-8.13358 89.9753 -1.77132e-11
-1.69444e-11 -1.77132e-11 91.1964

104.228 6.08824 -8.14164e-16
6.08824 104.989 -2.2328e-11
-8.14164e-16 -2.2328e-11 105.487

78.3266 4.82405 2.01091e-11
4.82405 88.4647 -6.62415e-11
2.01091e-11 -6.62415e-11 86.0704

97.6657 -0.575209 -4.81432e-11
-0.575209 74.6227 -3.7594e-13
-4.81432e-11 -3.7594e-13 92.6759

79.9305 5.94976 -2.77356e-11
5.94976 73.5522 1.29114e-11
-2.77356e-11 1.29114e-11 74.905

89.2468 -9.24235 3.60674e-12
-9.24235 100.218 3.58099e-11
3.60674e-12 3.58099e-11 94.5548

82.0133 5.35594 -5.75096e-13
5.35594 80.6368 -1.21341e-11
-5.75096e-13 -1.21341e-11 78.9671

68.5393 -5.25709 1.38713e-11
-5.25709 71.7049 -4.2452e-12
1.38713e-11 -4.2452e-12 66.3017

85.0747 -7.56705 2.98532e-12
-7.56705 91.0486 4.04069e-12
2.98532e-12 4.04069e-12 87.4408

65.9539 -3.41497 1.84874e-11
-3.41497 77.618 8.86017e-12
1.84874e-11 8.86017e-12 69.5332

73.0501 1.30281 2.00281e-11
1.30281 80.1823 -3.85603e-12
2.00281e-11 -3.85603e-12 72.8066

76.1453 -3.21523 5.96219e-12
-3.21523 66.9905 -2.04213e-11
5.96219e-12 -2.04213e-11 69.2708

76.5557 -6.89425 6.92602e-12
-6.89425 75.5353 1.42437e-11
6.92602e-12 1.42437e-11 74.8751

74.6416 -0.326641 1.01982e-11
-0.326641 89.0329 -3.46715e-12
1.01982e-11 -3.46715e-12 81.306

85.2147 -1.23731 -2.4069e-11
-1.23731 92.1258 2.56117e-11
-2.4069e-11 2.56117e-11 85.9851

63.1062 -6.89842 -1.54328e-12
-6.89842 67.3328 -1.9639e-11
-1.54328e-12 -1.9639e-11 63.1404

68.4177 5.11471 9.64658e-12
5.11471 70.1049 4.81126e-12
9.64658e-12 4.81126e-12 66.1482

95.8949 0.024206 8.46617e-12
0.024206 81.3639 -1.67497e-11
8.46617e-12 -1.67497e-11 94.0468

95.1339 -1.22371 -2.54159e-11
-1.22371 81.6084 1.65593e-11
-2.54159e-11 1.65593e-11 93.1933

96.4186 5.52641 2.75296e-11
5.52641 97.8336 -5.1994e-12
2.75296e-11 -5.1994e-12 96.6542

92.2182 -9.13017 9.04869e-12
-9.13017 102.546 1.9155e-13
9.04869e-12 1.9155e-13 97.7687

86.0873 6.26512 1.8827e-11
6.26512 87.1237 7.12104e-12
1.8827e-11 7.12104e-12 88.8282

64.7396 2.87904 1.84956e-11
2.87904 58.3054 3.19672e-11
1.84956e-11 3.19672e-11 59.1595

76.7542 3.43914 1.96464e-11
3.43914 85.0154 5.78796e-13
1.96464e-11 5.78796e-13 78.6254

106.229 3.17506 -2.1171e-11
3.17506 95.6851 2.06104e-11
-2.1171e-11 2.06104e-11 102.112

101.164 -5.53665 -5.69909e-11
-5.53665 91.9023 -1.72097e-11
-5.69909e-11 -1.72097e-11 97.0522

98.5442 4.52639 -3.83163e-11
4.52639 91.1842 -6.73173e-12
-3.83163e-11 -6.73173e-12 95.1593

93.6874 -6.54279 -2.44578e-11
-6.54279 85.9952 -2.30549e-12
-2.44578e-11 -2.30549e-12 90.3682

42.0078 -3.27249 9.24337e-12
-3.27249 35.8836 -4.00679e-11
9.24337e-12 -4.00679e-11 44.3075

35.7638 -3.82872 -4.23787e-11
-3.82872 43.4823 -2.61877e-11
-4.23787e-11 -2.61877e-11 44.9745

68.1582 -4.34516 2.71485e-11
-4.34516 81.3045 -1.96455e-11
2.71485e-11 -1.96455e-11 74.4114

118.253 5.19096 1.7681e-11
5.19096 104.393 -8.27699e-11
1.7681e-11 -8.27699e-11 110.788

114.398 -7.34137 1.50285e-11
-7.34137 107.662 -6.54373e-12
1.50285e-11 -6.54373e-12 106.591

91.1132 5.26381 2.11868e-11
5.26381 85.9711 -3.09116e-12
2.11868e-11 -3.09116e-12 87.6587

65.3225 2.12632 4.1402e-11
2.12632 57.6778 -1.11687e-11
4.1402e-11 -1.11687e-11 59.0857

86.7728 -6.34143 2.67649e-11
-6.34143 96.7082 2.84926e-11
2.67649e-11 2.84926e-11 91.5638

78.9595 -3.04446 -9.05107e-12
-3.04446 94.7462 4.31307e-11
-9.05107e-12 4.31307e-11 88.342

74.2479 -7.55353 2.86882e-13
-7.55353 76.2247 1.05868e-11
2.86882e-13 1.05868e-11 72.5535

84.6981 -6.11626 6.92398e-12
-6.11626 89.6697 -4.15911e-11
6.92398e-12 -4.15911e-11 91.7292

85.7967 -7.10799 1.36751e-11
-7.10799 80.6853 2.00195e-11
1.36751e-11 2.00195e-11 83.0761

78.2111 9.25659 3.11903e-11
9.25659 91.1371 8.08842e-12
3.11903e-11 8.08842e-12 90.6759

106.12 2.25282 2.05945e-11
2.25282 108.872 -2.05043e-11
2.05945e-11 -2.05043e-11 108.033

95.9125 3.88197 2.00176e-11
3.88197 101.873 -2.79732e-12
2.00176e-11 -2.79732e-12 98.8962

83.7951 -6.80881 -2.81142e-11
-6.80881 87.3594 -9.62334e-12
-2.81142e-11 -9.62334e-12 87.7573

82.236 6.64569 -2.82051e-11
6.64569 87.64 -4.89093e-11
-2.82051e-11 -4.89093e-11 87.4238

76.661 4.42253 -4.62119e-12
4.42253 68.7139 7.31156e-12
-4.62119e-12 7.31156e-12 70.9793

86.5985 -0.0125716 2.0601e-11
-0.0125716 75.2332 -6.93738e-12
2.0601e-11 -6.93738e-12 80.6259

106.744 4.58425 1.90144e-13
4.58425 106.477 -1.30881e-11
1.90144e-13 -1.30881e-11 107.017

80.9913 -7.35394 -1.19377e-11
-7.35394 91.5661 -1.00107e-11
-1.19377e-11 -1.00107e-11 85.1748

70.6933 1.11592 1.77038e-11
1.11592 86.7122 -3.197e-11
1.77038e-11 -3.197e-11 78.6678

95.1918 6.87183 2.21476e-11
6.87183 89.1916 -1.03999e-11
2.21476e-11 -1.03999e-11 92.3578

81.5221 0.191068 2.46454e-11
0.191068 90.0184 -1.05933e-11
2.46454e-11 -1.05933e-11 84.0041

82.6462 -5.12295 5.96589e-12
-5.12295 97.0155 -1.15426e-12
5.96589e-12 -1.15426e-12 93.9205

52.6129 -4.32715 7.70487e-12
-4.32715 55.104 5.50865e-11
7.70487e-12 5.50865e-11 51.6058

55.0509 -4.42432 -1.29032e-11
-4.42432 52.0909 1.34761e-11
-1.29032e-11 1.34761e-11 51.3338

91.6369 1.5175 1.24463e-12
1.5175 78.3564 -1.72077e-12
1.24463e-12 -1.72077e-12 86.1577

87.3519 -8.09983 -1.406e-11
-8.09983 83.5666 1.30987e-11
-1.406e-11 1.30987e-11 86.7012

127.691 4.59412 -5.77986e-12
4.59412 111.232 4.9837e-11
-5.77986e-12 4.9837e-11 115.976

129.439 -1.29236 -2.09046e-10
-1.29236 119.621 3.54339e-11
-2.09046e-10 3.54339e-11 113.129

80.0718 -5.70745 -7.70273e-12
-5.70745 88.5884 -2.4645e-11
-7.70273e-12 -2.4645e-11 86.6896

101.599 -1.73162 -7.24413e-12
-1.73162 104.455 -1.71341e-11
-7.24413e-12 -1.71341e-11 102.761

100.716 5.98342 5.23886e-11
5.98342 107.336 4.85188e-11
5.23886e-11 4.85188e-11 103.235

94.8612 0.537819 1.98829e-11
0.537819 78.0371 -1.9252e-12
1.98829e-11 -1.9252e-12 86.413

88.1161 -9.90552 -3.73467e-11
-9.90552 99.4574 -1.61683e-11
-3.73467e-11 -1.61683e-11 94.0627

57.0781 3.32953 -3.79696e-13
3.32953 57.3511 6.12575e-11
-3.79696e-13 6.12575e-11 55.066

55.3107 3.21009 -6.7355e-12
3.21009 55.3867 3.77527e-11
-6.7355e-12 3.77527e-11 53.7007

54.2128 -3.85507 -3.29398e-11
-3.85507 63.1955 4.4302e-11
-3.29398e-11 4.4302e-11 57.0806

59.5104 1.91809 -1.90772e-11
1.91809 66.063 -9.43068e-12
-1.90772e-11 -9.43068e-12 59.9135

63.0183 -3.27532 3.21707e-11
-3.27532 54.9435 -1.1844e-11
3.21707e-11 -1.1844e-11 57.2618

79.5 -9.09394 4.11993e-11
-9.09394 90.6259 1.34682e-11
4.11993e-11 1.34682e-11 90.7552

49.3713 0.183238 1.48302e-11
0.183238 59.9008 1.65629e-11
1.48302e-11 1.65629e-11 53.4774

60.4014 0.270906 4.41108e-11
0.270906 51.4506 -1.77161e-11
4.41108e-11 -1.77161e-11 54.513

100.284 0.610638 2.36787e-11
0.610638 110.527 3.15749e-11
2.36787e-11 3.15749e-11 103.124

104.439 -5.21763 1.23161e-11
-5.21763 110.128 -6.06197e-12
1.23161e-11 -6.06197e-12 106.381

95.8704 2.09416 -1.35771e-11
2.09416 87.0593 -1.30981e-11
-1.35771e-11 -1.30981e-11 91.6019

99.8365 0.347843 5.91893e-12
0.347843 80.8679 -4.42793e-11
5.91893e-12 -4.42793e-11 91.8901

64.3357 -4.92148 1.92554e-11
-4.92148 72.8837 2.00309e-11
1.92554e-11 2.00309e-11 67.3595

69.9707 3.14826 3.86654e-13
3.14826 76.5864 -1.3288e-11
3.86654e-13 -1.3288e-11 70.6076

95.1121 0.411876 3.51449e-11
0.411876 78.6838 -1.5405e-11
3.51449e-11 -1.5405e-11 86.8333

76.4953 -5.00729 -6.93097e-12
-5.00729 87.4736 -2.81101e-11
-6.93097e-12 -2.81101e-11 83.159

112.988 2.92127 3.00181e-11
2.92127 102.317 -1.02064e-11
3.00181e-11 -1.02064e-11 107.967

108.673 -4.05025 4.08076e-11
-4.05025 102.047 3.23358e-11
4.08076e-11 3.23358e-11 103.304

89.5206 4.76805 1.79116e-12
4.76805 89.163 2.73403e-11
1.79116e-12 2.73403e-11 90.3989

85.78 -8.36785 -2.60894e-11
-8.36785 95.3124 -2.69303e-12
-2.60894e-11 -2.69303e-12 89.6073

94.128 2.16084 -1.68421e-11
2.16084 80.8163 1.00095e-11
-1.68421e-11 1.00095e-11 88.7752

67.346 4.37427 6.73743e-12
4.37427 65.9132 2.42724e-11
6.73743e-12 2.42724e-11 64.5485

85.4796 -9.02536 -1.40544e-11
-9.02536 94.4306 2.00264e-11
-1.40544e-11 2.00264e-11 89.0208

43.4139 8.00641 -1.88737e-11
8.00641 43.5519 4.00668e-11
-1.88737e-11 4.00668e-11 43.9144

78.21 -3.30123 -4.28398e-11
-3.30123 88.8244 3.23531e-11
-4.28398e-11 3.23531e-11 81.969

72.0212 -1.9504 -5.59219e-12
-1.9504 86.9285 -3.0432e-11
-5.59219e-12 -3.0432e-11 79.1532

99.0324 -0.873417 -2.07853e-11
-0.873417 114.669 3.92769e-11
-2.07853e-11 3.92769e-11 103.967

106.774 -4.10504 -1.07747e-11
-4.10504 110.167 2.19461e-11
-1.07747e-11 2.19461e-11 108.479

102.439 2.28422 -1.61733e-11
2.28422 79.5551 1.15622e-11
-1.61733e-11 1.15622e-11 97.0756

100.67 -3.37665 4.2372e-12
-3.37665 81.2585 -2.0019e-11
4.2372e-12 -2.0019e-11 95.5092

92.2377 6.90169 1.15066e-11
6.90169 92.5512 3.91983e-13
1.15066e-11 3.91983e-13 94.5436

93.8039 -4.42263 -5.89138e-11
-4.42263 95.634 -1.75121e-11
-5.89138e-11 -1.75121e-11 95.7074

100.028 5.30879 3.84034e-11
5.30879 102.347 1.9223e-12
3.84034e-11 1.9223e-12 101.648

100.671 -3.69348 1.47025e-11
-3.69348 106.291 -9.43372e-12
1.47025e-11 -9.43372e-12 102.402

124.334 5.05022 -2.61967e-11
5.05022 110.312 -6.53559e-12
-2.61967e-11 -6.53559e-12 114.993

120.287 -7.05724 -4.00234e-11
-7.05724 116.451 1.15887e-10
-4.00234e-11 1.15887e-10 110.289

112.563 5.20967 -3.29189e-11
5.20967 106.732 -2.07855e-11
-3.29189e-11 -2.07855e-11 109.887

88.2789 -9.84449 1.15474e-11
-9.84449 92.6595 -6.23855e-11
1.15474e-11 -6.23855e-11 94.5772

89.6675 5.44976 2.69675e-11
5.44976 80.691 3.17624e-11
2.69675e-11 3.17624e-11 84.8935

85.3125 -6.167 -1.67462e-11
-6.167 93.2112 -1.15256e-12
-1.67462e-11 -1.15256e-12 87.1896

76.8411 -3.72549 -1.88743e-11
-3.72549 89.4587 -2.6962e-11
-1.88743e-11 -2.6962e-11 83.833

70.0337 -5.47808 4.49722e-11
-5.47808 68.7927 -2.60094e-11
4.49722e-11 -2.60094e-11 65.3784

84.8414 -7.23368 -1.92541e-11
-7.23368 77.2688 1.73284e-11
-1.92541e-11 1.73284e-11 81.3539

76.6873 2.49067 -2.98493e-11
2.49067 89.4091 -4.4677e-11
-2.98493e-11 -4.4677e-11 83.4329

87.4239 7.24453 1.46409e-11
7.24453 84.0397 -1.17481e-11
1.46409e-11 -1.17481e-11 84.6732

85.2557 10.7484 4.27477e-11
10.7484 93.2517 5.9693e-11
4.27477e-11 5.9693e-11 94.4118

90.8677 -8.73018 -3.41758e-11
-8.73018 100.405 6.56589e-11
-3.41758e-11 6.56589e-11 96.5082

80.0462 -8.23988 -1.88685e-11
-8.23988 78.514 1.42542e-11
-1.88685e-11 1.42542e-11 79.6177

98.4917 -0.591659 -8.95573e-12
-0.591659 90.3563 -1.92461e-12
-8.95573e-12 -1.92461e-12 93.5386

112.806 -2.72485 -1.55954e-11
-2.72485 117.486 5.64018e-11
-1.55954e-11 5.64018e-11 112.926

125.589 -3.16587 -3.09837e-11
-3.16587 124.049 -1.4625e-11
-3.09837e-11 -1.4625e-11 112.942

83.6489 -3.20595 -8.66226e-12
-3.20595 94.537 -1.23226e-11
-8.66226e-12 -1.23226e-11 91.0618

87.7705 4.4497 -7.98295e-12
4.4497 83.4484 4.23306e-12
-7.98295e-12 4.23306e-12 87.4926

102.71 -0.327177 -4.35574e-12
-0.327177 95.2899 -5.77612e-12
-4.35574e-12 -5.77612e-12 99.1075

52.44 -5.60394 2.49837e-12
-5.60394 56.3805 -7.01181e-11
2.49837e-12 -7.01181e-11 52.5

55.7899 -5.03401 4.0461e-12
-5.03401 52.3842 2.11512e-12
4.0461e-12 2.11512e-12 52.5286

104.702 -0.210851 -1.88697e-11
-0.210851 88.284 2.12726e-12
-1.88697e-11 2.12726e-12 100.326

102.838 -1.04301 1.54277e-12
-1.04301 88.0613 -8.85492e-12
1.54277e-12 -8.85492e-12 97.7252

105.023 1.1201 -1.8964e-11
1.1201 94.6028 -2.36795e-11
-1.8964e-11 -2.36795e-11 99.5549

90.0558 2.92542 6.65209e-12
2.92542 94.3154 4.38993e-11
6.65209e-12 4.38993e-11 90.3517

84.8732 3.789 2.88229e-12
3.789 77.2919 9.04491e-12
2.88229e-12 9.04491e-12 79.1626

103.94 5.18301 1.75301e-11
5.18301 98.7434 3.50292e-11
1.75301e-11 3.50292e-11 101.477

95.8321 -6.78325 5.80573e-13
-6.78325 90.9062 5.38828e-12
5.80573e-13 5.38828e-12 94.2371

111.129 -0.860542 -2.0887e-12
-0.860542 106.775 1.42519e-11
-2.0887e-12 1.42519e-11 107.183

112.294 7.43376 -7.25079e-11
7.43376 122.342 -7.32764e-12
-7.25079e-11 -7.32764e-12 110.619

81.1071 -5.80274 -6.54495e-12
-5.80274 91.472 3.84803e-13
-6.54495e-12 3.84803e-13 89.5062

87.9932 3.81026 -2.53285e-11
3.81026 80.4198 -2.96508e-11
-2.53285e-11 -2.96508e-11 83.7529

105.509 3.52018 4.26406e-11
3.52018 95.2735 -3.65802e-11
4.26406e-11 -3.65802e-11 101.842

101.936 -4.74595 7.70783e-12
-4.74595 94.1185 -1.23237e-11
7.70783e-12 -1.23237e-11 98.0346

91.79 -8.08804 3.49442e-11
-8.08804 99.3586 -1.50232e-11
3.49442e-11 -1.50232e-11 94.6261

89.6618 -10.3494 2.0234e-12
-10.3494 100.018 -2.84968e-11
2.0234e-12 -2.84968e-11 94.6165

45.291 9.5685 -5.68434e-13
9.5685 46.3197 4.08431e-11
-5.68434e-13 4.08431e-11 45.3434

90.0643 7.30725 4.24473e-11
7.30725 99.1553 1.30969e-11
4.24473e-11 1.30969e-11 97.4367

94.1747 -6.45128 -5.19781e-11
-6.45128 103.899 -5.19146e-12
-5.19781e-11 -5.19146e-12 98.951

86.7708 -8.90174 -2.13675e-11
-8.90174 97.6987 -2.57988e-11
-2.13675e-11 -2.57988e-11 92.2875

82.8507 -6.05297 -3.08242e-12
-6.05297 74.1831 -2.30201e-12
-3.08242e-12 -2.30201e-12 77.0666

92.7067 -3.99927 -9.39989e-14
-3.99927 94.1547 -5.71831e-11
-9.39989e-14 -5.71831e-11 92.437

92.5071 6.90887 2.69488e-11
6.90887 93.24 -2.5794e-11
2.69488e-11 -2.5794e-11 95.4324

93.8408 -5.53552 -7.1761e-11
-5.53552 99.5928 6.93912e-12
-7.1761e-11 6.93912e-12 96.8022

96.1303 -0.557498 -4.86085e-12
-0.557498 81.9352 1.23204e-11
-4.86085e-12 1.23204e-11 90.12

108.264 2.03224 -4.46679e-11
2.03224 97.7497 1.53211e-14
-4.46679e-11 1.53211e-14 104.884

106.286 -1.95634 8.08513e-12
-1.95634 100.905 -3.46501e-11
8.08513e-12 -3.46501e-11 102.247

110.822 -2.85978 -9.43453e-12
-2.85978 119.871 4.71378e-12
-9.43453e-12 4.71378e-12 112.712

108.549 2.17977 -6.1203e-11
2.17977 123.528 1.16126e-12
-6.1203e-11 1.16126e-12 109.046

46.1236 0.733324 -3.04409e-11
0.733324 38.5883 -1.09739e-11
-3.04409e-11 -1.09739e-11 45.9385

38.493 0.662253 -3.21691e-11
0.662253 45.1684 -2.19637e-11
-3.21691e-11 -2.19637e-11 45.1983

103.182 6.58801 1.96376e-11
6.58801 101.439 1.57772e-11
1.96376e-11 1.57772e-11 102.498

90.2267 -6.58261 3.13821e-11
-6.58261 90.3992 -2.32029e-12
3.13821e-11 -2.32029e-12 92.6146

83.0466 -6.30337 1.00126e-11
-6.30337 90.3958 2.3096e-12
1.00126e-11 2.3096e-12 91.1195

43.0965 2.3471 -2.48534e-11
2.3471 43.1989 -4.93111e-11
-2.48534e-11 -4.93111e-11 45.4719

43.3573 2.55797 -3.69728e-11
2.55797 43.4569 4.00738e-11
-3.69728e-11 4.00738e-11 45.8519

126.357 1.10971 4.27357e-11
1.10971 128.798 1.8553e-10
4.27357e-11 1.8553e-10 114.519

125.438 1.78841 1.96624e-11
1.78841 120.818 6.75509e-11
1.96624e-11 6.75509e-11 117.291

88.0125 -5.91973 7.63914e-11
-5.91973 91.5675 -2.46595e-11
7.63914e-11 -2.46595e-11 90.2279

81.4242 -7.33801 3.23435e-11
-7.33801 82.9207 -9.63289e-12
3.23435e-11 -9.63289e-12 82.0341

101.698 6.89101 8.86676e-12
6.89101 96.0758 6.56399e-11
8.86676e-12 6.56399e-11 99.3009

90.3793 -8.30002 2.83051e-11
-8.30002 88.5371 2.00182e-11
2.83051e-11 2.00182e-11 91.3322

82.6064 -7.78727 1.54131e-11
-7.78727 85.2644 1.57889e-11
1.54131e-11 1.57889e-11 85.5456

90.0021 5.64884 -1.23248e-11
5.64884 88.5904 -2.50703e-12
-1.23248e-11 -2.50703e-12 87.7057

55.1979 -2.54877 -3.39004e-11
-2.54877 64.3573 5.78397e-12
-3.39004e-11 5.78397e-12 57.8825

59.6674 1.51381 1.63731e-11
1.51381 66.2385 1.54058e-11
1.63731e-11 1.54058e-11 60.0171

64.1525 -2.35781 8.99569e-11
-2.35781 57.3523 -2.58259e-11
8.99569e-11 -2.58259e-11 58.5852

93.8427 7.50636 8.28241e-12
7.50636 92.5117 1.30956e-11
8.28241e-12 1.30956e-11 92.7484

52.8419 -1.83217 -1.77289e-11
-1.83217 61.0192 -6.95346e-11
-1.77289e-11 -6.95346e-11 54.8322

59.4234 -1.25471 -4.6283e-12
-1.25471 51.1261 -3.75581e-11
-4.6283e-12 -3.75581e-11 53.4114

108.868 5.50534 -6.18088e-11
5.50534 102.59 -3.36738e-11
-6.18088e-11 -3.36738e-11 105.989

95.9654 -8.00979 6.46843e-11
-8.00979 92.7416 -4.0448e-11
6.46843e-11 -4.0448e-11 96.0115

107.619 6.76417 -3.23557e-11
6.76417 101.231 -3.84985e-11
-3.23557e-11 -3.84985e-11 105.064

96.6582 -7.83572 4.75535e-11
-7.83572 95.6368 -3.15806e-11
4.75535e-11 -3.15806e-11 97.0731

42.5365 2.88099 2.31211e-11
2.88099 42.8468 9.82755e-12
2.31211e-11 9.82755e-12 44.8677

42.297 2.81647 -3.2546e-11
2.81647 42.4461 3.37109e-11
-3.2546e-11 3.37109e-11 44.4302

97.0921 6.02356 2.48352e-11
6.02356 94.7407 2.96427e-11
2.48352e-11 2.96427e-11 95.4746

88.4473 -7.43914 2.71529e-11
-7.43914 86.6016 6.55009e-12
2.71529e-11 6.55009e-12 88.4562

107.783 -4.73159 -1.42445e-11
-4.73159 111.203 3.52312e-11
-1.42445e-11 3.52312e-11 108.815

104.198 -1.62141 -2.63727e-11
-1.62141 111.957 4.90904e-11
-2.63727e-11 4.90904e-11 104.873

111.187 6.86568 -2.96439e-11
6.86568 107.011 6.5498e-12
-2.96439e-11 6.5498e-12 109.412

92.6482 -6.12863 3.60062e-11
-6.12863 98.8584 3.77247e-11
3.60062e-11 3.77247e-11 97.559

110.891 3.61037 1.92308e-11
3.61037 95.2713 -2.04015e-11
1.92308e-11 -2.04015e-11 105.037

106.557 -5.58246 3.54242e-11
-5.58246 95.4188 -3.81286e-11
3.54242e-11 -3.81286e-11 100.997

86.8573 6.29829 9.04269e-12
6.29829 91.4943 -3.19558e-11
9.04269e-12 -3.19558e-11 92.0845

90.412 -7.3185 3.17664e-11
-7.3185 98.2887 -2.1256e-12
3.17664e-11 -2.1256e-12 94.0035

106.647 -5.08608 -8.61615e-12
-5.08608 107.95 1.88682e-11
-8.61615e-12 1.88682e-11 105.238

106.207 -4.54588 -2.09797e-11
-4.54588 117.016 2.50289e-11
-2.09797e-11 2.50289e-11 109.507

117.173 5.09995 -2.46537e-11
5.09995 101.947 -3.00171e-11
-2.46537e-11 -3.00171e-11 109.451

123.492 1.66354 5.04018e-11
1.66354 107.891 -5.87247e-11
5.04018e-11 -5.87247e-11 113.377

114.195 -5.51587 -1.15512e-11
-5.51587 106.297 -2.14643e-15
-1.15512e-11 -2.14643e-15 106.267

122.087 -1.17876 -1.38515e-11
-1.17876 113.346 8.06955e-12
-1.38515e-11 8.06955e-12 110.062

102.862 -1.27011 4.17704e-11
-1.27011 118.368 -2.69545e-11
4.17704e-11 -2.69545e-11 106.236

108.704 9.36941 -5.01559e-11
9.36941 108.508 -5.23592e-11
-5.01559e-11 -5.23592e-11 105.941

127.659 5.60223 1.75906e-10
5.60223 113.149 -2.00524e-11
1.75906e-10 -2.00524e-11 117.776

131.017 4.63726 1.3864e-10
4.63726 114.027 3.83286e-11
1.3864e-10 3.83286e-11 118.524

133.531 1.28996 1.46652e-10
1.28996 129.957 -2.12067e-11
1.46652e-10 -2.12067e-11 116.233

113.071 -6.50935 -2.97156e-10
-6.50935 118.652 3.4118e-10
-2.97156e-10 3.4118e-10 108.865

125.435 4.24596 -1.69521e-11
4.24596 110.421 -2.88631e-11
-1.69521e-11 -2.88631e-11 115.929

116.817 3.41169 4.5814e-11
3.41169 110.164 -5.78552e-12
4.5814e-11 -5.78552e-12 112.556

125.296 5.49514 -6.26989e-11
5.49514 112.838 8.91306e-11
-6.26989e-11 8.91306e-11 116.597

114.557 -6.26753 1.30904e-11
-6.26753 108.693 -8.85358e-12
1.30904e-11 -8.85358e-12 106.749

119.633 -3.14135 -3.06577e-12
-3.14135 124.011 1.22422e-10
-3.06577e-12 1.22422e-10 111.883

106.02 -2.80737 5.39761e-12
-2.80737 103.663 4.73547e-11
5.39761e-12 4.73547e-11 102.79

115.997 5.53877 5.62283e-11
5.53877 105.664 8.14103e-11
5.62283e-11 8.14103e-11 110.714

119.902 3.25116 1.81159e-11
3.25116 108.259 8.12219e-11
1.81159e-11 8.12219e-11 112.705

107.154 -7.2705 -1.07829e-11
-7.2705 104.209 -3.54168e-11
-1.07829e-11 -3.54168e-11 103.563

115.803 -3.52827 6.39087e-11
-3.52827 108.781 1.27003e-11
6.39087e-11 1.27003e-11 107.236

TENSORS Lagrange_strain float
0.000440129 7.69864e-05 9.32761e-08
7.69864e-05 0.000545776 -1.12444e-07
9.32761e-08 -1.12444e-07 0.000442399

0.000524492 5.12249e-05 1.15691e-07
5.12249e-05 0.000611484 -4.21357e-08
1.15691e-07 -4.21357e-08 0.000544425

0.000521131 4.10806e-05 2.45827e-08
4.10806e-05 0.000604697 3.24926e-09
2.45827e-08 3.24926e-09 0.00054211

0.000589937 2.24597e-05 1.12596e-10
2.24597e-05 0.000405103 -4.3694e-08
1.12596e-10 -4.3694e-08 0.000479527

0.000571086 8.97673e-06 1.73604e-08
8.97673e-06 0.000395972 -3.41995e-08
1.73604e-08 -3.41995e-08 0.000437991

0.000524966 4.84115e-05 1.01157e-07
4.84115e-05 0.000612854 1.26962e-07
1.01157e-07 1.26962e-07 0.000579977

0.000520437 4.49022e-05 3.53157e-08
4.49022e-05 0.000609656 -1.21579e-07
3.53157e-08 -1.21579e-07 0.000577809

0.000576607 -1.13257e-05 1.70157e-08
-1.13257e-05 0.000403119 -3.17262e-08
1.70157e-08 -3.17262e-08 0.000441812

0.000660674 1.79314e-06 -3.05915e-08
1.79314e-06 0.000437444 3.84192e-08
-3.05915e-08 3.84192e-08 0.000551736

0.000348424 7.48265e-05 1.62146e-08
7.48265e-05 0.00046383 6.79659e-08
1.62146e-08 6.79659e-08 0.000320742

0.000342499 -8.00001e-05 -3.80176e-08
-8.00001e-05 0.000456145 4.66946e-10
-3.80176e-08 4.66946e-10 0.000307961

0.000454667 7.742e-05 -7.05213e-09
7.742e-05 0.000372335 2.58266e-08
-7.05213e-09 2.58266e-08 0.000322987

0.000569648 -6.32626e-05 -1.09015e-07
-6.32626e-05 0.000624721 8.32532e-08
-1.09015e-07 8.32532e-08 0.000588155

0.000572267 -7.17033e-05 -1.41234e-07
-7.17033e-05 0.000634642 2.16622e-08
-1.41234e-07 2.16622e-08 0.000591411

0.000440077 7.28243e-05 9.37867e-08
7.28243e-05 0.000564519 -3.1638e-08
9.37867e-08 -3.1638e-08 0.000483998

0.00047568 8.71633e-05 6.12957e-08
8.71633e-05 0.000598555 1.01678e-07
6.12957e-08 1.01678e-07 0.0005376

0.000518485 -3.30571e-05 3.84185e-10
-3.30571e-05 0.000606904 1.67463e-08
3.84185e-10 1.67463e-08 0.000575837

0.000521258 -3.57929e-05 1.2834e-08
-3.57929e-05 0.000609801 -7.2495e-08
1.2834e-08 -7.2495e-08 0.00057773

0.000602194 3.31936e-05 -6.36999e-08
3.31936e-05 0.00049257 1.05297e-08
-6.36999e-08 1.05297e-08 0.000526115

0.000377701 2.89427e-05 1.10503e-08
2.89427e-05 0.000531644 7.79951e-08
1.10503e-08 7.79951e-08 0.000362917

0.000376278 -2.77136e-05 -1.22926e-09
-2.77136e-05 0.000532405 7.11032e-08
-1.22926e-09 7.11032e-08 0.000359736

0.000520984 2.37274e-05 1.77634e-08
2.37274e-05 0.000414017 9.81244e-09
1.77634e-08 9.81244e-09 0.000367631

0.000441307 8.61313e-05 3.7309e-08
8.61313e-05 0.000524122 -5.05851e-08
3.7309e-08 -5.05851e-08 0.000438628

0.000525726 -4.40206e-05 1.81503e-07
-4.40206e-05 0.000384202 4.0615e-08
1.81503e-07 4.0615e-08 0.000404282

0.000496732 7.89226e-05 -5.6184e-08
7.89226e-05 0.000523217 -5.54747e-08
-5.6184e-08 -5.54747e-08 0.000476904

0.000450901 8.61051e-05 -9.44258e-09
8.61051e-05 0.000558379 4.90584e-08
-9.44258e-09 4.90584e-08 0.000451951

0.000601507 -1.86528e-05 -2.81973e-08
-1.86528e-05 0.000405002 -1.36881e-08
-2.81973e-08 -1.36881e-08 0.000486149

0.000338967 6.66236e-05 2.67635e-08
6.66236e-05 0.000465897 8.75082e-08
2.67635e-08 8.75082e-08 0.000253569

0.000640445 8.19095e-06 2.5087e-08
8.19095e-06 0.000425504 6.89716e-08
2.5087e-08 6.89716e-08 0.000538157

0.000445652 6.67527e-05 -1.29029e-07
6.67527e-05 0.000363178 -4.28828e-08
-1.29029e-07 -4.28828e-08 0.000254423

0.000592837 1.04364e-05 1.45604e-07
1.04364e-05 0.000632121 1.09687e-07
1.45604e-07 1.09687e-07 0.000592735

0.000592973 3.5786e-06 -2.63861e-08
3.5786e-06 0.000630822 -9.75969e-08
-2.63861e-08 -9.75969e-08 0.000592623

0.000693272 3.76635e-05 2.08423e-07
3.76635e-05 0.000623871 1.80454e-08
2.08423e-07 1.80454e-08 0.00062767

0.000693645 -3.60247e-05 -1.3723e-07
-3.60247e-05 0.000625172 1.78033e-07
-1.3723e-07 1.78033e-07 0.000627047

0.000516981 -2.78912e-05 -7.51123e-08
-2.78912e-05 0.000369674 1.75363e-07
-7.51123e-08 1.75363e-07 0.000343879

0.000486888 8.49307e-05 -9.33304e-09
8.49307e-05 0.000551209 -4.7926e-11
-9.33304e-09 -4.7926e-11 0.000508496

0.000615879 1.57123e-05 1.54187e-08
1.57123e-05 0.000579537 -4.47341e-08
1.54187e-08 -4.47341e-08 0.000588432

0.000617176 -1.42058e-05 7.67791e-08
-1.42058e-05 0.000582954 -1.1373e-07
7.67791e-08 -1.1373e-07 0.000591829

0.000671391 1.04498e-07 5.76521e-09
1.04498e-07 0.000426158 6.9826e-08
5.76521e-09 6.9826e-08 0.000554

0.000441934 9.30357e-05 1.46539e-08
9.30357e-05 0.000555836 1.69378e-08
1.46539e-08 1.69378e-08 0.000448384

0.000520553 -5.70175e-05 1.53834e-07
-5.70175e-05 0.000440068 -1.43373e-07
1.53834e-07 -1.43373e-07 0.00041873

0.000661609 -5.45423e-06 -2.61684e-08
-5.45423e-06 0.000410815 -3.75068e-08
-2.61684e-08 -3.75068e-08 0.000541253

0.000436622 -8.6231e-05 3.01114e-08
-8.6231e-05 0.000524039 1.82629e-08
3.01114e-08 1.82629e-08 0.000434125

0.00043991 -7.38762e-05 -1.8832e-08
-7.38762e-05 0.00054678 -3.42908e-08
-1.8832e-08 -3.42908e-08 0.000441735

0.000489202 9.80879e-05 1.36048e-08
9.80879e-05 0.000612758 9.4332e-08
1.36048e-08 9.4332e-08 0.000544652

0.000468634 -9.21474e-05 1.47475e-07
-9.21474e-05 0.000434395 -1.43916e-07
1.47475e-07 -1.43916e-07 0.000385235

0.000123217 0.000187869 -5.5453e-08
0.000187869 0.000252522 -5.5453e-08
-5.5453e-08 -5.5453e-08 6.17682e-05

0.000236099 0.000185651 7.62098e-08
0.000185651 0.000135202 7.62098e-08
7.62098e-08 7.62098e-08 5.99022e-05

0.000506308 -8.7736e-05 -1.44769e-07
-8.7736e-05 0.000615269 6.97159e-08
-1.44769e-07 6.97159e-08 0.000572524

0.000222587 7.88221e-05 6.67508e-08
7.88221e-05 0.000381073 -8.36311e-08
6.67508e-08 -8.36311e-08 0.000127512

0.000355857 7.06753e-05 2.72617e-08
7.06753e-05 0.000240669 -5.14648e-08
2.72617e-08 -5.14648e-08 0.000130148

0.000604727 -6.18639e-05 -1.06057e-07
-6.18639e-05 0.000657739 -1.06684e-07
-1.06057e-07 -1.06684e-07 0.000625582

0.0006042 6.14533e-05 3.5313e-08
6.14533e-05 0.00065746 -1.72983e-07
3.5313e-08 -1.72983e-07 0.000625748

0.000645991 1.73258e-06 1.95316e-08
1.73258e-06 0.000509864 -2.02893e-08
1.95316e-08 -2.02893e-08 0.000564791

0.00060727 -5.38901e-05 -8.87862e-08
-5.38901e-05 0.00064401 1.48623e-08
-8.87862e-08 1.48623e-08 0.000630026

0.000606798 5.32771e-05 -2.13918e-09
5.32771e-05 0.000643847 9.05891e-08
-2.13918e-09 9.05891e-08 0.000630239

0.000450758 8.61313e-05 -1.7762e-08
8.61313e-05 0.000581528 -5.52399e-08
-1.7762e-08 -5.52399e-08 0.000492405

0.000691941 3.50639e-05 1.97355e-07
3.50639e-05 0.000584156 1.53463e-08
1.97355e-07 1.53463e-08 0.000618772

0.000692568 -3.50315e-05 -8.45208e-08
-3.50315e-05 0.000583678 -2.35051e-08
-8.45208e-08 -2.35051e-08 0.000618385

0.000570082 -7.13081e-05 6.94499e-08
-7.13081e-05 0.000606981 -7.15072e-08
6.94499e-08 -7.15072e-08 0.000585921

0.000569828 7.08416e-05 -4.13489e-08
7.08416e-05 0.000606938 -1.53901e-08
-4.13489e-08 -1.53901e-08 0.000586349

0.000441042 -7.64397e-05 -1.48396e-07
-7.64397e-05 0.000340674 1.40508e-07
-1.48396e-07 1.40508e-07 0.000298619

0.000596113 3.44619e-05 1.14031e-08
3.44619e-05 0.000685298 -4.62198e-08
1.14031e-08 -4.62198e-08 0.000619709

0.000592661 2.70777e-05 1.45377e-07
2.70777e-05 0.000683589 1.64533e-07
1.45377e-07 1.64533e-07 0.000617269

0.000442506 -9.49509e-05 -8.33435e-08
-9.49509e-05 0.000558567 3.07179e-08
-8.33435e-08 3.07179e-08 0.000450561

0.000313324 -6.27968e-05 4.22525e-08
-6.27968e-05 0.000465427 -1.12361e-07
4.22525e-08 -1.12361e-07 0.000234979

0.000449502 -6.22629e-05 1.25393e-08
-6.22629e-05 0.000318177 3.38875e-08
1.25393e-08 3.38875e-08 0.000231423

0.00047322 7.50338e-05 -5.46071e-08
7.50338e-05 0.00060368 7.98321e-08
-5.46071e-08 7.98321e-08 0.000529508

0.000468084 6.97611e-05 -6.99534e-08
6.97611e-05 0.000590825 7.09563e-08
-6.99534e-08 7.09563e-08 0.000525404

0.000725406 -0.000104375 -4.20627e-07
-0.000104375 0.000656959 3.64691e-07
-4.20627e-07 3.64691e-07 0.000677091

0.000725406 0.000104375 9.40134e-07
0.000104375 0.000656959 9.93487e-08
9.40134e-07 9.93487e-08 0.00067722

0.00049331 0.000106156 2.39676e-08
0.000106156 0.00060845 3.25707e-08
2.39676e-08 3.25707e-08 0.000554865

0.000587579 5.23262e-05 -1.25153e-08
5.23262e-05 0.000545894 6.68124e-08
-1.25153e-08 6.68124e-08 0.00056159

0.000588139 -5.31889e-05 -1.55418e-07
-5.31889e-05 0.000543982 1.35055e-07
-1.55418e-07 1.35055e-07 0.000559939

0.000493832 0.00010168 -1.21175e-07
0.00010168 0.000587517 -6.33673e-08
-1.21175e-07 -6.33673e-08 0.00054862

0.000513795 -9.26928e-05 7.58468e-08
-9.26928e-05 0.000627166 1.0642e-07
7.58468e-08 1.0642e-07 0.00057673

0.000509886 -1.03196e-06 -2.85637e-08
-1.03196e-06 0.000338215 -1.47293e-07
-2.85637e-08 -1.47293e-07 0.00033806

0.00053674 4.15436e-05 1.11354e-07
4.15436e-05 0.000381472 -5.84122e-08
1.11354e-07 -5.84122e-08 0.000394642

0.000619088 1.69318e-05 3.0321e-08
1.69318e-05 0.000506366 -1.10454e-07
3.0321e-08 -1.10454e-07 0.000577201

0.000657349 -2.61893e-05 3.0661e-07
-2.61893e-05 0.000644055 3.99743e-07
3.0661e-07 3.99743e-07 0.000632421

0.000657177 2.22362e-05 1.83129e-07
2.22362e-05 0.000645954 2.9781e-08
1.83129e-07 2.9781e-08 0.000632902

0.000424488 7.68219e-05 7.46351e-08
7.68219e-05 0.000463189 6.3922e-08
7.46351e-08 6.3922e-08 0.000347614

0.000506396 -6.69792e-05 -1.14085e-07
-6.69792e-05 0.000473376 1.20237e-07
-1.14085e-07 1.20237e-07 0.000466333

0.00060127 4.03571e-05 -6.44202e-08
4.03571e-05 0.000515719 2.27607e-08
-6.44202e-08 2.27607e-08 0.000527424

0.000616159 2.16482e-05 2.16177e-07
2.16482e-05 0.000677878 3.59112e-09
2.16177e-07 3.59112e-09 0.000627802

0.000615695 1.86682e-05 -3.38557e-08
1.86682e-05 0.000678135 1.20935e-07
-3.38557e-08 1.20935e-07 0.00062672

0.000621382 -1.23715e-05 8.84132e-08
-1.23715e-05 0.000514802 -6.15445e-08
8.84132e-08 -6.15445e-08 0.000582257

0.000519303 -2.60838e-05 -5.22093e-09
-2.60838e-05 0.000606312 -7.90825e-08
-5.22093e-09 -7.90825e-08 0.000540959

0.000521268 -3.56838e-05 2.48286e-08
-3.56838e-05 0.000611011 8.50853e-08
2.48286e-08 8.50853e-08 0.000542858

0.000653703 -2.47729e-05 -1.8268e-07
-2.47729e-05 0.000537318 4.06617e-08
-1.8268e-07 4.06617e-08 0.00059778

0.000655007 2.49931e-05 1.04697e-07
2.49931e-05 0.000537176 3.72419e-08
1.04697e-07 3.72419e-08 0.000599485

0.000454849 -7.62361e-05 -1.19081e-07
-7.62361e-05 0.000452698 4.893e-08
-1.19081e-07 4.893e-08 0.000351318

0.000585972 4.69913e-06 -3.09009e-08
4.69913e-06 0.000468093 2.69581e-08
-3.09009e-08 2.69581e-08 0.000477109

0.000645102 -3.7315e-05 1.34355e-07
-3.7315e-05 0.000577639 -1.80347e-07
1.34355e-07 -1.80347e-07 0.00061962

0.000644619 3.72167e-05 -9.50288e-08
3.72167e-05 0.000578434 -1.49029e-07
-9.50288e-08 -1.49029e-07 0.000620294

0.000600589 -4.18204e-05 7.78202e-08
-4.18204e-05 0.000517239 -5.47223e-08
7.78202e-08 -5.47223e-08 0.000526066

0.000451735 -8.64215e-05 -5.22384e-08
-8.64215e-05 0.000565232 7.07701e-08
-5.22384e-08 7.07701e-08 0.000455058

0.000652134 -2.77043e-05 -1.64921e-07
-2.77043e-05 0.000549718 1.33771e-07
-1.64921e-07 1.33771e-07 0.000593054

0.000653235 2.80531e-05 1.00597e-07
2.80531e-05 0.000549527 5.72596e-08
1.00597e-07 5.72596e-08 0.000594975

0.000591709 -1.81415e-05 -1.287e-07
-1.81415e-05 0.00044991 2.06782e-07
-1.287e-07 2.06782e-07 0.000501806

0.00050893 0.000121176 7.35707e-08
0.000121176 0.000620808 4.85333e-08
7.35707e-08 4.85333e-08 0.0005618

0.000498464 6.68523e-05 -3.26309e-08
6.68523e-05 0.000468565 6.14983e-08
-3.26309e-08 6.14983e-08 0.000419831

0.000491849 0.000102723 -6.24568e-08
0.000102723 0.000614814 1.25789e-07
-6.24568e-08 1.25789e-07 0.000558333

0.000502129 0.000114579 -4.33327e-08
0.000114579 0.000629008 -1.2946e-08
-4.33327e-08 -1.2946e-08 0.000562816

0.000541475 4.96052e-05 8.9863e-09
4.96052e-05 0.000433066 5.88703e-09
8.9863e-09 5.88703e-09 0.000430903

0.000555122 -4.11627e-05 4.35928e-08
-4.11627e-05 0.000494513 -8.06647e-08
4.35928e-08 -8.06647e-08 0.000531038

0.000582992 2.25367e-05 2.12813e-08
2.25367e-05 0.000451589 1.08388e-08
2.12813e-08 1.08388e-08 0.000491634

0.000441303 8.46156e-05 4.13839e-08
8.46156e-05 0.000463318 3.33776e-08
4.13839e-08 3.33776e-08 0.000399731

0.000498576 6.85689e-05 -6.31472e-08
6.85689e-05 0.0004712 3.74572e-08
-6.31472e-08 3.74572e-08 0.000462764

0.000457496 5.74254e-06 1.0382e-07
5.74254e-06 0.000585177 4.40344e-08
1.0382e-07 4.40344e-08 0.000522053

0.00045857 9.37143e-06 1.92267e-08
9.37143e-06 0.000585863 -9.17855e-08
1.92267e-08 -9.17855e-08 0.000522305

0.000455712 -8.62825e-05 -1.15682e-07
-8.62825e-05 0.000387374 -3.99236e-08
-1.15682e-07 -3.99236e-08 0.000329894

0.000494192 -0.000102266 -7.55353e-08
-0.000102266 0.000588841 1.5885e-07
-7.55353e-08 1.5885e-07 0.00054962

0.000445577 -0.000101089 -7.78252e-08
-0.000101089 0.000514407 -3.95078e-09
-7.78252e-08 -3.95078e-09 0.000410641

0.000445073 0.000103508 -3.35661e-10
0.000103508 0.00051239 -1.0797e-07
-3.35661e-10 -1.0797e-07 0.000409633

0.000568461 -3.7604e-05 -1.69531e-07
-3.7604e-05 0.000476407 1.17204e-07
-1.69531e-07 1.17204e-07 0.000496427

0.000669765 -5.46966e-06 2.13728e-08
-5.46966e-06 0.000442938 -1.26651e-08
2.13728e-08 -1.26651e-08 0.000576502

0.000669973 6.26513e-06 -1.93466e-08
6.26513e-06 0.000443614 3.86944e-08
-1.93466e-08 3.86944e-08 0.000574283

0.000398719 5.49263e-05 -1.02158e-07
5.49263e-05 0.000534503 -1.9554e-07
-1.02158e-07 -1.9554e-07 0.000415774

0.00049734 -8.30608e-05 -1.31162e-07
-8.30608e-05 0.000522075 4.00405e-08
-1.31162e-07 4.00405e-08 0.000475101

0.000320734 -1.82056e-06 -2.09208e-08
-1.82056e-06 0.000517682 6.76243e-08
-2.09208e-08 6.76243e-08 0.00034032

0.00031923 4.01638e-06 2.09459e-07
4.01638e-06 0.000518777 9.84482e-09
2.09459e-07 9.84482e-09 0.000338128

0.000511975 -6.09252e-07 1.62959e-08
-6.09252e-07 0.000348407 6.02988e-09
1.62959e-08 6.02988e-09 0.000343955

0.000453661 8.10023e-05 -5.69357e-09
8.10023e-05 0.000455482 3.42556e-08
-5.69357e-09 3.42556e-08 0.000349917

0.000478149 -9.49161e-05 5.41418e-08
-9.49161e-05 0.000467206 -1.1452e-07
5.41418e-08 -1.1452e-07 0.000413515

0.000618071 -4.62635e-05 1.99258e-07
-4.62635e-05 0.000719077 4.70129e-08
1.99258e-07 4.70129e-08 0.000636284

0.000618888 -4.36856e-05 4.77755e-07
-4.36856e-05 0.00071904 -7.93581e-08
4.77755e-07 -7.93581e-08 0.000636841

0.000548029 -4.86392e-05 7.02709e-08
-4.86392e-05 0.00043427 2.39757e-08
7.02709e-08 2.39757e-08 0.000436192

0.000481171 0.000112649 4.35614e-08
0.000112649 0.000604559 -5.08594e-09
4.35614e-08 -5.08594e-09 0.000521601

0.000646323 -3.01234e-06 2.27474e-08
-3.01234e-06 0.000509004 -1.123e-07
2.27474e-08 -1.123e-07 0.000563522

0.000397415 -5.40804e-05 5.20357e-08
-5.40804e-05 0.00053886 -5.49019e-08
5.20357e-08 -5.49019e-08 0.000416646

0.000513921 0.000100885 -6.18547e-08
0.000100885 0.000632958 2.72111e-08
-6.18547e-08 2.72111e-08 0.000579963

0.000501154 9.49222e-05 2.36478e-08
9.49222e-05 0.000620289 3.32658e-08
2.36478e-08 3.32658e-08 0.000574207

0.000510323 -0.000121007 -6.83127e-08
-0.000121007 0.000621476 1.09844e-07
-6.83127e-08 1.09844e-07 0.000562473

0.000504856 0.000116754 1.37602e-08
0.000116754 0.00064158 -1.6622e-07
1.37602e-08 -1.6622e-07 0.00057028

0.00047046 9.84022e-05 9.73283e-08
9.84022e-05 0.0005853 -2.81035e-08
9.73283e-08 -2.81035e-08 0.00051384

0.000693881 2.65176e-07 4.88826e-08
2.65176e-07 0.000562435 5.078e-08
4.88826e-08 5.078e-08 0.000640087

0.000480022 9.31655e-05 -2.02394e-08
9.31655e-05 0.0004593 2.37508e-08
-2.02394e-08 2.37508e-08 0.000409545

0.000492074 -0.000103328 3.65752e-08
-0.000103328 0.000614212 -1.77022e-07
3.65752e-08 -1.77022e-07 0.000558326

0.000477329 8.14887e-05 -2.90966e-08
8.14887e-05 0.000514596 -7.02047e-08
-2.90966e-08 -7.02047e-08 0.000432064

0.000408531 -7.02184e-05 -2.37534e-07
-7.02184e-05 0.000457143 -1.26063e-08
-2.37534e-07 -1.26063e-08 0.000332152

0.000486331 -8.60676e-05 -2.55296e-08
-8.60676e-05 0.0005549 -1.15785e-07
-2.55296e-08 -1.15785e-07 0.000509107

0.000390698 -4.90967e-05 1.12461e-07
-4.90967e-05 0.000548838 -8.33425e-09
1.12461e-07 -8.33425e-09 0.000376646

0.000388539 4.78991e-05 -7.55193e-08
4.78991e-05 0.000545922 -1.43234e-07
-7.55193e-08 -1.43234e-07 0.000374918

0.000525965 -3.37249e-05 -3.50629e-09
-3.37249e-05 0.000426493 4.99989e-08
-3.50629e-09 4.99989e-08 0.000377889

0.000477278 -8.36187e-05 4.53295e-08
-8.36187e-05 0.00051458 1.3118e-07
4.53295e-08 1.3118e-07 0.000430517

0.000458211 1.29349e-05 1.36292e-08
1.29349e-05 0.000587644 2.06117e-08
1.36292e-08 2.06117e-08 0.000471511

0.000458099 -3.45497e-07 1.11827e-07
-3.45497e-07 0.000586234 -1.16888e-07
1.11827e-07 -1.16888e-07 0.000471361

0.000390251 -9.6565e-05 5.92853e-09
-9.6565e-05 0.000451174 1.22603e-07
5.92853e-09 1.22603e-07 0.000323986

0.000385945 9.77417e-05 -3.68252e-08
9.77417e-05 0.000454799 4.89821e-08
-3.68252e-08 4.89821e-08 0.000327853

0.000690752 -8.66123e-06 6.67706e-08
-8.66123e-06 0.000541502 8.0286e-08
6.67706e-08 8.0286e-08 0.000629713

0.000691388 9.02433e-06 5.17882e-08
9.02433e-06 0.000541603 4.63728e-08
5.17882e-08 4.63728e-08 0.00063037

0.000493374 0.000106257 1.31985e-08
0.000106257 0.000607817 8.19707e-09
1.31985e-08 8.19707e-09 0.000532463

0.000500557 -9.66768e-05 5.7895e-08
-9.66768e-05 0.000622391 -2.68357e-09
5.7895e-08 -2.68357e-09 0.000572507

0.000511866 7.03384e-05 -5.65705e-08
7.03384e-05 0.000548874 -3.59866e-09
-5.65705e-08 -3.59866e-09 0.00053085

0.000446816 7.78859e-05 -6.51703e-08
7.78859e-05 0.000345343 -2.01646e-08
-6.51703e-08 -2.01646e-08 0.00027833

0.000401798 6.66601e-05 1.38722e-09
6.66601e-05 0.000556661 4.95654e-08
1.38722e-09 4.95654e-08 0.000423068

0.000613924 4.67446e-05 -7.21332e-08
4.67446e-05 0.000608107 -1.46264e-08
-7.21332e-08 -1.46264e-08 0.000611289

0.000613885 -4.70032e-05 -2.93686e-08
-4.70032e-05 0.000608376 -7.44216e-08
-2.93686e-08 -7.44216e-08 0.000610923

0.000586094 -6.35514e-05 -1.5336e-07
-6.35514e-05 0.000573892 1.58552e-07
-1.5336e-07 1.58552e-07 0.000558881

0.000585545 6.30687e-05 -8.41823e-09
6.30687e-05 0.000573969 1.87219e-08
-8.41823e-09 1.87219e-08 0.000559399

0.000230017 2.07801e-05 -1.28227e-07
2.07801e-05 0.000479901 1.73141e-08
-1.28227e-07 1.73141e-08 0.000126046

0.000452932 2.1536e-05 3.57914e-08
2.1536e-05 0.000254456 1.12925e-07
3.57914e-08 1.12925e-07 0.000126267

0.000399036 -6.32761e-05 9.27298e-08
-6.32761e-05 0.000559703 5.01016e-08
9.27298e-08 5.01016e-08 0.000425479

0.00066238 -5.03526e-05 2.81082e-07
-5.03526e-05 0.000675719 -1.90063e-07
2.81082e-07 -1.90063e-07 0.000663317

0.000662267 5.08388e-05 -2.35579e-09
5.08388e-05 0.000675719 2.07237e-07
-2.35579e-09 2.07237e-07 0.000663404

0.000536542 7.7425e-05 4.36191e-08
7.7425e-05 0.000539857 -1.06352e-07
4.36191e-08 -1.06352e-07 0.000500408

0.000476063 4.24286e-05 -1.93403e-08
4.24286e-05 0.000309773 -1.50833e-07
-1.93403e-08 -1.50833e-07 0.00027641

0.000586077 -8.06716e-06 -3.06472e-08
-8.06716e-06 0.000468661 -3.4904e-08
-3.06472e-08 -3.4904e-08 0.000477186

0.000468638 -5.56042e-05 -3.52585e-08
-5.56042e-05 0.000589439 -9.41688e-08
-3.52585e-08 -9.41688e-08 0.00052572

0.000475598 -6.06675e-05 -5.17828e-08
-6.06675e-05 0.000597513 4.78343e-08
-5.17828e-08 4.78343e-08 0.00053004

0.000438776 -9.19328e-05 6.16558e-08
-9.19328e-05 0.000472675 -2.40475e-07
6.16558e-08 -2.40475e-07 0.000391862

0.000505392 -0.000117341 9.79069e-09
-0.000117341 0.00064244 -1.19432e-07
9.79069e-09 -1.19432e-07 0.000570856

0.000536388 -7.81824e-05 4.54501e-08
-7.81824e-05 0.000540711 2.59782e-08
4.54501e-08 2.59782e-08 0.000499359

0.000481419 0.000112266 2.50881e-10
0.000112266 0.000610037 2.98045e-08
2.50881e-10 2.98045e-08 0.000555725

0.000569995 8.11859e-05 -1.2618e-08
8.11859e-05 0.000635295 2.39918e-08
-1.2618e-08 2.39918e-08 0.000593536

0.000567916 7.36416e-05 1.94094e-07
7.36416e-05 0.000622787 2.21205e-08
1.94094e-07 2.21205e-08 0.000590014

0.000493141 -0.000106668 6.32612e-08
-0.000106668 0.000610516 3.18832e-08
6.32612e-08 3.18832e-08 0.000534045

0.000482906 9.64067e-05 -1.04475e-08
9.64067e-05 0.000585251 7.73795e-09
-1.04475e-08 7.73795e-09 0.000521388

0.000502631 6.67345e-05 -8.45954e-09
6.67345e-05 0.000401587 1.57724e-07
-8.45954e-09 1.57724e-07 0.000388899

0.000500584 0.000123591 -7.61738e-08
0.000123591 0.000630658 -1.59283e-08
-7.61738e-08 -1.59283e-08 0.000566103

0.000440026 -7.54715e-05 -3.02991e-08
-7.54715e-05 0.000568699 1.23954e-07
-3.02991e-08 1.23954e-07 0.000485823

0.000412602 2.95161e-05 -1.87403e-07
2.95161e-05 0.000567226 4.54165e-08
-1.87403e-07 4.54165e-08 0.000454745

0.000528019 8.97529e-05 1.60343e-07
8.97529e-05 0.000567438 -5.75477e-09
1.60343e-07 -5.75477e-09 0.000532239

0.000422936 3.77483e-05 1.31908e-08
3.77483e-05 0.000572097 2.08178e-08
1.31908e-08 2.08178e-08 0.000459707

0.000514271 -0.000104908 4.88897e-08
-0.000104908 0.000635669 1.15867e-07
4.88897e-08 1.15867e-07 0.000577966

0.000309639 -9.00227e-05 6.23636e-08
-9.00227e-05 0.000319612 1.14179e-07
6.23636e-08 1.14179e-07 0.000179786

0.000313273 -9.10086e-05 -1.95841e-08
-9.10086e-05 0.000313833 3.07183e-08
-1.95841e-08 3.07183e-08 0.000178946

0.000527952 -9.01873e-05 -1.15913e-07
-9.01873e-05 0.000567409 1.63957e-07
-1.15913e-07 1.63957e-07 0.000531839

0.000601223 -3.41099e-05 7.63347e-08
-3.41099e-05 0.00049251 -9.30961e-08
7.63347e-08 -9.30961e-08 0.000524923

0.000724512 0.000107372 7.276e-07
0.000107372 0.000676565 -4.12168e-07
7.276e-07 -4.12168e-07 0.000677297

0.000724512 -0.000107372 -3.8939e-07
-0.000107372 0.000676565 2.8951e-07
-3.8939e-07 2.8951e-07 0.000677211

0.000482085 -0.000112052 -7.48595e-08
-0.000112052 0.000607894 -3.5562e-08
-7.48595e-08 -3.5562e-08 0.000525189

0.000601987 2.34921e-05 3.36552e-08
2.34921e-05 0.000622126 -2.14246e-08
3.36552e-08 -2.14246e-08 0.000613046

0.000603038 -2.16394e-05 -1.62868e-07
-2.16394e-05 0.000623121 1.83402e-07
-1.62868e-07 1.83402e-07 0.000612949

0.000637289 1.29629e-06 -4.75584e-08
1.29629e-06 0.000413698 -1.5948e-08
-4.75584e-08 -1.5948e-08 0.000509499

0.000480657 -0.000112696 1.31072e-07
-0.000112696 0.000611313 -3.82877e-08
1.31072e-07 -3.82877e-08 0.000555229

0.000336655 0.000109707 3.75989e-08
0.000109707 0.000346254 -1.09474e-07
3.75989e-08 -1.09474e-07 0.000222288

0.000327182 0.000103981 6.12338e-08
0.000103981 0.000348041 -1.42598e-08
6.12338e-08 -1.42598e-08 0.000224535

0.000325014 -7.80666e-05 1.41675e-07
-7.80666e-05 0.000468529 4.2057e-09
1.41675e-07 4.2057e-09 0.000262045

0.000332106 8.18995e-05 5.49904e-08
8.18995e-05 0.000474348 1.37564e-07
5.49904e-08 1.37564e-07 0.000268786

0.000455283 -6.49919e-05 -3.27985e-08
-6.49919e-05 0.000348381 -1.16527e-07
-3.27985e-08 -1.16527e-07 0.000262578

0.000500482 -0.000124158 2.73575e-08
-0.000124158 0.000633269 -9.07393e-08
2.73575e-08 -9.07393e-08 0.000566248

0.000232602 2.87454e-05 -1.25056e-07
2.87454e-05 0.000452698 4.13693e-08
-1.25056e-07 4.13693e-08 0.000223463

0.000436758 3.67651e-05 -9.09623e-08
3.67651e-05 0.000262073 8.45981e-08
-9.09623e-08 8.45981e-08 0.000226016

0.000587866 -3.82037e-05 -6.08237e-08
-3.82037e-05 0.000650981 1.81895e-07
-6.08237e-08 1.81895e-07 0.000609489

0.000592459 -4.64555e-05 -3.43079e-08
-4.64555e-05 0.000653406 2.40516e-07
-3.43079e-08 2.40516e-07 0.000611696

0.00062039 1.46361e-05 4.79274e-08
1.46361e-05 0.000500813 -9.36812e-08
4.79274e-08 -9.36812e-08 0.00054281

0.000672757 8.97621e-07 2.24117e-08
8.97621e-07 0.000409883 2.12115e-08
2.24117e-08 2.12115e-08 0.000554295

0.000382311 -7.09509e-05 3.58898e-08
-7.09509e-05 0.000508575 -9.98614e-08
3.58898e-08 -9.98614e-08 0.000366306

0.00037964 6.93348e-05 -5.84247e-08
6.93348e-05 0.000507182 -1.63832e-07
-5.84247e-08 -1.63832e-07 0.000365049

0.000637828 3.12771e-08 -4.54174e-08
3.12771e-08 0.000411443 -2.76342e-08
-4.54174e-08 -2.76342e-08 0.000512299

0.000451521 -8.55474e-05 -4.3241e-08
-8.55474e-05 0.000585139 -6.02364e-08
-4.3241e-08 -6.02364e-08 0.00049575

0.000658237 -3.68407e-05 5.97856e-08
-3.68407e-05 0.000649626 7.0722e-08
5.97856e-08 7.0722e-08 0.000649288

0.000656851 3.64831e-05 -7.74147e-08
3.64831e-05 0.000649406 1.18781e-07
-7.74147e-08 1.18781e-07 0.000649434

0.000546925 5.06668e-05 -7.20905e-08
5.06668e-05 0.000556013 1.02849e-08
-7.20905e-08 1.02849e-08 0.000536972

0.000480756 -9.58289e-05 2.07198e-08
-9.58289e-05 0.000585953 1.011e-07
2.07198e-08 1.011e-07 0.000520914

0.000621018 1.47363e-05 5.98156e-08
1.47363e-05 0.000437097 2.8002e-08
5.98156e-08 2.8002e-08 0.000530164

0.000426171 8.00488e-05 4.77841e-08
8.00488e-05 0.00041127 1.70205e-07
4.77841e-08 1.70205e-07 0.000334238

0.000470927 -9.83932e-05 6.60464e-09
-9.83932e-05 0.000585628 9.47763e-08
6.60464e-09 9.47763e-08 0.000514529

0.000169777 -0.000172854 1.08502e-07
-0.000172854 0.000175931 -1.08502e-07
1.08502e-07 -1.08502e-07 3.99844e-05

0.000416935 -2.36519e-05 9.37795e-08
-2.36519e-05 0.000563915 5.48556e-08
9.37795e-08 5.48556e-08 0.000454992

0.000425272 -3.23015e-05 -1.49472e-10
-3.23015e-05 0.000567795 -1.5633e-07
-1.49472e-10 -1.5633e-07 0.000458625

0.000596468 -7.63861e-06 -5.8261e-08
-7.63861e-06 0.00064224 8.92901e-08
-5.8261e-08 8.92901e-08 0.000614279

0.000597665 -4.49124e-06 1.73205e-07
-4.49124e-06 0.000641185 -5.21219e-08
1.73205e-07 -5.21219e-08 0.000614387

0.000694598 -2.689e-05 9.34643e-08
-2.689e-05 0.000582564 4.5419e-08
9.34643e-08 4.5419e-08 0.000653097

0.000694593 2.6917e-05 -7.71446e-08
2.6917e-05 0.000582803 -1.21687e-07
-7.71446e-08 -1.21687e-07 0.000653682

0.000554524 -5.27512e-05 -2.98458e-08
-5.27512e-05 0.000566062 -1.44141e-07
-2.98458e-08 -1.44141e-07 0.000572416

0.000554796 5.4616e-05 -9.4882e-08
5.4616e-05 0.000557965 2.46113e-10
-9.4882e-08 2.46113e-10 0.000568557

0.000590214 -4.67691e-05 -2.07577e-07
-4.67691e-05 0.000641315 -6.74189e-09
-2.07577e-07 -6.74189e-09 0.000607126

0.00058927 4.85634e-05 7.21648e-10
4.85634e-05 0.000641187 1.1994e-07
7.21648e-10 1.1994e-07 0.000607003

0.00068688 7.31664e-05 -1.72122e-07
7.31664e-05 0.000680696 -3.59532e-07
-1.72122e-07 -3.59532e-07 0.000668468

0.00068688 -7.31664e-05 -2.17952e-07
-7.31664e-05 0.000680696 2.99536e-07
-2.17952e-07 2.99536e-07 0.000668413

0.000535974 -0.00012036 1.05796e-07
-0.00012036 0.000642414 -1.38794e-07
1.05796e-07 -1.38794e-07 0.000592657

0.000537081 0.000120886 5.04052e-08
0.000120886 0.00064185 -1.58234e-07
5.04052e-08 -1.58234e-07 0.00059302

0.000541188 7.20229e-05 1.46985e-08
7.20229e-05 0.000507472 1.07186e-08
1.46985e-08 1.07186e-08 0.000493402

0.000468494 -5.67112e-05 -9.08905e-10
-5.67112e-05 0.000581024 1.42241e-07
-9.08905e-10 1.42241e-07 0.000490547

0.000472274 -7.05534e-05 -7.31558e-08
-7.05534e-05 0.000595429 -7.70077e-08
-7.31558e-08 -7.70077e-08 0.000496499

0.000440023 -7.16114e-05 -1.44606e-07
-7.16114e-05 0.000419774 8.45916e-08
-1.44606e-07 8.45916e-08 0.000325526

0.000540434 -7.17724e-05 2.69321e-08
-7.17724e-05 0.000509311 -6.27168e-08
2.69321e-08 -6.27168e-08 0.000492529

0.000467476 5.35708e-05 -6.93736e-08
5.35708e-05 0.000577697 1.01472e-07
-6.93736e-08 1.01472e-07 0.00048873

0.000495438 0.000100592 -5.45423e-08
0.000100592 0.000534241 -9.27918e-08
-5.45423e-08 -9.27918e-08 0.000475413

0.000509306 -0.000104079 1.0975e-07
-0.000104079 0.00061288 -2.00809e-07
1.0975e-07 -2.00809e-07 0.000576988

0.00051033 0.000102294 8.55848e-08
0.000102294 0.000612659 1.73019e-07
8.55848e-08 1.73019e-07 0.000577592

0.000494457 -0.000102053 1.46077e-07
-0.000102053 0.000533651 4.35534e-08
1.46077e-07 4.35534e-08 0.000474225

0.000625321 -1.03291e-05 9.09965e-08
-1.03291e-05 0.000507526 -6.39634e-08
9.09965e-08 -6.39634e-08 0.000551549

0.00063208 2.89869e-05 -3.50177e-07
2.89869e-05 0.00068128 8.4736e-08
-3.50177e-07 8.4736e-08 0.000635437

0.000634522 2.56599e-05 3.88991e-08
2.56599e-05 0.000680302 -3.18076e-07
3.88991e-08 -3.18076e-07 0.000636207

0.000513648 -8.96171e-05 7.95064e-08
-8.96171e-05 0.000619305 -4.17607e-08
7.95064e-08 -4.17607e-08 0.00055023

0.000546304 4.40095e-05 -7.65706e-08
4.40095e-05 0.00048932 -4.99889e-08
-7.65706e-08 -4.99889e-08 0.000522456

0.000670703 -1.07969e-05 4.64687e-08
-1.07969e-05 0.000520135 -1.16744e-07
4.64687e-08 -1.16744e-07 0.000592288

0.000330267 -9.65178e-05 1.42411e-07
-9.65178e-05 0.000345101 -2.87493e-09
1.42411e-07 -2.87493e-09 0.00019955

0.000333176 -9.43204e-05 5.38105e-08
-9.43204e-05 0.000346076 -1.1278e-07
5.38105e-08 -1.1278e-07 0.000201638

0.000692622 -3.01942e-05 -8.55939e-08
-3.01942e-05 0.000577404 -1.76902e-07
-8.55939e-08 -1.76902e-07 0.00064773

0.000691458 3.08875e-05 -5.53542e-08
3.08875e-05 0.0005778 -1.47318e-07
-5.53542e-08 -1.47318e-07 0.000648116

0.000671254 8.83857e-06 -2.49792e-09
8.83857e-06 0.000523634 -9.46103e-08
-2.49792e-09 -9.46103e-08 0.000593913

0.000473129 7.0273e-05 -5.56794e-08
7.0273e-05 0.000592698 -3.05131e-08
-5.56794e-08 -3.05131e-08 0.000495585

0.000541815 5.54124e-05 9.0065e-09
5.54124e-05 0.00048234 6.4725e-09
9.0065e-09 6.4725e-09 0.000445887

0.000567598 -8.02653e-05 7.52765e-08
-8.02653e-05 0.000623307 -2.47116e-08
7.52765e-08 -2.47116e-08 0.000583818

0.000567498 7.91049e-05 -6.05077e-08
7.91049e-05 0.000623123 1.37169e-07
-6.05077e-08 1.37169e-07 0.00058416

0.000686589 -1.42497e-05 -3.33279e-08
-1.42497e-05 0.000609651 -4.2375e-07
-3.33279e-08 -4.2375e-07 0.000635191

0.000686176 1.48389e-05 2.13767e-07
1.48389e-05 0.000617873 5.16912e-08
2.13767e-07 5.16912e-08 0.000636309

0.000485084 -0.00010288 -8.75208e-08
-0.00010288 0.000613253 -1.09102e-07
-8.75208e-08 -1.09102e-07 0.000546128

0.00056501 4.41154e-05 1.59756e-08
4.41154e-05 0.000476832 2.61528e-08
1.59756e-08 2.61528e-08 0.000487288

0.000644912 3.09229e-05 -9.9048e-08
3.09229e-05 0.000606634 1.40566e-08
-9.9048e-08 1.40566e-08 0.000622097

0.000645378 -3.08424e-05 1.40827e-07
-3.08424e-05 0.000606705 1.08647e-07
1.40827e-07 1.08647e-07 0.000621784

0.000507469 -7.98113e-05 -1.50611e-07
-7.98113e-05 0.000604328 -1.39641e-08
-1.50611e-07 -1.39641e-08 0.000544967

0.000487678 -0.000109782 4.2099e-08
-0.000109782 0.000610134 -2.33275e-08
4.2099e-08 -2.33275e-08 0.000553645

0.000174462 -0.000179201 -2.57511e-09
-0.000179201 0.000183941 2.57512e-09
-2.57511e-09 2.57512e-09 4.38511e-05

0.000531786 7.46625e-05 1.17195e-07
7.46625e-05 0.000636916 1.09347e-07
1.17195e-07 1.09347e-07 0.000588592

0.000531086 -7.58422e-05 2.19084e-07
-7.58422e-05 0.000637767 2.11489e-08
2.19084e-07 2.11489e-08 0.00058887

0.000471675 -9.50397e-05 -3.19265e-09
-9.50397e-05 0.000598251 3.31424e-08
-3.19265e-09 3.31424e-08 0.000538501

0.000549259 -5.97623e-05 7.85831e-08
-5.97623e-05 0.000484033 -1.04593e-07
7.85831e-08 -1.04593e-07 0.000450392

0.000555628 -4.74806e-05 5.01211e-08
-4.74806e-05 0.000558582 -1.97193e-07
5.01211e-08 -1.97193e-07 0.000542333

0.000545286 6.47056e-05 -6.67923e-08
6.47056e-05 0.000598253 -9.46021e-08
-6.67923e-08 -9.46021e-08 0.00057476

0.000544355 -6.73547e-05 6.21025e-08
-6.73547e-05 0.000600457 2.02465e-07
6.21025e-08 2.02465e-07 0.00057528

0.000625318 -9.73734e-06 9.05327e-08
-9.73734e-06 0.000438546 1.22838e-07
9.05327e-08 1.22838e-07 0.000538439

0.000686742 2.36976e-05 -2.38921e-08
2.36976e-05 0.000622842 9.06246e-09
-2.38921e-08 9.06246e-09 0.000660876

0.000688207 -2.37794e-05 -1.30002e-07
-2.37794e-05 0.00062272 4.38132e-08
-1.30002e-07 4.38132e-08 0.000660916

0.000617896 1.04222e-05 -1.10638e-07
1.04222e-05 0.000733626 -1.58566e-07
-1.10638e-07 -1.58566e-07 0.000630784

0.000619127 7.30142e-06 -2.5971e-07
7.30142e-06 0.00073348 -1.4773e-08
-2.5971e-07 -1.4773e-08 0.00063109

0.000214684 7.48167e-06 -2.46541e-08
7.48167e-06 0.000479041 -2.30912e-08
-2.46541e-08 -2.30912e-08 0.000122637

0.000450663 6.6935e-06 7.44023e-08
6.6935e-06 0.000223089 -1.21017e-07
7.44023e-08 -1.21017e-07 0.000122568

0.000528997 -0.000102611 -6.6321e-08
-0.000102611 0.000638786 1.12224e-07
-6.6321e-08 1.12224e-07 0.000572718

0.000528916 0.000102391 1.09036e-07
0.000102391 0.000637836 8.91211e-09
1.09036e-07 8.91211e-09 0.000573044

0.000496158 -0.000117074 -1.15629e-07
-0.000117074 0.000631365 -7.06671e-08
-1.15629e-07 -7.06671e-08 0.000561654

0.000190488 -8.42301e-05 5.02147e-09
-8.42301e-05 0.000385103 8.36788e-08
5.02147e-09 8.36788e-08 0.000108127

0.000368129 -8.0557e-05 -1.61461e-08
-8.0557e-05 0.000209924 4.66218e-10
-1.61461e-08 4.66218e-10 0.000110215

0.00065221 -0.000107682 -2.42077e-07
-0.000107682 0.000735675 4.23347e-07
-2.42077e-07 4.23347e-07 0.000684057

0.00065221 0.00010733 7.90203e-08
0.00010733 0.000736315 1.77063e-07
7.90203e-08 1.77063e-07 0.000684176

0.000512455 -7.09509e-05 1.20647e-07
-7.09509e-05 0.000549954 -1.37034e-07
1.20647e-07 -1.37034e-07 0.000533341

0.000490019 -9.85558e-05 1.20855e-07
-9.85558e-05 0.000558591 4.20444e-10
1.20855e-07 4.20444e-10 0.000486747

0.000530404 -0.000103929 -3.21892e-08
-0.000103929 0.000608751 -8.06379e-08
-3.21892e-08 -8.06379e-08 0.000564248

0.00052993 0.000103294 1.14849e-07
0.000103294 0.000608125 4.59864e-08
1.14849e-07 4.59864e-08 0.000564511

0.000492148 -0.000111522 6.90343e-08
-0.000111522 0.000589255 6.91903e-08
6.90343e-08 6.91903e-08 0.000519351

0.000490417 9.8526e-05 -1.05926e-07
9.8526e-05 0.000556268 -4.26096e-09
-1.05926e-07 -4.26096e-09 0.000486441

0.000310276 -3.19408e-05 -4.2087e-08
-3.19408e-05 0.000494597 -4.5567e-08
-4.2087e-08 -4.5567e-08 0.000268039

0.000304917 3.86485e-05 1.83642e-07
3.86485e-05 0.000485958 1.20968e-07
1.83642e-07 1.20968e-07 0.000269193

0.000474635 -2.42931e-05 -4.65541e-09
-2.42931e-05 0.000343341 3.55946e-09
-4.65541e-09 3.55946e-09 0.000270903

0.000492356 0.000110855 -1.00302e-08
0.000110855 0.00058793 1.34725e-07
-1.00302e-08 1.34725e-07 0.000518737

0.000226346 -1.99304e-05 -7.96374e-09
-1.99304e-05 0.000457982 -1.07526e-07
-7.96374e-09 -1.07526e-07 0.000217819

0.000440041 -1.92681e-05 3.07315e-08
-1.92681e-05 0.000235001 -1.11439e-07
3.07315e-08 -1.11439e-07 0.000215034

0.000556919 -0.000101272 1.46106e-07
-0.000101272 0.000636962 6.71792e-08
1.46106e-07 6.71792e-08 0.000596083

0.000557586 0.000100905 -2.83663e-07
0.000100905 0.00063619 -6.69822e-08
-2.83663e-07 -6.69822e-08 0.00059644

0.000563447 -8.84043e-05 1.07796e-07
-8.84043e-05 0.000648724 -6.36167e-08
1.07796e-07 -6.36167e-08 0.000604375

0.000564109 8.78293e-05 -2.70876e-07
8.78293e-05 0.000648463 -1.11319e-07
-2.70876e-07 -1.11319e-07 0.000604609

0.00018198 -8.47326e-05 1.22243e-07
-8.47326e-05 0.000372242 7.31569e-08
1.22243e-07 7.31569e-08 9.50144e-05

0.000357789 -7.83525e-05 8.08014e-08
-7.83525e-05 0.000189805 -1.10716e-07
8.08014e-08 -1.10716e-07 9.41745e-05

0.000526751 9.37279e-05 1.51502e-07
9.37279e-05 0.000596032 7.22908e-08
1.51502e-07 7.22908e-08 0.00053954

0.00052671 -9.44892e-05 -1.34121e-07
-9.44892e-05 0.000597224 -8.3789e-09
-1.34121e-07 -8.3789e-09 0.000539309

0.000611868 -1.51832e-05 -5.59131e-08
-1.51832e-05 0.000648218 1.8161e-07
-5.59131e-08 1.8161e-07 0.000618824

0.000612571 -1.97688e-05 -2.16928e-07
-1.97688e-05 0.000650229 2.51152e-07
-2.16928e-07 2.51152e-07 0.00061967

0.000545575 -0.000101588 1.65932e-07
-0.000101588 0.000671239 3.32662e-08
1.65932e-07 3.32662e-08 0.000607639

0.000545938 0.000102478 -8.14902e-08
0.000102478 0.000670462 2.53574e-07
-8.14902e-08 2.53574e-07 0.000607935

0.000657903 -4.03352e-05 6.88709e-08
-4.03352e-05 0.000613676 1.53573e-07
6.88709e-08 1.53573e-07 0.000646936

0.000656451 4.0258e-05 -6.80081e-08
4.0258e-05 0.000613789 3.34109e-08
-6.80081e-08 3.34109e-08 0.000647041

0.000514294 8.42572e-05 -9.89094e-08
8.42572e-05 0.000597088 -9.36191e-08
-9.89094e-08 -9.36191e-08 0.000554046

0.000513074 -8.40788e-05 -4.83652e-08
-8.40788e-05 0.000599969 2.00827e-07
-4.83652e-08 2.00827e-07 0.000554694

0.000588766 -3.16279e-05 2.28746e-08
-3.16279e-05 0.000713129 -3.13912e-07
2.28746e-08 -3.13912e-07 0.000623959

0.000696867 -5.74153e-05 -7.94208e-08
-5.74153e-05 0.000668021 6.1389e-09
-7.94208e-08 6.1389e-09 0.000678722

0.000692196 -5.89404e-05 -5.16612e-07
-5.89404e-05 0.000669198 -3.98437e-07
-5.16612e-07 -3.98437e-07 0.00067877

0.000696607 5.76999e-05 1.37756e-07
5.76999e-05 0.000668021 1.29461e-07
1.37756e-07 1.29461e-07 0.000678711

0.000691851 5.91883e-05 7.57543e-08
5.91883e-05 0.000669338 1.86837e-07
7.57543e-08 1.86837e-07 0.000678845

0.000584354 -2.43324e-05 -4.25675e-08
-2.43324e-05 0.000712179 4.88171e-09
-4.25675e-08 4.88171e-09 0.000621896

0.000642718 -6.43945e-05 5.8239e-08
-6.43945e-05 0.000640793 -1.89063e-07
5.8239e-08 -1.89063e-07 0.00062148

0.000640619 6.66878e-05 1.46659e-07
6.66878e-05 0.000642177 2.18814e-07
1.46659e-07 2.18814e-07 0.000622252

0.000658162 -8.48297e-05 -3.73032e-07
-8.48297e-05 0.000703127 5.52299e-07
-3.73032e-07 5.52299e-07 0.000656396

0.000866438 -6.31673e-05 -3.62096e-06
-6.31673e-05 0.000638378 -2.06166e-06
-3.62096e-06 -2.06166e-06 0.000674745

0.000866438 6.31674e-05 3.08532e-06
6.31674e-05 0.000638378 -1.52704e-06
3.08532e-06 -1.52704e-06 0.00067484

0.000657866 8.50395e-05 9.77526e-07
8.50395e-05 0.000703005 1.6975e-06
9.77526e-07 1.6975e-06 0.000656544

0.000676105 -8.85254e-05 -4.7465e-08
-8.85254e-05 0.000673107 5.88099e-08
-4.7465e-08 5.88099e-08 0.000650089

0.000608764 -7.16364e-05 2.97707e-08
-7.16364e-05 0.000680268 7.6644e-09
2.97707e-08 7.6644e-09 0.000631682

0.000684433 -6.80755e-05 -1.04569e-07
-6.80755e-05 0.000683903 -2.0562e-07
-1.04569e-07 -2.0562e-07 0.000668348

0.000676012 8.87876e-05 -5.95674e-08
8.87876e-05 0.000672675 1.2549e-07
-5.95674e-08 1.2549e-07 0.000650202

0.000684433 6.80755e-05 -6.13774e-08
6.80755e-05 0.000683903 1.33869e-07
-6.13774e-08 1.33869e-07 0.000668408

0.000608806 7.18757e-05 8.62429e-08
7.18757e-05 0.000679747 2.22042e-07
8.62429e-08 2.22042e-07 0.000631802

0.000609207 -7.42984e-05 5.28199e-08
-7.42984e-05 0.000679034 -2.74762e-07
5.28199e-08 -2.74762e-07 0.000641333

0.000659925 -6.05085e-05 2.79439e-07
-6.05085e-05 0.000682704 -2.04191e-07
2.79439e-07 -2.04191e-07 0.000659806

0.000609207 7.42984e-05 5.57714e-08
7.42984e-05 0.000679034 -1.51343e-07
5.57714e-08 -1.51343e-07 0.000641446

0.000659925 6.05085e-05 3.86954e-08
6.05085e-05 0.000682704 -1.46028e-07
3.86954e-08 -1.46028e-07 0.000659906

0.000520893 4.85034e-05 -3.5988e-08
4.85034e-05 0.000581183 -1.1198e-07
-3.5988e-08 -1.1198e-07 0.000544446

0.000465464 -1.40989e-05 -1.26339e-07
-1.40989e-05 0.000613476 -9.08797e-08
-1.26339e-07 -9.08797e-08 0.000547154

0.000552584 -1.59943e-05 -1.47729e-08
-1.59943e-05 0.00041058 8.8144e-08
-1.47729e-08 8.8144e-08 0.000495578

0.000534013 1.69312e-07 4.44089e-08
1.69312e-07 0.000398552 5.62465e-08
4.44089e-08 5.62465e-08 0.000461265

0.00052079 4.86309e-05 -5.35419e-08
4.86309e-05 0.000592188 9.21764e-08
-5.35419e-08 9.21764e-08 0.000578461

0.00046389 -2.10872e-05 -1.13544e-07
-2.10872e-05 0.000663852 5.79794e-08
-1.13544e-07 5.79794e-08 0.000579372

0.000534088 2.73125e-05 4.43006e-08
2.73125e-05 0.000399319 -2.20998e-08
4.43006e-08 -2.20998e-08 0.000463989

0.000596376 3.47036e-05 -3.75381e-08
3.47036e-05 0.000457806 -4.9796e-08
-3.75381e-08 -4.9796e-08 0.000560375

0.000334579 6.89742e-05 -1.32566e-07
6.89742e-05 0.000432978 1.22368e-07
-1.32566e-07 1.22368e-07 0.000367716

0.000339652 6.69587e-05 6.44341e-08
6.69587e-05 0.000433987 5.03326e-09
6.44341e-08 5.03326e-09 0.000360716

0.000423556 6.04695e-05 -3.39572e-08
6.04695e-05 0.00033578 5.09456e-08
-3.39572e-08 5.09456e-08 0.000355914

0.000557029 3.05201e-05 8.41067e-08
3.05201e-05 0.00063651 5.33173e-08
8.41067e-08 5.33173e-08 0.00058916

0.000571558 -5.87697e-05 -1.13219e-07
-5.87697e-05 0.000604567 -1.0959e-07
-1.13219e-07 -1.0959e-07 0.000588787

0.000495611 -7.45085e-05 -5.97416e-08
-7.45085e-05 0.000516782 8.51539e-08
-5.97416e-08 8.51539e-08 0.000499389

0.00046177 2.55483e-05 4.89811e-08
2.55483e-05 0.00066567 3.19636e-08
4.89811e-08 3.19636e-08 0.000576939

0.000517947 -2.79563e-05 -8.97093e-08
-2.79563e-05 0.000586918 -1.23894e-07
-8.97093e-08 -1.23894e-07 0.000576517

0.00057963 1.91513e-05 5.84923e-08
1.91513e-05 0.000413013 2.09678e-08
5.84923e-08 2.09678e-08 0.000498185

0.000357274 3.17798e-05 2.05011e-08
3.17798e-05 0.000492064 -1.72435e-07
2.05011e-08 -1.72435e-07 0.000396829

0.000375823 2.42111e-05 8.52417e-09
2.42111e-05 0.000480104 9.06227e-08
8.52417e-09 9.06227e-08 0.000393395

0.000480131 1.87487e-05 6.09716e-08
1.87487e-05 0.000365689 -7.36796e-09
6.09716e-08 -7.36796e-09 0.000385884

0.000436009 7.46706e-05 -9.69468e-08
7.46706e-05 0.000521253 2.45702e-09
-9.69468e-08 2.45702e-09 0.000456294

0.000413472 -4.42563e-05 -1.16284e-07
-4.42563e-05 0.000523953 -7.26185e-08
-1.16284e-07 -7.26185e-08 0.000462729

0.000559102 4.31603e-05 8.39729e-08
4.31603e-05 0.000408027 -6.12444e-09
8.39729e-08 -6.12444e-09 0.000500889

0.000324769 5.05084e-05 -1.62359e-07
5.05084e-05 0.000398219 6.5877e-08
-1.62359e-07 6.5877e-08 0.000327729

0.000599057 -1.89656e-05 8.17094e-08
-1.89656e-05 0.000424781 -1.06611e-07
8.17094e-08 -1.06611e-07 0.000548702

0.000593001 1.31833e-05 1.34e-07
1.31833e-05 0.000608834 1.92788e-08
1.34e-07 1.92788e-08 0.000592284

0.000555761 -3.15478e-06 -3.77207e-08
-3.15478e-06 0.000663912 8.74535e-08
-3.77207e-08 8.74535e-08 0.000591237

0.000770968 7.59424e-05 -3.80667e-07
7.59424e-05 0.000639726 -6.32171e-08
-3.80667e-07 -6.32171e-08 0.000622408

0.000770046 -3.34738e-05 2.61455e-08
-3.34738e-05 0.000586912 1.42086e-08
2.61455e-08 1.42086e-08 0.000628429

0.00047374 -8.55822e-05 -9.89233e-08
-8.55822e-05 0.000513397 5.28261e-08
-9.89233e-08 5.28261e-08 0.000492331

0.000423457 -7.19328e-05 6.05324e-08
-7.19328e-05 0.000510288 -7.8227e-09
6.05324e-08 -7.8227e-09 0.000452509

0.000473167 -8.0293e-07 7.44978e-08
-8.0293e-07 0.000343969 -7.03374e-08
7.44978e-08 -7.03374e-08 0.000385632

0.000649643 4.65541e-05 2.38315e-08
4.65541e-05 0.000566869 -8.87644e-08
2.38315e-08 -8.87644e-08 0.000592138

0.00063783 -1.25138e-05 4.84427e-08
-1.25138e-05 0.000553551 9.3618e-08
4.84427e-08 9.3618e-08 0.00059214

0.000600799 -7.36058e-06 -9.1246e-08
-7.36058e-06 0.000425803 -1.14251e-07
-9.1246e-08 -1.14251e-07 0.000564221

0.000411833 -5.44005e-05 -4.58411e-08
-5.44005e-05 0.00049982 2.12877e-08
-4.58411e-08 2.12877e-08 0.000457393

0.000593748 1.075e-05 -2.78003e-08
1.075e-05 0.000409992 1.17367e-07
-2.78003e-08 1.17367e-07 0.000552054

0.000489409 -5.38105e-05 -6.57401e-08
-5.38105e-05 0.000430996 -4.26337e-08
-6.57401e-08 -4.26337e-08 0.000435959

0.000431363 7.87296e-05 -1.06254e-07
7.87296e-05 0.000483236 7.5355e-08
-1.06254e-07 7.5355e-08 0.000455508

0.000507344 5.87688e-05 1.0956e-07
5.87688e-05 0.000382664 -4.19399e-08
1.0956e-07 -4.19399e-08 0.000430031

0.000494902 -3.42122e-05 -5.78199e-08
-3.42122e-05 0.00038022 2.27485e-08
-5.78199e-08 2.27485e-08 0.000425466

0.000423465 6.62771e-05 -6.92064e-08
6.62771e-05 0.000519402 3.52949e-08
-6.92064e-08 3.52949e-08 0.000459813

0.000437436 -4.97219e-05 1e-07
-4.97219e-05 0.000593957 3.96806e-09
1e-07 3.96806e-09 0.000546141

0.000475218 8.84826e-05 1.18771e-07
8.84826e-05 0.00058477 2.93843e-08
1.18771e-07 2.93843e-08 0.00054042

0.000437263 -6.19407e-05 7.05383e-08
-6.19407e-05 0.000516387 2.28397e-09
7.05383e-08 2.28397e-09 0.000457618

0.000426973 8.20497e-05 -1.1393e-07
8.20497e-05 0.000516401 2.24483e-08
-1.1393e-07 2.24483e-08 0.000452362

0.000259403 -6.92287e-05 2.96685e-08
-6.92287e-05 0.000271303 5.7638e-08
2.96685e-08 5.7638e-08 0.000269564

0.000253003 7.89925e-05 6.61182e-08
7.89925e-05 0.000282146 -7.65283e-08
6.61182e-08 -7.65283e-08 0.000265449

0.000468039 6.8496e-05 -1.37448e-08
6.8496e-05 0.000620511 9.03606e-08
-1.37448e-08 9.03606e-08 0.000576423

0.000507457 -7.92125e-05 -1.92638e-08
-7.92125e-05 0.000598278 -7.39909e-08
-1.92638e-08 -7.39909e-08 0.000573848

0.000435963 7.46981e-05 -1.02605e-07
7.46981e-05 0.000549392 -1.34541e-07
-1.02605e-07 -1.34541e-07 0.000491259

0.000256485 2.50472e-05 6.87744e-08
2.50472e-05 0.000259597 -1.59347e-07
6.87744e-08 -1.59347e-07 0.000280616

0.000252409 -5.82859e-07 -2.0889e-08
-5.82859e-07 0.000277945 5.51989e-08
-2.0889e-08 5.51989e-08 0.000284002

0.000576336 -5.67152e-05 1.39406e-07
-5.67152e-05 0.000601264 1.31467e-07
1.39406e-07 1.31467e-07 0.000600189

0.000580857 2.79103e-05 -1.26547e-07
2.79103e-05 0.000618523 -6.00831e-08
-1.26547e-07 -6.00831e-08 0.000598152

0.000618601 -1.48979e-06 6.4848e-08
-1.48979e-06 0.000422957 1.86149e-08
6.4848e-08 1.86149e-08 0.000522784

0.000577432 -5.28181e-05 9.11402e-08
-5.28181e-05 0.000601835 -2.08204e-07
9.11402e-08 -2.08204e-07 0.000599482

0.000583885 1.93326e-05 -1.53745e-07
1.93326e-05 0.000589295 1.31328e-07
-1.53745e-07 1.31328e-07 0.00059801

0.000413665 -4.66351e-05 -1.29758e-07
-4.66351e-05 0.000553276 9.61525e-08
-1.29758e-07 9.61525e-08 0.000497448

0.000707074 7.11886e-05 -1.12086e-07
7.11886e-05 0.000626183 -3.24409e-08
-1.12086e-07 -3.24409e-08 0.000615503

0.00072388 -5.8773e-05 -2.88157e-07
-5.8773e-05 0.000571433 -3.40728e-08
-2.88157e-07 -3.40728e-08 0.000621454

0.000544769 -5.7014e-05 5.26584e-08
-5.7014e-05 0.00054175 -3.88005e-08
5.26584e-08 -3.88005e-08 0.000563165

0.000546865 4.3611e-05 -2.75267e-08
4.3611e-05 0.000550831 1.07946e-08
-2.75267e-08 1.07946e-08 0.00056077

0.000582812 4.43375e-06 7.61802e-08
4.43375e-06 0.000740158 -8.33798e-08
7.61802e-08 -8.33798e-08 0.000614689

0.000594573 3.43181e-05 -4.82098e-08
3.43181e-05 0.000668178 -1.18699e-07
-4.82098e-08 -1.18699e-07 0.000616975

0.000305578 2.34208e-05 9.93596e-08
2.34208e-05 0.000380691 5.88027e-08
9.93596e-08 5.88027e-08 0.000319975

0.000377561 2.41426e-05 -1.47295e-07
2.41426e-05 0.000308252 -2.05483e-08
-1.47295e-07 -2.05483e-08 0.000320264

0.000464224 7.10725e-05 -1.53434e-07
7.10725e-05 0.000577939 -2.78105e-08
-1.53434e-07 -2.78105e-08 0.000528849

0.000424334 -4.3799e-05 2.75834e-08
-4.3799e-05 0.000592031 1.936e-08
2.75834e-08 1.936e-08 0.000532888

0.000685055 -9.1952e-05 1.38437e-07
-9.1952e-05 0.000784982 1.04957e-07
1.38437e-07 1.04957e-07 0.000638887

0.000731763 5.50874e-05 1.05354e-06
5.50874e-05 0.000634817 5.96563e-07
1.05354e-06 5.96563e-07 0.000639703

0.000484029 7.54992e-05 -6.60068e-08
7.54992e-05 0.000439003 -1.52044e-07
-6.60068e-08 -1.52044e-07 0.000445802

0.000567384 2.90255e-05 1.04931e-07
2.90255e-05 0.000468664 8.21601e-08
1.04931e-07 8.21601e-08 0.000532005

0.000562917 -3.80933e-05 -3.71969e-08
-3.80933e-05 0.000466609 1.07475e-07
-3.71969e-08 1.07475e-07 0.000532701

0.000628682 -4.05827e-05 2.77221e-08
-4.05827e-05 0.000483907 2.24078e-09
2.77221e-08 2.24078e-09 0.000583072

0.000470806 1.71827e-05 7.41585e-08
1.71827e-05 0.000343818 -6.51679e-08
7.41585e-08 -6.51679e-08 0.000387474

0.000808517 5.55167e-06 -4.65344e-07
5.55167e-06 0.000614843 -2.13809e-07
-4.65344e-07 -2.13809e-07 0.000633373

0.000772723 -1.01091e-05 1.71027e-07
-1.01091e-05 0.000725257 -3.38802e-07
1.71027e-07 -3.38802e-07 0.000626893

0.000498954 9.02644e-05 1.0461e-08
9.02644e-05 0.00045361 -7.61688e-08
1.0461e-08 -7.61688e-08 0.00048359

0.000578954 2.37324e-05 5.72661e-08
2.37324e-05 0.000451347 4.17092e-08
5.72661e-08 4.17092e-08 0.000503069

0.000403455 7.37066e-05 1.26537e-07
7.37066e-05 0.000432106 1.06013e-07
1.26537e-07 1.06013e-07 0.000386725

0.000628076 -4.18121e-05 -1.94765e-07
-4.18121e-05 0.000759978 -1.74726e-08
-1.94765e-07 -1.74726e-08 0.000621989

0.00061839 2.59845e-05 2.4494e-07
2.59845e-05 0.000662715 -4.73911e-08
2.4494e-07 -4.73911e-08 0.000626225

0.000639001 7.61035e-05 -9.927e-09
7.61035e-05 0.000515892 6.26481e-08
-9.927e-09 6.26481e-08 0.000584376

0.000518469 -2.3797e-05 -8.46448e-08
-2.3797e-05 0.00057882 -3.85925e-08
-8.46448e-08 -3.85925e-08 0.000543334

0.000462952 1.69211e-05 5.8422e-08
1.69211e-05 0.000615162 -1.29472e-07
5.8422e-08 -1.29472e-07 0.00054543

0.00062143 -1.15243e-05 -2.01637e-08
-1.15243e-05 0.000435597 -4.84329e-08
-2.01637e-08 -4.84329e-08 0.000546891

0.000630624 8.52389e-06 1.36446e-08
8.52389e-06 0.000430999 -1.59754e-08
1.36446e-08 -1.59754e-08 0.000547311

0.000430848 -4.86359e-05 2.17924e-08
-4.86359e-05 0.000400943 4.12322e-08
2.17924e-08 4.12322e-08 0.000381575

0.00055954 2.51237e-06 -8.55323e-08
2.51237e-06 0.000401371 -5.13232e-08
-8.55323e-08 -5.13232e-08 0.000461993

0.000623957 9.82569e-06 3.86516e-08
9.82569e-06 0.000487858 1.41371e-07
3.86516e-08 1.41371e-07 0.000573133

0.000608423 -2.08091e-05 6.76289e-08
-2.08091e-05 0.000500223 5.43606e-08
6.76289e-08 5.43606e-08 0.000573856

0.000574255 -2.83198e-05 5.60915e-08
-2.83198e-05 0.000443198 3.15678e-08
5.60915e-08 3.15678e-08 0.000504036

0.000619424 -1.32812e-05 1.08138e-08
-1.32812e-05 0.000472301 1.1399e-07
1.08138e-08 1.1399e-07 0.000551637

0.000630087 5.61954e-06 -8.41551e-09
5.61954e-06 0.000472171 9.17366e-08
-8.41551e-09 9.17366e-08 0.000551647

0.000565881 5.9881e-05 1.03207e-07
5.9881e-05 0.00044678 2.96523e-08
1.03207e-07 2.96523e-08 0.000514019

0.000432214 -7.94098e-05 -4.58293e-08
-7.94098e-05 0.00042439 -3.952e-08
-4.58293e-08 -3.952e-08 0.000410749

0.000486844 0.000103456 -7.80317e-08
0.000103456 0.000587963 6.75854e-09
-7.80317e-08 6.75854e-09 0.000550025

0.000473661 -8.81733e-05 -1.20757e-07
-8.81733e-05 0.00055472 -2.72928e-09
-1.20757e-07 -2.72928e-09 0.000556853

0.000463593 -6.6114e-05 1.00751e-07
-6.6114e-05 0.000562869 2.55718e-09
1.00751e-07 2.55718e-09 0.00056344

0.000491402 0.000109148 6.17518e-08
0.000109148 0.000605247 -7.78943e-08
6.17518e-08 -7.78943e-08 0.000556332

0.000517627 3.8056e-05 -6.11823e-08
3.8056e-05 0.000375537 -6.41627e-08
-6.11823e-08 -6.41627e-08 0.000429371

0.000393145 -4.50646e-05 5.39081e-08
-4.50646e-05 0.000339492 1.30239e-07
5.39081e-08 1.30239e-07 0.000337423

0.000568603 8.62429e-05 1.63976e-07
8.62429e-05 0.000477969 -6.69279e-08
1.63976e-07 -6.69279e-08 0.000538616

0.000557159 -2.87619e-05 5.60051e-08
-2.87619e-05 0.000445642 -1.34474e-07
5.60051e-08 -1.34474e-07 0.000505051

0.000404706 -3.47378e-05 -5.61293e-08
-3.47378e-05 0.000332148 -9.97844e-08
-5.61293e-08 -9.97844e-08 0.000340452

0.000495303 -6.99503e-05 -5.2113e-08
-6.99503e-05 0.000452832 -5.34108e-08
-5.2113e-08 -5.34108e-08 0.000477884

0.000408766 8.58131e-07 3.79231e-09
8.58131e-07 0.0006131 -1.57858e-07
3.79231e-09 -1.57858e-07 0.00052751

0.000455733 1.08802e-05 1.05439e-08
1.08802e-05 0.000559721 -8.8057e-08
1.05439e-08 -8.8057e-08 0.000525085

0.000434213 9.00991e-05 -1.26691e-07
9.00991e-05 0.000436665 -1.22276e-07
-1.26691e-07 -1.22276e-07 0.000425079

0.000431206 -5.22015e-05 2.79784e-08
-5.22015e-05 0.000342697 -1.20583e-07
2.79784e-08 -1.20583e-07 0.00036621

0.00050879 9.6097e-05 -8.54046e-08
9.6097e-05 0.000537149 5.17168e-08
-8.54046e-08 5.17168e-08 0.000556774

0.000501861 -9.16148e-05 1.34137e-07
-9.16148e-05 0.000564419 -9.94007e-08
1.34137e-07 -9.94007e-08 0.000549395

0.000415471 -6.7776e-05 -5.05467e-08
-6.7776e-05 0.000471398 6.03242e-08
-5.05467e-08 6.03242e-08 0.000424925

0.000425289 -7.48158e-05 4.16169e-08
-7.48158e-05 0.000464581 1.20977e-07
4.16169e-08 1.20977e-07 0.000419749

0.000558024 6.97156e-05 1.42905e-07
6.97156e-05 0.000456438 -8.64241e-08
1.42905e-07 -8.64241e-08 0.000508471

0.000644608 4.27222e-05 1.30763e-08
4.27222e-05 0.000426959 -3.88496e-11
1.30763e-08 -3.88496e-11 0.000581952

0.000647757 -2.94883e-05 -1.81023e-07
-2.94883e-05 0.000408495 -2.95261e-09
-1.81023e-07 -2.95261e-09 0.000582615

0.000395359 5.557e-05 -2.05164e-08
5.557e-05 0.00051509 1.82667e-08
-2.05164e-08 1.82667e-08 0.00043453

0.000499786 8.52408e-05 -2.29755e-08
8.52408e-05 0.000483091 9.20862e-08
-2.29755e-08 9.20862e-08 0.000490037

0.000309969 7.74095e-06 1.54242e-07
7.74095e-06 0.000481047 -1.25752e-07
1.54242e-07 -1.25752e-07 0.000380121

0.000327123 4.54278e-06 -1.12589e-07
4.54278e-06 0.000472974 5.73598e-08
-1.12589e-07 5.73598e-08 0.00037685

0.000475778 3.68467e-06 5.08036e-08
3.68467e-06 0.000314895 -3.69186e-08
5.08036e-08 -3.69186e-08 0.00037183

0.000454212 -6.40355e-05 -1.27134e-07
-6.40355e-05 0.000409171 1.82109e-07
-1.27134e-07 1.82109e-07 0.000423762

0.000623618 -4.38154e-05 -4.89607e-07
-4.38154e-05 0.000706458 1.85544e-07
-4.89607e-07 1.85544e-07 0.000635544

0.000785151 2.42706e-05 6.44695e-07
2.42706e-05 0.000786094 2.48732e-07
6.44695e-07 2.48732e-07 0.000629923

0.00048586 7.66504e-05 -1.16139e-08
7.66504e-05 0.000387098 1.7381e-07
-1.16139e-08 1.7381e-07 0.000423594

0.000521289 -3.2099e-05 -6.32038e-08
-3.2099e-05 0.000376461 -3.53393e-08
-6.32038e-08 -3.53393e-08 0.000434846

0.000405426 5.38949e-05 -4.16163e-08
5.38949e-05 0.00032568 -5.20383e-08
-4.16163e-08 -5.20383e-08 0.000345538

0.000437496 -5.58753e-05 7.68605e-08
-5.58753e-05 0.000552451 -7.2817e-08
7.68605e-08 -7.2817e-08 0.000523463

0.000468524 0.000101461 1.14283e-07
0.000101461 0.00057139 4.40304e-08
1.14283e-07 4.40304e-08 0.000517196

0.000618594 -1.38332e-06 6.95292e-08
-1.38332e-06 0.000422066 -1.15218e-07
6.95292e-08 -1.15218e-07 0.0005223

0.000369013 5.12045e-05 1.29844e-07
5.12045e-05 0.000515446 1.02948e-07
1.29844e-07 1.02948e-07 0.000438133

0.000448364 -6.83644e-05 4.98758e-08
-6.83644e-05 0.000624703 -1.07753e-07
4.98758e-08 -1.07753e-07 0.000579437

0.000502756 9.53982e-05 8.00198e-09
9.53982e-05 0.000611495 3.86456e-08
8.00198e-09 3.86456e-08 0.000574597

0.000397847 6.01116e-05 -8.23849e-08
6.01116e-05 0.00043349 3.37147e-10
-8.23849e-08 3.37147e-10 0.000380278

0.000421992 6.35483e-05 -4.89856e-08
6.35483e-05 0.000410763 -2.76589e-08
-4.89856e-08 -2.76589e-08 0.000375629

0.000408829 4.85839e-05 -5.56414e-08
4.85839e-05 0.000328532 -1.2425e-08
-5.56414e-08 -1.2425e-08 0.000347327

0.000485363 0.000104845 -9.34073e-08
0.000104845 0.000617151 -4.85875e-08
-9.34073e-08 -4.85875e-08 0.00055858

0.00046768 -7.60062e-05 -8.33513e-08
-7.60062e-05 0.000544459 -1.37038e-07
-8.33513e-08 -1.37038e-07 0.000566468

0.000656862 2.99519e-06 -7.81146e-08
2.99519e-06 0.000425676 -7.76984e-10
-7.81146e-08 -7.76984e-10 0.000559369

0.000492292 7.21149e-05 -7.89021e-08
7.21149e-05 0.000541584 7.12067e-08
-7.89021e-08 7.12067e-08 0.000565717

0.000495098 -8.90854e-05 7.36851e-08
-8.90854e-05 0.000598446 6.06818e-08
7.36851e-08 6.06818e-08 0.000559737

0.000492052 8.73402e-05 -3.48589e-08
8.73402e-05 0.000509448 7.3143e-08
-3.48589e-08 7.3143e-08 0.000518471

0.000360089 -1.90058e-05 -6.24616e-08
-1.90058e-05 0.000495319 -9.35134e-09
-6.24616e-08 -9.35134e-09 0.00040339

0.000381121 -2.52109e-05 6.02792e-08
-2.52109e-05 0.00048935 -4.10887e-08
6.02792e-08 -4.10887e-08 0.000400366

0.000481417 -1.52054e-05 7.27919e-08
-1.52054e-05 0.000369504 -8.33118e-08
7.27919e-08 -8.33118e-08 0.000395021

0.000452825 -5.3006e-05 -1.15736e-07
-5.3006e-05 0.000451958 -1.90787e-08
-1.15736e-07 -1.90787e-08 0.000439155

0.000455936 9.13682e-06 7.17192e-09
9.13682e-06 0.000547753 -2.02348e-08
7.17192e-09 -2.02348e-08 0.000480029

0.000409152 3.69291e-06 1.89693e-08
3.69291e-06 0.00057128 1.46951e-07
1.89693e-08 1.46951e-07 0.000483015

0.00036514 -5.98539e-05 1.61604e-07
-5.98539e-05 0.000424474 -1.65542e-07
1.61604e-07 -1.65542e-07 0.000364047

0.000363328 -5.6204e-05 -2.28552e-08
-5.6204e-05 0.000412306 1.72401e-08
-2.28552e-08 1.72401e-08 0.000365664

0.000661641 -3.44044e-06 -7.85865e-08
-3.44044e-06 0.000434204 -6.15491e-11
-7.85865e-08 -6.15491e-11 0.000560289

0.000652623 3.7374e-06 -1.1626e-07
3.7374e-06 0.000439658 -6.36972e-08
-1.1626e-07 -6.36972e-08 0.000559965

0.000466113 -7.0367e-05 2.08336e-08
-7.0367e-05 0.000534296 -9.73272e-08
2.08336e-08 -9.73272e-08 0.000531066

0.000473324 9.19613e-05 3.09362e-08
9.19613e-05 0.000578634 7.96578e-08
3.09362e-08 7.96578e-08 0.000524556

0.000450123 5.97176e-05 -9.85612e-08
5.97176e-05 0.000616525 6.0061e-08
-9.85612e-08 6.0061e-08 0.000577735

0.000502843 -8.71907e-05 7.94794e-09
-8.71907e-05 0.000604391 -8.34624e-08
7.94794e-09 -8.34624e-08 0.000573623

0.000523409 -6.94235e-05 2.05974e-07
-6.94235e-05 0.000512681 2.07147e-08
2.05974e-07 2.07147e-08 0.00053457

0.000369751 -3.67049e-05 -3.57186e-08
-3.67049e-05 0.00052334 -7.63996e-08
-3.57186e-08 -7.63996e-08 0.000440031

0.000589504 1.12868e-05 -2.30574e-07
1.12868e-05 0.00055241 1.58347e-08
-2.30574e-07 1.58347e-08 0.000579357

0.000579715 -3.49634e-05 -2.01638e-08
-3.49634e-05 0.00054302 -4.09475e-08
-2.01638e-08 -4.09475e-08 0.000580944

0.000513848 -5.37787e-05 9.4656e-08
-5.37787e-05 0.00047234 -7.55947e-08
9.4656e-08 -7.55947e-08 0.000491958

0.000561281 -4.59176e-05 -4.14885e-08
-4.59176e-05 0.000501188 5.8481e-08
-4.14885e-08 5.8481e-08 0.000538781

0.000565342 3.87806e-05 9.97769e-08
3.87806e-05 0.000520996 1.42667e-07
9.97769e-08 1.42667e-07 0.000536408

0.000255017 -2.1225e-05 1.23473e-07
-2.1225e-05 0.000179681 -3.61649e-08
1.23473e-07 -3.61649e-08 0.000283761

0.000428614 9.09069e-05 -1.18457e-07
9.09069e-05 0.000464253 -3.73602e-08
-1.18457e-07 -3.73602e-08 0.000421762

0.000201289 4.35988e-05 6.69809e-08
4.35988e-05 0.00025981 -7.57752e-08
6.69809e-08 -7.57752e-08 0.000281986

0.000395955 -4.90383e-05 4.19439e-08
-4.90383e-05 0.000513646 6.16541e-09
4.19439e-08 6.16541e-09 0.000436634

0.000614332 -4.80004e-05 -1.22628e-07
-4.80004e-05 0.000667209 -2.83192e-07
-1.22628e-07 -2.83192e-07 0.000623172

0.000647284 1.93127e-05 -8.13496e-08
1.93127e-05 0.000626725 -1.8076e-07
-8.13496e-08 -1.8076e-07 0.000622643

0.00051576 5.90327e-05 -1.25889e-07
5.90327e-05 0.000491755 -1.69071e-07
-1.25889e-07 -1.69071e-07 0.000488602

0.000559587 -3.27871e-06 -8.55443e-08
-3.27871e-06 0.000397054 -4.83735e-08
-8.55443e-08 -4.83735e-08 0.000462672

0.000464227 7.40534e-05 1.22933e-07
7.40534e-05 0.000407294 8.03392e-08
1.22933e-07 8.03392e-08 0.000417775

0.000426942 3.54799e-05 -9.92676e-08
3.54799e-05 0.000605603 -5.02646e-08
-9.92676e-08 -5.02646e-08 0.000532624

0.000467274 -4.93703e-05 1.39382e-08
-4.93703e-05 0.000566046 1.08781e-08
1.39382e-08 1.08781e-08 0.000529422

0.000568575 8.17517e-05 -1.04558e-07
8.17517e-05 0.000612998 4.60067e-08
-1.04558e-07 4.60067e-08 0.000590343

0.000562022 -4.52667e-05 6.82498e-08
-4.52667e-05 0.000627238 -1.06553e-07
6.82498e-08 -1.06553e-07 0.000591333

0.000481739 0.000111296 -6.87588e-08
0.000111296 0.000605715 -8.97203e-08
-6.87588e-08 -8.97203e-08 0.000556718

0.000422952 -0.000105623 5.36575e-09
-0.000105623 0.00057038 1.1219e-08
5.36575e-09 1.1219e-08 0.000565511

0.000421385 5.76601e-05 -8.42142e-08
5.76601e-05 0.000548577 -1.10684e-07
-8.42142e-08 -1.10684e-07 0.000496991

0.000411274 2.92082e-05 -9.95863e-09
2.92082e-05 0.000539116 -1.09502e-08
-9.95863e-09 -1.09502e-08 0.000467138

0.000507003 -6.49859e-05 -5.7843e-08
-6.49859e-05 0.000496803 5.61114e-08
-5.7843e-08 5.61114e-08 0.000520371

0.000507438 6.81668e-05 2.16126e-07
6.81668e-05 0.00051369 1.25789e-07
2.16126e-07 1.25789e-07 0.000517022

0.00046338 6.98954e-05 9.86777e-08
6.98954e-05 0.000468326 -2.76748e-07
9.86777e-08 -2.76748e-07 0.000436735

0.000437778 -6.80619e-05 6.84928e-08
-6.80619e-05 0.000545044 4.55839e-08
6.84928e-08 4.55839e-08 0.000493644

0.00038322 -1.2389e-05 6.48476e-08
-1.2389e-05 0.000561884 1.68553e-07
6.48476e-08 1.68553e-07 0.000471726

0.000300557 4.9046e-05 1.20326e-07
4.9046e-05 0.000334197 -1.34145e-07
1.20326e-07 -1.34145e-07 0.000296439

0.000329891 5.04953e-05 1.94314e-08
5.04953e-05 0.000303729 -3.61821e-08
1.94314e-08 -3.61821e-08 0.000296881

0.000394654 -5.94629e-05 1.509e-07
-5.94629e-05 0.000414552 -1.71893e-07
1.509e-07 -1.71893e-07 0.000372215

0.00057479 -2.19972e-05 5.01403e-08
-2.19972e-05 0.000412917 -1.22164e-07
5.01403e-08 -1.22164e-07 0.000498381

0.000680889 -7.48467e-05 7.07833e-08
-7.48467e-05 0.00072678 2.67782e-07
7.07833e-08 2.67782e-07 0.00063693

0.000749714 7.71898e-05 7.60052e-07
7.71898e-05 0.000637227 -1.09799e-07
7.60052e-07 -1.09799e-07 0.000637172

0.000644948 7.51146e-05 1.30871e-07
7.51146e-05 0.00064491 4.39496e-08
1.30871e-07 4.39496e-08 0.000610469

0.000628648 -2.01639e-05 1.28685e-07
-2.01639e-05 0.000588113 -8.94968e-09
1.28685e-07 -8.94968e-09 0.000614742

0.000570865 -1.05072e-06 -6.2652e-08
-1.05072e-06 0.00042142 6.21393e-08
-6.2652e-08 6.21393e-08 0.000522602

0.000485321 -9.89406e-05 2.20391e-08
-9.89406e-05 0.000592879 -2.58953e-08
2.20391e-08 -2.58953e-08 0.000556924

0.000438933 0.000103154 4.28194e-08
0.000103154 0.000565456 -1.07497e-07
4.28194e-08 -1.07497e-07 0.000563617

0.000317682 -4.83081e-05 -2.11814e-07
-4.83081e-05 0.000340702 8.3282e-08
-2.11814e-07 8.3282e-08 0.000309257

0.000325486 6.16574e-05 -1.21196e-07
6.16574e-05 0.000326425 -5.5207e-08
-1.21196e-07 -5.5207e-08 0.00031303

0.000300298 -2.2123e-05 -5.2595e-08
-2.2123e-05 0.000400801 4.31775e-08
-5.2595e-08 4.31775e-08 0.00033149

0.000320754 -2.74987e-05 -2.01632e-07
-2.74987e-05 0.000404533 2.03329e-07
-2.01632e-07 2.03329e-07 0.000333772

0.000405154 -1.92955e-05 3.0332e-09
-1.92955e-05 0.000303656 -9.68327e-08
3.0332e-09 -9.68327e-08 0.000329274

0.000406371 7.29795e-05 1.00032e-07
7.29795e-05 0.000393027 2.09883e-07
1.00032e-07 2.09883e-07 0.000379248

0.000262797 2.1842e-05 1.49702e-07
2.1842e-05 0.000386447 1.61877e-07
1.49702e-07 1.61877e-07 0.000312899

0.000379976 5.34251e-06 -8.59567e-08
5.34251e-06 0.000267919 -4.63053e-08
-8.59567e-08 -4.63053e-08 0.000312803

0.000580835 -8.40446e-06 6.86903e-08
-8.40446e-06 0.000696119 8.48743e-08
6.86903e-08 8.48743e-08 0.000607652

0.000591293 -3.17018e-05 -4.85684e-08
-3.17018e-05 0.000632696 2.27344e-08
-4.85684e-08 2.27344e-08 0.000609468

0.000591828 -2.48387e-05 5.16846e-08
-2.48387e-05 0.000487346 -2.05814e-08
5.16846e-08 -2.05814e-08 0.000550601

0.000619881 1.11097e-05 -1.65798e-08
1.11097e-05 0.000370944 1.03806e-07
-1.65798e-08 1.03806e-07 0.000564986

0.000361996 -4.86173e-05 1.36209e-07
-4.86173e-05 0.000460711 5.04168e-08
1.36209e-07 5.04168e-08 0.000388591

0.000357618 -3.46487e-05 -2.50221e-08
-3.46487e-05 0.000461205 3.57667e-08
-2.50221e-08 3.57667e-08 0.000393619

0.000580351 2.32174e-05 -5.43543e-08
2.32174e-05 0.000426302 1.03746e-07
-5.43543e-08 1.03746e-07 0.000525188

0.000606437 -2.32917e-05 -1.1916e-07
-2.32917e-05 0.000619937 -2.87274e-07
-1.1916e-07 -2.87274e-07 0.000611223

0.000635597 -2.9446e-07 1.02157e-07
-2.9446e-07 0.000596743 3.54961e-08
1.02157e-07 3.54961e-08 0.000610369

0.00054819 -4.90537e-05 7.49423e-08
-4.90537e-05 0.000528879 -6.75502e-08
7.49423e-08 -6.75502e-08 0.000543527

0.000493944 8.15742e-05 -3.67665e-08
8.15742e-05 0.000525068 8.08934e-08
-3.67665e-08 8.08934e-08 0.000529917

0.000473661 -8.50737e-05 -9.76072e-08
-8.50737e-05 0.000564511 9.71115e-09
-9.76072e-08 9.71115e-09 0.000522441

0.000591627 -2.13864e-05 5.74626e-08
-2.13864e-05 0.00042941 -1.35213e-07
5.74626e-08 -1.35213e-07 0.000539632

0.000452882 6.74809e-05 9.40905e-08
6.74809e-05 0.000545608 2.29327e-08
9.40905e-08 2.29327e-08 0.000523933

0.000473349 -8.98821e-05 8.0349e-09
-8.98821e-05 0.000558316 7.9254e-08
8.0349e-09 7.9254e-08 0.000518645

0.000248121 -9.98928e-05 -2.55581e-08
-9.98928e-05 0.000255503 1.41045e-07
-2.55581e-08 1.41045e-07 0.000260334

0.000384928 2.17574e-05 1.3138e-07
2.17574e-05 0.000560266 9.89215e-08
1.3138e-07 9.89215e-08 0.000469354

0.00041894 -1.99584e-05 3.41368e-08
-1.99584e-05 0.000531846 -1.07362e-08
3.41368e-08 -1.07362e-08 0.000467144

0.000558412 1.10959e-05 -8.0815e-08
1.10959e-05 0.000739893 -1.65215e-07
-8.0815e-08 -1.65215e-07 0.000610498

0.000597442 -1.38249e-06 1.63403e-07
-1.38249e-06 0.000626964 -1.53105e-07
1.63403e-07 -1.53105e-07 0.000613416

0.000648667 -4.1603e-06 -7.14034e-08
-4.1603e-06 0.000467044 -1.223e-07
-7.14034e-08 -1.223e-07 0.000578276

0.000664169 6.65382e-06 3.00604e-09
6.65382e-06 0.000456224 1.06293e-07
3.00604e-09 1.06293e-07 0.000578294

0.000591034 9.69416e-05 -1.20388e-07
9.69416e-05 0.000542892 -4.76253e-08
-1.20388e-07 -4.76253e-08 0.000575135

0.000569584 -5.5258e-05 -1.22583e-07
-5.5258e-05 0.000530039 2.38739e-08
-1.22583e-07 2.38739e-08 0.000572569

0.000665687 3.46919e-05 1.22213e-07
3.46919e-05 0.000613642 8.07679e-08
1.22213e-07 8.07679e-08 0.000605345

0.000627038 -1.96475e-05 1.43335e-07
-1.96475e-05 0.0006222 5.39387e-08
1.43335e-07 5.39387e-08 0.000608346

0.000680884 4.04453e-05 -9.45686e-08
4.04453e-05 0.000641761 -5.9805e-08
-9.45686e-08 -5.9805e-08 0.000632612

0.000668174 -0.000115407 1.01435e-08
-0.000115407 0.000722078 2.64234e-07
1.01435e-08 2.64234e-07 0.000632516

0.000510116 0.000100947 -1.3563e-08
0.000100947 0.000614276 -3.11833e-08
-1.3563e-08 -3.11833e-08 0.000576929

0.000481295 -0.000124804 -8.43776e-09
-0.000124804 0.00056509 -1.53374e-07
-8.43776e-09 -1.53374e-07 0.000583495

0.000520288 5.39366e-05 -1.79853e-07
5.39366e-05 0.00044347 7.80355e-08
-1.79853e-07 7.80355e-08 0.000479052

0.00042558 4.31108e-05 -9.11088e-08
4.31108e-05 0.000565057 -1.06395e-07
-9.11088e-08 -1.06395e-07 0.000501043

0.000470012 -6.97261e-05 -2.55237e-08
-6.97261e-05 0.000468027 -9.71685e-08
-2.55237e-08 -9.71685e-08 0.00047387

0.00046632 -5.36248e-05 1.37621e-08
-5.36248e-05 0.000551707 9.70647e-09
1.37621e-08 9.70647e-09 0.000498287

0.000516772 -5.02491e-05 1.18765e-07
-5.02491e-05 0.000437726 4.1416e-08
1.18765e-07 4.1416e-08 0.000481703

0.000463851 5.96305e-05 -1.54584e-07
5.96305e-05 0.000556698 -9.74649e-08
-1.54584e-07 -9.74649e-08 0.000496597

0.000478955 8.52946e-05 1.62913e-07
8.52946e-05 0.000483143 -2.23649e-07
1.62913e-07 -2.23649e-07 0.000470056

0.000516599 0.000111868 1.21918e-07
0.000111868 0.000564861 1.36491e-07
1.21918e-07 1.36491e-07 0.000581174

0.000522597 -8.33116e-05 -1.03597e-07
-8.33116e-05 0.000593607 1.06625e-07
-1.03597e-07 1.06625e-07 0.000577984

0.000606649 5.1512e-05 -6.09472e-08
5.1512e-05 0.000498201 1.4885e-08
-6.09472e-08 1.4885e-08 0.000557431

0.000785407 3.5952e-05 -2.14708e-07
3.5952e-05 0.000764413 -3.63106e-08
-2.14708e-07 -3.63106e-08 0.000628788

0.000638286 3.58582e-05 -4.0777e-08
3.58582e-05 0.000664692 3.28875e-07
-4.0777e-08 3.28875e-07 0.000634814

0.000547991 -5.24292e-05 7.90048e-08
-5.24292e-05 0.000473344 -1.09532e-08
7.90048e-08 -1.09532e-08 0.000530627

0.000656743 3.44799e-06 -2.19609e-07
3.44799e-06 0.000513945 -9.40767e-08
-2.19609e-07 -9.40767e-08 0.000598029

0.000305517 -4.36265e-05 -2.3102e-08
-4.36265e-05 0.000339179 -2.36598e-07
-2.3102e-08 -2.36598e-07 0.000302319

0.000339878 -3.61523e-05 8.91986e-08
-3.61523e-05 0.000302468 -9.3552e-08
8.91986e-08 -9.3552e-08 0.00030304

0.000640935 4.08331e-06 7.08396e-08
4.08331e-06 0.000499434 5.43109e-08
7.08396e-08 5.43109e-08 0.000587422

0.000664206 -6.19335e-06 -2.44943e-08
-6.19335e-06 0.000486397 1.38643e-07
-2.44943e-08 1.38643e-07 0.000586802

0.000652024 1.03205e-05 -4.62285e-09
1.03205e-05 0.00056202 6.07196e-08
-4.62285e-09 6.07196e-08 0.000595163

0.000424103 -3.18276e-05 2.5847e-08
-3.18276e-05 0.00056815 1.97627e-07
2.5847e-08 1.97627e-07 0.000501955

0.000517817 4.20305e-05 -5.40831e-08
4.20305e-05 0.000426283 1.76862e-07
-5.40831e-08 1.76862e-07 0.000441547

0.000542627 -6.52521e-05 4.21625e-08
-6.52521e-05 0.00054651 -1.22462e-07
4.21625e-08 -1.22462e-07 0.000566725

0.000543723 5.40594e-05 -5.45926e-09
5.40594e-05 0.000583638 -1.64925e-07
-5.45926e-09 -1.64925e-07 0.000563266

0.000741748 5.64944e-06 -2.70017e-07
5.64944e-06 0.000805642 5.77658e-07
-2.70017e-07 5.77658e-07 0.00062924

0.000739775 6.08103e-05 1.64225e-08
6.08103e-05 0.000600066 7.54486e-08
1.64225e-08 7.54486e-08 0.000635725

0.000541755 -4.13321e-05 1.05552e-07
-4.13321e-05 0.00045987 -3.15695e-08
1.05552e-07 -3.15695e-08 0.000500165

0.000624494 -1.70247e-06 4.90906e-08
-1.70247e-06 0.000540355 -2.82214e-07
4.90906e-08 -2.82214e-07 0.000582613

0.000608678 -1.45339e-05 6.76095e-08
-1.45339e-05 0.00055346 5.34647e-08
6.76095e-08 5.34647e-08 0.000583658

0.000508357 -7.42492e-05 -1.11214e-08
-7.42492e-05 0.000580757 2.83827e-08
-1.11214e-08 2.83827e-08 0.000547667

0.000472379 3.85736e-05 -8.3368e-09
3.85736e-05 0.000587938 1.29619e-08
-8.3368e-09 1.29619e-08 0.000551396

0.000470618 7.04153e-05 3.11419e-08
7.04153e-05 0.00055355 -1.0946e-07
3.11419e-08 -1.0946e-07 0.000561505

0.000489199 -0.000100559 4.81948e-08
-0.000100559 0.000593206 -2.89659e-08
4.81948e-08 -2.89659e-08 0.000555515

0.000269868 0.000128316 -1.19013e-07
0.000128316 0.000258432 -3.00317e-08
-1.19013e-07 -3.00317e-08 0.000263923

0.000543803 7.33513e-05 1.50262e-07
7.33513e-05 0.000609108 7.89331e-08
1.50262e-07 7.89331e-08 0.000590174

0.000543281 -5.63586e-05 -1.41359e-07
-5.63586e-05 0.000616217 2.80511e-08
-1.41359e-07 2.80511e-08 0.000589786

0.000452506 6.65566e-05 1.01244e-07
6.65566e-05 0.000572083 -2.20539e-08
1.01244e-07 -2.20539e-08 0.000546756

0.000474501 -8.5079e-05 -1.33276e-09
-8.5079e-05 0.000577301 3.13571e-08
-1.33276e-09 3.13571e-08 0.000541534

0.000522138 -3.99928e-05 -7.8525e-08
-3.99928e-05 0.000417524 2.01657e-07
-7.8525e-08 2.01657e-07 0.000448222

0.000566412 7.23704e-05 1.79421e-07
7.23704e-05 0.000521182 1.50286e-07
1.79421e-07 1.50286e-07 0.000548559

0.00060071 7.82159e-05 -8.30691e-08
7.82159e-05 0.000544459 -1.90508e-07
-8.30691e-08 -1.90508e-07 0.000578294

0.00056782 -5.15328e-05 -1.27128e-07
-5.15328e-05 0.000567124 1.05302e-08
-1.27128e-07 1.05302e-08 0.000576611

0.000606578 4.90932e-05 -6.19026e-08
4.90932e-05 0.000432792 -3.28137e-08
-6.19026e-08 -3.28137e-08 0.000546639

0.000635482 9.49243e-06 4.08881e-08
9.49243e-06 0.00058037 2.03187e-07
4.08881e-08 2.03187e-07 0.000604612

0.0006584 -1.41586e-05 -7.58117e-08
-1.41586e-05 0.000550657 -1.16419e-07
-7.58117e-08 -1.16419e-07 0.000603881

0.000619098 1.69492e-05 3.12978e-08
1.69492e-05 0.0007229 2.55666e-07
3.12978e-08 2.55666e-07 0.000629955

0.000625002 -2.66592e-05 1.33654e-07
-2.66592e-05 0.000802709 3.17526e-07
1.33654e-07 3.17526e-07 0.000624809

0.000276743 -1.16772e-05 -2.24305e-09
-1.16772e-05 0.000201203 -2.06992e-07
-2.24305e-09 -2.06992e-07 0.000280934

0.000178492 -2.88956e-06 1.23707e-07
-2.88956e-06 0.00027998 1.38337e-07
1.23707e-07 1.38337e-07 0.000282235

0.000506685 8.40605e-05 7.19188e-09
8.40605e-05 0.000606534 -8.84726e-08
7.19188e-09 -8.84726e-08 0.00055772

0.000504563 -7.28675e-05 3.6709e-09
-7.28675e-05 0.000550349 1.36286e-07
3.6709e-09 1.36286e-07 0.000563309

0.000251187 4.52488e-05 -1.34272e-07
4.52488e-05 0.000246912 -1.64658e-07
-1.34272e-07 -1.64658e-07 0.000277868

0.000260174 5.80816e-05 4.35504e-08
5.80816e-05 0.000236978 -4.93567e-09
4.35504e-08 -4.93567e-09 0.000277597

0.000525106 -9.1518e-05 6.92337e-08
-9.1518e-05 0.000825065 2.66375e-07
6.92337e-08 2.66375e-07 0.000639168

0.000618302 6.84097e-05 1.69439e-07
6.84097e-05 0.000761641 4.26769e-07
1.69439e-07 4.26769e-07 0.000639007

0.000546554 8.82846e-05 2.23813e-07
8.82846e-05 0.000508514 1.11789e-07
2.23813e-07 1.11789e-07 0.000540853

0.000506531 8.04119e-05 -4.84987e-09
8.04119e-05 0.000566288 -1.65239e-07
-4.84987e-09 -1.65239e-07 0.000548373

0.000507463 -8.12553e-05 4.40885e-08
-8.12553e-05 0.000539376 -1.21458e-07
4.40885e-08 -1.21458e-07 0.000552978

0.000472086 8.17741e-05 5.73592e-09
8.17741e-05 0.000514927 4.33595e-08
5.73592e-09 4.33595e-08 0.000482354

0.000464404 -6.47611e-05 3.49344e-08
-6.47611e-05 0.000501838 7.11063e-09
3.49344e-08 7.11063e-09 0.000486827

0.000305811 -1.03274e-05 1.98455e-07
-1.03274e-05 0.000406778 1.11069e-07
1.98455e-07 1.11069e-07 0.000336177

0.000319366 -2.05602e-05 -7.80591e-08
-2.05602e-05 0.000405949 2.15812e-07
-7.80591e-08 2.15812e-07 0.000334801

0.000408373 -8.7554e-06 1.20047e-08
-8.7554e-06 0.000312748 -4.22565e-08
1.20047e-08 -4.22565e-08 0.000332242

0.000473827 9.3807e-05 3.08426e-08
9.3807e-05 0.000546443 8.01349e-08
3.08426e-08 8.01349e-08 0.000510369

0.000465461 -7.31095e-05 3.89471e-08
-7.31095e-05 0.000523769 1.31043e-09
3.89471e-08 1.31043e-09 0.000515552

0.00028041 1.47518e-05 4.63621e-08
1.47518e-05 0.000379664 5.53347e-08
4.63621e-08 5.53347e-08 0.000310605

0.000377457 2.23591e-05 -1.37269e-07
2.23591e-05 0.000282104 8.59952e-08
-1.37269e-07 8.59952e-08 0.000310647

0.000534216 -9.27425e-05 -1.04423e-07
-9.27425e-05 0.000556922 1.57174e-07
-1.04423e-07 1.57174e-07 0.000582116

0.000530948 7.68918e-05 4.82211e-08
7.68918e-05 0.000602856 -8.0543e-08
4.82211e-08 -8.0543e-08 0.000577515

0.000537542 -8.18127e-05 -1.2733e-07
-8.18127e-05 0.000592729 7.77506e-08
-1.2733e-07 7.77506e-08 0.000585211

0.000539577 6.13792e-05 5.27336e-08
6.13792e-05 0.000606717 -9.61849e-08
5.27336e-08 -9.61849e-08 0.000581995

0.000236654 -3.75087e-05 7.1895e-09
-3.75087e-05 0.000244961 -2.12491e-07
7.1895e-09 -2.12491e-07 0.00027105

0.000236164 -3.86123e-05 1.30293e-07
-3.86123e-05 0.000245099 1.27706e-07
1.30293e-07 1.27706e-07 0.000272597

0.000505579 7.37305e-05 2.30215e-07
7.37305e-05 0.000557189 3.45838e-09
2.30215e-07 3.45838e-09 0.000526491

0.00050593 -6.8241e-05 -6.89269e-08
-6.8241e-05 0.00052149 -4.03704e-08
-6.89269e-08 -4.03704e-08 0.000531008

0.000612993 1.89916e-05 1.70128e-07
1.89916e-05 0.000699201 9.07816e-08
1.70128e-07 9.07816e-08 0.000614691

0.000612605 -1.06915e-05 -6.56698e-09
-1.06915e-05 0.000630177 2.02889e-08
-6.56698e-09 2.02889e-08 0.00061833

0.000501303 -8.53708e-05 2.52003e-08
-8.53708e-05 0.000616289 -4.83493e-08
2.52003e-08 -4.83493e-08 0.000592687

0.000520862 8.02405e-05 1.77404e-08
8.02405e-05 0.000638844 -1.28885e-07
1.77404e-08 -1.28885e-07 0.00058817

0.000608307 -1.81569e-05 -7.22209e-08
-1.81569e-05 0.000558128 1.40761e-07
-7.22209e-08 1.40761e-07 0.000603624

0.00063586 1.63116e-06 1.31503e-07
1.63116e-06 0.000540094 -2.30839e-07
1.31503e-07 -2.30839e-07 0.000602814

0.000528237 7.87128e-05 7.28791e-08
7.87128e-05 0.00054446 -1.92754e-07
7.28791e-08 -1.92754e-07 0.000560352

0.000522336 -7.71283e-05 2.13397e-07
-7.71283e-05 0.00056902 -1.69297e-09
2.13397e-07 -1.69297e-09 0.000554466

0.000680026 2.36474e-05 8.02864e-08
2.36474e-05 0.000594977 -1.55406e-10
8.02864e-08 -1.55406e-10 0.000620974

0.000674085 6.6592e-06 4.1578e-07
6.6592e-06 0.000631507 -3.1062e-07
4.1578e-07 -3.1062e-07 0.000632181

0.000642445 -2.08543e-05 2.45102e-07
-2.08543e-05 0.000621713 5.10899e-08
2.45102e-07 5.10899e-08 0.000621619

0.000599055 -3.11648e-06 -1.13572e-07
-3.11648e-06 0.0006917 -2.80829e-07
-1.13572e-07 -2.80829e-07 0.000632579

0.000584759 1.42563e-05 6.36448e-08
1.42563e-05 0.00076667 3.59487e-08
6.36448e-08 3.59487e-08 0.000618146

0.00070888 7.76848e-05 -3.42669e-08
7.76848e-05 0.000652299 -2.65596e-08
-3.42669e-08 -2.65596e-08 0.000617628

0.000663384 -3.03165e-05 3.6775e-08
-3.03165e-05 0.000619974 1.26135e-07
3.6775e-08 1.26135e-07 0.000622417

0.00058792 -1.86317e-05 -8.12261e-08
-1.86317e-05 0.000696377 3.39371e-07
-8.12261e-08 3.39371e-07 0.000621703

0.000618077 4.45651e-05 -7.31417e-07
4.45651e-05 0.000667921 -1.35408e-06
-7.31417e-07 -1.35408e-06 0.000627909

0.000920482 4.06623e-05 2.07343e-06
4.06623e-05 0.000548213 -1.76671e-07
2.07343e-06 -1.76671e-07 0.000640627

0.00082721 -1.782e-05 2.78558e-08
-1.782e-05 0.000815679 2.1119e-08
2.78558e-08 2.1119e-08 0.000639204

0.000646286 -0.000103513 2.72059e-08
-0.000103513 0.000731045 -7.89016e-08
2.72059e-08 -7.89016e-08 0.000627938

0.00064811 5.93299e-05 2.63738e-07
5.93299e-05 0.000643677 1.54368e-07
2.63738e-07 1.54368e-07 0.00062248

0.000583659 4.3186e-05 -1.2382e-07
4.3186e-05 0.000650559 -1.02271e-07
-1.2382e-07 -1.02271e-07 0.000607274

0.000668074 1.26249e-05 1.11618e-07
1.26249e-05 0.000648131 8.58819e-07
1.11618e-07 8.58819e-07 0.000635686

0.000677166 -9.81572e-05 3.34186e-08
-9.81572e-05 0.000643858 -8.83186e-08
3.34186e-08 -8.83186e-08 0.000623285

0.000665256 -0.000113177 6.08078e-08
-0.000113177 0.000760136 3.85118e-08
6.08078e-08 3.85118e-08 0.000634861

0.000591252 -5.50913e-05 -1.54072e-08
-5.50913e-05 0.000624496 -5.59855e-08
-1.54072e-08 -5.59855e-08 0.000609697

0.000597106 -9.21176e-05 -4.67801e-08
-9.21176e-05 0.000652923 3.28435e-07
-4.67801e-08 3.28435e-07 0.000614104

0.000611207 -6.12385e-05 -5.17327e-08
-6.12385e-05 0.000670789 3.26896e-07
-5.17327e-08 3.26896e-07 0.000625346

0.000582993 3.86262e-05 -1.19795e-07
3.86262e-05 0.000638805 -5.29393e-08
-1.19795e-07 -5.29393e-08 0.000612777

0.000646182 2.3148e-05 -9.53172e-08
2.3148e-05 0.000642317 -6.05635e-08
-9.53172e-08 -6.05635e-08 0.000624909

0.000440181 6.5524e-05 1.15267e-08
6.5524e-05 0.000501385 2.47109e-08
1.15267e-08 2.47109e-08 0.000460451

0.000503455 3.25438e-05 1.03953e-07
3.25438e-05 0.000589775 1.1829e-07
1.03953e-07 1.1829e-07 0.00054622

0.000487227 2.79749e-05 -2.60084e-10
2.79749e-05 0.000584419 -2.47714e-08
-2.60084e-10 -2.47714e-08 0.000548773

0.000562817 3.76885e-05 -9.85303e-08
3.76885e-05 0.000404179 -1.48018e-07
-9.85303e-08 -1.48018e-07 0.000493476

0.000540021 1.29492e-05 -1.3397e-08
1.29492e-05 0.000383852 -1.0116e-07
-1.3397e-08 -1.0116e-07 0.000457951

0.000505421 2.02433e-05 1.19984e-07
2.02433e-05 0.000609929 -6.81283e-08
1.19984e-07 -6.81283e-08 0.000579759

0.000483732 4.65836e-05 -6.4163e-09
4.65836e-05 0.00062441 4.68327e-08
-6.4163e-09 4.68327e-08 0.000582324

0.000547616 -1.49032e-05 -3.54272e-08
-1.49032e-05 0.000392679 5.68663e-08
-3.54272e-08 5.68663e-08 0.000461379

0.000597479 -2.97255e-05 8.27294e-08
-2.97255e-05 0.000459829 -9.54714e-08
8.27294e-08 -9.54714e-08 0.000559522

0.00035387 5.98431e-05 -1.19658e-09
5.98431e-05 0.000416049 -3.10383e-08
-1.19658e-09 -3.10383e-08 0.000367435

0.000349351 -5.96352e-05 -1.7081e-08
-5.96352e-05 0.000408383 -9.90971e-08
-1.7081e-08 -9.90971e-08 0.000360885

0.000432129 -5.44965e-05 -6.87369e-08
-5.44965e-05 0.00033214 -4.46553e-08
-6.87369e-08 -4.46553e-08 0.000359169

0.000545277 -5.60396e-05 2.31221e-08
-5.60396e-05 0.000616886 4.88472e-08
2.31221e-08 4.88472e-08 0.000593043

0.000572131 -3.87976e-05 -5.37393e-08
-3.87976e-05 0.000614273 -9.88957e-08
-5.37393e-08 -9.88957e-08 0.000590004

0.000440058 5.57648e-05 1.25876e-08
5.57648e-05 0.000523049 1.93846e-07
1.25876e-08 1.93846e-07 0.000496589

0.000459278 6.73546e-05 1.00216e-08
6.73546e-05 0.000566636 -9.51802e-08
1.00216e-08 -9.51802e-08 0.000547172

0.000484268 -4.34622e-05 6.23573e-09
-4.34622e-05 0.00062414 5.9112e-08
6.23573e-09 5.9112e-08 0.000579695

0.000497938 -1.27607e-05 -7.13666e-08
-1.27607e-05 0.000610159 -8.81213e-08
-7.13666e-08 -8.81213e-08 0.000578516

0.000586783 1.73688e-05 -1.6299e-08
1.73688e-05 0.00040577 6.47316e-08
-1.6299e-08 6.47316e-08 0.000497861

0.000377541 2.13693e-05 -7.34933e-08
2.13693e-05 0.000476221 1.09304e-07
-7.34933e-08 1.09304e-07 0.000396341

0.000375776 -1.76444e-05 1.63564e-09
-1.76444e-05 0.000472217 -6.31639e-08
1.63564e-09 -6.31639e-08 0.00039523

0.000491039 -1.48896e-05 -3.57295e-08
-1.48896e-05 0.000358722 -2.33914e-08
-3.57295e-08 -2.33914e-08 0.000386365

0.000446653 7.57897e-05 7.04184e-08
7.57897e-05 0.000470785 -4.03808e-08
7.04184e-08 -4.03808e-08 0.000457744

0.000513625 -5.03124e-05 -7.3709e-08
-5.03124e-05 0.000368108 4.00282e-08
-7.3709e-08 4.00282e-08 0.000430326

0.000508487 8.02438e-05 -2.59539e-08
8.02438e-05 0.000471082 -4.54203e-08
-2.59539e-08 -4.54203e-08 0.00049052

0.000432923 6.39134e-05 -3.5136e-08
6.39134e-05 0.000518135 7.45906e-08
-3.5136e-08 7.45906e-08 0.00045998

0.000567024 -3.1875e-05 -7.73865e-08
-3.1875e-05 0.000403132 7.36089e-08
-7.73865e-08 7.36089e-08 0.000499633

0.000343424 4.20444e-05 -7.13941e-08
4.20444e-05 0.000385955 -1.61098e-07
-7.13941e-08 -1.61098e-07 0.000327242

0.000602575 3.93138e-05 1.7836e-07
3.93138e-05 0.000440575 -1.2342e-07
1.7836e-07 -1.2342e-07 0.000546674

0.000397339 -3.64754e-05 -9.43392e-08
-3.64754e-05 0.000322893 -3.01027e-08
-9.43392e-08 -3.01027e-08 0.000322743

0.000571479 -1.37865e-05 -7.44745e-08
-1.37865e-05 0.000626404 7.45847e-09
-7.44745e-08 7.45847e-09 0.000593987

0.00056984 2.45805e-05 8.43652e-08
2.45805e-05 0.000628505 1.15461e-08
8.43652e-08 1.15461e-08 0.000594354

0.000768577 -7.53919e-05 1.35044e-07
-7.53919e-05 0.000640599 1.2474e-07
1.35044e-07 1.2474e-07 0.000622568

0.000770763 7.71954e-05 1.94322e-07
7.71954e-05 0.000639262 -9.43771e-08
1.94322e-07 -9.43771e-08 0.000622935

0.000481439 -2.01743e-05 2.75914e-08
-2.01743e-05 0.000345331 -1.31675e-08
2.75914e-08 -1.31675e-08 0.000385926

0.000502731 8.75459e-05 8.84838e-08
8.75459e-05 0.000496414 8.99635e-08
8.84838e-08 8.99635e-08 0.000518717

0.000651317 -4.50123e-05 1.54925e-07
-4.50123e-05 0.000564474 -9.73773e-08
1.54925e-07 -9.73773e-08 0.000592421

0.000647501 4.5229e-05 1.06655e-07
4.5229e-05 0.000560631 -5.93728e-08
1.06655e-07 -5.93728e-08 0.000589207

0.000599074 1.57894e-05 -8.75947e-08
1.57894e-05 0.000442659 -1.11678e-07
-8.75947e-08 -1.11678e-07 0.000561672

0.000423176 7.19436e-05 1.16033e-07
7.19436e-05 0.000514047 -1.26931e-07
1.16033e-07 -1.26931e-07 0.00045445

0.000509135 -6.25024e-05 -6.26425e-08
-6.25024e-05 0.000404492 1.13615e-07
-6.26425e-08 1.13615e-07 0.000442102

0.000594631 -4.09743e-06 7.12247e-08
-4.09743e-06 0.000419118 1.02018e-07
7.12247e-08 1.02018e-07 0.000550747

0.000441961 -7.56531e-05 -1.0099e-07
-7.56531e-05 0.00047026 2.18856e-08
-1.0099e-07 2.18856e-08 0.000454664

0.000439804 -6.21193e-05 -1.85648e-08
-6.21193e-05 0.000501812 1.10392e-07
-1.85648e-08 1.10392e-07 0.000460643

0.000471764 7.09427e-05 -9.41773e-08
7.09427e-05 0.000586472 1.15894e-07
-9.41773e-08 1.15894e-07 0.000541485

0.000463567 -8.68283e-05 -1.16297e-07
-8.68283e-05 0.000400635 1.08984e-07
-1.16297e-07 1.08984e-07 0.000415484

0.000285551 -6.57688e-05 1.06902e-08
-6.57688e-05 0.000247851 9.02923e-08
1.06902e-08 9.02923e-08 0.000268324

0.000277085 9.20474e-05 2.94518e-08
9.20474e-05 0.000264876 -3.38416e-08
2.94518e-08 -3.38416e-08 0.00026824

0.00047088 -8.43739e-05 1.83647e-09
-8.43739e-05 0.000606095 4.07884e-08
1.83647e-09 4.07884e-08 0.000579851

0.000286505 1.18434e-05 1.8691e-08
1.18434e-05 0.000246273 1.50628e-07
1.8691e-08 1.50628e-07 0.000282231

0.000264257 -2.19438e-05 1.18538e-07
-2.19438e-05 0.000252131 9.54983e-08
1.18538e-07 9.54983e-08 0.000283865

0.000582432 -1.94284e-05 -5.0596e-08
-1.94284e-05 0.00060713 -1.66981e-07
-5.0596e-08 -1.66981e-07 0.000597805

0.000584734 2.03771e-05 -6.13993e-08
2.03771e-05 0.000606258 1.98732e-07
-6.13993e-08 1.98732e-07 0.000598011

0.000631519 -1.27048e-06 1.65612e-07
-1.27048e-06 0.000413394 -8.11022e-10
1.65612e-07 -8.11022e-10 0.000522301

0.00058538 -1.10793e-05 -1.3817e-09
-1.10793e-05 0.000578623 1.79367e-07
-1.3817e-09 1.79367e-07 0.000597424

0.000587476 1.27171e-05 8.20403e-09
1.27171e-05 0.000578286 -2.91104e-07
8.20403e-09 -2.91104e-07 0.000597625

0.000433016 6.5837e-05 -4.06994e-08
6.5837e-05 0.000551693 4.90239e-09
-4.06994e-08 4.90239e-09 0.000494057

0.000707979 -7.0108e-05 -1.25112e-07
-7.0108e-05 0.000628087 -1.32328e-07
-1.25112e-07 -1.32328e-07 0.000615422

0.00070618 7.05765e-05 6.86571e-08
7.05765e-05 0.000627292 9.94595e-09
6.86571e-08 9.94595e-09 0.000615984

0.000550202 -3.54634e-05 -4.11024e-08
-3.54634e-05 0.000541402 1.64832e-07
-4.11024e-08 1.64832e-07 0.000560277

0.000549434 3.5649e-05 4.1311e-08
3.5649e-05 0.000541272 -7.51486e-08
4.1311e-08 -7.51486e-08 0.000560592

0.000427467 -5.99147e-05 1.36143e-07
-5.99147e-05 0.000319741 3.84481e-08
1.36143e-07 3.84481e-08 0.000355386

0.000558114 3.49379e-05 -6.00441e-08
3.49379e-05 0.00072475 4.24743e-08
-6.00441e-08 4.24743e-08 0.000619852

0.000604906 -6.33789e-06 -2.65226e-08
-6.33789e-06 0.000665541 6.59552e-08
-2.65226e-08 6.59552e-08 0.000617289

0.000425322 -7.25919e-05 5.40138e-08
-7.25919e-05 0.000515472 4.59209e-08
5.40138e-08 4.59209e-08 0.000456038

0.000310539 -1.81534e-05 -3.70353e-08
-1.81534e-05 0.000368452 -7.10434e-08
-3.70353e-08 -7.10434e-08 0.00032042

0.000383762 -1.88007e-05 5.34029e-08
-1.88007e-05 0.000284448 9.3258e-08
5.34029e-08 9.3258e-08 0.000318884

0.00045269 5.66644e-05 6.11883e-08
5.66644e-05 0.000581264 1.48915e-07
6.11883e-08 1.48915e-07 0.000530302

0.000450249 5.67511e-05 7.63652e-08
5.67511e-05 0.000562167 -7.96505e-08
7.63652e-08 -7.96505e-08 0.000534348

0.000741931 -5.71268e-05 2.36511e-07
-5.71268e-05 0.000603989 5.02495e-07
2.36511e-07 5.02495e-07 0.000638318

0.000739985 5.22826e-05 6.06616e-08
5.22826e-05 0.000615482 -6.28094e-07
6.06616e-08 -6.28094e-07 0.000638997

0.000471046 7.40922e-05 8.16444e-08
7.40922e-05 0.000551248 3.74153e-08
8.16444e-08 3.74153e-08 0.000564647

0.000571332 2.22917e-05 6.68271e-08
2.22917e-05 0.000459644 4.67562e-08
6.68271e-08 4.67562e-08 0.000532009

0.00057145 -2.37664e-05 1.27625e-07
-2.37664e-05 0.000457649 8.86539e-09
1.27625e-07 8.86539e-09 0.00053036

0.000510887 0.000100099 -1.02785e-07
0.000100099 0.000530722 -4.16731e-08
-1.02785e-07 -4.16731e-08 0.000556554

0.000501588 -6.7082e-05 -5.86037e-09
-6.7082e-05 0.00060294 -8.02002e-08
-5.86037e-09 -8.02002e-08 0.000574105

0.000476326 -1.03542e-06 4.54266e-08
-1.03542e-06 0.000325661 -1.36795e-07
4.54266e-08 -1.36795e-07 0.000381706

0.000568028 1.5529e-06 -9.05907e-09
1.5529e-06 0.0003942 6.8612e-08
-9.05907e-09 6.8612e-08 0.000461066

0.000513832 4.50346e-05 6.83758e-08
4.50346e-05 0.000369059 -1.22222e-07
6.83758e-08 -1.22222e-07 0.000422678

0.000637114 7.43941e-05 8.62368e-08
7.43941e-05 0.0005054 3.06673e-08
8.62368e-08 3.06673e-08 0.000579822

0.000777088 -1.09136e-05 1.52265e-07
-1.09136e-05 0.000719654 -7.48655e-08
1.52265e-07 -7.48655e-08 0.000627392

0.000775168 1.1273e-05 9.30761e-08
1.1273e-05 0.000725537 1.03776e-07
9.30761e-08 1.03776e-07 0.000626941

0.000422889 6.51447e-05 6.65382e-08
6.51447e-05 0.000414984 -3.57297e-08
6.65382e-08 -3.57297e-08 0.000386701

0.000512421 -8.3002e-05 -4.2554e-08
-8.3002e-05 0.000441651 9.38516e-08
-4.2554e-08 9.38516e-08 0.000481819

0.000583079 -2.05155e-05 5.81189e-08
-2.05155e-05 0.000444873 6.48329e-08
5.81189e-08 6.48329e-08 0.000501873

0.000600827 8.03095e-05 -8.37533e-09
8.03095e-05 0.000744296 5.50431e-08
-8.37533e-09 5.50431e-08 0.000627552

0.000629939 -2.11764e-05 1.26395e-07
-2.11764e-05 0.00065684 1.03153e-07
1.26395e-07 1.03153e-07 0.000626378

0.000641347 -7.25983e-05 1.95494e-07
-7.25983e-05 0.000517584 8.45879e-08
1.95494e-07 8.45879e-08 0.000584359

0.000487022 -2.09836e-05 -1.90259e-09
-2.09836e-05 0.000587699 -8.00239e-08
-1.90259e-09 -8.00239e-08 0.000547074

0.000496559 -2.25383e-05 -6.03144e-08
-2.25383e-05 0.000591303 5.70416e-08
-6.03144e-08 5.70416e-08 0.000545671

0.00063873 -5.84537e-06 -1.27805e-09
-5.84537e-06 0.000419343 3.79896e-08
-1.27805e-09 3.79896e-08 0.000544625

0.000640994 5.47004e-06 -3.72393e-08
5.47004e-06 0.000418125 -1.28424e-07
-3.72393e-08 -1.28424e-07 0.000546215

0.000438116 5.58306e-05 6.24423e-08
5.58306e-05 0.000402432 -3.99074e-08
6.24423e-08 -3.99074e-08 0.000380112

0.000630979 -4.24878e-06 4.39773e-08
-4.24878e-06 0.000474733 -6.75275e-08
4.39773e-08 -6.75275e-08 0.000571722

0.000630918 3.94595e-06 -9.3456e-08
3.94595e-06 0.000475806 3.0506e-08
-9.3456e-08 3.0506e-08 0.000572013

0.000586061 2.03214e-05 -9.35952e-09
2.03214e-05 0.000444206 -2.17132e-08
-9.35952e-09 -2.17132e-08 0.000502587

0.000434026 -6.4734e-05 7.02911e-08
-6.4734e-05 0.000521277 6.68792e-08
7.02911e-08 6.68792e-08 0.00046212

0.000638508 -2.26766e-06 -1.062e-08
-2.26766e-06 0.000462335 -1.03775e-08
-1.062e-08 -1.03775e-08 0.000549445

0.000640646 2.44964e-06 -7.0622e-08
2.44964e-06 0.000461707 5.47044e-08
-7.0622e-08 5.47044e-08 0.000551197

0.000574165 -4.90763e-05 -8.09305e-08
-4.90763e-05 0.000444236 8.1382e-08
-8.09305e-08 8.1382e-08 0.000513348

0.000486786 9.17023e-05 8.10127e-08
9.17023e-05 0.000581118 -1.57192e-07
8.10127e-08 -1.57192e-07 0.000550712

0.000493606 6.92488e-05 -3.4109e-08
6.92488e-05 0.000425213 8.08171e-09
-3.4109e-08 8.08171e-09 0.000442153

0.000494144 7.43401e-05 -1.15349e-07
7.43401e-05 0.00053852 -8.21433e-08
-1.15349e-07 -8.21433e-08 0.000566311

0.000490208 9.08859e-05 -1.36386e-07
9.08859e-05 0.000596148 3.63708e-08
-1.36386e-07 3.63708e-08 0.000557405

0.000523635 -3.52622e-05 3.35825e-08
-3.52622e-05 0.0003706 -5.54897e-08
3.35825e-08 -5.54897e-08 0.000429527

0.000575132 -8.16591e-05 -2.91025e-09
-8.16591e-05 0.000474798 2.40849e-08
-2.91025e-09 2.40849e-08 0.000538706

0.000566567 4.99824e-05 -3.03174e-08
4.99824e-05 0.000442634 2.7708e-08
-3.03174e-08 2.7708e-08 0.000503934

0.000447249 8.07759e-05 7.08332e-08
8.07759e-05 0.000423145 -3.1788e-08
7.08332e-08 -3.1788e-08 0.00042522

0.000508263 8.29867e-05 -3.01941e-08
8.29867e-05 0.000437763 1.11677e-08
-3.01941e-08 1.11677e-08 0.00047802

0.00043686 7.26778e-06 4.86617e-08
7.26778e-06 0.000576446 4.10199e-10
4.86617e-08 4.10199e-10 0.000527958

0.000439835 2.66091e-06 -1.40947e-07
2.66091e-06 0.000575867 -7.76629e-09
-1.40947e-07 -7.76629e-09 0.000527827

0.000438479 5.89856e-05 7.24228e-08
5.89856e-05 0.000338151 2.05172e-07
7.24228e-08 2.05172e-07 0.000364912

0.000512376 -9.98688e-05 3.05437e-08
-9.98688e-05 0.000531386 1.96544e-08
3.05437e-08 1.96544e-08 0.000558096

0.000428647 -7.92688e-05 5.85959e-08
-7.92688e-05 0.000467354 1.69991e-08
5.85959e-08 1.69991e-08 0.000423734

0.000425916 8.06559e-05 1.28628e-07
8.06559e-05 0.0004701 -2.24468e-08
1.28628e-07 -2.24468e-08 0.000422758

0.000564234 -6.00208e-05 -7.60817e-08
-6.00208e-05 0.000444012 9.20179e-08
-7.60817e-08 9.20179e-08 0.000508056

0.000644624 -3.93955e-05 -1.49858e-07
-3.93955e-05 0.000433279 1.33178e-07
-1.49858e-07 1.33178e-07 0.000581256

0.0006403 3.98716e-05 6.82287e-08
3.98716e-05 0.000439006 8.15072e-08
6.82287e-08 8.15072e-08 0.000579061

0.000393502 4.37789e-05 -1.34143e-07
4.37789e-05 0.000491332 -3.72291e-08
-1.34143e-07 -3.72291e-08 0.000436172

0.000510933 -8.33638e-05 -5.90825e-08
-8.33638e-05 0.000471085 1.62271e-08
-5.90825e-08 1.62271e-08 0.000489728

0.000328496 -3.60328e-06 -2.78884e-08
-3.60328e-06 0.000465182 1.24093e-07
-2.78884e-08 1.24093e-07 0.000379194

0.000327701 1.24581e-06 1.62171e-07
1.24581e-06 0.000465297 -1.09838e-07
1.62171e-07 -1.09838e-07 0.000378821

0.000483799 3.71294e-06 -1.70735e-08
3.71294e-06 0.000311612 -7.70893e-08
-1.70735e-08 -7.70893e-08 0.00037147

0.000431544 -5.81439e-05 -6.79532e-08
-5.81439e-05 0.000405546 -4.9826e-08
-6.79532e-08 -4.9826e-08 0.000377786

0.000460091 7.04252e-05 8.98771e-08
7.04252e-05 0.000410418 -1.4046e-08
8.98771e-08 -1.4046e-08 0.000421711

0.000667924 -0.000144693 -2.31522e-07
-0.000144693 0.000731358 2.16655e-07
-2.31522e-07 2.16655e-07 0.000635291

0.000704864 6.22236e-05 6.49442e-07
6.22236e-05 0.000745304 -1.53559e-07
6.49442e-07 -1.53559e-07 0.000636232

0.000526373 3.22753e-05 -8.53094e-08
3.22753e-05 0.000372728 1.11975e-07
-8.53094e-08 1.11975e-07 0.000432615

0.000463307 8.78452e-05 -5.67708e-08
8.78452e-05 0.000567432 -8.2396e-09
-5.67708e-08 -8.2396e-09 0.000518377

0.000631199 1.43338e-06 1.70802e-07
1.43338e-06 0.000412726 -8.77756e-08
1.70802e-07 -8.77756e-08 0.000520889

0.000392742 -4.23833e-05 -7.91801e-08
-4.23833e-05 0.000494312 1.28019e-07
-7.91801e-08 1.28019e-07 0.000437766

0.000445754 8.77188e-05 9.93287e-08
8.77188e-05 0.000611057 -9.23582e-10
9.93287e-08 -9.23582e-10 0.00058226

0.00050533 7.20124e-05 -5.92035e-08
7.20124e-05 0.000606902 -1.30979e-07
-5.92035e-08 -1.30979e-07 0.000575645

0.0004877 -9.12036e-05 7.72787e-08
-9.12036e-05 0.000580354 2.54762e-08
7.72787e-08 2.54762e-08 0.00055097

0.000485383 9.23873e-05 1.18879e-07
9.23873e-05 0.000604129 -2.12375e-08
1.18879e-07 -2.12375e-08 0.000559425

0.00046089 6.95619e-05 -5.22458e-08
6.95619e-05 0.000529824 1.2908e-07
-5.22458e-08 1.2908e-07 0.000524879

0.000672356 7.74676e-07 -1.06175e-07
7.74676e-07 0.000409883 2.12116e-08
-1.06175e-07 2.12116e-08 0.000556453

0.000462005 -6.98765e-05 -8.78216e-09
-6.98765e-05 0.000406557 -9.27012e-08
-8.78216e-09 -9.27012e-08 0.000418238

0.000494335 -7.4095e-05 4.10188e-08
-7.4095e-05 0.000538883 -1.17271e-08
4.10188e-08 -1.17271e-08 0.000567183

0.000459619 -6.00211e-05 -1.06341e-08
-6.00211e-05 0.000464985 -7.31174e-08
-1.06341e-08 -7.31174e-08 0.000436929

0.000407327 -5.78082e-05 1.52553e-07
-5.78082e-05 0.000408374 -8.79835e-08
1.52553e-07 -8.79835e-08 0.000377821

0.000501381 -8.60355e-05 2.75483e-08
-8.60355e-05 0.000499753 -1.11566e-07
2.75483e-08 -1.11566e-07 0.000519942

0.000380885 -3.54992e-05 5.25329e-08
-3.54992e-05 0.00048452 7.82958e-08
5.25329e-08 7.82958e-08 0.000403117

0.000380011 3.35934e-05 -8.24623e-08
3.35934e-05 0.000484955 -2.41246e-07
-8.24623e-08 -2.41246e-07 0.000402434

0.000486292 2.03988e-05 1.07716e-07
2.03988e-05 0.00036928 1.77276e-07
1.07716e-07 1.77276e-07 0.000393654

0.000458937 6.29185e-05 9.2139e-08
6.29185e-05 0.000464345 2.19785e-08
9.2139e-08 2.19785e-08 0.000436699

0.000439037 1.12933e-05 -1.45101e-07
1.12933e-05 0.000550799 7.57959e-08
-1.45101e-07 7.57959e-08 0.000482803

0.000437859 -2.10184e-06 5.30488e-08
-2.10184e-06 0.000549787 -8.77389e-08
5.30488e-08 -8.77389e-08 0.00048255

0.000374601 -6.79577e-05 2.97337e-08
-6.79577e-05 0.000409048 -3.48844e-09
2.97337e-08 -3.48844e-09 0.00036582

0.000375848 6.81413e-05 -5.95132e-08
6.81413e-05 0.000407189 2.56478e-08
-5.95132e-08 2.56478e-08 0.000364508

0.000673399 5.35197e-06 -1.0675e-07
5.35197e-06 0.000422127 2.02651e-08
-1.0675e-07 2.02651e-08 0.000557298

0.000675437 -5.18741e-06 -6.45788e-09
-5.18741e-06 0.000420991 -1.34502e-07
-6.45788e-09 -1.34502e-07 0.000557937

0.000471545 8.01967e-05 1.61217e-07
8.01967e-05 0.000572547 -1.036e-07
1.61217e-07 -1.036e-07 0.000525497

0.000436565 -7.77636e-05 -2.72077e-08
-7.77636e-05 0.000605751 5.11641e-08
-2.72077e-08 5.11641e-08 0.000581162

0.000551404 8.84656e-05 -1.76139e-09
8.84656e-05 0.000496278 8.31816e-08
-1.76139e-09 8.31816e-08 0.000538608

0.000418667 4.10355e-05 -6.78134e-08
4.10355e-05 0.000310195 -1.24966e-07
-6.78134e-08 -1.24966e-07 0.000343786

0.000390642 5.33571e-05 4.50257e-08
5.33571e-05 0.000517237 7.83529e-08
4.50257e-08 7.83529e-08 0.000438556

0.000593798 5.61315e-06 1.50088e-07
5.61315e-06 0.000542585 -7.75674e-08
1.50088e-07 -7.75674e-08 0.000578972

0.000592864 -4.90786e-06 7.32677e-09
-4.90786e-06 0.000543188 1.6628e-07
7.32677e-09 1.6628e-07 0.000578679

0.000518963 5.15649e-05 -1.28989e-07
5.15649e-05 0.000484866 -1.62349e-07
-1.28989e-07 -1.62349e-07 0.000488987

0.000569628 -3.1787e-05 1.26175e-07
-3.1787e-05 0.000513138 -7.75506e-09
1.26175e-07 -7.75506e-09 0.000535889

0.000569154 3.25503e-05 7.43958e-08
3.25503e-05 0.00051347 -4.07182e-08
7.43958e-08 -4.07182e-08 0.000536209

0.000269798 -3.21583e-05 -2.28204e-08
-3.21583e-05 0.000196383 1.23805e-07
-2.28204e-08 1.23805e-07 0.000283644

0.000177846 4.08165e-05 1.04179e-07
4.08165e-05 0.00025353 3.38858e-08
1.04179e-07 3.38858e-08 0.000281888

0.000388299 -5.22388e-05 5.5689e-08
-5.22388e-05 0.000518644 6.89592e-08
5.5689e-08 6.89592e-08 0.000439856

0.000652348 -1.17563e-05 1.63749e-07
-1.17563e-05 0.000613845 -1.71782e-07
1.63749e-07 -1.71782e-07 0.000621728

0.000651896 1.40005e-05 -6.36476e-08
1.40005e-05 0.000615103 -1.50046e-07
-6.36476e-08 -1.50046e-07 0.000621808

0.000423238 3.53386e-05 -8.06897e-08
3.53386e-05 0.000305526 -8.82529e-08
-8.06897e-08 -8.82529e-08 0.0003435

0.000446084 -4.3478e-05 4.96747e-08
-4.3478e-05 0.00057543 -5.41163e-08
4.96747e-08 -5.41163e-08 0.000534492

0.000456091 -4.27152e-05 -1.09412e-07
-4.27152e-05 0.000581249 3.31683e-08
-1.09412e-07 3.31683e-08 0.000531402

0.000444891 -8.51023e-05 -1.12172e-07
-8.51023e-05 0.00042816 1.13627e-07
-1.12172e-07 1.13627e-07 0.000420137

0.000485799 -9.23913e-05 8.96447e-08
-9.23913e-05 0.000603706 -1.08229e-08
8.96447e-08 -1.08229e-08 0.000559118

0.000437567 0.000110556 -1.73979e-07
0.000110556 0.000560209 7.59988e-09
-1.73979e-07 7.59988e-09 0.000565641

0.000572652 5.03969e-05 4.31442e-08
5.03969e-05 0.000609441 -1.37673e-07
4.31442e-08 -1.37673e-07 0.000591102

0.000547711 6.9252e-05 -4.85027e-08
6.9252e-05 0.000613037 8.7434e-09
-4.85027e-08 8.7434e-09 0.000595138

0.000471987 -8.12169e-05 -3.88691e-08
-8.12169e-05 0.000574036 9.42934e-08
-3.88691e-08 9.42934e-08 0.00052666

0.000503036 8.5168e-05 8.96398e-08
8.5168e-05 0.000514784 8.18963e-08
8.96398e-08 8.18963e-08 0.000531705

0.000518063 -5.24215e-05 -1.0644e-07
-5.24215e-05 0.000485828 3.46712e-08
-1.0644e-07 3.46712e-08 0.0004893

0.00049389 6.28421e-05 -2.46751e-08
6.28421e-05 0.000369707 4.56371e-08
-2.46751e-08 4.56371e-08 0.000417999

0.000567367 -1.93252e-06 -2.38492e-08
-1.93252e-06 0.000393983 -8.69238e-08
-2.38492e-08 -8.69238e-08 0.000461839

0.000482713 9.66735e-05 7.30262e-08
9.66735e-05 0.000597261 5.53872e-08
7.30262e-08 5.53872e-08 0.000557811

0.000439141 -5.84058e-05 -5.5734e-09
-5.84058e-05 0.000525519 -6.89094e-08
-5.5734e-09 -6.89094e-08 0.000498992

0.000403884 2.15318e-05 -1.56485e-07
2.15318e-05 0.000534145 2.59136e-08
-1.56485e-07 2.59136e-08 0.000469111

0.00050825 5.96826e-05 2.08497e-08
5.96826e-05 0.000506877 -3.29458e-08
2.08497e-08 -3.29458e-08 0.000517126

0.000408198 2.66525e-05 9.18957e-08
2.66525e-05 0.000543172 -3.58038e-08
9.18957e-08 -3.58038e-08 0.00047047

0.000508137 -7.48157e-05 6.83949e-09
-7.48157e-05 0.000607556 -8.46505e-08
6.83949e-09 -8.46505e-08 0.000573319

0.000307566 -4.20656e-05 -3.26048e-08
-4.20656e-05 0.000316714 -4.9638e-09
-3.26048e-08 -4.9638e-09 0.000296573

0.000342849 -4.19885e-05 6.49523e-08
-4.19885e-05 0.000280273 9.43948e-08
6.49523e-08 9.43948e-08 0.000295884

0.00058361 -1.68156e-05 4.73842e-08
-1.68156e-05 0.000405856 -1.28717e-07
4.73842e-08 -1.28717e-07 0.000497222

0.000506925 -5.97107e-05 -3.02466e-08
-5.97107e-05 0.000506379 -3.03498e-08
-3.02466e-08 -3.03498e-08 0.000516956

0.000758796 -7.9938e-05 3.99192e-07
-7.9938e-05 0.000616101 1.10959e-07
3.99192e-07 1.10959e-07 0.000636053

0.000758795 7.59793e-05 4.92482e-07
7.59793e-05 0.000620588 4.11194e-07
4.92482e-07 4.11194e-07 0.000636367

0.000465173 -8.69716e-05 2.17507e-08
-8.69716e-05 0.00057004 1.23894e-07
2.17507e-08 1.23894e-07 0.000521392

0.000647135 -7.52429e-05 -5.65984e-08
-7.52429e-05 0.000645867 1.64887e-07
-5.65984e-08 1.64887e-07 0.00061076

0.000643061 7.53739e-05 5.45865e-08
7.53739e-05 0.000644953 -1.25934e-07
5.45865e-08 -1.25934e-07 0.000610641

0.000576025 1.67436e-05 7.22619e-08
1.67436e-05 0.000424086 -2.47435e-07
7.22619e-08 -2.47435e-07 0.000520993

0.000435784 -0.000110572 3.5764e-08
-0.000110572 0.000557979 -1.94418e-08
3.5764e-08 -1.94418e-08 0.000565702

0.000327706 -5.01201e-05 1.24976e-07
-5.01201e-05 0.000323129 5.77064e-08
1.24976e-07 5.77064e-08 0.000308699

0.000346551 5.00897e-05 -8.33864e-08
5.00897e-05 0.000311198 -1.25689e-07
-8.33864e-08 -1.25689e-07 0.000312981

0.000324923 -3.67213e-05 1.39087e-07
-3.67213e-05 0.000395017 -1.08996e-07
1.39087e-07 -1.08996e-07 0.000333159

0.000313898 3.44443e-05 8.00018e-08
3.44443e-05 0.000395533 1.47322e-07
8.00018e-08 1.47322e-07 0.000330669

0.000404219 2.11911e-05 -2.60027e-07
2.11911e-05 0.000297752 -9.6949e-08
-2.60027e-07 -9.6949e-08 0.000327721

0.000481821 -9.73872e-05 5.0372e-08
-9.73872e-05 0.000597999 -7.49678e-08
5.0372e-08 -7.49678e-08 0.000557257

0.000278314 1.12338e-05 -6.103e-08
1.12338e-05 0.000373242 -1.57947e-07
-6.103e-08 -1.57947e-07 0.000313447

0.000387865 -1.19724e-05 -1.27896e-07
-1.19724e-05 0.000266638 8.57961e-08
-1.27896e-07 8.57961e-08 0.000309923

0.000555193 -3.08868e-05 -6.73883e-08
-3.08868e-05 0.000678308 -1.36402e-07
-6.73883e-08 -1.36402e-07 0.000612307

0.000602597 -1.89249e-06 -2.47354e-08
-1.89249e-06 0.00063772 -3.95327e-08
-2.47354e-08 -3.95327e-08 0.000610171

0.000601213 4.75005e-05 1.97237e-08
4.75005e-05 0.000486737 -3.26766e-08
1.97237e-08 -3.26766e-08 0.000549441

0.000619062 -3.5022e-06 -9.28579e-08
-3.5022e-06 0.000384865 -9.63075e-08
-9.28579e-08 -9.63075e-08 0.000563017

0.000370686 4.9247e-05 -8.97501e-08
4.9247e-05 0.000460769 -2.3246e-07
-8.97501e-08 -2.3246e-07 0.000392165

0.000370809 -5.12854e-05 2.49274e-08
-5.12854e-05 0.000461177 4.5299e-08
2.49274e-08 4.5299e-08 0.000393077

0.000585564 -9.5644e-06 1.70267e-09
-9.5644e-06 0.000427109 1.37666e-07
1.70267e-09 1.37666e-07 0.000523721

0.000434029 -6.59555e-05 6.89063e-08
-6.59555e-05 0.000556207 8.70849e-08
6.89063e-08 8.70849e-08 0.000496848

0.000642317 6.80719e-06 -1.02091e-07
6.80719e-06 0.000584023 1.41499e-07
-1.02091e-07 1.41499e-07 0.00060954

0.000641543 -5.2324e-06 -1.37209e-07
-5.2324e-06 0.00058415 -2.36734e-07
-1.37209e-07 -2.36734e-07 0.000609661

0.000563614 7.4083e-05 -3.84777e-08
7.4083e-05 0.000512239 1.16028e-07
-3.84777e-08 1.16028e-07 0.000543632

0.000501995 -8.29832e-05 5.26966e-08
-8.29832e-05 0.000514862 6.36322e-09
5.26966e-08 6.36322e-09 0.000531992

0.000601129 4.43331e-05 2.81685e-08
4.43331e-05 0.000430745 5.37591e-08
2.81685e-08 5.37591e-08 0.000538567

0.00042525 6.56074e-05 4.22296e-08
6.56074e-05 0.00037432 6.04914e-08
4.22296e-08 6.04914e-08 0.000377314

0.0004612 -7.18647e-05 -4.52675e-08
-7.18647e-05 0.000533011 -3.75243e-08
-4.52675e-08 -3.75243e-08 0.000526248

0.000262816 0.000111527 9.03042e-08
0.000111527 0.000238542 -4.71587e-08
9.03042e-08 -4.71587e-08 0.000261621

0.000407182 -1.5984e-05 -9.01104e-08
-1.5984e-05 0.000533305 9.92888e-08
-9.01104e-08 9.92888e-08 0.000469812

0.000410236 -2.34716e-05 -2.75987e-08
-2.34716e-05 0.00053816 -1.16146e-07
-2.75987e-08 -1.16146e-07 0.000469202

0.000565484 3.28944e-05 6.14974e-08
3.28944e-05 0.000680756 1.45637e-07
6.14974e-08 1.45637e-07 0.000614868

0.000582297 -4.88151e-05 -5.1466e-08
-4.88151e-05 0.00066526 -1.27456e-07
-5.1466e-08 -1.27456e-07 0.000614419

0.000673009 -2.58385e-06 -1.20803e-07
-2.58385e-06 0.000443614 3.86944e-08
-1.20803e-07 3.86944e-08 0.000575424

0.000674234 2.5259e-06 8.78154e-08
2.5259e-06 0.000442938 -1.2665e-08
8.78154e-08 -1.2665e-08 0.000575897

0.000594254 -9.57122e-05 -6.03508e-08
-9.57122e-05 0.000540193 -1.58781e-07
-6.03508e-08 -1.58781e-07 0.000575638

0.000593067 9.74394e-05 -1.7548e-07
9.74394e-05 0.000527102 5.56792e-08
-1.7548e-07 5.56792e-08 0.000571809

0.000667778 -3.51124e-05 -7.58168e-08
-3.51124e-05 0.000613849 8.3153e-08
-7.58168e-08 8.3153e-08 0.000605917

0.00066355 3.50004e-05 4.1525e-09
3.50004e-05 0.00061404 9.05504e-08
4.1525e-09 9.05504e-08 0.000605663

0.000683374 -3.02704e-05 9.28622e-08
-3.02704e-05 0.00062217 9.30394e-08
9.28622e-08 9.30394e-08 0.000631651

0.000683375 3.23876e-05 3.75184e-07
3.23876e-05 0.000625946 4.18054e-07
3.75184e-07 4.18054e-07 0.000632052

0.000508656 -9.16758e-05 -5.02828e-08
-9.16758e-05 0.000602489 1.7393e-08
-5.02828e-08 1.7393e-08 0.000576892

0.000510487 9.15458e-05 -1.02999e-07
9.15458e-05 0.000602568 -6.9614e-08
-1.02999e-07 -6.9614e-08 0.000577667

0.000523247 -4.75524e-05 -1.04916e-07
-4.75524e-05 0.000438232 4.0933e-08
-1.04916e-07 4.0933e-08 0.000479747

0.000447569 -4.06222e-05 5.28004e-08
-4.06222e-05 0.000544386 -3.2591e-08
5.28004e-08 -3.2591e-08 0.000502254

0.000476952 7.78669e-05 -1.25126e-07
7.78669e-05 0.000476741 -1.63042e-07
-1.25126e-07 -1.63042e-07 0.000470799

0.000451915 -5.66399e-05 -1.18131e-07
-5.66399e-05 0.00056103 -1.77756e-08
-1.18131e-07 -1.77756e-08 0.000500341

0.000427237 -6.03046e-05 1.45242e-07
-6.03046e-05 0.00038137 -9.5629e-08
1.45242e-07 -9.5629e-08 0.000373168

0.000523153 4.68598e-05 -1.64529e-07
4.68598e-05 0.000437139 3.9975e-09
-1.64529e-07 3.9975e-09 0.000478649

0.000449637 4.03981e-05 8.04884e-08
4.03981e-05 0.000541746 1.38452e-07
8.04884e-08 1.38452e-07 0.000500095

0.000516785 -0.000113849 -9.08264e-08
-0.000113849 0.000562353 3.11262e-08
-9.08264e-08 3.11262e-08 0.000582319

0.000516665 0.000114281 6.81546e-08
0.000114281 0.000561712 -2.36039e-08
6.81546e-08 -2.36039e-08 0.000582295

0.00061039 -4.62469e-05 1.88187e-07
-4.62469e-05 0.000495376 9.1421e-08
1.88187e-07 9.1421e-08 0.000557381

0.000701749 -8.52284e-05 -5.30975e-08
-8.52284e-05 0.000772665 3.26273e-07
-5.30975e-08 3.26273e-07 0.00063434

0.000692116 8.78702e-05 -3.27656e-07
8.78702e-05 0.000638906 3.6164e-07
-3.27656e-07 3.6164e-07 0.000635276

0.000501487 -6.4873e-05 -6.93343e-09
-6.4873e-05 0.00059035 -3.67664e-08
-6.93343e-09 -3.67664e-08 0.000548348

0.000564743 8.0046e-05 -4.77718e-08
8.0046e-05 0.000468386 -8.9896e-09
-4.77718e-08 -8.9896e-09 0.000530649

0.000648287 5.35973e-06 9.04513e-08
5.35973e-06 0.000557473 2.90269e-08
9.04513e-08 2.90269e-08 0.000593673

0.000476467 -7.60343e-05 -1.27762e-07
-7.60343e-05 0.000480153 3.17579e-08
-1.27762e-07 3.17579e-08 0.000471028

0.000317022 4.81043e-05 5.17649e-08
4.81043e-05 0.000334574 -1.51573e-07
5.17649e-08 -1.51573e-07 0.000301483

0.000343011 4.78637e-05 1.72011e-08
4.78637e-05 0.000295565 -1.08906e-07
1.72011e-08 -1.08906e-07 0.000301687

0.000672867 9.70096e-06 -2.03617e-07
9.70096e-06 0.000474343 -6.41397e-08
-2.03617e-07 -6.41397e-08 0.000585028

0.000672138 -9.83693e-06 4.30395e-08
-9.83693e-06 0.000474018 3.86378e-08
4.30395e-08 3.86378e-08 0.000584991

0.000651774 -8.22437e-06 -2.06619e-07
-8.22437e-06 0.000563031 -6.16624e-08
-2.06619e-07 -6.16624e-08 0.000594924

0.000452637 5.38341e-05 5.91506e-08
5.38341e-05 0.000559004 -6.02122e-08
5.91506e-08 -6.02122e-08 0.000499576

0.000523708 -3.78529e-05 3.37849e-08
-3.78529e-05 0.00042281 -6.73262e-08
3.37849e-08 -6.73262e-08 0.000442783

0.00054703 -4.6229e-05 -4.79033e-08
-4.6229e-05 0.000573057 1.10221e-07
-4.79033e-08 1.10221e-07 0.000563026

0.000546323 4.60071e-05 3.20613e-08
4.60071e-05 0.000573679 -1.45847e-09
3.20613e-08 -1.45847e-09 0.000563325

0.000740576 -8.61121e-06 1.59558e-07
-8.61121e-06 0.000806328 -1.72301e-08
1.59558e-07 -1.72301e-08 0.000629473

0.000743672 5.0916e-06 1.75682e-07
5.0916e-06 0.000805644 -2.11791e-07
1.75682e-07 -2.11791e-07 0.000629834

0.000467598 -7.86654e-05 -5.83019e-09
-7.86654e-05 0.000584737 -3.63214e-08
-5.83019e-09 -3.63214e-08 0.000541832

0.000558329 6.18472e-05 -2.42949e-08
6.18472e-05 0.000442782 1.03249e-08
-2.42949e-08 1.03249e-08 0.000499596

0.000631427 -7.69422e-06 -9.70308e-08
-7.69422e-06 0.00052828 1.85474e-07
-9.70308e-08 1.85474e-07 0.000581848

0.000631543 8.76681e-06 5.03489e-08
8.76681e-06 0.000527854 2.12557e-07
5.03489e-08 2.12557e-07 0.000581674

0.000475847 -5.00863e-05 -2.27083e-09
-5.00863e-05 0.00057023 -1.79979e-08
-2.27083e-09 -1.79979e-08 0.00055392

0.000468466 -7.95375e-05 -6.78926e-08
-7.95375e-05 0.000546619 -2.01261e-09
-6.78926e-08 -2.01261e-09 0.000563997

0.000260827 -0.000116043 -6.72681e-08
-0.000116043 0.00026355 5.98689e-08
-6.72681e-08 5.98689e-08 0.000263879

0.000543989 -7.4697e-05 -6.48474e-08
-7.4697e-05 0.000609202 8.38688e-08
-6.48474e-08 8.38688e-08 0.00059094

0.000544164 7.51637e-05 1.18334e-08
7.51637e-05 0.000607723 8.98506e-08
1.18334e-08 8.98506e-08 0.000590526

0.000459038 -7.69356e-05 -4.42993e-08
-7.69356e-05 0.000554787 -3.14278e-08
-4.42993e-08 -3.14278e-08 0.000548938

0.000527438 3.98177e-05 -9.16016e-08
3.98177e-05 0.000424138 5.87848e-08
-9.16016e-08 5.87848e-08 0.000445472

0.000573702 -7.00316e-05 9.94632e-09
-7.00316e-05 0.000515163 -2.05416e-07
9.94632e-09 -2.05416e-07 0.000548901

0.000603003 -7.91476e-05 -1.21327e-08
-7.91476e-05 0.000540752 2.29812e-08
-1.21327e-08 2.29812e-08 0.000579

0.000604381 7.68147e-05 -1.36805e-07
7.68147e-05 0.000537391 -7.49143e-08
-1.36805e-07 -7.49143e-08 0.000578105

0.000610376 -4.33648e-05 1.88465e-07
-4.33648e-05 0.000434552 -2.17752e-08
1.88465e-07 -2.17752e-08 0.000546211

0.000666481 1.92502e-05 -2.5718e-07
1.92502e-05 0.000537171 2.0207e-07
-2.5718e-07 2.0207e-07 0.000602448

0.000665867 -1.89944e-05 3.83961e-08
-1.89944e-05 0.000537905 1.55557e-08
3.83961e-08 1.55557e-08 0.000602221

0.000601894 -2.99757e-05 2.13146e-08
-2.99757e-05 0.000763441 2.5069e-07
2.13146e-08 2.5069e-07 0.000630025

0.000629315 6.61888e-05 2.34557e-07
6.61888e-05 0.000747741 -2.09409e-07
2.34557e-07 -2.09409e-07 0.000630611

0.000283842 9.85434e-06 -8.28493e-08
9.85434e-06 0.000169591 -1.91549e-07
-8.28493e-08 -1.91549e-07 0.000281832

0.000205974 1.80887e-05 1.85312e-07
1.80887e-05 0.000260877 -3.02181e-09
1.85312e-07 -3.02181e-09 0.000282389

0.000507559 7.33847e-05 -1.62977e-07
7.33847e-05 0.000596119 1.15399e-07
-1.62977e-07 1.15399e-07 0.000558235

0.000506694 -7.35617e-05 -7.5237e-08
-7.35617e-05 0.000595405 -1.56604e-07
-7.5237e-08 -1.56604e-07 0.000557728

0.00048307 -9.37072e-05 1.92333e-08
-9.37072e-05 0.000596942 -7.05966e-08
1.92333e-08 -7.05966e-08 0.000555405

0.000248927 -4.90496e-05 -4.27137e-08
-4.90496e-05 0.000238273 -2.11891e-07
-4.27137e-08 -2.11891e-07 0.000276702

0.000255453 -4.0354e-05 1.04563e-07
-4.0354e-05 0.000240054 3.30507e-08
1.04563e-07 3.30507e-08 0.000277386

0.00062394 6.45732e-05 -2.34947e-07
6.45732e-05 0.000752616 1.07206e-06
-2.34947e-07 1.07206e-06 0.000637859

0.00062394 -6.81493e-05 -4.83268e-07
-6.81493e-05 0.000748824 -6.90747e-07
-4.83268e-07 -6.90747e-07 0.000637854

0.000552019 -8.85168e-05 1.06513e-07
-8.85168e-05 0.000499404 -1.23046e-07
1.06513e-07 -1.23046e-07 0.000541467

0.000470084 -7.15299e-05 -1.05584e-07
-7.15299e-05 0.000514167 6.96462e-08
-1.05584e-07 6.96462e-08 0.000483685

0.000507602 7.05773e-05 -1.65217e-07
7.05773e-05 0.000558597 1.01101e-07
-1.65217e-07 1.01101e-07 0.000548704

0.000506933 -7.09457e-05 -1.1617e-07
-7.09457e-05 0.000558191 7.46907e-08
-1.1617e-07 7.46907e-08 0.000548417

0.000472068 -8.34115e-05 -5.34168e-08
-8.34115e-05 0.000542262 2.64198e-10
-5.34168e-08 2.64198e-10 0.000511736

0.00047086 7.26594e-05 -1.21855e-07
7.26594e-05 0.000512829 -1.68689e-07
-1.21855e-07 -1.68689e-07 0.000483254

0.000322367 -2.62847e-05 -7.68958e-08
-2.62847e-05 0.000397863 -1.37967e-07
-7.68958e-08 -1.37967e-07 0.000336493

0.000321342 2.23515e-05 1.03935e-07
2.23515e-05 0.000401454 1.40939e-07
1.03935e-07 1.40939e-07 0.000334714

0.000404739 1.87568e-05 -2.70925e-07
1.87568e-05 0.000309157 -4.70058e-08
-2.70925e-07 -4.70058e-08 0.000331454

0.000471543 8.30571e-05 1.11266e-07
8.30571e-05 0.000541471 1.68386e-07
1.11266e-07 1.68386e-07 0.000511204

0.000285467 -1.2501e-05 -1.0577e-07
-1.2501e-05 0.000367596 -6.44272e-08
-1.0577e-07 -6.44272e-08 0.000310658

0.000381309 -7.70613e-06 6.20677e-08
-7.70613e-06 0.000263752 2.40376e-08
6.20677e-08 2.40376e-08 0.000311218

0.000530095 -6.8579e-05 1.28564e-07
-6.8579e-05 0.00059224 -1.99824e-07
1.28564e-07 -1.99824e-07 0.000577366

0.000531271 6.77853e-05 1.56424e-07
6.77853e-05 0.000593068 1.77141e-07
1.56424e-07 1.77141e-07 0.000577882

0.000539798 -5.14712e-05 1.50019e-07
-5.14712e-05 0.000595953 -1.26579e-07
1.50019e-07 -1.26579e-07 0.000581809

0.000540355 5.16958e-05 1.63247e-07
5.16958e-05 0.000595444 1.5349e-07
1.63247e-07 1.5349e-07 0.000582091

0.000252794 4.47643e-05 8.74852e-08
4.47643e-05 0.00022576 -8.44572e-08
8.74852e-08 -8.44572e-08 0.000273508

0.000249292 4.25984e-05 1.61396e-07
4.25984e-05 0.000227637 -4.14911e-08
1.61396e-07 -4.14911e-08 0.000271969

0.000506551 6.45774e-05 -7.53639e-09
6.45774e-05 0.000550524 2.14289e-07
-7.53639e-09 2.14289e-07 0.000526887

0.000505252 -6.54033e-05 -2.59654e-08
-6.54033e-05 0.000551178 1.07507e-08
-2.59654e-08 1.07507e-08 0.000526735

0.000593486 -6.26678e-05 -4.12018e-08
-6.26678e-05 0.000681879 -1.37928e-07
-4.12018e-08 -1.37928e-07 0.000619391

0.000619947 2.79395e-05 2.59222e-07
2.79395e-05 0.000634187 -5.6068e-08
2.59222e-07 -5.6068e-08 0.000619198

0.00052034 -7.05722e-05 -3.08766e-08
-7.05722e-05 0.000627605 7.29213e-08
-3.08766e-08 7.29213e-08 0.000588382

0.000521536 7.05145e-05 -6.80425e-08
7.05145e-05 0.000626196 -1.7876e-07
-6.80425e-08 -1.7876e-07 0.000588601

0.000642545 4.80263e-06 -8.50181e-08
4.80263e-06 0.000528515 2.97089e-07
-8.50181e-08 2.97089e-07 0.000601815

0.000641957 -4.06905e-06 -1.78071e-07
-4.06905e-06 0.000528713 1.35027e-07
-1.78071e-07 1.35027e-07 0.000601816

0.000533604 -8.04473e-05 3.31301e-08
-8.04473e-05 0.000540729 2.36503e-08
3.31301e-08 2.36503e-08 0.000561292

0.000535394 8.10676e-05 -7.69755e-08
8.10676e-05 0.000537196 -7.67402e-08
-7.69755e-08 -7.67402e-08 0.000560116

0.000686543 1.94336e-05 -1.40472e-08
1.94336e-05 0.000583678 -2.35052e-08
-1.40472e-08 -2.35052e-08 0.000619228

0.000679444 3.90482e-06 1.95983e-07
3.90482e-06 0.000618498 -2.17867e-07
1.95983e-07 -2.17867e-07 0.00063097

0.00068621 -1.96377e-05 -6.48228e-09
-1.96377e-05 0.000584156 1.53463e-08
-6.48228e-09 1.53463e-08 0.000619493

0.000680825 -5.32101e-06 -3.55178e-07
-5.32101e-06 0.000615264 -3.07336e-07
-3.55178e-07 -3.07336e-07 0.000631048

0.000600829 4.05187e-06 -5.89161e-08
4.05187e-06 0.000688576 2.91872e-07
-5.89161e-08 2.91872e-07 0.000622155

0.00070955 7.84645e-05 4.35599e-08
7.84645e-05 0.00065182 1.1725e-07
4.35599e-08 1.1725e-07 0.000618334

0.000710148 -7.76577e-05 1.40763e-07
-7.76577e-05 0.000652279 -6.53953e-08
1.40763e-07 -6.53953e-08 0.000618114

0.000556606 -4.19498e-05 -1.16814e-07
-4.19498e-05 0.000759976 3.4281e-07
-1.16814e-07 3.4281e-07 0.000623318

0.00062653 -3.73045e-05 6.32934e-07
-3.73045e-05 0.000645236 -8.97553e-07
6.32934e-07 -8.97553e-07 0.000626811

0.000943514 -5.32086e-05 -1.89625e-06
-5.32086e-05 0.000494059 -1.11448e-06
-1.89625e-06 -1.11448e-06 0.000638951

0.000620049 3.81334e-05 6.54432e-07
3.81334e-05 0.000652318 1.0135e-06
6.54432e-07 1.0135e-06 0.000627701

0.00093368 4.73245e-05 -1.32662e-07
4.73245e-05 0.000511662 -4.81524e-07
-1.32662e-07 -4.81524e-07 0.00064004

0.00065058 -5.03443e-05 1.1164e-07
-5.03443e-05 0.000629509 -1.07383e-07
1.1164e-07 -1.07383e-07 0.000621871

0.000585426 -3.55427e-05 -1.31946e-07
-3.55427e-05 0.000638476 5.39191e-08
-1.31946e-07 5.39191e-08 0.000607345

0.000671231 -3.27154e-06 1.24492e-07
-3.27154e-06 0.000622634 -4.7878e-08
1.24492e-07 -4.7878e-08 0.00063437

0.000649239 5.31973e-05 7.9862e-10
5.31973e-05 0.000630918 2.27322e-08
7.9862e-10 2.27322e-08 0.000622361

0.000586671 3.67607e-05 -2.51418e-07
3.67607e-05 0.000636586 -1.44284e-07
-2.51418e-07 -1.44284e-07 0.000607419

0.00067045 4.11934e-06 1.40868e-07
4.11934e-06 0.000630608 -6.25898e-07
1.40868e-07 -6.25898e-07 0.000635233

0.000584567 -2.97972e-05 -1.19902e-07
-2.97972e-05 0.000626678 -9.36651e-08
-1.19902e-07 -9.36651e-08 0.000612326

0.000650963 -1.68777e-05 1.83819e-07
-1.68777e-05 0.000628286 9.22779e-10
1.83819e-07 9.22779e-10 0.000624132

0.000585715 3.04971e-05 -2.38735e-07
3.04971e-05 0.000626572 1.11338e-08
-2.38735e-07 1.11338e-08 0.00061262

0.000650963 1.72374e-05 -7.65067e-08
1.72374e-05 0.000628503 -3.93901e-08
-7.65067e-08 -3.93901e-08 0.000624381

0.000435905 6.92903e-05 -1.01056e-07
6.92903e-05 0.000515414 -2.94349e-08
-1.01056e-07 -2.94349e-08 0.000454303

0.000465815 1.41327e-05 8.6314e-08
1.41327e-05 0.00061167 -6.0819e-08
8.6314e-08 -6.0819e-08 0.00054722

0.000520446 3.70503e-05 -3.90636e-08
3.70503e-05 0.000578404 3.7417e-08
-3.90636e-08 3.7417e-08 0.000544514

0.000558684 -4.54867e-05 -1.43518e-07
-4.54867e-05 0.000407508 -5.27206e-08
-1.43518e-07 -5.27206e-08 0.000495428

0.000533104 -2.80114e-05 -1.18707e-07
-2.80114e-05 0.000396102 -6.60876e-08
-1.18707e-07 -6.60876e-08 0.000461367

0.000464208 2.12313e-05 7.86403e-08
2.12313e-05 0.000663852 2.84663e-08
7.86403e-08 2.84663e-08 0.000579376

0.000520157 3.82363e-05 -3.74634e-08
3.82363e-05 0.000589858 1.87897e-08
-3.74634e-08 1.87897e-08 0.000578537

0.00053318 -6.09992e-07 -1.18605e-07
-6.09992e-07 0.000402694 8.04642e-09
-1.18605e-07 8.04642e-09 0.000464072

0.000597841 1.75532e-05 -1.49042e-09
1.75532e-05 0.00043701 5.89043e-08
-1.49042e-09 5.89043e-08 0.000562283

0.000346661 5.953e-05 1.68446e-07
5.953e-05 0.000435107 -3.78643e-08
1.68446e-07 -3.78643e-08 0.000365476

0.000325976 4.7255e-05 -6.29112e-08
4.7255e-05 0.000434505 -1.1469e-07
-6.29112e-08 -1.1469e-07 0.000363034

0.000419706 4.75026e-05 -5.85379e-08
4.75026e-05 0.000335006 -3.53597e-08
-5.85379e-08 -3.53597e-08 0.000357038

0.000570935 -7.2342e-05 1.34809e-08
-7.2342e-05 0.000611362 1.53754e-07
1.34809e-08 1.53754e-07 0.000588776

0.000556318 -3.02244e-05 -5.41801e-09
-3.02244e-05 0.000637053 -9.62485e-08
-5.41801e-09 -9.62485e-08 0.00058895

0.000503626 -8.33418e-05 -6.34344e-08
-8.33418e-05 0.000493334 3.85788e-09
-6.34344e-08 3.85788e-09 0.000501228

0.00043539 6.68622e-05 -1.07359e-07
6.68622e-05 0.000540396 -1.12078e-07
-1.07359e-07 -1.12078e-07 0.000489606

0.000478296 7.81879e-05 1.65894e-08
7.81879e-05 0.000575883 6.4466e-08
1.65894e-08 6.4466e-08 0.000540764

0.000517894 -3.78551e-05 1.40799e-07
-3.78551e-05 0.00058902 7.59419e-08
1.40799e-07 7.59419e-08 0.000576809

0.000461339 -2.5148e-05 -7.95859e-08
-2.5148e-05 0.000666046 -5.11141e-08
-7.95859e-08 -5.11141e-08 0.00057675

0.000576778 2.07786e-05 -2.31534e-08
2.07786e-05 0.000412664 -7.42903e-08
-2.31534e-08 -7.42903e-08 0.000498805

0.000373779 1.97992e-05 7.39296e-08
1.97992e-05 0.000485889 1.50087e-07
7.39296e-08 1.50087e-07 0.000394039

0.000353611 8.54484e-06 -1.34428e-07
8.54484e-06 0.000488261 -5.22003e-09
-1.34428e-07 -5.22003e-09 0.000396181

0.000480945 8.26961e-06 -1.56318e-07
8.26961e-06 0.000360098 2.47043e-08
-1.56318e-07 2.47043e-08 0.000386417

0.000411475 4.74823e-05 -5.07403e-08
4.74823e-05 0.000526751 1.20222e-07
-5.07403e-08 1.20222e-07 0.000460261

0.000434639 7.71901e-05 -6.54606e-08
7.71901e-05 0.000499769 -6.8036e-08
-6.54606e-08 -6.8036e-08 0.000452192

0.000554746 1.33908e-05 -2.12989e-08
1.33908e-05 0.000410473 4.72355e-08
-2.12989e-08 4.72355e-08 0.000501324

0.000331425 3.55489e-05 1.66515e-07
3.55489e-05 0.000398844 -4.14924e-08
1.66515e-07 -4.14924e-08 0.000326098

0.000599896 -4.84078e-05 9.45621e-08
-4.84078e-05 0.000436091 6.39752e-08
9.45621e-08 6.39752e-08 0.000547521

0.000555685 3.37556e-06 5.7562e-08
3.37556e-06 0.000663912 3.66602e-08
5.7562e-08 3.66602e-08 0.00059112

0.000592839 8.86778e-07 1.78833e-08
8.86778e-07 0.000607912 -2.72378e-09
1.78833e-08 -2.72378e-09 0.000592288

0.000770649 3.29517e-05 3.34167e-08
3.29517e-05 0.000588015 2.20263e-07
3.34167e-08 2.20263e-07 0.000628541

0.000769588 -7.74499e-05 -4.85569e-09
-7.74499e-05 0.000638722 -7.27324e-08
-4.85569e-09 -7.27324e-08 0.000623137

0.000478273 -8.84205e-05 -5.43461e-08
-8.84205e-05 0.000502211 1.13558e-08
-5.43461e-08 1.13558e-08 0.000495185

0.000417966 -7.15534e-05 7.10369e-08
-7.15534e-05 0.000498105 -3.63326e-08
7.10369e-08 -3.63326e-08 0.000455348

0.000473909 -2.47034e-05 -2.63061e-08
-2.47034e-05 0.000341788 1.06826e-07
-2.63061e-08 1.06826e-07 0.000385979

0.000643888 1.28926e-05 -1.37068e-07
1.28926e-05 0.000555647 1.33476e-08
-1.37068e-07 1.33476e-08 0.000595599

0.000644987 -4.59497e-05 -3.31475e-08
-4.59497e-05 0.000562646 -1.3314e-07
-3.31475e-08 -1.3314e-07 0.000589357

0.000599272 -2.02667e-05 -1.0447e-08
-2.02667e-05 0.000438577 5.93391e-08
-1.0447e-08 5.93391e-08 0.000562832

0.000595139 -6.34028e-06 -8.58842e-09
-6.34028e-06 0.000413013 -6.29476e-08
-8.58842e-09 -6.29476e-08 0.000552811

0.000492844 -7.27488e-05 1.1178e-07
-7.27488e-05 0.000421558 7.50943e-09
1.1178e-07 7.50943e-09 0.000436978

0.000506277 3.37469e-05 1.25143e-07
3.37469e-05 0.00038429 -6.60577e-08
1.25143e-07 -6.60577e-08 0.000429906

0.000496684 -5.94524e-05 1.12022e-07
-5.94524e-05 0.000379408 9.51456e-09
1.12022e-07 9.51456e-09 0.000425812

0.000437338 4.9373e-05 4.78208e-09
4.9373e-05 0.000594823 1.73565e-08
4.78208e-09 1.73565e-08 0.000546196

0.000418762 -5.93872e-05 4.50295e-08
-5.93872e-05 0.000521871 -6.26033e-08
4.50295e-08 -6.26033e-08 0.000460855

0.000414232 5.73523e-05 -2.18677e-08
5.73523e-05 0.000499695 8.62346e-08
-2.18677e-08 8.62346e-08 0.00045625

0.000270529 -9.0438e-05 1.39244e-07
-9.0438e-05 0.000273926 2.83696e-08
1.39244e-07 2.83696e-08 0.000268775

0.000247581 5.57145e-05 2.34191e-09
5.57145e-05 0.000276582 -1.66688e-07
2.34191e-09 -1.66688e-07 0.000266025

0.000467403 -6.82535e-05 3.96732e-08
-6.82535e-05 0.000620999 -7.91631e-08
3.96732e-08 -7.91631e-08 0.000576285

0.00041124 4.51441e-05 -5.57371e-08
4.51441e-05 0.00055168 -7.81452e-10
-5.57371e-08 -7.81452e-10 0.000495885

0.000250555 9.62996e-06 -2.24944e-09
9.62996e-06 0.000258427 -2.34804e-08
-2.24944e-09 -2.34804e-08 0.000281728

0.000253189 -1.8119e-05 -1.76457e-08
-1.8119e-05 0.000280946 2.07985e-08
-1.76457e-08 2.07985e-08 0.000283382

0.00057937 -2.70898e-05 -1.15711e-07
-2.70898e-05 0.000620141 -2.27252e-07
-1.15711e-07 -2.27252e-07 0.000598018

0.00057678 5.68505e-05 -7.22457e-08
5.68505e-05 0.000599897 -6.04035e-08
-7.22457e-08 -6.04035e-08 0.000600111

0.000618532 5.4158e-07 1.60146e-08
5.4158e-07 0.000421926 -8.87991e-08
1.60146e-08 -8.87991e-08 0.000523016

0.00058246 -1.83449e-05 -4.86328e-08
-1.83449e-05 0.000590163 2.44812e-07
-4.86328e-08 2.44812e-07 0.000597876

0.000577836 5.30113e-05 -6.79262e-08
5.30113e-05 0.000601638 -9.08022e-08
-6.79262e-08 -9.08022e-08 0.000599404

0.000723867 5.8579e-05 9.79925e-08
5.8579e-05 0.000572069 1.30153e-08
9.79925e-08 1.30153e-08 0.000621121

0.000705233 -7.1991e-05 2.00726e-07
-7.1991e-05 0.000626183 -4.15322e-08
2.00726e-07 -4.15322e-08 0.000616404

0.000545737 -4.29474e-05 -4.58115e-08
-4.29474e-05 0.000551946 -3.57422e-08
-4.58115e-08 -3.57422e-08 0.000560523

0.00054531 5.736e-05 6.96626e-08
5.736e-05 0.000542172 5.48348e-08
6.96626e-08 5.48348e-08 0.000563226

0.000583377 -4.58158e-06 4.91076e-09
-4.58158e-06 0.000740158 9.934e-08
4.91076e-09 9.934e-08 0.000614682

0.0005952 2.0729e-05 3.67078e-08
2.0729e-05 0.000666573 -5.63955e-08
3.67078e-08 -5.63955e-08 0.000617211

0.000426097 -8.18443e-05 -6.65208e-08
-8.18443e-05 0.000519692 6.80551e-08
-6.65208e-08 6.80551e-08 0.000455452

0.000297553 8.72279e-06 1.70483e-07
8.72279e-06 0.000383227 2.44606e-07
1.70483e-07 2.44606e-07 0.000321739

0.000376089 1.08686e-05 2.31616e-07
1.08686e-05 0.000306145 1.47663e-07
2.31616e-07 1.47663e-07 0.000321034

0.000424835 4.2269e-05 -1.6524e-08
4.2269e-05 0.000592389 1.28796e-08
-1.6524e-08 1.28796e-08 0.000532995

0.000466216 6.27977e-05 -5.38198e-08
6.27977e-05 0.000569341 4.79853e-08
-5.38198e-08 4.79853e-08 0.000529119

0.000732691 -5.97631e-05 -7.33619e-08
-5.97631e-05 0.000625121 -2.02179e-07
-7.33619e-08 -2.02179e-07 0.000639075

0.00068569 9.13264e-05 -5.60602e-07
9.13264e-05 0.000784982 3.65649e-07
-5.60602e-07 3.65649e-07 0.000638751

0.000480701 5.79533e-05 -1.67891e-08
5.79533e-05 0.000450781 -3.69877e-08
-1.67891e-08 -3.69877e-08 0.0004449

0.000494169 9.72832e-05 -1.17153e-08
9.72832e-05 0.00059176 1.14931e-08
-1.17153e-08 1.14931e-08 0.000556849

0.000563841 3.67525e-05 2.49219e-08
3.67525e-05 0.000467462 7.67988e-08
2.49219e-08 7.67988e-08 0.000533512

0.000566222 -2.94854e-05 -1.02344e-10
-2.94854e-05 0.000468014 7.6422e-08
-1.02344e-10 7.6422e-08 0.000531017

0.000503166 9.23638e-05 -7.46392e-08
9.23638e-05 0.000565826 -1.59135e-07
-7.46392e-08 -1.59135e-07 0.000553047

0.0005067 -9.13376e-05 -1.33567e-08
-9.13376e-05 0.000606321 1.43272e-07
-1.33567e-08 1.43272e-07 0.000572913

0.000633336 -7.82827e-05 9.83013e-09
-7.82827e-05 0.000504051 5.63925e-08
9.83013e-09 5.63925e-08 0.000580261

0.000471539 -6.79938e-06 -9.16471e-09
-6.79938e-06 0.000346033 -1.54193e-07
-9.16471e-09 -1.54193e-07 0.000387369

0.000776121 8.97832e-06 3.17314e-07
8.97832e-06 0.00071751 7.67319e-08
3.17314e-07 7.67319e-08 0.000627657

0.000804301 -6.75952e-06 -2.02375e-07
-6.75952e-06 0.000619291 3.38047e-07
-2.02375e-07 3.38047e-07 0.000633413

0.00049429 7.10931e-05 1.06478e-08
7.10931e-05 0.000463479 -9.80912e-09
1.06478e-08 -9.80912e-09 0.000482787

0.000575975 2.67058e-05 -2.93638e-08
2.67058e-05 0.00044167 3.07276e-08
-2.93638e-08 3.07276e-08 0.000504481

0.000406325 6.04313e-05 -6.77551e-08
6.04313e-05 0.000434697 -2.15315e-08
-6.77551e-08 -2.15315e-08 0.000384752

0.000617318 1.40019e-05 -8.57153e-08
1.40019e-05 0.000661992 -8.61755e-08
-8.57153e-08 -8.61755e-08 0.000626218

0.000627665 4.15456e-05 3.16131e-07
4.15456e-05 0.000759978 1.75045e-07
3.16131e-07 1.75045e-07 0.000621925

0.000635674 3.8414e-05 -1.16123e-07
3.8414e-05 0.00049196 -8.0586e-08
-1.16123e-07 -8.0586e-08 0.000587911

0.000462538 -1.65603e-05 -8.02649e-08
-1.65603e-05 0.000614899 -6.25975e-08
-8.02649e-08 -6.25975e-08 0.000545204

0.000518375 -3.49772e-05 1.35096e-07
-3.49772e-05 0.000581701 1.09242e-09
1.35096e-07 1.09242e-09 0.00054364

0.000623197 1.14645e-05 6.91898e-08
1.14645e-05 0.000434555 -5.28798e-08
6.91898e-08 -5.28798e-08 0.000547717

0.000628489 -8.77358e-06 -9.93537e-08
-8.77358e-06 0.000431992 7.06186e-08
-9.93537e-08 7.06186e-08 0.000546386

0.000434589 -6.08617e-05 5.54869e-10
-6.08617e-05 0.000405991 6.58822e-08
5.54869e-10 6.58822e-08 0.000379539

0.000559513 2.85742e-07 7.23211e-08
2.85742e-07 0.000396441 -2.63658e-08
7.23211e-08 -2.63658e-08 0.000462308

0.000623738 -1.01954e-05 1.35435e-07
-1.01954e-05 0.000487583 -1.85251e-07
1.35435e-07 -1.85251e-07 0.000572872

0.000608169 2.02898e-05 -8.12752e-08
2.02898e-05 0.000500463 -5.57091e-08
-8.12752e-08 -5.57091e-08 0.000573967

0.000576951 -2.51679e-05 1.12412e-07
-2.51679e-05 0.000453884 -1.51286e-08
1.12412e-07 -1.51286e-08 0.000502446

0.000439496 -7.18544e-05 -6.50726e-08
-7.18544e-05 0.000523204 6.99207e-08
-6.50726e-08 6.99207e-08 0.000461274

0.000628151 -5.71774e-06 -1.00854e-07
-5.71774e-06 0.000473322 6.27557e-08
-1.00854e-07 6.27557e-08 0.000550593

0.000620994 1.31055e-05 4.29425e-08
1.31055e-05 0.000471049 7.5278e-08
4.29425e-08 7.5278e-08 0.000552536

0.000562088 2.94324e-05 -9.41208e-08
2.94324e-05 0.000444747 -8.82274e-08
-9.41208e-08 -8.82274e-08 0.000514831

0.000428988 -9.17951e-05 5.3805e-08
-9.17951e-05 0.000417163 -1.55412e-09
5.3805e-08 -1.55412e-09 0.000412414

0.000473637 8.8432e-05 -9.9021e-08
8.8432e-05 0.000555146 -9.41729e-08
-9.9021e-08 -9.41729e-08 0.000556846

0.000497071 8.72164e-05 1.60554e-09
8.72164e-05 0.000600051 9.7078e-08
1.60554e-09 9.7078e-08 0.000561195

0.000463832 6.56627e-05 -2.8866e-08
6.56627e-05 0.000562339 -4.59486e-08
-2.8866e-08 -4.59486e-08 0.000563521

0.000515547 3.22685e-05 -8.62679e-08
3.22685e-05 0.000374934 5.72771e-08
-8.62679e-08 5.72771e-08 0.000430158

0.000392564 -6.30888e-05 -5.07395e-08
-6.30888e-05 0.000337546 6.24254e-08
-5.07395e-08 6.24254e-08 0.000338448

0.000554583 5.3409e-05 3.72917e-08
5.3409e-05 0.000481257 1.51471e-07
3.72917e-08 1.51471e-07 0.000539458

0.000561921 -5.65891e-05 -1.12835e-07
-5.65891e-05 0.000445331 -1.49233e-07
-1.12835e-07 -1.49233e-07 0.000504614

0.00040163 -5.49857e-05 -2.98887e-08
-5.49857e-05 0.000331807 1.06013e-07
-2.98887e-08 1.06013e-07 0.000341025

0.000504644 -9.12132e-05 -7.16152e-08
-9.12132e-05 0.000443378 1.525e-07
-7.16152e-08 1.525e-07 0.000478818

0.000455073 2.34945e-06 1.33152e-08
2.34945e-06 0.000560001 6.43764e-08
1.33152e-08 6.43764e-08 0.000525097

0.00040899 -4.56159e-09 8.54689e-10
-4.56159e-09 0.000612153 -1.04751e-07
8.54689e-10 -1.04751e-07 0.000527418

0.000435267 7.78214e-05 -6.04535e-08
7.78214e-05 0.000442312 -1.48579e-08
-6.04535e-08 -1.48579e-08 0.00042309

0.000435006 -6.51188e-05 3.47082e-09
-6.51188e-05 0.00034347 -1.03888e-08
3.47082e-09 -1.03888e-08 0.000364935

0.000507433 -9.48391e-05 6.23731e-08
-9.48391e-05 0.000538838 3.69875e-09
6.23731e-08 3.69875e-09 0.000553325

0.000428299 -8.5004e-05 -2.92523e-08
-8.5004e-05 0.000472402 -1.66205e-07
-2.92523e-08 -1.66205e-07 0.000423

0.000422754 -8.52266e-05 6.33542e-08
-8.52266e-05 0.000462271 1.59712e-08
6.33542e-08 1.59712e-08 0.000422029

0.000549718 4.37155e-05 -1.24443e-07
4.37155e-05 0.000467415 7.34951e-10
-1.24443e-07 7.34951e-10 0.000508627

0.000651859 2.76599e-05 -7.02235e-08
2.76599e-05 0.000404677 -8.66359e-09
-7.02235e-08 -8.66359e-09 0.000584955

0.00064011 -4.37192e-05 3.36249e-08
-4.37192e-05 0.000433959 4.70085e-09
3.36249e-08 4.70085e-09 0.000579986

0.000394735 4.90912e-05 2.12824e-08
4.90912e-05 0.00050564 2.35526e-08
2.12824e-08 2.35526e-08 0.000433279

0.000367867 3.32199e-05 -8.71095e-08
3.32199e-05 0.000522716 1.12695e-07
-8.71095e-08 1.12695e-07 0.0004378

0.000327404 -7.0972e-06 4.76338e-08
-7.0972e-06 0.000473274 1.41505e-07
4.76338e-08 1.41505e-07 0.000377625

0.0003116 -9.31844e-06 -3.34482e-08
-9.31844e-06 0.000481618 2.25116e-08
-3.34482e-08 2.25116e-08 0.000379381

0.000476215 -6.17958e-06 -1.16267e-07
-6.17958e-06 0.000316068 1.41105e-07
-1.16267e-07 1.41105e-07 0.000371678

0.00045974 -7.74331e-05 5.48639e-08
-7.74331e-05 0.000414871 1.46413e-08
5.48639e-08 1.46413e-08 0.000421386

0.000620281 -5.6511e-05 4.97715e-07
-5.6511e-05 0.000706415 -2.7119e-07
4.97715e-07 -2.7119e-07 0.000635509

0.000783682 -2.04946e-05 3.68702e-07
-2.04946e-05 0.000783637 1.58377e-07
3.68702e-07 1.58377e-07 0.000629851

0.000481244 5.44882e-05 1.19886e-08
5.44882e-05 0.000389791 1.35414e-07
1.19886e-08 1.35414e-07 0.000423069

0.000522319 -3.72372e-05 -5.6962e-08
-3.72372e-05 0.000378205 -2.98034e-08
-5.6962e-08 -2.98034e-08 0.000433821

0.000406804 3.42555e-05 -7.44854e-08
3.42555e-05 0.000327453 1.44363e-07
-7.44854e-08 1.44363e-07 0.000344729

0.000437106 5.62433e-05 -2.96816e-09
5.62433e-05 0.000552423 4.26665e-08
-2.96816e-09 4.26665e-08 0.000523299

0.000618512 7.99025e-07 1.33745e-08
7.99025e-07 0.000423267 -1.33205e-08
1.33745e-08 -1.33205e-08 0.000521986

0.000502948 8.51597e-05 -3.1457e-08
8.51597e-05 0.000603064 5.42962e-08
-3.1457e-08 5.42962e-08 0.000575269

0.000448555 6.78214e-05 -5.01615e-08
6.78214e-05 0.000624796 2.22013e-10
-5.01615e-08 2.22013e-10 0.000579518

0.000387429 4.37914e-05 -1.63727e-08
4.37914e-05 0.00043422 -1.13204e-07
-1.63727e-08 -1.13204e-07 0.00038269

0.000417662 4.88057e-05 -6.55416e-08
4.88057e-05 0.000404571 -7.19883e-08
-6.55416e-08 -7.19883e-08 0.000377473

0.000487218 -0.000102825 -3.04835e-08
-0.000102825 0.000587313 1.59921e-07
-3.04835e-08 1.59921e-07 0.000550483

0.000411529 2.74684e-05 3.80005e-08
2.74684e-05 0.000328093 -1.73351e-07
3.80005e-08 -1.73351e-07 0.000347055

0.000467497 7.58737e-05 -4.74271e-08
7.58737e-05 0.000544298 9.15554e-08
-4.74271e-08 9.15554e-08 0.000566478

0.000471705 9.23077e-05 3.51685e-08
9.23077e-05 0.000557992 -7.77438e-10
3.51685e-08 -7.77438e-10 0.000516608

0.000657204 -1.14293e-06 -1.85295e-10
-1.14293e-06 0.000425676 -5.58651e-08
-1.85295e-10 -5.58651e-08 0.000559412

0.000488132 -7.02674e-05 1.08914e-07
-7.02674e-05 0.000544046 -1.19542e-07
1.08914e-07 -1.19542e-07 0.000565077

0.00049114 7.56876e-05 1.84862e-08
7.56876e-05 0.000496169 -4.89612e-08
1.84862e-08 -4.89612e-08 0.000487511

0.000385749 -3.70044e-05 4.25417e-08
-3.70044e-05 0.000488415 1.44409e-07
4.25417e-08 1.44409e-07 0.000401855

0.000360977 -3.53822e-05 1.25103e-08
-3.53822e-05 0.00049529 -3.66154e-09
1.25103e-08 -3.66154e-09 0.000403057

0.000481953 -2.63234e-05 -3.09144e-08
-2.63234e-05 0.000375528 -3.89902e-08
-3.09144e-08 -3.89902e-08 0.000394214

0.000459109 -6.96143e-05 5.79208e-08
-6.96143e-05 0.000469081 -7.05575e-08
5.79208e-08 -7.05575e-08 0.000436058

0.000409568 -4.7418e-06 -1.64405e-09
-4.7418e-06 0.000569217 -5.44823e-08
-1.64405e-09 -5.44823e-08 0.000483051

0.000455404 -7.20139e-07 2.00953e-08
-7.20139e-07 0.000549792 -7.17998e-08
2.00953e-08 -7.17998e-08 0.000479908

0.000376028 -7.42415e-05 -1.46558e-07
-7.42415e-05 0.000410561 -2.08217e-08
-1.46558e-07 -2.08217e-08 0.000363366

0.00035693 -7.21524e-05 3.1541e-08
-7.21524e-05 0.000422653 1.209e-07
3.1541e-08 1.209e-07 0.000365973

0.000654615 -3.50247e-06 -1.13142e-08
-3.50247e-06 0.000438784 -3.89897e-08
-1.13142e-08 -3.89897e-08 0.000560516

0.000659813 3.90466e-06 9.5235e-08
3.90466e-06 0.000435229 1.01528e-07
9.5235e-08 1.01528e-07 0.000559736

0.000466056 7.06821e-05 6.32254e-08
7.06821e-05 0.00053479 1.43723e-08
6.32254e-08 1.43723e-08 0.000530902

0.000450165 -5.90673e-05 -8.48841e-08
-5.90673e-05 0.000616693 -3.58088e-08
-8.48841e-08 -3.58088e-08 0.000577527

0.000544719 -9.16587e-05 7.67895e-09
-9.16587e-05 0.000494951 -1.3389e-08
7.67895e-09 -1.3389e-08 0.00053585

0.000579817 3.50804e-05 2.96216e-08
3.50804e-05 0.000543257 5.58297e-08
2.96216e-08 5.58297e-08 0.000580998

0.000588596 -1.08561e-05 1.34529e-07
-1.08561e-05 0.000553801 -3.04276e-08
1.34529e-07 -3.04276e-08 0.000579155

0.000564254 -3.83276e-05 -1.2903e-08
-3.83276e-05 0.000522664 -6.97195e-08
-1.2903e-08 -6.97195e-08 0.000536144

0.000562061 4.58019e-05 3.02698e-08
4.58019e-05 0.00050025 1.40283e-08
3.02698e-08 1.40283e-08 0.000538857

0.000262344 -3.83489e-05 2.94256e-08
-3.83489e-05 0.000177932 1.3819e-07
2.94256e-08 1.3819e-07 0.000282441

0.000416781 7.27763e-05 -3.87474e-08
7.27763e-05 0.000462745 -1.36593e-07
-3.87474e-08 -1.36593e-07 0.000424803

0.000203712 2.62474e-05 6.89925e-08
2.62474e-05 0.000258611 -1.0834e-07
6.89925e-08 -1.0834e-07 0.000282075

0.000486063 8.20197e-05 8.78923e-08
8.20197e-05 0.000531431 6.6835e-08
8.78923e-08 6.6835e-08 0.000515554

0.000396011 -5.75312e-05 7.44201e-08
-5.75312e-05 0.000520004 5.00333e-08
7.44201e-08 5.00333e-08 0.000438521

0.000369608 -5.1417e-05 3.4846e-08
-5.1417e-05 0.000520613 -6.12197e-08
3.4846e-08 -6.12197e-08 0.000439638

0.000646511 -1.75801e-05 1.73655e-07
-1.75801e-05 0.000625181 -1.17052e-07
1.73655e-07 -1.17052e-07 0.000622577

0.000614849 4.84683e-05 2.71431e-08
4.84683e-05 0.000669154 2.16214e-07
2.71431e-08 2.16214e-07 0.000622962

0.000514247 5.44929e-05 -6.62458e-09
5.44929e-05 0.000472123 1.00043e-07
-6.62458e-09 1.00043e-07 0.000491564

0.000559559 -5.36154e-06 7.20288e-08
-5.36154e-06 0.000402723 4.54542e-08
7.20288e-08 4.54542e-08 0.000462156

0.000459495 6.10931e-05 -6.08026e-08
6.10931e-05 0.0004035 -6.90126e-08
-6.08026e-08 -6.90126e-08 0.000419891

0.000426389 -3.47262e-05 8.543e-08
-3.47262e-05 0.00060577 2.05514e-08
8.543e-08 2.05514e-08 0.000532312

0.00046787 -5.80114e-05 -3.38532e-08
-5.80114e-05 0.000571242 -8.10533e-08
-3.38532e-08 -8.10533e-08 0.000529964

0.000485639 -0.000105513 4.19677e-08
-0.000105513 0.000616695 -5.27613e-08
4.19677e-08 -5.27613e-08 0.000558415

0.000514873 -5.8373e-05 -5.3169e-08
-5.8373e-05 0.000491822 -7.6299e-08
-5.3169e-08 -7.6299e-08 0.00048892

0.000486207 9.82056e-05 5.20001e-08
9.82056e-05 0.000592086 1.897e-08
5.20001e-08 1.897e-08 0.000557633

0.000562376 4.54267e-05 4.08569e-08
4.54267e-05 0.000627238 -5.72985e-09
4.08569e-08 -5.72985e-09 0.000591395

0.000569477 6.88701e-05 -4.70236e-10
6.88701e-05 0.00060491 5.22708e-08
-4.70236e-10 5.22708e-08 0.000590655

0.000472644 -9.24328e-05 1.5464e-07
-9.24328e-05 0.000580114 5.02305e-08
1.5464e-07 5.02305e-08 0.000526111

0.000482996 8.35283e-05 1.14138e-07
8.35283e-05 0.000563103 -3.14019e-08
1.14138e-07 -3.14019e-08 0.000524631

0.000422694 0.000105583 3.16827e-08
0.000105583 0.000569911 -4.04622e-08
3.16827e-08 -4.04622e-08 0.00056554

0.000379714 9.66423e-06 -3.27999e-08
9.66423e-06 0.00056237 -3.75957e-08
-3.27999e-08 -3.75957e-08 0.00047047

0.000409079 2.31842e-05 6.33052e-08
2.31842e-05 0.000537489 -9.52361e-08
6.33052e-08 -9.52361e-08 0.00046603

0.000507175 6.51686e-05 -8.67178e-08
6.51686e-05 0.000495787 3.09953e-08
-8.67178e-08 3.09953e-08 0.000520367

0.000458398 5.46732e-05 -6.35381e-08
5.46732e-05 0.000452078 -1.09265e-07
-6.35381e-08 -1.09265e-07 0.000439556

0.000418433 -5.6553e-05 4.59646e-08
-5.6553e-05 0.000549228 -8.23388e-08
4.59646e-08 -8.23388e-08 0.000497297

0.000503871 -9.91618e-05 -1.08076e-07
-9.91618e-05 0.000612152 1.76465e-07
-1.08076e-07 1.76465e-07 0.000572017

0.000292861 3.27207e-05 1.92548e-07
3.27207e-05 0.000338923 4.15326e-08
1.92548e-07 4.15326e-08 0.000297695

0.000329126 3.40174e-05 6.73834e-08
3.40174e-05 0.000302216 1.6306e-07
6.73834e-08 1.6306e-07 0.000297768

0.000391722 -7.32616e-05 -5.33473e-08
-7.32616e-05 0.000409094 7.05455e-08
-5.33473e-08 7.05455e-08 0.000373674

0.000506389 -6.84048e-05 -5.39364e-08
-6.84048e-05 0.000515182 -7.56461e-08
-5.39364e-08 -7.56461e-08 0.000516946

0.0005774 -2.01504e-05 1.13876e-07
-2.01504e-05 0.000413532 2.27004e-08
1.13876e-07 2.27004e-08 0.000497622

0.000681982 7.42285e-05 -5.64697e-07
7.42285e-05 0.00072416 3.5579e-07
-5.64697e-07 3.5579e-07 0.000636749

0.000748753 -8.09603e-05 -1.23343e-07
-8.09603e-05 0.000634111 -8.18865e-08
-1.23343e-07 -8.18865e-08 0.000636908

0.00046894 -0.000100754 -4.93084e-08
-0.000100754 0.00057287 -4.93585e-08
-4.93084e-08 -4.93585e-08 0.000520613

0.000632096 1.86752e-05 2.90783e-08
1.86752e-05 0.000588114 2.19351e-07
2.90783e-08 2.19351e-07 0.000615174

0.000643007 -7.68637e-05 -9.66223e-08
-7.68637e-05 0.000644914 -5.20065e-08
-9.66223e-08 -5.20065e-08 0.000610724

0.000572313 -2.69532e-05 8.71846e-08
-2.69532e-05 0.000423622 7.25948e-08
8.71846e-08 7.25948e-08 0.000522282

0.000440587 -0.00010454 1.33869e-07
-0.00010454 0.000562747 -7.77072e-08
1.33869e-07 -7.77072e-08 0.000563446

0.000311962 -6.39479e-05 -9.29643e-08
-6.39479e-05 0.000339759 5.49622e-08
-9.29643e-08 5.49622e-08 0.000310518

0.00033188 4.68237e-05 1.00958e-07
4.68237e-05 0.000328573 1.51348e-07
1.00958e-07 1.51348e-07 0.000311898

0.000307346 -3.82891e-05 -4.46724e-08
-3.82891e-05 0.000400092 -1.09675e-07
-4.46724e-08 -1.09675e-07 0.000329652

0.000315235 -4.19259e-05 -7.79364e-08
-4.19259e-05 0.000404261 2.32071e-07
-7.79364e-08 2.32071e-07 0.000335564

0.000406508 -3.22514e-05 -5.21295e-08
-3.22514e-05 0.000306719 4.25402e-08
-5.21295e-08 4.25402e-08 0.000328362

0.00041046 5.69151e-05 -9.86745e-08
5.69151e-05 0.000398752 9.9645e-08
-9.86745e-08 9.9645e-08 0.000378205

0.000481074 -0.000112005 9.21269e-08
-0.000112005 0.000607667 2.91653e-08
9.21269e-08 2.91653e-08 0.000556178

0.000270367 5.73865e-06 -1.06845e-09
5.73865e-06 0.000386429 -9.19432e-08
-1.06845e-09 -9.19432e-08 0.000311247

0.000379054 -1.71881e-05 9.21685e-08
-1.71881e-05 0.00026884 -1.12809e-07
9.21685e-08 -1.12809e-07 0.000312918

0.000579989 8.42914e-06 1.57714e-07
8.42914e-06 0.000696119 2.37635e-07
1.57714e-07 2.37635e-07 0.000607498

0.000591505 -4.55236e-05 -1.43141e-07
-4.55236e-05 0.000634975 -1.66805e-07
-1.43141e-07 -1.66805e-07 0.000609127

0.000597156 -5.27112e-05 -1.108e-07
-5.27112e-05 0.000488159 1.71275e-07
-1.108e-07 1.71275e-07 0.000549154

0.000619206 -2.95616e-06 -3.9519e-08
-2.95616e-06 0.000369672 -2.55629e-08
-3.9519e-08 -2.55629e-08 0.000564929

0.000352648 -5.60045e-05 4.20103e-08
-5.60045e-05 0.000457682 3.18894e-08
4.20103e-08 3.18894e-08 0.000390955

0.000370156 -5.61089e-05 -1.39508e-07
-5.61089e-05 0.000465022 -7.32031e-08
-1.39508e-07 -7.32031e-08 0.000392155

0.000581939 -3.21216e-06 6.79844e-08
-3.21216e-06 0.000419692 -2.36787e-08
6.79844e-08 -2.36787e-08 0.000525474

0.000440083 -7.71756e-05 -5.73101e-08
-7.71756e-05 0.000553644 -4.31113e-08
-5.73101e-08 -4.31113e-08 0.000495912

0.000635591 7.92483e-07 -1.12909e-07
7.92483e-07 0.000597042 2.20649e-07
-1.12909e-07 2.20649e-07 0.000610305

0.000606437 2.27732e-05 -1.93481e-07
2.27732e-05 0.000620275 -4.37844e-08
-1.93481e-07 -4.37844e-08 0.000611076

0.000561643 -7.23949e-05 -2.75989e-08
-7.23949e-05 0.000513225 -3.71525e-08
-2.75989e-08 -3.71525e-08 0.000543454

0.000477385 -7.42722e-05 -5.58159e-08
-7.42722e-05 0.000526132 5.93441e-08
-5.58159e-08 5.93441e-08 0.000526694

0.000597217 -5.18935e-05 -9.41662e-08
-5.18935e-05 0.000431594 -1.58665e-07
-9.41662e-08 -1.58665e-07 0.000538365

0.000451747 -6.54714e-05 -1.25768e-07
-6.54714e-05 0.000548829 1.32948e-08
-1.25768e-07 1.32948e-08 0.000523298

0.000249183 -0.000124695 1.81301e-08
-0.000124695 0.000261697 -2.16707e-08
1.81301e-08 -2.16707e-08 0.000260914

0.000418744 -2.90319e-05 1.95121e-08
-2.90319e-05 0.000534395 -7.20042e-08
1.95121e-08 -7.20042e-08 0.000467409

0.00038858 -2.18369e-05 4.56588e-08
-2.18369e-05 0.000559777 -3.78191e-08
4.56588e-08 -3.78191e-08 0.000470161

0.000558412 -1.10959e-05 8.50589e-08
-1.10959e-05 0.000739893 -1.24555e-07
8.50589e-08 -1.24555e-07 0.000610383

0.000596842 -1.25276e-05 1.07786e-08
-1.25276e-05 0.00062762 3.89356e-08
1.07786e-08 3.89356e-08 0.000613413

0.000663539 -7.0519e-06 1.44735e-07
-7.0519e-06 0.000457497 3.68686e-08
1.44735e-07 3.68686e-08 0.00057791

0.000649163 3.54017e-06 9.64494e-08
3.54017e-06 0.000466408 1.01476e-07
9.64494e-08 1.01476e-07 0.000578669

0.000570477 5.48977e-05 -3.47204e-08
5.48977e-05 0.000537656 -1.58457e-08
-3.47204e-08 -1.58457e-08 0.000576757

0.000589906 -9.71283e-05 8.00478e-08
-9.71283e-05 0.000530065 -8.69783e-08
8.00478e-08 -8.69783e-08 0.000571504

0.000630184 1.90112e-05 7.38935e-08
1.90112e-05 0.000619825 2.87588e-08
7.38935e-08 2.87588e-08 0.000608525

0.000664088 -3.51948e-05 -8.64874e-08
-3.51948e-05 0.000614221 -8.50488e-09
-8.64874e-08 -8.50488e-09 0.000605543

0.000680365 -3.82951e-05 2.83172e-07
-3.82951e-05 0.000639337 -5.8106e-08
2.83172e-07 -5.8106e-08 0.000632265

0.000668812 0.000115049 2.53027e-07
0.000115049 0.00071943 3.07954e-07
2.53027e-07 3.07954e-07 0.00063239

0.00050835 -0.000100988 9.27174e-08
-0.000100988 0.000613947 -6.29955e-08
9.27174e-08 -6.29955e-08 0.000576328

0.000481327 0.000124888 3.38403e-08
0.000124888 0.000565009 1.09272e-07
3.38403e-08 1.09272e-07 0.000583489

0.00051768 5.0608e-05 9.8243e-09
5.0608e-05 0.000435715 2.47232e-08
9.8243e-09 2.47232e-08 0.000481024

0.000424959 -4.25685e-05 7.26181e-08
-4.25685e-05 0.000564758 -6.48671e-08
7.26181e-08 -6.48671e-08 0.000501637

0.000465634 -6.56274e-05 -2.41757e-08
-6.56274e-05 0.000558561 -2.4535e-08
-2.41757e-08 -2.4535e-08 0.000498922

0.000519105 -5.29625e-05 -4.55808e-08
-5.29625e-05 0.000446577 -3.99552e-08
-4.55808e-08 -3.99552e-08 0.000479548

0.000465703 4.90494e-05 -5.76136e-08
4.90494e-05 0.000549285 -1.52662e-07
-5.76136e-08 -1.52662e-07 0.000495824

0.000424383 2.84303e-05 -1.72052e-08
2.84303e-05 0.000568837 -2.82674e-08
-1.72052e-08 -2.82674e-08 0.000500612

0.000471468 6.96563e-05 1.53101e-07
6.96563e-05 0.00046792 6.98549e-08
1.53101e-07 6.98549e-08 0.000473403

0.000523267 8.37829e-05 9.1861e-08
8.37829e-05 0.000593869 1.30665e-07
9.1861e-08 1.30665e-07 0.000579614

0.000518127 -0.000112246 1.28039e-09
-0.000112246 0.000563789 -9.16505e-08
1.28039e-09 -9.16505e-08 0.000580864

0.000476935 -8.56313e-05 4.48394e-08
-8.56313e-05 0.000483458 -5.91795e-08
4.48394e-08 -5.91795e-08 0.000470432

0.000602057 2.47412e-05 1.05361e-07
2.47412e-05 0.00049582 1.26749e-07
1.05361e-07 1.26749e-07 0.000559572

0.000785406 -3.87047e-05 -2.66494e-07
-3.87047e-05 0.000765842 2.15381e-09
-2.66494e-07 2.15381e-09 0.000628744

0.000642609 2.25711e-05 -3.62742e-07
2.25711e-05 0.000663744 2.77111e-07
-3.62742e-07 2.77111e-07 0.000634718

0.000506379 -8.4646e-05 -7.36659e-09
-8.4646e-05 0.00058966 -9.91303e-08
-7.36659e-09 -9.91303e-08 0.00054727

0.000560166 -8.42131e-05 -1.0086e-08
-8.42131e-05 0.000470551 2.06762e-07
-1.0086e-08 2.06762e-07 0.0005302

0.000648681 -7.59675e-06 6.45328e-08
-7.59675e-06 0.000556778 7.7696e-08
6.45328e-08 7.7696e-08 0.000594256

0.000312425 -5.90013e-05 -7.1925e-08
-5.90013e-05 0.000335634 1.49039e-07
-7.1925e-08 1.49039e-07 0.000301008

0.000341122 -5.26404e-05 -1.58702e-07
-5.26404e-05 0.000305262 3.84845e-08
-1.58702e-07 3.84845e-08 0.000302099

0.000665231 5.90689e-06 -3.20465e-08
5.90689e-06 0.000487068 -1.82626e-07
-3.20465e-08 -1.82626e-07 0.000586838

0.000639708 -4.44054e-06 2.19041e-07
-4.44054e-06 0.000498265 -4.2725e-08
2.19041e-07 -4.2725e-08 0.0005873

0.000658976 -9.95941e-07 -4.13505e-08
-9.95941e-07 0.000517544 -1.07783e-07
-4.13505e-08 -1.07783e-07 0.000599465

0.000515737 3.60707e-05 -8.9528e-08
3.60707e-05 0.000414067 -5.33522e-08
-8.9528e-08 -5.33522e-08 0.000443197

0.00054258 -5.36907e-05 -5.51525e-08
-5.36907e-05 0.000583005 -1.1076e-07
-5.51525e-08 -1.1076e-07 0.000563066

0.000543148 6.57291e-05 5.93443e-08
6.57291e-05 0.000545939 1.37e-07
5.93443e-08 1.37e-07 0.000566706

0.000738224 -5.94346e-05 -5.55659e-08
-5.94346e-05 0.000605548 -2.95102e-07
-5.55659e-08 -2.95102e-07 0.000636245

0.000742313 -4.8061e-06 4.26143e-08
-4.8061e-06 0.000805642 -3.7172e-07
4.26143e-08 -3.7172e-07 0.000629924

0.000470518 -9.49362e-05 -6.16445e-08
-9.49362e-05 0.000587192 -1.21013e-07
-6.16445e-08 -1.21013e-07 0.000540928

0.000551056 -6.69371e-05 3.98866e-08
-6.69371e-05 0.000449213 1.6795e-07
3.98866e-08 1.6795e-07 0.000500187

0.000608401 1.49174e-05 -8.70901e-08
1.49174e-05 0.000553768 1.80214e-07
-8.70901e-08 1.80214e-07 0.00058366

0.000624259 2.01527e-06 1.39012e-07
2.01527e-06 0.000540228 -2.56067e-08
1.39012e-07 -2.56067e-08 0.000582478

0.000472293 -3.87817e-05 4.95936e-08
-3.87817e-05 0.000589039 4.55848e-08
4.95936e-08 4.55848e-08 0.000551193

0.000469328 -6.92227e-05 -9.59048e-08
-6.92227e-05 0.000554059 -5.07323e-08
-9.59048e-08 -5.07323e-08 0.000561261

0.00026856 0.000105419 -5.21617e-08
0.000105419 0.000251412 -1.83257e-07
-5.21617e-08 -1.83257e-07 0.000263342

0.000546656 5.56577e-05 1.47217e-07
5.56577e-05 0.000615391 2.39651e-08
1.47217e-07 2.39651e-08 0.000591259

0.00054488 -7.3741e-05 4.70735e-08
-7.3741e-05 0.000608197 3.63967e-09
4.70735e-08 3.63967e-09 0.00058955

0.000450511 -6.61266e-05 -1.30138e-07
-6.61266e-05 0.000574431 -9.03427e-09
-1.30138e-07 -9.03427e-09 0.00054652

0.000523088 -4.48861e-05 -5.68999e-08
-4.48861e-05 0.000430862 -3.07752e-08
-5.68999e-08 -3.07752e-08 0.000446388

0.000553761 4.88379e-05 2.92247e-08
4.88379e-05 0.000536956 2.64669e-08
2.92247e-08 2.64669e-08 0.000548956

0.000569738 5.08626e-05 -2.63518e-09
5.08626e-05 0.000578561 -1.36736e-07
-2.63518e-09 -1.36736e-07 0.000579066

0.000601707 -7.89753e-05 9.20484e-08
-7.89753e-05 0.000534923 -5.17419e-08
9.20484e-08 -5.17419e-08 0.000576877

0.000601895 1.9877e-05 1.02682e-07
1.9877e-05 0.000431801 -1.3701e-08
1.02682e-07 -1.3701e-08 0.000548453

0.000634601 -9.00972e-06 2.02715e-07
-9.00972e-06 0.000579019 -1.23887e-07
2.02715e-07 -1.23887e-07 0.000604317

0.000659268 1.43775e-05 -9.89875e-08
1.43775e-05 0.000550168 1.50089e-07
-9.89875e-08 1.50089e-07 0.000604071

0.000625002 2.63713e-05 -3.27965e-07
2.63713e-05 0.00079913 6.45913e-08
-3.27965e-07 6.45913e-08 0.000624728

0.000619244 5.23875e-06 2.14598e-07
5.23875e-06 0.000723059 -3.09301e-07
2.14598e-07 -3.09301e-07 0.000629908

0.000269483 -2.74844e-05 -3.21503e-08
-2.74844e-05 0.000200108 -4.35407e-08
-3.21503e-08 -4.35407e-08 0.000282278

0.000178347 -1.74561e-05 -4.40461e-11
-1.74561e-05 0.000280041 -1.01698e-07
-4.40461e-11 -1.01698e-07 0.000282177

0.000505843 -8.32393e-05 -7.35979e-08
-8.32393e-05 0.000607533 1.08451e-07
-7.35979e-08 1.08451e-07 0.000557456

0.000504881 7.30873e-05 -3.07159e-08
7.30873e-05 0.000550426 -1.70499e-07
-3.07159e-08 -1.70499e-07 0.000563287

0.000484646 -0.000112062 -2.01619e-07
-0.000112062 0.000607613 7.03998e-08
-2.01619e-07 7.03998e-08 0.000554303

0.000251243 2.88138e-05 -1.8425e-08
2.88138e-05 0.00024753 1.14376e-07
-1.8425e-08 1.14376e-07 0.000276761

0.00026142 4.34818e-05 -4.50627e-08
4.34818e-05 0.000232479 -1.82165e-07
-4.50627e-08 -1.82165e-07 0.00027718

0.000526823 9.0618e-05 2.55224e-07
9.0618e-05 0.000822443 -3.891e-07
2.55224e-07 -3.891e-07 0.000638933

0.000617824 -7.16203e-05 -9.0045e-08
-7.16203e-05 0.000759145 -5.16358e-08
-9.0045e-08 -5.16358e-08 0.000639015

0.000524349 6.76351e-05 -2.30255e-09
6.76351e-05 0.000526415 5.36696e-08
-2.30255e-09 5.36696e-08 0.000539642

0.000470477 -8.09244e-05 1.04413e-07
-8.09244e-05 0.000518442 4.26942e-08
1.04413e-07 4.26942e-08 0.000483252

0.000505882 -7.96681e-05 -3.65192e-08
-7.96681e-05 0.000565906 -1.01062e-07
-3.65192e-08 -1.01062e-07 0.00054829

0.000507719 8.12637e-05 2.06719e-08
8.12637e-05 0.000539363 1.57106e-07
2.06719e-08 1.57106e-07 0.000552955

0.000472972 -9.38357e-05 1.45113e-07
-9.38357e-05 0.000548315 -1.13079e-08
1.45113e-07 -1.13079e-08 0.000511343

0.000465366 6.51445e-05 1.28041e-07
6.51445e-05 0.000500857 1.12432e-07
1.28041e-07 1.12432e-07 0.000486593

0.000304337 -3.42313e-05 1.42434e-08
-3.42313e-05 0.000405926 2.41383e-07
1.42434e-08 2.41383e-07 0.00033687

0.000321512 -2.94041e-05 3.40428e-09
-2.94041e-05 0.000403869 -9.66384e-08
3.40428e-09 -9.66384e-08 0.000334211

0.000408936 -2.44065e-05 -3.40686e-08
-2.44065e-05 0.000312325 1.52411e-07
-3.40686e-08 1.52411e-07 0.000331989

0.000465528 7.31047e-05 6.27515e-08
7.31047e-05 0.000523828 1.6799e-08
6.27515e-08 1.6799e-08 0.000515373

0.000271969 -3.95665e-06 1.94051e-08
-3.95665e-06 0.000381677 2.34719e-07
1.94051e-08 2.34719e-07 0.000312375

0.000375663 7.47447e-06 2.12154e-07
7.47447e-06 0.000282104 -5.9139e-08
2.12154e-07 -5.9139e-08 0.000310724

0.000529153 -7.67001e-05 9.9088e-08
-7.67001e-05 0.000603711 7.18334e-08
9.9088e-08 7.18334e-08 0.000577178

0.000534755 9.29462e-05 -6.70402e-08
9.29462e-05 0.000556988 -1.77524e-07
-6.70402e-08 -1.77524e-07 0.000582094

0.000537803 -6.12993e-05 1.94579e-08
-6.12993e-05 0.000608049 -2.00029e-07
1.94579e-08 -2.00029e-07 0.000581841

0.000538202 8.2018e-05 -1.02591e-07
8.2018e-05 0.000591325 -5.42916e-08
-1.02591e-07 -5.42916e-08 0.000585185

0.0002365 -5.5408e-05 2.31427e-08
-5.5408e-05 0.00024389 -7.57831e-08
2.31427e-08 -7.57831e-08 0.000272104

0.000234746 -5.35328e-05 -5.34343e-08
-5.35328e-05 0.00024962 -1.5545e-08
-5.34343e-08 -1.5545e-08 0.000272949

0.000506119 6.82725e-05 -9.19348e-08
6.82725e-05 0.000521541 7.62914e-08
-9.19348e-08 7.62914e-08 0.000530985

0.000504685 -7.41685e-05 -5.52211e-08
-7.41685e-05 0.00055871 -8.7802e-08
-5.52211e-08 -8.7802e-08 0.000526549

0.000612993 -1.89916e-05 -2.95875e-07
-1.89916e-05 0.000699201 2.64049e-07
-2.95875e-07 2.64049e-07 0.000614561

0.000612565 -2.28216e-05 2.33985e-07
-2.28216e-05 0.00063226 -1.88766e-07
2.33985e-07 -1.88766e-07 0.000618284

0.000519903 -7.97148e-05 1.24593e-07
-7.97148e-05 0.000641093 2.82059e-08
1.24593e-07 2.82059e-08 0.000588119

0.000501463 8.52476e-05 6.07805e-08
8.52476e-05 0.000616305 2.51905e-08
6.07805e-08 2.51905e-08 0.000592664

0.000635806 -1.36048e-06 -1.22041e-07
-1.36048e-06 0.000539943 1.37365e-07
-1.22041e-07 1.37365e-07 0.000602823

0.000608293 1.7815e-05 -2.09736e-07
1.7815e-05 0.000557423 1.03752e-07
-2.09736e-07 1.03752e-07 0.000603477

0.000520407 7.56183e-05 -9.26425e-08
7.56183e-05 0.000575298 -1.3035e-07
-9.26425e-08 -1.3035e-07 0.000559274

0.000532989 -8.05921e-05 1.95139e-08
-8.05921e-05 0.000535127 -4.91373e-08
1.95139e-08 -4.91373e-08 0.000556438

0.000588344 -3.33738e-05 -1.84145e-07
-3.33738e-05 0.000696447 2.30746e-07
-1.84145e-07 2.30746e-07 0.00062132

0.000664045 3.23711e-05 -1.27918e-07
3.23711e-05 0.000622223 -1.09661e-07
-1.27918e-07 -1.09661e-07 0.000622574

0.00070895 -7.7427e-05 1.29656e-07
-7.7427e-05 0.000650853 -1.54942e-07
1.29656e-07 -1.54942e-07 0.000618288

0.000583894 -1.4144e-05 1.94342e-07
-1.4144e-05 0.00076667 -1.17477e-07
1.94342e-07 -1.17477e-07 0.00061804

0.000642543 2.21816e-05 3.20333e-07
2.21816e-05 0.000621077 -3.62874e-08
3.20333e-07 -3.62874e-08 0.000621297

0.0006002 2.19538e-06 5.54753e-08
2.19538e-06 0.000694328 2.08815e-07
5.54753e-08 2.08815e-07 0.000632343

0.000679886 -2.38083e-05 8.76068e-08
-2.38083e-05 0.000595614 1.11116e-08
8.76068e-08 1.11116e-08 0.000621246

0.000674314 -9.01939e-06 -1.392e-07
-9.01939e-06 0.000627756 -1.98776e-07
-1.392e-07 -1.98776e-07 0.000632271

0.00062185 -4.46658e-05 4.73375e-07
-4.46658e-05 0.000670133 -8.88731e-07
4.73375e-07 -8.88731e-07 0.000627037

0.000646454 0.000103301 9.20765e-08
0.000103301 0.000731045 3.53835e-08
9.20765e-08 3.53835e-08 0.000627874

0.000827038 1.75003e-05 7.33938e-08
1.75003e-05 0.000815679 -1.15019e-07
7.33938e-08 -1.15019e-07 0.000639117

0.000923804 -5.40847e-05 2.07652e-06
-5.40847e-05 0.000523879 1.42778e-06
2.07652e-06 1.42778e-06 0.000639548

0.000649186 -5.63303e-05 3.49563e-08
-5.63303e-05 0.000642687 -2.24181e-07
3.49563e-08 -2.24181e-07 0.000622013

0.000582167 -4.19872e-05 -2.42067e-07
-4.19872e-05 0.000653079 -4.07355e-08
-2.42067e-07 -4.07355e-08 0.000607312

0.000677457 9.80379e-05 1.04078e-07
9.80379e-05 0.000643858 5.35764e-08
1.04078e-07 5.35764e-08 0.000623227

0.000591604 5.49921e-05 6.11171e-08
5.49921e-05 0.000624496 2.51279e-08
6.11171e-08 2.51279e-08 0.000609657

0.000665704 0.000112694 1.49118e-07
0.000112694 0.000760136 -1.54988e-07
1.49118e-07 -1.54988e-07 0.000634781

0.000668515 -1.19181e-05 1.74946e-07
-1.19181e-05 0.000639515 4.24074e-07
1.74946e-07 4.24074e-07 0.000634837

0.000581505 -3.73788e-05 -2.37347e-07
-3.73788e-05 0.00063952 -9.85791e-08
-2.37347e-07 -9.85791e-08 0.000612548

0.0006452 -2.21975e-05 1.91315e-07
-2.21975e-05 0.000642798 3.49192e-08
1.91315e-07 3.49192e-08 0.000624678

0.000597474 9.20451e-05 6.60795e-08
9.20451e-05 0.000651202 8.59296e-08
6.60795e-08 8.59296e-08 0.000614013

0.00061187 6.12967e-05 4.13892e-08
6.12967e-05 0.000668958 9.36201e-08
4.13892e-08 9.36201e-08 0.000625191

0.000464821 2.16822e-05 1.0637e-07
2.16822e-05 0.000616821 -4.09947e-08
1.0637e-07 -4.09947e-08 0.000550421

0.000577076 -8.22198e-06 -1.42659e-08
-8.22198e-06 0.000620946 -9.47304e-08
-1.42659e-08 -9.47304e-08 0.000586026

0.000580125 2.07917e-05 3.73367e-08
2.07917e-05 0.000410449 -2.55085e-08
3.73367e-08 -2.55085e-08 0.000492411

0.000557424 5.10382e-06 5.28723e-08
5.10382e-06 0.000399841 -1.63456e-08
5.28723e-08 -1.63456e-08 0.000457461

0.000463964 2.4478e-05 9.01858e-08
2.4478e-05 0.000667686 1.47281e-07
9.01858e-08 1.47281e-07 0.000582474

0.000579428 6.35942e-06 2.08732e-09
6.35942e-06 0.000641971 9.54818e-08
2.08732e-09 9.54818e-08 0.000624777

0.000560759 -8.01156e-06 4.81872e-08
-8.01156e-06 0.000401086 2.02812e-08
4.81872e-08 2.02812e-08 0.000461654

0.000640755 -4.90393e-06 -3.13758e-08
-4.90393e-06 0.000454061 1.45936e-07
-3.13758e-08 1.45936e-07 0.000557477

0.000329838 -4.77915e-05 1.1938e-07
-4.77915e-05 0.000435573 -8.35342e-09
1.1938e-07 -8.35342e-09 0.000362997

0.000371549 7.7591e-05 1.68664e-07
7.7591e-05 0.000453604 -5.36939e-08
1.68664e-07 -5.36939e-08 0.000376262

0.000429915 7.34149e-05 -1.39838e-07
7.34149e-05 0.000350629 -8.22684e-08
-1.39838e-07 -8.22684e-08 0.000369882

0.000595105 8.8478e-05 -1.08206e-07
8.8478e-05 0.000648746 -9.45966e-08
-1.08206e-07 -9.45966e-08 0.000612619

0.000551643 -2.99885e-05 2.03632e-08
-2.99885e-05 0.000641237 -3.34758e-08
2.03632e-08 -3.34758e-08 0.000592533

0.000509776 7.56614e-05 -7.13588e-08
7.56614e-05 0.000550068 6.38287e-08
-7.13588e-08 6.38287e-08 0.000508845

0.000549433 6.66188e-05 1.51629e-07
6.66188e-05 0.000639047 6.33635e-08
1.51629e-07 6.33635e-08 0.000604933

0.000455231 -2.41721e-05 -4.92424e-08
-2.41721e-05 0.000669796 8.8394e-09
-4.92424e-08 8.8394e-09 0.000580186

0.000589321 -1.49333e-05 -9.26606e-08
-1.49333e-05 0.000427321 4.01537e-09
-9.26606e-08 4.01537e-09 0.000522464

0.000400386 3.54786e-05 5.4048e-08
3.54786e-05 0.000509765 1.63019e-07
5.4048e-08 1.63019e-07 0.000409642

0.000353476 -9.07323e-06 1.23832e-07
-9.07323e-06 0.00049711 1.85875e-10
1.23832e-07 1.85875e-10 0.000398218

0.000492969 3.62621e-05 -3.43423e-09
3.62621e-05 0.000372329 -1.70147e-07
-3.43423e-09 -1.70147e-07 0.000400073

0.00051043 -3.75563e-05 -5.0774e-08
-3.75563e-05 0.000384833 -2.32406e-08
-5.0774e-08 -2.32406e-08 0.000431295

0.000425223 6.46307e-05 -6.23709e-08
6.46307e-05 0.000526397 6.65827e-08
-6.23709e-08 6.65827e-08 0.000466865

0.000505892 -4.87608e-05 3.02612e-08
-4.87608e-05 0.000542174 5.49905e-08
3.02612e-08 5.49905e-08 0.000492271

0.000587202 -2.40474e-05 6.67063e-08
-2.40474e-05 0.000409692 1.28602e-08
6.67063e-08 1.28602e-08 0.000499097

0.000353644 4.89161e-05 1.01121e-07
4.89161e-05 0.000408901 -1.7947e-07
1.01121e-07 -1.7947e-07 0.000335738

0.000629523 4.8727e-06 1.08118e-08
4.8727e-06 0.000438037 -4.34429e-08
1.08118e-08 -4.34429e-08 0.000545226

0.000390915 5.22394e-05 1.01797e-07
5.22394e-05 0.000339157 5.50501e-08
1.01797e-07 5.50501e-08 0.000332371

0.000552158 6.00491e-06 1.38023e-07
6.00491e-06 0.000668722 1.28689e-07
1.38023e-07 1.28689e-07 0.000594294

0.000625774 3.06333e-05 6.39042e-08
3.06333e-05 0.000653839 1.19511e-07
6.39042e-08 1.19511e-07 0.000629305

0.000659406 -7.86802e-05 4.32651e-08
-7.86802e-05 0.000666515 5.5898e-08
4.32651e-08 5.5898e-08 0.000630391

0.000691403 3.37365e-05 2.21566e-07
3.37365e-05 0.000636453 3.23347e-08
2.21566e-07 3.23347e-08 0.000630521

0.000486748 -1.12527e-05 -8.64065e-08
-1.12527e-05 0.000363738 -4.52676e-09
-8.64065e-08 -4.52676e-09 0.000387055

0.000486888 9.19273e-05 -3.60248e-08
9.19273e-05 0.000538661 3.58332e-08
-3.60248e-08 3.58332e-08 0.000503434

0.000612432 1.38094e-05 -1.14487e-08
1.38094e-05 0.000594626 1.07942e-07
-1.14487e-08 1.07942e-07 0.000594018

0.000593218 -4.20245e-05 3.01147e-09
-4.20245e-05 0.000585607 7.26704e-08
3.01147e-09 7.26704e-08 0.000598015

0.000657861 -5.56657e-06 -8.26517e-08
-5.56657e-06 0.000438903 -3.93163e-08
-8.26517e-08 -3.93163e-08 0.000559034

0.000423315 7.59273e-05 -5.41479e-08
7.59273e-05 0.00049967 5.56216e-08
-5.41479e-08 5.56216e-08 0.000462231

0.000479704 -6.92288e-05 4.1263e-08
-6.92288e-05 0.000534142 6.96567e-08
4.1263e-08 6.96567e-08 0.000486582

0.000506063 -4.90569e-05 -3.19352e-08
-4.90569e-05 0.000424968 1.02021e-07
-3.19352e-08 1.02021e-07 0.000443472

0.000641646 -1.16932e-05 -2.33937e-08
-1.16932e-05 0.000424429 8.91006e-09
-2.33937e-08 8.91006e-09 0.000547255

0.000450137 8.94482e-05 -6.1106e-08
8.94482e-05 0.000540855 2.77829e-08
-6.1106e-08 2.77829e-08 0.000464466

0.000418411 -6.15692e-05 -1.55815e-07
-6.15692e-05 0.000497866 -1.00426e-07
-1.55815e-07 -1.00426e-07 0.000456927

0.000458539 8.276e-05 5.6516e-08
8.276e-05 0.000546175 -6.8302e-08
5.6516e-08 -6.8302e-08 0.000471296

0.000410519 -5.00094e-05 -4.21457e-08
-5.00094e-05 0.00053179 2.16278e-08
-4.21457e-08 2.16278e-08 0.000463015

0.000580639 -4.11581e-05 -1.19715e-07
-4.11581e-05 0.000615379 3.76414e-08
-1.19715e-07 3.76414e-08 0.000597216

0.000450217 5.76951e-05 4.14039e-08
5.76951e-05 0.000594805 8.24132e-08
4.14039e-08 8.24132e-08 0.000549396

0.000451162 -7.20914e-05 -1.17638e-07
-7.20914e-05 0.000421403 9.46269e-08
-1.17638e-07 9.46269e-08 0.000417082

0.000280838 -6.40474e-05 2.27437e-07
-6.40474e-05 0.000271189 2.80236e-09
2.27437e-07 2.80236e-09 0.000275185

0.000253708 -6.85732e-05 1.13494e-08
-6.85732e-05 0.00028859 -5.07774e-08
1.13494e-08 -5.07774e-08 0.000274247

0.000529685 0.000107407 -5.49543e-08
0.000107407 0.000643789 -1.14754e-07
-5.49543e-08 -1.14754e-07 0.000593276

0.000457866 -7.03828e-05 -8.29316e-08
-7.03828e-05 0.000624092 -7.25805e-08
-8.29316e-08 -7.25805e-08 0.00058017

0.000260268 -1.36518e-05 1.94532e-08
-1.36518e-05 0.00026117 8.69085e-08
1.94532e-08 8.69085e-08 0.000287284

0.000265493 -1.48887e-05 1.0696e-08
-1.48887e-05 0.00027597 -7.65744e-09
1.0696e-08 -7.65744e-09 0.000288642

0.00064665 6.12467e-05 1.03003e-07
6.12467e-05 0.000581721 8.20027e-08
1.03003e-07 8.20027e-08 0.000601583

0.000693618 -4.74158e-05 2.41654e-08
-4.74158e-05 0.00060078 -2.34181e-07
2.41654e-08 -2.34181e-07 0.00064701

0.000592522 -1.92488e-06 2.86042e-08
-1.92488e-06 0.000436279 4.77091e-08
2.86042e-08 4.77091e-08 0.000547084

0.00063962 8.64776e-05 7.98478e-08
8.64776e-05 0.000574778 2.44961e-07
7.98478e-08 2.44961e-07 0.00060168

0.000690171 -6.21396e-05 5.8687e-08
-6.21396e-05 0.000564221 8.76855e-09
5.8687e-08 8.76855e-09 0.000640353

0.00042448 6.10617e-05 -7.25831e-08
6.10617e-05 0.000553584 -6.14232e-08
-7.25831e-08 -6.14232e-08 0.000501266

0.000505507 -4.78197e-05 5.01137e-08
-4.78197e-05 0.000579093 -1.9373e-07
5.01137e-08 -1.9373e-07 0.00053325

0.000686653 2.9834e-05 1.50766e-07
2.9834e-05 0.000595614 1.11116e-08
1.50766e-07 1.11116e-08 0.00062122

0.000648235 -3.93676e-05 -1.52514e-07
-3.93676e-05 0.000621077 -3.62874e-08
-1.52514e-07 -3.62874e-08 0.000621205

0.000585661 9.24419e-05 6.09399e-08
9.24419e-05 0.000522359 4.75167e-08
6.09399e-08 4.75167e-08 0.000568002

0.000637429 -7.40213e-05 -1.28812e-07
-7.40213e-05 0.000539123 -1.7307e-09
-1.28812e-07 -1.7307e-09 0.000601363

0.000421432 -4.97128e-05 -4.13265e-08
-4.97128e-05 0.000341931 1.6907e-08
-4.13265e-08 1.6907e-08 0.000356638

0.000581189 -2.53432e-06 -1.09965e-07
-2.53432e-06 0.000741292 -1.80125e-07
-1.09965e-07 -1.80125e-07 0.000617508

0.000654415 1.84818e-05 -3.94201e-08
1.84818e-05 0.000706415 -1.95341e-08
-3.94201e-08 -1.95341e-08 0.000677

0.000297833 -9.11922e-06 7.25621e-08
-9.11922e-06 0.00039009 5.74492e-08
7.25621e-08 5.74492e-08 0.000322068

0.000385221 -1.07483e-05 2.31972e-07
-1.07483e-05 0.000306196 -1.64151e-07
2.31972e-07 -1.64151e-07 0.000320359

0.000429724 5.09702e-05 -4.13721e-08
5.09702e-05 0.000592872 6.48182e-08
-4.13721e-08 6.48182e-08 0.000536279

0.000530888 -3.03011e-05 1.04126e-07
-3.03011e-05 0.000613012 -9.93638e-09
1.04126e-07 -9.93638e-09 0.000574532

0.00078287 -1.79609e-05 -3.92159e-08
-1.79609e-05 0.000845544 5.70492e-07
-3.92159e-08 5.70492e-07 0.000636541

0.000823186 -5.91682e-05 3.39639e-07
-5.91682e-05 0.000649821 -4.88487e-07
3.39639e-07 -4.88487e-07 0.000690112

0.000584485 8.3095e-05 -1.65466e-07
8.3095e-05 0.00046651 -2.17141e-08
-1.65466e-07 -2.17141e-08 0.000542346

0.000613338 -5.46667e-05 -1.06628e-07
-5.46667e-05 0.000476993 -1.40529e-08
-1.06628e-07 -1.40529e-08 0.000563858

0.000483337 1.60105e-06 -7.29677e-08
1.60105e-06 0.00034939 -9.76775e-08
-7.29677e-08 -9.76775e-08 0.000383232

0.000560067 2.51895e-06 -1.05069e-07
2.51895e-06 0.000417015 1.06721e-08
-1.05069e-07 1.06721e-08 0.000482056

0.000518426 4.01602e-05 5.44235e-08
4.01602e-05 0.000384221 -1.67497e-08
5.44235e-08 -1.67497e-08 0.000423278

0.000615917 1.48781e-05 3.38891e-08
1.48781e-05 0.000517422 -9.2e-08
3.38891e-08 -9.2e-08 0.000582837

0.000566145 -2.9189e-05 -1.62147e-07
-2.9189e-05 0.000739229 -4.67099e-08
-1.62147e-07 -4.67099e-08 0.000635046

0.000650607 1.51649e-05 5.25447e-08
1.51649e-05 0.000662465 1.1075e-07
5.25447e-08 1.1075e-07 0.000635202

0.000427088 6.96486e-05 -7.93479e-08
6.96486e-05 0.000454456 -3.59709e-08
-7.93479e-08 -3.59709e-08 0.000393131

0.000493054 -6.05957e-05 1.474e-07
-6.05957e-05 0.000460268 -7.44264e-08
1.474e-07 -7.44264e-08 0.00048378

0.000571756 6.60651e-05 -1.39591e-07
6.60651e-05 0.000447336 -8.8064e-10
-1.39591e-07 -8.8064e-10 0.000515602

0.00064713 2.8821e-05 -1.89681e-07
2.8821e-05 0.000701816 1.7017e-08
-1.89681e-07 1.7017e-08 0.000673175

0.000624292 4.26292e-05 5.49456e-08
4.26292e-05 0.000760713 -1.40011e-07
5.49456e-08 -1.40011e-07 0.000624792

0.000598661 -3.53963e-05 -3.97922e-08
-3.53963e-05 0.000535554 -1.19312e-07
-3.97922e-08 -1.19312e-07 0.000587987

0.000550933 5.43841e-05 1.58267e-07
5.43841e-05 0.000618755 -5.02193e-08
1.58267e-07 -5.02193e-08 0.000570064

0.000457026 -1.01859e-05 -5.35382e-08
-1.01859e-05 0.000623167 -6.46299e-08
-5.35382e-08 -6.46299e-08 0.000548803

0.000615602 4.15072e-05 8.43311e-08
4.15072e-05 0.000431863 1.36532e-08
8.43311e-08 1.36532e-08 0.000563763

0.000630057 -8.25657e-06 -2.35849e-08
-8.25657e-06 0.000429391 8.05423e-08
-2.35849e-08 8.05423e-08 0.000574433

0.000460983 -5.36441e-05 -8.92102e-08
-5.36441e-05 0.000426087 -7.85258e-08
-8.92102e-08 -7.85258e-08 0.000400015

0.00063591 7.42002e-05 2.45549e-08
7.42002e-05 0.000486423 -1.35568e-07
2.45549e-08 -1.35568e-07 0.000583045

0.000662122 -4.703e-05 -4.62525e-08
-4.703e-05 0.000475335 -3.71811e-09
-4.62525e-08 -3.71811e-09 0.000605513

0.000585626 -3.63761e-05 -9.49538e-08
-3.63761e-05 0.0004665 -2.45411e-08
-9.49538e-08 -2.45411e-08 0.00053115

0.000609101 5.4263e-05 9.82522e-08
5.4263e-05 0.000474059 -5.84228e-08
9.82522e-08 -5.84228e-08 0.000563316

0.000621305 -2.76435e-05 -4.0128e-08
-2.76435e-05 0.000480091 -1.02081e-08
-4.0128e-08 -1.02081e-08 0.000582521

0.000577686 -2.30614e-05 9.63318e-08
-2.30614e-05 0.000451161 -5.21265e-08
9.63318e-08 -5.21265e-08 0.000513548

0.00049905 9.73044e-05 -5.21743e-08
9.73044e-05 0.000545385 -6.55237e-08
-5.21743e-08 -6.55237e-08 0.000559713

0.000630978 -8.33642e-05 3.98877e-08
-8.33642e-05 0.000590517 -5.34196e-08
3.98877e-08 -5.34196e-08 0.000613497

0.00049609 6.52366e-05 -5.48965e-08
6.52366e-05 0.000472267 -2.53506e-08
-5.48965e-08 -2.53506e-08 0.000445814

0.000594645 -6.08967e-05 -7.07822e-08
-6.08967e-05 0.000640039 -5.45617e-08
-7.07822e-08 -5.45617e-08 0.000630389

0.00046963 6.78631e-05 1.84966e-08
6.78631e-05 0.000564203 3.92525e-08
1.84966e-08 3.92525e-08 0.000566535

0.000519794 5.98309e-05 1.51256e-07
5.98309e-05 0.000388405 -9.85219e-08
1.51256e-07 -9.85219e-08 0.000444089

0.000545023 -5.31599e-05 -4.76388e-08
-5.31599e-05 0.000490964 4.49026e-08
-4.76388e-08 4.49026e-08 0.00054136

0.000575896 2.25953e-05 8.57419e-08
2.25953e-05 0.0004631 1.25884e-07
8.57419e-08 1.25884e-07 0.000504071

0.000449897 8.50532e-05 -6.33429e-08
8.50532e-05 0.000463768 -2.166e-08
-6.33429e-08 -2.166e-08 0.000432397

0.000509384 6.90061e-05 -7.52565e-08
6.90061e-05 0.000471422 -3.8849e-08
-7.52565e-08 -3.8849e-08 0.000483295

0.000497651 2.75057e-05 2.93822e-08
2.75057e-05 0.000605209 -1.17194e-07
2.93822e-08 -1.17194e-07 0.000555686

0.000407111 7.86464e-06 3.18392e-09
7.86464e-06 0.000617886 -9.41047e-08
3.18392e-09 -9.41047e-08 0.000530859

0.000461004 -5.24506e-05 -9.65686e-08
-5.24506e-05 0.000354697 1.02185e-07
-9.65686e-08 1.02185e-07 0.000382238

0.000477588 -9.53295e-05 2.60221e-10
-9.53295e-05 0.000555766 8.28935e-08
2.60221e-10 8.28935e-08 0.000562379

0.000503319 0.000104288 -1.47913e-08
0.000104288 0.000602391 -2.21074e-08
-1.47913e-08 -2.21074e-08 0.000557776

0.00048224 -7.70133e-05 4.42002e-08
-7.70133e-05 0.000488854 4.52819e-08
4.42002e-08 4.52819e-08 0.000448911

0.000427722 9.27984e-05 -7.5814e-08
9.27984e-05 0.000474808 -1.24943e-07
-7.5814e-08 -1.24943e-07 0.000430311

0.00055711 -4.31645e-05 8.45977e-08
-4.31645e-05 0.000461985 -7.7868e-08
8.45977e-08 -7.7868e-08 0.000509746

0.000640769 -1.11902e-05 1.38522e-08
-1.11902e-05 0.000466408 1.01476e-07
1.38522e-08 1.01476e-07 0.000580431

0.000659602 3.01125e-06 -2.12018e-08
3.01125e-06 0.000457497 3.68686e-08
-2.12018e-08 3.68686e-08 0.000578048

0.000486366 -7.21257e-05 1.33545e-07
-7.21257e-05 0.000499478 -1.39503e-07
1.33545e-07 -1.39503e-07 0.000492253

0.000354118 1.48463e-05 1.31689e-08
1.48463e-05 0.000501017 1.4883e-07
1.31689e-08 1.4883e-07 0.000395176

0.000313613 1.25951e-05 -8.53196e-08
1.25951e-05 0.00048788 6.09952e-08
-8.53196e-08 6.09952e-08 0.000382677

0.000482227 1.34939e-05 6.83758e-08
1.34939e-05 0.000330258 3.65545e-08
6.83758e-08 3.65545e-08 0.000386388

0.000429545 7.67882e-05 -1.25866e-07
7.67882e-05 0.000411119 9.77329e-09
-1.25866e-07 9.77329e-09 0.000387048

0.000502929 -7.50271e-05 -5.48467e-08
-7.50271e-05 0.000429123 -1.10931e-07
-5.48467e-08 -1.10931e-07 0.00044591

0.00063438 8.63253e-05 -1.98731e-07
8.63253e-05 0.000739569 1.41477e-08
-1.98731e-07 1.41477e-08 0.000680226

0.000780352 -2.29812e-05 1.87711e-08
-2.29812e-05 0.000786632 -1.28541e-07
1.87711e-08 -1.28541e-07 0.000632661

0.000539361 -2.57373e-05 1.18056e-07
-2.57373e-05 0.000391573 1.37566e-07
1.18056e-07 1.37566e-07 0.000453729

0.000448316 6.78005e-05 5.36374e-08
6.78005e-05 0.000548662 4.181e-08
5.36374e-08 4.181e-08 0.000527046

0.000561909 -7.63545e-05 -1.42073e-07
-7.63545e-05 0.000588043 -3.65691e-08
-1.42073e-07 -3.65691e-08 0.000569124

0.00059697 3.523e-05 2.39376e-08
3.523e-05 0.00043264 -3.04842e-08
2.39376e-08 -3.04842e-08 0.000541567

0.000423694 7.17322e-05 -4.78157e-08
7.17322e-05 0.000542731 -9.7527e-08
-4.78157e-08 -9.7527e-08 0.000452512

0.000367637 -3.16641e-05 1.3677e-07
-3.16641e-05 0.000524746 -3.04106e-08
1.3677e-07 -3.04106e-08 0.000440556

0.000452099 7.23264e-05 7.48944e-08
7.23264e-05 0.000627261 -8.30265e-08
7.48944e-08 -8.30265e-08 0.000582471

0.000618803 -2.96721e-05 -9.33604e-10
-2.96721e-05 0.000661869 9.68843e-08
-9.33604e-10 9.68843e-08 0.000652752

0.000485821 7.34248e-05 -5.80688e-09
7.34248e-05 0.00054445 1.00961e-07
-5.80688e-09 1.00961e-07 0.000568949

0.000622556 -7.38741e-05 6.03341e-08
-7.38741e-05 0.00063095 -1.26831e-07
6.03341e-08 -1.26831e-07 0.000637308

0.000642263 5.50976e-06 -5.0322e-08
5.50976e-06 0.000366497 -5.01166e-08
-5.0322e-08 -5.01166e-08 0.000583038

0.000466711 9.30706e-05 3.50479e-08
9.30706e-05 0.000415014 1.27774e-07
3.50479e-08 1.27774e-07 0.000428277

0.00050409 0.000111367 8.51907e-10
0.000111367 0.000635501 2.09241e-08
8.51907e-10 2.09241e-08 0.000568492

0.00047041 -8.2454e-05 5.68976e-08
-8.2454e-05 0.000543045 -8.67854e-08
5.68976e-08 -8.67854e-08 0.000571626

0.000464335 7.87971e-05 8.1649e-09
7.87971e-05 0.000453758 -2.28378e-07
8.1649e-09 -2.28378e-07 0.000446139

0.000389918 -4.73884e-05 -9.86191e-08
-4.73884e-05 0.000435368 -2.26381e-08
-9.86191e-08 -2.26381e-08 0.000379469

0.000474868 -7.16713e-05 2.68259e-08
-7.16713e-05 0.000523157 1.79232e-08
2.68259e-08 1.79232e-08 0.000523108

0.000423956 -1.54454e-05 -1.95632e-08
-1.54454e-05 0.000513409 1.66416e-07
-1.95632e-08 1.66416e-07 0.000422215

0.000365248 4.08684e-05 -6.67376e-08
4.08684e-05 0.000503356 7.0979e-08
-6.67376e-08 7.0979e-08 0.000407379

0.000496852 -1.60344e-05 -9.21554e-10
-1.60344e-05 0.000389873 1.77812e-07
-9.21554e-10 1.77812e-07 0.000411648

0.000501732 -6.72049e-05 -5.69248e-08
-6.72049e-05 0.000483847 -7.78324e-08
-5.69248e-08 -7.78324e-08 0.000464209

0.000406875 1.12172e-05 1.96982e-09
1.12172e-05 0.000578454 -6.97207e-08
1.96982e-09 -6.97207e-08 0.00048649

0.000496535 1.57008e-05 3.34769e-08
1.57008e-05 0.000581227 -3.49268e-08
3.34769e-08 -3.49268e-08 0.000506328

0.000410851 -6.40174e-05 -2.63301e-08
-6.40174e-05 0.000429421 -4.47253e-08
-2.63301e-08 -4.47253e-08 0.000382825

0.000370006 7.97226e-05 1.68474e-08
7.97226e-05 0.000423282 -6.21475e-08
1.68474e-08 -6.21475e-08 0.000372984

0.000603099 1.50892e-05 -1.08771e-07
1.50892e-05 0.000441095 4.61053e-08
-1.08771e-07 4.61053e-08 0.000579145

0.000607826 9.36091e-08 4.15894e-08
9.36091e-08 0.000433554 9.3408e-08
4.15894e-08 9.3408e-08 0.000586926

0.000488339 8.14861e-05 8.6776e-08
8.14861e-05 0.000529029 2.73134e-08
8.6776e-08 2.73134e-08 0.000534637

0.000575412 -6.70854e-05 -4.73512e-08
-6.70854e-05 0.000593569 4.86804e-09
-4.73512e-08 4.86804e-09 0.000578785

0.000522953 0.000109959 1.08292e-07
0.000109959 0.000646379 -5.79733e-08
1.08292e-07 -5.79733e-08 0.000589857

0.000439427 -6.24566e-05 -1.16011e-07
-6.24566e-05 0.000620783 -6.07633e-08
-1.16011e-07 -6.07633e-08 0.000581856

0.000518779 7.21897e-05 1.69467e-07
7.21897e-05 0.000546761 1.43976e-07
1.69467e-07 1.43976e-07 0.000541321

0.000421276 4.52049e-05 -1.61624e-07
4.52049e-05 0.000341157 8.94291e-09
-1.61624e-07 8.94291e-09 0.000347622

0.000439959 -4.11283e-05 2.47844e-08
-4.11283e-05 0.000541603 5.5246e-08
2.47844e-08 5.5246e-08 0.000463393

0.000373197 5.52757e-05 -6.86124e-08
5.52757e-05 0.000525633 6.6288e-08
-6.86124e-08 6.6288e-08 0.000443939

0.000634842 6.59546e-05 -4.93811e-08
6.59546e-05 0.000523896 5.08099e-08
-4.93811e-08 5.08099e-08 0.000585395

0.000668515 -3.80316e-05 6.28319e-08
-3.80316e-05 0.000540708 2.52834e-09
6.28319e-08 2.52834e-09 0.000618383

0.000564213 -6.29936e-05 6.87331e-08
-6.29936e-05 0.00050306 -7.74149e-08
6.87331e-08 -7.74149e-08 0.000522365

0.000585082 7.84667e-05 -1.52294e-07
7.84667e-05 0.000494118 -1.72643e-07
-1.52294e-07 -1.72643e-07 0.000545307

0.000613017 -5.4453e-05 -1.07483e-07
-5.4453e-05 0.000524832 -2.3922e-08
-1.07483e-07 -2.3922e-08 0.000573001

0.000281109 -2.07705e-05 4.11667e-08
-2.07705e-05 0.000184364 1.89077e-07
4.11667e-08 1.89077e-07 0.000292182

0.000181043 -2.60146e-05 4.84884e-08
-2.60146e-05 0.00027119 -8.44813e-08
4.84884e-08 -8.44813e-08 0.000290997

0.000716017 8.88675e-05 -3.01852e-08
8.88675e-05 0.000636463 -1.26673e-07
-3.01852e-08 -1.26673e-07 0.00062323

0.000753679 -6.21891e-05 -1.29016e-07
-6.21891e-05 0.000587587 -1.11394e-08
-1.29016e-07 -1.11394e-08 0.000663668

0.00053141 8.56542e-05 7.35845e-08
8.56542e-05 0.000471673 -1.41638e-07
7.35845e-08 -1.41638e-07 0.000499392

0.00042578 4.119e-05 -1.32229e-07
4.119e-05 0.000327443 -7.48654e-08
-1.32229e-07 -7.48654e-08 0.00034583

0.000492591 7.67452e-05 -6.62661e-08
7.67452e-05 0.000611011 6.25602e-08
-6.62661e-08 6.25602e-08 0.000550197

0.000417364 -2.98765e-05 -9.63807e-08
-2.98765e-05 0.000613393 -8.61488e-08
-9.63807e-08 -8.61488e-08 0.000536267

0.000421858 -7.31592e-05 -1.72117e-07
-7.31592e-05 0.000456095 3.33324e-08
-1.72117e-07 3.33324e-08 0.000422063

0.000560154 4.72311e-05 -1.48171e-07
4.72311e-05 0.000630081 -6.84409e-08
-1.48171e-07 -6.84409e-08 0.00059435

0.000628473 -2.69983e-05 4.41291e-10
-2.69983e-05 0.000662178 9.69741e-08
4.41291e-10 9.69741e-08 0.000651826

0.000498601 5.72339e-05 -9.33529e-09
5.72339e-05 0.000398735 1.15568e-07
-9.33529e-09 1.15568e-07 0.000419716

0.000554678 3.12211e-05 -1.08187e-07
3.12211e-05 0.000409272 4.34678e-08
-1.08187e-07 4.34678e-08 0.000479484

0.000434972 0.000107749 3.04686e-08
0.000107749 0.000571732 4.03397e-08
3.04686e-08 4.03397e-08 0.000568311

0.000641973 -5.53486e-05 9.45939e-08
-5.53486e-05 0.000638641 -6.95802e-08
9.45939e-08 -6.95802e-08 0.000644754

0.000458876 8.90522e-05 5.78801e-08
8.90522e-05 0.000583974 -2.19478e-08
5.78801e-08 -2.19478e-08 0.00050933

0.000410085 -4.80244e-05 -5.37188e-08
-4.80244e-05 0.00055969 1.81328e-07
-5.37188e-08 1.81328e-07 0.000501339

0.000533353 9.70237e-05 1.03041e-08
9.70237e-05 0.000489828 -1.96184e-07
1.03041e-08 -1.96184e-07 0.000526206

0.000589023 -8.19781e-05 -9.65008e-09
-8.19781e-05 0.000517347 -9.72215e-09
-9.65008e-09 -9.72215e-09 0.000555431

0.000389623 2.66221e-05 -1.63067e-08
2.66221e-05 0.000567772 -6.11137e-08
-1.63067e-08 -6.11137e-08 0.000475303

0.000467053 -2.09606e-06 -2.31917e-08
-2.09606e-06 0.000571003 -6.1611e-08
-2.31917e-08 -6.1611e-08 0.000497868

0.000294139 -3.19067e-05 5.11482e-08
-3.19067e-05 0.000345406 -1.83716e-07
5.11482e-08 -1.83716e-07 0.000297765

0.000336917 -3.11128e-05 5.304e-08
-3.11128e-05 0.00030265 -1.8179e-07
5.304e-08 -1.8179e-07 0.000297435

0.00057357 5.03327e-05 -1.40984e-07
5.03327e-05 0.000425195 2.42309e-08
-1.40984e-07 2.42309e-08 0.000514375

0.000831565 1.31403e-05 -3.14534e-07
1.31403e-05 0.000713187 -9.2133e-08
-3.14534e-07 -9.2133e-08 0.000634762

0.00082384 -5.45615e-05 2.04375e-07
-5.45615e-05 0.000623857 -1.6294e-07
2.04375e-07 -1.6294e-07 0.000682996

0.00058901 -7.21937e-05 1.11072e-08
-7.21937e-05 0.000666887 6.26342e-08
1.11072e-08 6.26342e-08 0.000617805

0.000601269 2.29233e-05 -1.33296e-07
2.29233e-05 0.000636166 -4.78086e-08
-1.33296e-07 -4.78086e-08 0.000617005

0.000621883 -4.73844e-06 2.98461e-08
-4.73844e-06 0.000426006 -2.11914e-08
2.98461e-08 -2.11914e-08 0.000519217

0.000495668 0.000119596 -2.74857e-08
0.000119596 0.000631567 6.83997e-08
-2.74857e-08 6.83997e-08 0.000567578

0.000417513 -0.000111857 1.34196e-07
-0.000111857 0.000570726 2.66996e-08
1.34196e-07 2.66996e-08 0.00056889

0.000319658 5.9714e-05 2.02822e-08
5.9714e-05 0.000344573 8.76454e-08
2.02822e-08 8.76454e-08 0.000315915

0.000351723 6.29189e-05 3.42006e-08
6.29189e-05 0.000342964 1.80888e-08
3.42006e-08 1.80888e-08 0.000318767

0.000326954 -2.29544e-05 8.45708e-08
-2.29544e-05 0.000421609 -1.41444e-07
8.45708e-08 -1.41444e-07 0.00034511

0.000317593 4.73326e-05 9.22054e-09
4.73326e-05 0.000409572 -6.95035e-08
9.22054e-09 -6.95035e-08 0.000339362

0.000416712 -1.12914e-05 -4.28456e-08
-1.12914e-05 0.000316469 5.33632e-08
-4.28456e-08 5.33632e-08 0.000341682

0.000290185 2.79298e-05 -1.22423e-08
2.79298e-05 0.000401987 -2.14664e-07
-1.22423e-08 -2.14664e-07 0.000322609

0.000383898 3.25987e-05 6.23914e-08
3.25987e-05 0.000287263 -8.13739e-08
6.23914e-08 -8.13739e-08 0.00032049

0.00057542 8.77814e-06 1.25184e-07
8.77814e-06 0.000700323 1.81061e-07
1.25184e-07 1.81061e-07 0.000610843

0.00061252 6.28238e-05 -1.18647e-07
6.28238e-05 0.000680808 -7.32351e-08
-1.18647e-07 -7.32351e-08 0.000636293

0.000613781 1.03613e-05 -1.05182e-07
1.03613e-05 0.000510756 -2.24444e-07
-1.05182e-07 -2.24444e-07 0.000551421

0.000656929 -1.94135e-06 -7.69851e-08
-1.94135e-06 0.000425676 -5.58651e-08
-7.69851e-08 -5.58651e-08 0.000558572

0.000404064 -3.84191e-05 -4.71675e-08
-3.84191e-05 0.000486925 1.33148e-07
-4.71675e-08 1.33148e-07 0.000413422

0.000364171 5.74452e-05 2.01939e-08
5.74452e-05 0.000464967 -3.3783e-08
2.01939e-08 -3.3783e-08 0.000398385

0.00062144 -3.1029e-06 2.92448e-08
-3.1029e-06 0.000420933 -1.80834e-08
2.92448e-08 -1.80834e-08 0.000521708

0.000677046 4.93378e-05 2.35505e-07
4.93378e-05 0.000597418 1.86431e-07
2.35505e-07 1.86431e-07 0.00061292

0.000710677 -3.44933e-05 -9.66254e-08
-3.44933e-05 0.000582029 -4.93081e-08
-9.66254e-08 -4.93081e-08 0.000650143

0.000551321 4.71207e-05 -1.35199e-08
4.71207e-05 0.000564885 2.49974e-07
-1.35199e-08 2.49974e-07 0.00054837

0.000471512 -7.80417e-05 3.60957e-08
-7.80417e-05 0.00053721 6.13925e-08
3.60957e-08 6.13925e-08 0.000535281

0.000487247 0.000100763 -3.75464e-08
0.000100763 0.000602687 -3.29684e-08
-3.75464e-08 -3.29684e-08 0.000533327

0.000614433 1.02453e-05 -7.61383e-08
1.02453e-05 0.000446361 5.91315e-08
-7.61383e-08 5.91315e-08 0.000539175

0.000428977 7.17014e-05 -1.11876e-07
7.17014e-05 0.000408593 9.27937e-08
-1.11876e-07 9.27937e-08 0.000381462

0.000436715 -5.93462e-05 7.5589e-08
-5.93462e-05 0.000560945 7.9085e-08
7.5589e-08 7.9085e-08 0.000528886

0.000490124 0.000107559 7.59193e-09
0.000107559 0.000594567 -5.71867e-08
7.59193e-09 -5.71867e-08 0.000532393

0.0002572 0.000125987 -1.2529e-07
0.000125987 0.000266859 1.95778e-07
-1.2529e-07 1.95778e-07 0.000263612

0.000380286 -6.8311e-06 1.45079e-07
-6.8311e-06 0.000567886 -8.57668e-09
1.45079e-07 -8.57668e-09 0.000472761

0.000443224 4.13283e-05 -9.27429e-08
4.13283e-05 0.00056906 1.90009e-08
-9.27429e-08 1.90009e-08 0.000487685

0.000555394 -9.64565e-06 1.60509e-07
-9.64565e-06 0.000740981 -3.13778e-09
1.60509e-07 -3.13778e-09 0.000613455

0.000631764 4.98383e-05 3.66942e-09
4.98383e-05 0.000673147 -2.33671e-07
3.66942e-09 -2.33671e-07 0.000652529

0.000652471 4.03738e-05 -6.62868e-08
4.03738e-05 0.000422492 1.01827e-07
-6.62868e-08 1.01827e-07 0.000592105

0.000673588 -2.77956e-05 1.08395e-07
-2.77956e-05 0.000395799 7.07089e-09
1.08395e-07 7.07089e-09 0.00060782

0.000557105 5.44437e-05 -1.70523e-07
5.44437e-05 0.000570686 1.72809e-07
-1.70523e-07 1.72809e-07 0.000575334

0.000548599 -8.27229e-05 -3.14852e-08
-8.27229e-05 0.000566019 6.28292e-08
-3.14852e-08 6.28292e-08 0.000580773

0.000589295 4.61172e-05 -1.24733e-07
4.61172e-05 0.000657678 -8.45643e-08
-1.24733e-07 -8.45643e-08 0.000611411

0.000595649 -6.34787e-05 -1.36387e-08
-6.34787e-05 0.000620948 -4.26042e-08
-1.36387e-08 -4.26042e-08 0.000613222

0.000751488 8.51376e-05 -2.20816e-07
8.51376e-05 0.000705037 -9.76149e-08
-2.20816e-07 -9.76149e-08 0.000630931

0.000791828 -5.83991e-05 1.8635e-07
-5.83991e-05 0.000623518 -1.63994e-07
1.8635e-07 -1.63994e-07 0.000681693

0.000509439 0.000119028 9.93971e-09
0.000119028 0.000563213 1.04395e-07
9.93971e-09 1.04395e-07 0.000585101

0.000694796 -6.37569e-05 8.50439e-08
-6.37569e-05 0.000623104 -1.32221e-07
8.50439e-08 -1.32221e-07 0.000661432

0.000532254 8.76084e-05 4.56171e-08
8.76084e-05 0.000441869 -2.80292e-08
4.56171e-08 -2.80292e-08 0.00049175

0.000493261 7.61564e-05 -6.42411e-08
7.61564e-05 0.000587394 4.8636e-08
-6.42411e-08 4.8636e-08 0.000517175

0.000418008 -3.01711e-05 -5.78924e-08
-3.01711e-05 0.000578838 1.78732e-07
-5.78924e-08 1.78732e-07 0.000504594

0.00053854 -8.91146e-05 -3.53637e-08
-8.91146e-05 0.000494469 -9.61985e-08
-3.53637e-08 -9.61985e-08 0.000503651

0.000420851 -4.74493e-05 -4.26183e-08
-4.74493e-05 0.000401398 3.59364e-08
-4.26183e-08 3.59364e-08 0.000374488

0.000565792 -6.41294e-05 8.64509e-08
-6.41294e-05 0.000457848 5.516e-09
8.64509e-08 5.516e-09 0.000507227

0.000485275 9.69323e-05 1.01231e-07
9.69323e-05 0.00046945 -1.45418e-07
1.01231e-07 -1.45418e-07 0.000480631

0.00047744 -0.000130024 -3.91588e-08
-0.000130024 0.000573225 -5.55657e-08
-3.91588e-08 -5.55657e-08 0.000588016

0.000517842 0.000103334 -7.88401e-08
0.000103334 0.000629679 -2.20689e-09
-7.88401e-08 -2.20689e-09 0.000584164

0.00060696 -2.27885e-05 -1.69384e-07
-2.27885e-05 0.000504677 2.00552e-09
-1.69384e-07 2.00552e-09 0.000559344

0.000784049 -3.85507e-05 -2.05619e-07
-3.85507e-05 0.000765648 -1.6872e-08
-2.05619e-07 -1.6872e-08 0.000631633

0.000667465 3.27943e-05 2.59587e-08
3.27943e-05 0.000725582 -1.8717e-07
2.59587e-08 -1.8717e-07 0.000670442

0.000551892 3.9593e-05 3.33698e-09
3.9593e-05 0.000498367 -2.59274e-07
3.33698e-09 -2.59274e-07 0.000535638

0.000661856 -1.59454e-05 3.32602e-08
-1.59454e-05 0.000534463 -9.17561e-08
3.32602e-08 -9.17561e-08 0.000596058

0.000332246 -4.48384e-05 5.54727e-08
-4.48384e-05 0.000360188 1.34762e-07
5.54727e-08 1.34762e-07 0.000313751

0.000365757 -4.27549e-05 -9.00878e-09
-4.27549e-05 0.000313849 5.48214e-08
-9.00878e-09 5.48214e-08 0.000313884

0.00065638 1.28824e-05 1.23795e-07
1.28824e-05 0.00048474 -1.34212e-07
1.23795e-07 -1.34212e-07 0.000596452

0.000671451 3.06953e-06 9.18019e-08
3.06953e-06 0.000469333 -1.19422e-08
9.18019e-08 -1.19422e-08 0.00061832

0.000640332 1.20649e-06 -5.17302e-08
1.20649e-06 0.000556667 -1.23655e-07
-5.17302e-08 -1.23655e-07 0.000597979

0.000530985 -3.51577e-05 1.05559e-07
-3.51577e-05 0.000584772 -1.57574e-07
1.05559e-07 -1.57574e-07 0.000535732

0.000429606 4.47843e-05 -4.2789e-08
4.47843e-05 0.000572634 -8.08533e-08
-4.2789e-08 -8.08533e-08 0.00050553

0.000520152 7.06314e-05 1.53905e-07
7.06314e-05 0.000422724 5.6604e-08
1.53905e-07 5.6604e-08 0.000455128

0.000588494 8.06809e-05 5.27964e-08
8.06809e-05 0.000529904 1.1242e-07
5.27964e-08 1.1242e-07 0.000570009

0.000639298 -6.40978e-05 -1.03154e-07
-6.40978e-05 0.000578602 2.0269e-07
-1.03154e-07 2.0269e-07 0.000610301

0.000683775 1.03055e-05 1.77628e-07
1.03055e-05 0.000643912 -2.44415e-07
1.77628e-07 -2.44415e-07 0.000638681

0.000659796 -8.9455e-05 1.12938e-07
-8.9455e-05 0.000778232 -3.47632e-07
1.12938e-07 -3.47632e-07 0.000638172

0.000560817 3.54272e-05 1.90153e-07
3.54272e-05 0.00048752 -1.22813e-07
1.90153e-07 -1.22813e-07 0.000503038

0.000636692 5.63912e-05 2.20635e-08
5.63912e-05 0.000542329 -2.60379e-08
2.20635e-08 -2.60379e-08 0.000589282

0.000662301 -4.24195e-05 -4.88506e-08
-4.24195e-05 0.000538407 -1.1635e-07
-4.88506e-08 -1.1635e-07 0.000617924

0.000462978 -3.47078e-05 -8.44571e-08
-3.47078e-05 0.000598058 -9.44424e-08
-8.44571e-08 -9.44424e-08 0.000555286

0.000531416 9.7369e-05 -6.88371e-08
9.7369e-05 0.000620921 6.07742e-08
-6.88371e-08 6.07742e-08 0.000565722

0.000509823 0.000123998 1.13401e-08
0.000123998 0.000632407 7.29678e-08
1.13401e-08 7.29678e-08 0.000568593

0.000458982 -7.41292e-05 -2.81995e-08
-7.41292e-05 0.000556866 5.40051e-08
-2.81995e-08 5.40051e-08 0.00056615

0.000285924 0.000143358 -2.13912e-08
0.000143358 0.000290398 -7.06282e-08
-2.13912e-08 -7.06282e-08 0.00027282

0.000538459 7.67295e-05 -3.43685e-08
7.67295e-05 0.000652531 -9.27794e-08
-3.43685e-08 -9.27794e-08 0.000594184

0.000508092 -8.78493e-05 -3.34107e-08
-8.78493e-05 0.000618136 -4.3896e-08
-3.34107e-08 -4.3896e-08 0.00059739

0.000433608 -6.76023e-05 5.50956e-08
-6.76023e-05 0.000580035 -4.98488e-08
5.50956e-08 -4.98488e-08 0.00055116

0.000489629 0.000106319 -1.25941e-08
0.000106319 0.000619329 4.37641e-08
-1.25941e-08 4.37641e-08 0.000555764

0.000543693 -4.72039e-05 1.38282e-07
-4.72039e-05 0.000444889 -3.34277e-08
1.38282e-07 -3.34277e-08 0.000470214

0.000545324 -5.70377e-05 -4.93059e-08
-5.70377e-05 0.000533378 7.46517e-08
-4.93059e-08 7.46517e-08 0.00055276

0.000546871 6.24404e-05 -6.44684e-08
6.24404e-05 0.00060764 -1.27958e-07
-6.44684e-08 -1.27958e-07 0.000581093

0.000547311 -8.58043e-05 -5.36085e-08
-8.58043e-05 0.000561089 -2.05658e-08
-5.36085e-08 -2.05658e-08 0.00058473

0.000606958 -2.22741e-05 -1.69499e-07
-2.22741e-05 0.000446266 4.96667e-08
-1.69499e-07 4.96667e-08 0.000546382

0.000656078 2.31104e-05 1.80417e-07
2.31104e-05 0.000593881 1.4721e-07
1.80417e-07 1.4721e-07 0.000609417

0.000679058 -2.41306e-05 8.56767e-08
-2.41306e-05 0.00055178 1.85108e-08
8.56767e-08 1.85108e-08 0.000637808

0.000621106 2.59643e-05 -8.22844e-08
2.59643e-05 0.000802695 -1.42144e-07
-8.22844e-08 -1.42144e-07 0.000627671

0.000644288 3.46671e-05 1.74671e-07
3.46671e-05 0.000753298 -3.61193e-08
1.74671e-07 -3.61193e-08 0.000667496

0.000272891 2.72528e-05 4.2245e-08
2.72528e-05 0.000201448 7.18127e-08
4.2245e-08 7.18127e-08 0.000285341

0.000204307 2.69459e-05 -1.68265e-07
2.69459e-05 0.000285717 2.56386e-07
-1.68265e-07 2.56386e-07 0.00028504

0.000538542 7.76411e-05 -1.08518e-07
7.76411e-05 0.000540028 -2.57602e-09
-1.08518e-07 -2.57602e-09 0.000566013

0.000625283 -8.0512e-05 2.07616e-09
-8.0512e-05 0.000603999 -9.5664e-08
2.07616e-09 -9.5664e-08 0.000616609

0.00026939 5.34758e-05 9.89325e-10
5.34758e-05 0.00026137 1.6903e-07
9.89325e-10 1.6903e-07 0.000286881

0.00025987 5.80367e-05 6.07527e-08
5.80367e-05 0.000264472 -5.78451e-08
6.07527e-08 -5.78451e-08 0.000287025

0.000780346 -1.92952e-05 1.50989e-07
-1.92952e-05 0.000723833 -2.1144e-07
1.50989e-07 -2.1144e-07 0.000681591

0.000780668 -1.2523e-05 3.65528e-07
-1.2523e-05 0.000801825 -7.09964e-07
3.65528e-07 -7.09964e-07 0.000636532

0.000511228 -7.70963e-05 -9.50448e-08
-7.70963e-05 0.000523966 3.56368e-08
-9.50448e-08 3.56368e-08 0.000545388

0.000545648 9.89254e-05 -7.96748e-08
9.89254e-05 0.000522517 1.81342e-07
-7.96748e-08 1.81342e-07 0.000556478

0.000627573 -8.44153e-05 -4.91133e-08
-8.44153e-05 0.000560646 2.30781e-07
-4.91133e-08 2.30781e-07 0.000598268

0.000484962 8.7776e-05 -1.90386e-08
8.7776e-05 0.00050193 6.17961e-08
-1.90386e-08 6.17961e-08 0.000491904

0.00054818 -6.98491e-05 5.89883e-08
-6.98491e-05 0.00053225 6.65482e-08
5.89883e-08 6.65482e-08 0.000520346

0.00034641 -1.27284e-05 -4.81518e-08
-1.27284e-05 0.000425714 -1.77295e-07
-4.81518e-08 -1.77295e-07 0.000348668

0.000306803 3.59909e-05 -5.69987e-08
3.59909e-05 0.000412677 -6.09618e-08
-5.69987e-08 -6.09618e-08 0.000340062

0.000418982 -4.96423e-06 -4.95627e-08
-4.96423e-06 0.000326771 2.25781e-08
-4.95627e-08 2.25781e-08 0.000344316

0.000484628 9.27056e-05 5.95375e-08
9.27056e-05 0.000516921 1.75677e-07
5.95375e-08 1.75677e-07 0.000519828

0.000568023 -9.10205e-05 -1.60869e-08
-9.10205e-05 0.000551989 1.75106e-07
-1.60869e-08 1.75106e-07 0.00055539

0.000274071 5.88492e-06 4.45536e-08
5.88492e-06 0.000387422 6.01443e-08
4.45536e-08 6.01443e-08 0.000314674

0.000382833 -1.352e-07 1.89149e-07
-1.352e-07 0.000289003 1.77922e-07
1.89149e-07 1.77922e-07 0.000313374

0.000583446 9.47321e-05 5.70437e-08
9.47321e-05 0.000544956 2.9413e-08
5.70437e-08 2.9413e-08 0.000583959

0.000671638 -6.69596e-05 2.45719e-07
-6.69596e-05 0.000597028 -1.42761e-07
2.45719e-07 -1.42761e-07 0.000638011

0.000581642 9.40848e-05 3.81077e-08
9.40848e-05 0.000571131 9.50699e-08
3.81077e-08 9.50699e-08 0.000587305

0.000663516 -8.23498e-05 2.31386e-07
-8.23498e-05 0.000587931 -1.92449e-07
2.31386e-07 -1.92449e-07 0.000633978

0.000246544 5.48402e-05 -1.43885e-07
5.48402e-05 0.00024891 -5.01417e-08
-1.43885e-07 -5.01417e-08 0.000274779

0.000245334 5.03583e-05 -2.10143e-07
5.03583e-05 0.000254875 1.89015e-07
-2.10143e-07 1.89015e-07 0.000274068

0.000535031 8.8327e-05 -3.60547e-08
8.8327e-05 0.000512775 2.12632e-07
-3.60547e-08 2.12632e-07 0.000535369

0.000590567 -7.26475e-05 1.28551e-08
-7.26475e-05 0.000562821 1.86291e-07
1.28551e-08 1.86291e-07 0.000571761

0.000639026 5.69161e-05 1.77862e-07
5.69161e-05 0.00068003 -5.59705e-08
1.77862e-07 -5.59705e-08 0.000651831

0.000609297 -1.87254e-05 -2.88467e-08
-1.87254e-05 0.000703412 1.90032e-07
-2.88467e-08 1.90032e-07 0.000617656

0.000532896 7.50016e-05 4.17317e-08
7.50016e-05 0.000609468 5.13468e-09
4.17317e-08 5.13468e-09 0.000593811

0.000680663 -8.46475e-05 1.3692e-07
-8.46475e-05 0.000630428 2.97488e-08
1.3692e-07 2.97488e-08 0.000659023

0.000673954 6.65496e-05 2.43635e-07
6.65496e-05 0.000540487 1.12319e-07
2.43635e-07 1.12319e-07 0.00060727

0.000709462 -4.3357e-05 -1.00462e-07
-4.3357e-05 0.000521295 -8.42224e-08
-1.00462e-07 -8.42224e-08 0.000639052

0.000523611 8.97151e-05 7.05461e-08
8.97151e-05 0.00060678 -1.30098e-07
7.05461e-08 -1.30098e-07 0.000560358

0.000500541 -7.5777e-05 -6.68336e-08
-7.5777e-05 0.000561396 -2.0761e-08
-6.68336e-08 -2.0761e-08 0.00056611

0.0006102 5.46716e-05 -1.34701e-07
5.46716e-05 0.0007408 -2.28872e-07
-1.34701e-07 -2.28872e-07 0.000650323

0.000638603 6.35835e-05 6.25054e-08
6.35835e-05 0.000658712 4.22889e-08
6.25054e-08 4.22889e-08 0.000625457

0.000660181 -0.000112461 1.80101e-07
-0.000112461 0.000657782 -1.75488e-07
1.80101e-07 -1.75488e-07 0.000626137

0.000579648 -1.51708e-05 1.55262e-07
-1.51708e-05 0.000767284 -1.10555e-07
1.55262e-07 -1.10555e-07 0.000621237

0.000718472 6.67388e-05 -1.27428e-08
6.67388e-05 0.000624258 3.34124e-09
-1.27428e-08 3.34124e-09 0.000623138

0.000777554 1.39208e-05 1.89869e-07
1.39208e-05 0.000671419 -1.84156e-07
1.89869e-07 -1.84156e-07 0.000631301

0.000749729 -6.11171e-05 1.35623e-07
-6.11171e-05 0.000567671 -1.86883e-08
1.35623e-07 -1.86883e-08 0.00065736

0.000793042 -1.98027e-05 2.51071e-07
-1.98027e-05 0.000607045 8.81453e-08
2.51071e-07 8.81453e-08 0.000672129

0.000677522 7.72243e-05 -8.13371e-08
7.72243e-05 0.000743668 -1.30697e-07
-8.13371e-08 -1.30697e-07 0.000626651

0.000851318 -1.228e-05 1.11491e-06
-1.228e-05 0.000797587 -3.04504e-07
1.11491e-06 -3.04504e-07 0.000637063

0.000861149 -5.23591e-05 4.19835e-06
-5.23591e-05 0.000638325 2.43701e-06
4.19835e-06 2.43701e-06 0.000696028

0.000807635 -6.87373e-05 9.87873e-07
-6.87373e-05 0.000652217 -1.73353e-06
9.87873e-07 -1.73353e-06 0.000697168

0.000717566 7.56271e-05 -3.32656e-08
7.56271e-05 0.000646822 -5.78305e-08
-3.32656e-08 -5.78305e-08 0.000622373

0.000648397 3.32837e-05 5.73772e-08
3.32837e-05 0.000621073 2.19315e-09
5.73772e-08 2.19315e-09 0.000609796

0.000727193 3.91893e-05 -1.20851e-07
3.91893e-05 0.000777835 3.47756e-07
-1.20851e-07 3.47756e-07 0.000633101

0.000798334 -5.22961e-05 -1.47289e-08
-5.22961e-05 0.000623743 -2.13799e-07
-1.47289e-08 -2.13799e-07 0.000688735

0.000792704 -6.29014e-05 8.93511e-08
-6.29014e-05 0.000646264 2.68171e-07
8.93511e-08 2.68171e-07 0.000690623

0.000721777 -4.27852e-05 -2.67641e-07
-4.27852e-05 0.000644717 -4.63187e-08
-2.67641e-07 -4.63187e-08 0.000672937

0.000657052 8.63968e-05 6.01948e-08
8.63968e-05 0.000623292 3.67157e-08
6.01948e-08 3.67157e-08 0.000614221

0.000726711 4.24209e-05 -5.32786e-08
4.24209e-05 0.000643927 7.20552e-08
-5.32786e-08 7.20552e-08 0.00062463

0.000725825 -6.5914e-05 -2.78432e-07
-6.5914e-05 0.000603875 8.59295e-08
-2.78432e-07 8.59295e-08 0.000664958

0.000758727 -3.8725e-05 -1.11703e-07
-3.8725e-05 0.000617618 1.37855e-07
-1.11703e-07 1.37855e-07 0.000671826

0.000698407 7.10301e-06 8.00849e-09
7.10301e-06 0.000702259 -1.85426e-08
8.00849e-09 -1.85426e-08 0.000718866

0.00075929 -3.78153e-06 9.62283e-08
-3.78153e-06 0.000732324 6.88924e-08
9.62283e-08 6.88924e-08 0.000735959

0.000742344 1.3701e-05 2.52007e-08
1.3701e-05 0.000699608 -1.31554e-08
2.52007e-08 -1.31554e-08 0.000718452

0.000701745 -1.38783e-05 -8.8489e-08
-1.38783e-05 0.000645939 6.36622e-08
-8.8489e-08 6.36622e-08 0.000707817

0.000703987 2.49335e-06 -7.8669e-08
2.49335e-06 0.000663281 6.90673e-08
-7.8669e-08 6.90673e-08 0.000712412

0.000762042 -2.00974e-05 1.03964e-07
-2.00974e-05 0.000739601 -2.10824e-08
1.03964e-07 -2.10824e-08 0.000735175

0.000738574 3.58678e-05 1.81683e-08
3.58678e-05 0.000694004 6.86408e-08
1.81683e-08 6.86408e-08 0.000715588

0.000705719 -3.34418e-06 -5.88567e-08
-3.34418e-06 0.000657931 -7.30502e-08
-5.88567e-08 -7.30502e-08 0.000712099

0.000708842 1.64166e-05 -6.04646e-09
1.64166e-05 0.000609354 6.54385e-09
-6.04646e-09 6.54385e-09 0.000684561

0.000715405 3.42091e-06 6.29982e-08
3.42091e-06 0.00070348 9.93125e-08
6.29982e-08 9.93125e-08 0.000726907

0.000715791 -3.04376e-06 -9.41153e-08
-3.04376e-06 0.000705316 -3.50464e-08
-9.41153e-08 -3.50464e-08 0.000727238

0.000737357 1.29079e-06 1.50056e-08
1.29079e-06 0.000750362 -3.08663e-08
1.50056e-08 -3.08663e-08 0.000747479

0.00076565 -2.07579e-05 -6.94788e-08
-2.07579e-05 0.000671348 -1.70062e-08
-6.94788e-08 -1.70062e-08 0.000704369

0.000783199 1.45719e-06 9.88769e-08
1.45719e-06 0.000749626 4.22545e-08
9.88769e-08 4.22545e-08 0.000737511

0.000698649 2.63526e-05 8.72209e-09
2.63526e-05 0.000689618 9.52678e-08
8.72209e-09 9.52678e-08 0.000714838

0.000683608 3.80244e-05 -4.7586e-08
3.80244e-05 0.000685813 -1.07562e-07
-4.7586e-08 -1.07562e-07 0.00070217

0.000742081 -3.58631e-05 -1.43303e-07
-3.58631e-05 0.000698424 2.78721e-08
-1.43303e-07 2.78721e-08 0.000720088

0.000757975 1.86028e-05 -3.41093e-08
1.86028e-05 0.00073809 1.23528e-07
-3.41093e-08 1.23528e-07 0.000733074

0.000755165 1.04578e-06 4.16403e-08
1.04578e-06 0.000772036 -7.24551e-08
4.16403e-08 -7.24551e-08 0.000759243

0.00071054 3.76639e-06 4.04099e-08
3.76639e-06 0.000720471 1.43162e-07
4.04099e-08 1.43162e-07 0.000729262

0.00071047 -4.00242e-06 -3.12013e-08
-4.00242e-06 0.000721253 8.5747e-08
-3.12013e-08 8.5747e-08 0.000729495

0.000736513 -4.70018e-06 6.31119e-08
-4.70018e-06 0.000758447 -6.19125e-08
6.31119e-08 -6.19125e-08 0.000750563

0.000698981 1.18195e-05 -1.01531e-07
1.18195e-05 0.000691132 1.02529e-07
-1.01531e-07 1.02529e-07 0.000716674

0.000700318 9.59123e-06 1.5671e-07
9.59123e-06 0.000670354 2.17533e-08
1.5671e-07 2.17533e-08 0.000716286

0.000685506 9.26523e-06 1.54328e-07
9.26523e-06 0.000690902 1.15904e-07
1.54328e-07 1.15904e-07 0.000712722

0.00074519 -6.37092e-06 9.11026e-09
-6.37092e-06 0.000741481 -8.12887e-08
9.11026e-09 -8.12887e-08 0.000743797

0.000706654 1.17144e-05 -8.53349e-08
1.17144e-05 0.000645766 -6.24854e-08
-8.53349e-08 -6.24854e-08 0.000706803

0.000709576 1.94906e-06 -1.05126e-07
1.94906e-06 0.000718036 -2.12185e-07
-1.05126e-07 -2.12185e-07 0.000729396

0.000710179 -1.59031e-05 1.09148e-07
-1.59031e-05 0.000606513 -1.70645e-09
1.09148e-07 -1.70645e-09 0.00069532

0.000732432 -4.37972e-06 2.36663e-08
-4.37972e-06 0.000745537 -2.59878e-08
2.36663e-08 -2.59878e-08 0.000744995

0.000781143 -3.51809e-06 -9.74602e-08
-3.51809e-06 0.000723826 5.72119e-08
-9.74602e-08 5.72119e-08 0.000727024

0.0007819 5.28025e-06 -6.77097e-08
5.28025e-06 0.000711237 1.02023e-07
-6.77097e-08 1.02023e-07 0.000725314

0.000730288 -1.81059e-05 2.57473e-08
-1.81059e-05 0.000703577 -5.98294e-08
2.57473e-08 -5.98294e-08 0.000700792

0.000730744 1.81917e-05 -1.62087e-07
1.81917e-05 0.000704979 1.22341e-07
-1.62087e-07 1.22341e-07 0.000700975

0.000706514 -4.23426e-06 6.08155e-08
-4.23426e-06 0.000683165 7.21105e-08
6.08155e-08 7.21105e-08 0.000719447

0.000678749 3.22491e-06 -3.15573e-08
3.22491e-06 0.000686067 -1.04005e-07
-3.15573e-08 -1.04005e-07 0.000708306

0.000689514 -2.9051e-05 1.21648e-07
-2.9051e-05 0.000689916 -5.72342e-08
1.21648e-07 -5.72342e-08 0.000704329

0.000688048 3.04294e-05 2.47152e-08
3.04294e-05 0.000690719 5.60577e-08
2.47152e-08 5.60577e-08 0.000704109

0.000712258 -1.40209e-05 -3.34779e-08
-1.40209e-05 0.000606342 4.59158e-09
-3.34779e-08 4.59158e-09 0.000680261

0.000737983 -7.34076e-06 3.82985e-08
-7.34076e-06 0.000756873 -1.20197e-07
3.82985e-08 -1.20197e-07 0.000746879

0.000697145 1.51322e-07 1.35282e-07
1.51322e-07 0.000685094 -1.20723e-07
1.35282e-07 -1.20723e-07 0.00071645

0.00070936 1.2165e-05 -1.12986e-08
1.2165e-05 0.000602879 9.67073e-08
-1.12986e-08 9.67073e-08 0.000682095

0.000699856 -1.07515e-05 5.23699e-08
-1.07515e-05 0.000692668 1.34368e-07
5.23699e-08 1.34368e-07 0.000717134

0.000697187 -7.36902e-06 -1.24716e-07
-7.36902e-06 0.00070301 -5.57803e-08
-1.24716e-07 -5.57803e-08 0.000718845

0.000760408 -1.53053e-05 8.38041e-09
-1.53053e-05 0.000750363 1.48595e-07
8.38041e-09 1.48595e-07 0.000745353

0.000704332 4.86171e-07 -1.53864e-07
4.86171e-07 0.000685098 -1.45661e-07
-1.53864e-07 -1.45661e-07 0.000719324

0.000715309 5.80223e-06 1.38702e-07
5.80223e-06 0.000713171 1.21219e-07
1.38702e-07 1.21219e-07 0.00073149

0.000724312 7.70887e-06 -1.19027e-07
7.70887e-06 0.000730666 -5.72894e-08
-1.19027e-07 -5.72894e-08 0.000739753

0.00072037 -5.63844e-05 3.3276e-09
-5.63844e-05 0.000650863 1.05566e-08
3.3276e-09 1.05566e-08 0.000695896

0.000722976 -3.50603e-06 -1.0999e-07
-3.50603e-06 0.000732877 9.53453e-08
-1.0999e-07 9.53453e-08 0.000738656

0.000708336 3.27288e-06 1.68432e-07
3.27288e-06 0.000712943 1.22653e-07
1.68432e-07 1.22653e-07 0.000728418

0.00077715 9.85858e-06 -3.13778e-08
9.85858e-06 0.000783532 1.71489e-07
-3.13778e-08 1.71489e-07 0.000766003

0.00077715 -9.88285e-06 -3.45144e-08
-9.88285e-06 0.000783873 -1.74424e-07
-3.45144e-08 -1.74424e-07 0.000765998

0.00075934 -4.00122e-06 6.07207e-09
-4.00122e-06 0.000775201 -5.92852e-08
6.07207e-09 -5.92852e-08 0.000761475

0.000775205 3.26598e-06 -7.63886e-08
3.26598e-06 0.000787072 -1.45276e-07
-7.63886e-08 -1.45276e-07 0.000766698

0.000775619 -4.72598e-06 -8.02866e-08
-4.72598e-06 0.000787111 1.477e-07
-8.02866e-08 1.477e-07 0.000766693

0.000744049 -1.31232e-05 9.6476e-09
-1.31232e-05 0.000751635 -7.45519e-08
9.6476e-09 -7.45519e-08 0.00074444

0.000718418 -2.35232e-05 -6.72383e-08
-2.35232e-05 0.000668021 6.13897e-09
-6.72383e-08 6.13897e-09 0.000690309

0.000718297 2.43142e-05 -9.47658e-08
2.43142e-05 0.000668021 1.29462e-07
-9.47658e-08 1.29462e-07 0.000690435

0.00076377 6.11312e-06 -4.97486e-08
6.11312e-06 0.000779494 -4.23633e-08
-4.97486e-08 -4.23633e-08 0.000762402

0.000762102 -6.39289e-06 -4.90121e-08
-6.39289e-06 0.000779652 6.27294e-08
-4.90121e-08 6.27294e-08 0.0007624

0.000705805 3.97137e-06 -4.12707e-08
3.97137e-06 0.000691129 2.35703e-08
-4.12707e-08 2.35703e-08 0.000722774

0.000757898 3.36849e-05 -1.0745e-07
3.36849e-05 0.000701114 -1.22071e-07
-1.0745e-07 -1.22071e-07 0.000701822

0.000801479 -2.71911e-05 -8.67597e-08
-2.71911e-05 0.000767409 1.24678e-07
-8.67597e-08 1.24678e-07 0.00073424

0.00073902 8.68191e-06 1.35852e-07
8.68191e-06 0.000757206 -1.6178e-08
1.35852e-07 -1.6178e-08 0.000747024

0.000709565 -3.85086e-06 -1.33638e-08
-3.85086e-06 0.000719887 -1.48555e-07
-1.33638e-08 -1.48555e-07 0.000730182

0.000710461 -5.6058e-06 -4.27105e-08
-5.6058e-06 0.000701775 2.45242e-08
-4.27105e-08 2.45242e-08 0.000725117

0.000744607 -1.24597e-05 -9.69126e-09
-1.24597e-05 0.000752286 1.44753e-07
-9.69126e-09 1.44753e-07 0.000740546

0.000717621 3.46037e-05 1.06622e-07
3.46037e-05 0.000682348 -7.14694e-08
1.06622e-07 -7.14694e-08 0.000713039

0.000800378 7.14523e-06 -1.32247e-07
7.14523e-06 0.000811122 5.13111e-07
-1.32247e-07 5.13111e-07 0.000771642

0.000800378 -6.902e-06 -1.33446e-07
-6.902e-06 0.000812293 -5.14081e-07
-1.33446e-07 -5.14081e-07 0.000771638

0.000700607 4.59539e-05 -3.95577e-09
4.59539e-05 0.00065691 -2.67878e-08
-3.95577e-09 -2.67878e-08 0.000686149

0.000758871 2.50169e-06 1.01079e-07
2.50169e-06 0.000776348 -2.56439e-08
1.01079e-07 -2.56439e-08 0.000761049

0.000759222 -2.68699e-06 9.08618e-08
-2.68699e-06 0.000776619 3.3187e-09
9.08618e-08 3.3187e-09 0.000761123

0.00064958 2.20516e-05 -9.36311e-08
2.20516e-05 0.000686098 -3.46503e-08
-9.36311e-08 -3.46503e-08 0.000694986

0.000762683 1.54918e-05 -3.51834e-08
1.54918e-05 0.000763713 -1.0089e-08
-3.51834e-08 -1.0089e-08 0.000741308

0.000704077 4.25738e-06 7.08672e-08
4.25738e-06 0.000682528 2.43576e-09
7.08672e-08 2.43576e-09 0.000719538

0.000705349 -6.79235e-06 1.02348e-07
-6.79235e-06 0.000667975 2.24351e-08
1.02348e-07 2.24351e-08 0.00071669

0.000694052 -3.43522e-05 1.05055e-07
-3.43522e-05 0.000648415 1.59374e-08
1.05055e-07 1.59374e-08 0.000701626

0.000685309 3.78608e-05 -4.92715e-08
3.78608e-05 0.000735966 1.78694e-07
-4.92715e-08 1.78694e-07 0.000698789

0.000686884 -3.93966e-05 -2.57672e-08
-3.93966e-05 0.000732674 -3.593e-08
-2.57672e-08 -3.593e-08 0.000698543

0.000702716 6.44745e-06 2.25697e-08
6.44745e-06 0.000703122 1.02112e-07
2.25697e-08 1.02112e-07 0.000723033

0.000690154 9.4192e-06 -2.14516e-09
9.4192e-06 0.000673624 1.44927e-08
-2.14516e-09 1.44927e-08 0.000713526

0.00075618 -7.53269e-06 3.97334e-08
-7.53269e-06 0.000770586 -4.00713e-08
3.97334e-08 -4.00713e-08 0.00075888

0.000793566 -4.16751e-07 -9.00678e-08
-4.16751e-07 0.000780902 1.23872e-07
-9.00678e-08 1.23872e-07 0.000729247

0.00082251 2.82912e-05 -1.01546e-08
2.82912e-05 0.000694667 -9.84053e-08
-1.01546e-08 -9.84053e-08 0.000715122

0.000692478 3.59879e-05 -1.66178e-08
3.59879e-05 0.000651477 -1.29328e-07
-1.66178e-08 -1.29328e-07 0.000701456

0.000744881 -1.1678e-05 -1.42778e-07
-1.1678e-05 0.000706996 3.68439e-08
-1.42778e-07 3.68439e-08 0.000722974

0.000755765 3.68923e-06 -4.53532e-08
3.68923e-06 0.000727624 -2.4181e-08
-4.53532e-08 -2.4181e-08 0.000733526

0.000762146 -1.79485e-07 1.26893e-07
-1.79485e-07 0.000779978 -9.24067e-09
1.26893e-07 -9.24067e-09 0.000763413

0.000761591 2.25175e-07 9.2924e-08
2.25175e-07 0.000779884 -6.13757e-10
9.2924e-08 -6.13757e-10 0.00076349

0.000736781 7.09356e-06 7.40593e-08
7.09356e-06 0.000750978 7.92773e-09
7.40593e-08 7.92773e-09 0.000747296

0.000749796 -4.683e-06 2.44911e-08
-4.683e-06 0.000767644 -8.10457e-08
2.44911e-08 -8.10457e-08 0.000756517

0.000768773 2.64019e-06 3.29426e-08
2.64019e-06 0.000782816 7.34733e-08
3.29426e-08 7.34733e-08 0.000765352

0.000768427 -2.51259e-06 5.54623e-08
-2.51259e-06 0.000782748 -3.54669e-08
5.54623e-08 -3.54669e-08 0.000765354

0.000754705 7.64576e-06 4.49603e-08
7.64576e-06 0.000770734 2.0018e-08
4.49603e-08 2.0018e-08 0.000758811

0.000743604 5.68244e-06 7.38198e-08
5.68244e-06 0.000741881 -9.60508e-08
7.38198e-08 -9.60508e-08 0.000743855

0.000765029 7.14044e-06 1.24367e-07
7.14044e-06 0.000777493 -2.24848e-08
1.24367e-07 -2.24848e-08 0.000763423

0.000764683 -7.06072e-06 9.21408e-08
-7.06072e-06 0.000777319 3.21069e-09
9.21408e-08 3.21069e-09 0.000763501

0.000703199 1.58002e-05 -5.42338e-08
1.58002e-05 0.000644471 -1.30711e-07
-5.42338e-08 -1.30711e-07 0.000706828

0.000765546 -8.85256e-06 6.54071e-08
-8.85256e-06 0.000765083 5.03089e-08
6.54071e-08 5.03089e-08 0.000754979

0.00069948 2.81766e-06 7.99553e-08
2.81766e-06 0.000686758 -8.83863e-08
7.99553e-08 -8.83863e-08 0.000716827

0.000659166 3.58213e-05 -9.0882e-08
3.58213e-05 0.000675338 -2.57981e-08
-9.0882e-08 -2.57981e-08 0.000681147

0.00076325 -9.50558e-06 -7.89229e-08
-9.50558e-06 0.000762127 -1.58979e-08
-7.89229e-08 -1.58979e-08 0.000746509

0.000746285 1.52733e-06 2.25848e-08
1.52733e-06 0.000762062 -8.00384e-08
2.25848e-08 -8.00384e-08 0.00075359

0.000681521 2.18601e-05 -1.73792e-08
2.18601e-05 0.00066229 4.28531e-08
-1.73792e-08 4.28531e-08 0.000708474

0.00070228 -1.23769e-05 -1.26936e-07
-1.23769e-05 0.000650129 -3.53834e-08
-1.26936e-07 -3.53834e-08 0.000708133

0.000697593 -2.47514e-06 -1.07346e-07
-2.47514e-06 0.000691052 -1.72271e-08
-1.07346e-07 -1.72271e-08 0.000719925

0.000688309 -8.85034e-06 1.64637e-07
-8.85034e-06 0.000675306 -2.16622e-08
1.64637e-07 -2.16622e-08 0.000713898

0.000732333 2.39902e-05 -2.09034e-08
2.39902e-05 0.000712852 -3.68865e-08
-2.09034e-08 -3.68865e-08 0.000728629

0.000736043 -2.18151e-05 -5.48293e-08
-2.18151e-05 0.000719918 -8.86027e-09
-5.48293e-08 -8.86027e-09 0.000730694

0.000737461 -1.81066e-06 6.74416e-08
-1.81066e-06 0.000751807 1.81023e-07
6.74416e-08 1.81023e-07 0.00074789

0.00064715 -2.34035e-05 -2.68129e-08
-2.34035e-05 0.000687162 -1.0743e-08
-2.68129e-08 -1.0743e-08 0.000694433

0.000741144 2.73559e-06 1.48541e-07
2.73559e-06 0.000748022 -9.59405e-08
1.48541e-07 -9.59405e-08 0.000746272

0.000739198 -2.85129e-06 5.34956e-08
-2.85129e-06 0.000747337 6.44501e-09
5.34956e-08 6.44501e-09 0.000746087

0.000692406 1.0635e-05 1.2315e-08
1.0635e-05 0.000673751 1.52845e-08
1.2315e-08 1.52845e-08 0.000710345

0.000708416 3.01307e-05 1.24396e-07
3.01307e-05 0.000582803 -1.2169e-07
1.24396e-07 -1.2169e-07 0.000676124

0.000708251 -2.6094e-05 -5.45427e-10
-2.6094e-05 0.000582564 4.542e-08
-5.45427e-10 4.542e-08 0.000675994

0.000721142 1.29917e-05 -3.38868e-08
1.29917e-05 0.000703156 -3.63569e-08
-3.38868e-08 -3.63569e-08 0.000726328

0.000681986 -7.78455e-06 2.4189e-08
-7.78455e-06 0.000692193 1.38173e-07
2.4189e-08 1.38173e-07 0.000712953

0.000722603 1.03318e-05 -1.34281e-07
1.03318e-05 0.00072346 8.65048e-08
-1.34281e-07 8.65048e-08 0.000734158

0.000723607 -9.89456e-06 3.17751e-08
-9.89456e-06 0.000723568 6.74372e-08
3.17751e-08 6.74372e-08 0.000734318

0.00074192 9.82861e-07 6.47932e-09
9.82861e-07 0.00075181 -2.07922e-07
6.47932e-09 -2.07922e-07 0.00074983

0.000734663 -7.04948e-06 4.78464e-08
-7.04948e-06 0.000750558 1.72844e-07
4.78464e-08 1.72844e-07 0.000746993

0.000741174 1.19369e-06 4.54313e-08
1.19369e-06 0.0007582 3.49401e-08
4.54313e-08 3.49401e-08 0.000750389

0.000859108 1.01798e-05 6.62575e-08
1.01798e-05 0.000767591 7.42992e-08
6.62575e-08 7.42992e-08 0.00072511

0.000860818 -5.3408e-05 -2.48854e-07
-5.3408e-05 0.000742631 -2.27108e-08
-2.48854e-07 -2.27108e-08 0.000716904

0.000747129 -1.08222e-06 -1.02812e-07
-1.08222e-06 0.000762063 4.08019e-08
-1.02812e-07 4.08019e-08 0.000753887

0.000753853 -5.50957e-06 6.2577e-08
-5.50957e-06 0.000757531 -3.12623e-08
6.2577e-08 -3.12623e-08 0.000747622

0.00075876 4.30107e-06 1.04787e-09
4.30107e-06 0.000775183 8.44654e-08
1.04787e-09 8.44654e-08 0.000761401

0.000720904 -1.27234e-05 5.01189e-08
-1.27234e-05 0.000704118 -1.06632e-07
5.01189e-08 -1.06632e-07 0.00072608

0.000777219 -2.39955e-05 -3.25084e-08
-2.39955e-05 0.000759294 -1.16532e-07
-3.25084e-08 -1.16532e-07 0.000743179

0.000685235 6.34546e-05 1.72326e-08
6.34546e-05 0.000653287 -7.27279e-08
1.72326e-08 -7.27279e-08 0.000683334

0.00076641 9.63379e-06 9.11031e-08
9.63379e-06 0.000765169 1.08806e-08
9.11031e-08 1.08806e-08 0.000755065

0.000763756 -1.14671e-05 6.18377e-08
-1.14671e-05 0.00076938 3.74931e-08
6.18377e-08 3.74931e-08 0.000754729

0.000692686 2.16324e-05 -7.94462e-08
2.16324e-05 0.000686138 7.18335e-09
-7.94462e-08 7.18335e-09 0.000704273

0.000763616 -1.19191e-07 -6.92749e-09
-1.19191e-07 0.000784998 -1.32114e-08
-6.92749e-09 -1.32114e-08 0.000764571

0.000742635 -1.82278e-07 1.04532e-08
-1.82278e-07 0.000756319 1.45834e-07
1.04532e-08 1.45834e-07 0.000750073

0.000656788 -3.59807e-05 -6.32942e-08
-3.59807e-05 0.000676023 9.85526e-08
-6.32942e-08 9.85526e-08 0.000680824

0.000740934 -9.00745e-06 3.50206e-09
-9.00745e-06 0.000760511 7.20946e-08
3.50206e-09 7.20946e-08 0.000749966

0.000699158 -3.87615e-06 1.99307e-07
-3.87615e-06 0.000705279 -1.58196e-08
1.99307e-07 -1.58196e-08 0.000723745

0.000681081 -4.80326e-06 1.50983e-07
-4.80326e-06 0.000685366 -4.8865e-08
1.50983e-07 -4.8865e-08 0.000708142

0.00073181 2.90084e-06 -8.28922e-09
2.90084e-06 0.000728938 1.4753e-08
-8.28922e-09 1.4753e-08 0.000737602

0.000732191 -2.9477e-06 1.55022e-08
-2.9477e-06 0.000728554 5.86965e-08
1.55022e-08 5.86965e-08 0.000737566

0.000738001 3.49654e-06 -1.06057e-07
3.49654e-06 0.000759969 4.19465e-08
-1.06057e-07 4.19465e-08 0.000751058

0.000740688 7.94722e-06 5.38525e-08
7.94722e-06 0.000760008 -1.99836e-07
5.38525e-08 -1.99836e-07 0.000749987

0.000734378 -5.16426e-06 -5.13713e-08
-5.16426e-06 0.000722283 -7.83073e-08
-5.13713e-08 -7.83073e-08 0.000731685

0.000734151 5.53134e-06 -1.99661e-08
5.53134e-06 0.000720778 -5.57103e-08
-1.99661e-08 -5.57103e-08 0.000730434

0.000733779 -9.5296e-07 1.00057e-08
-9.5296e-07 0.000742536 -2.98229e-08
1.00057e-08 -2.98229e-08 0.000742804

0.00073293 7.31981e-07 7.19198e-08
7.31981e-07 0.000743584 1.61455e-07
7.19198e-08 1.61455e-07 0.000742788

0.000768108 2.25239e-06 -1.85231e-08
2.25239e-06 0.0007806 -3.23381e-08
-1.85231e-08 -3.23381e-08 0.000764639

0.000768414 -2.29051e-06 -2.9123e-08
-2.29051e-06 0.000780549 2.04448e-08
-2.9123e-08 2.04448e-08 0.000764645

0.000753657 -1.33284e-05 -9.49297e-09
-1.33284e-05 0.000764409 2.66059e-10
-9.49297e-09 2.66059e-10 0.000751573

0.000676573 -5.79189e-05 2.42235e-09
-5.79189e-05 0.000657549 1.08798e-08
2.42235e-09 1.08798e-08 0.000679042

0.00066036 6.18634e-07 1.32297e-07
6.18634e-07 0.000685779 -9.16885e-08
1.32297e-07 -9.16885e-08 0.000706534

0.000704146 2.39315e-06 -6.31949e-08
2.39315e-06 0.000702107 -1.84156e-07
-6.31949e-08 -1.84156e-07 0.000723744

0.000727681 -6.00886e-06 -4.12813e-08
-6.00886e-06 0.000741554 -8.36542e-08
-4.12813e-08 -8.36542e-08 0.000738581

0.000771357 8.63174e-06 -1.43044e-07
8.63174e-06 0.000779636 -4.5113e-08
-1.43044e-07 -4.5113e-08 0.000764989

0.000773487 -8.77304e-06 -1.35387e-07
-8.77304e-06 0.000779763 6.48733e-08
-1.35387e-07 6.48733e-08 0.000764987

0.000760361 1.08766e-05 8.72268e-08
1.08766e-05 0.000773291 -1.83796e-07
8.72268e-08 -1.83796e-07 0.000760329

0.000760534 -1.02505e-05 7.48673e-08
-1.02505e-05 0.000773342 1.91056e-07
7.48673e-08 1.91056e-07 0.000760328

0.00071539 -1.31036e-06 1.57213e-08
-1.31036e-06 0.000727315 2.44201e-07
1.57213e-08 2.44201e-07 0.000734158

0.000730947 -1.02046e-06 -1.4938e-07
-1.02046e-06 0.000741049 -2.97256e-08
-1.4938e-07 -2.97256e-08 0.000742807

0.000727718 6.77053e-06 2.68738e-08
6.77053e-06 0.000741894 -8.93577e-08
2.68738e-08 -8.93577e-08 0.000738523

0.000786031 1.3841e-06 4.2756e-08
1.3841e-06 0.000794746 -2.41524e-07
4.2756e-08 -2.41524e-07 0.000769886

0.000786031 -1.57612e-06 3.88927e-08
-1.57612e-06 0.000794847 2.40346e-07
3.88927e-08 2.40346e-07 0.000769882

0.00075278 -9.83394e-06 -1.50297e-07
-9.83394e-06 0.000765351 -5.89803e-08
-1.50297e-07 -5.89803e-08 0.000755293

0.000710317 -3.91075e-06 -1.59772e-07
-3.91075e-06 0.000687891 9.11996e-08
-1.59772e-07 9.11996e-08 0.00072266

0.000749721 4.52581e-06 2.36886e-08
4.52581e-06 0.000767725 1.14607e-07
2.36886e-08 1.14607e-07 0.000756522

0.000717591 -3.12706e-05 -4.49173e-08
-3.12706e-05 0.000694198 8.59975e-08
-4.49173e-08 8.59975e-08 0.000716275

0.00074722 1.58321e-05 1.15083e-08
1.58321e-05 0.000741452 3.46621e-09
1.15083e-08 3.46621e-09 0.000738891

0.000696695 1.88998e-06 5.75156e-08
1.88998e-06 0.000697925 9.21653e-08
5.75156e-08 9.21653e-08 0.000720581

0.000764618 1.16248e-05 1.32093e-07
1.16248e-05 0.000768925 -1.09447e-07
1.32093e-07 -1.09447e-07 0.000754807

0.000752703 9.1694e-06 -1.12431e-07
9.1694e-06 0.000765677 3.22267e-08
-1.12431e-07 3.22267e-08 0.000755224

0.000637482 5.72921e-05 -8.41257e-08
5.72921e-05 0.000660413 -3.61383e-08
-8.41257e-08 -3.61383e-08 0.000671997

0.000784654 -6.87053e-07 -3.58883e-09
-6.87053e-07 0.000756213 -1.18423e-07
-3.58883e-09 -1.18423e-07 0.000738674

0.000766615 2.84028e-05 -1.27571e-07
2.84028e-05 0.000657524 -6.32601e-08
-1.27571e-07 -6.32601e-08 0.000700743

0.000754413 1.34704e-05 -9.1779e-08
1.34704e-05 0.000764834 1.1924e-07
-9.1779e-08 1.1924e-07 0.000751712

0.000671747 2.7806e-05 -4.58733e-08
2.7806e-05 0.000684347 -3.98146e-09
-4.58733e-08 -3.98146e-09 0.000701612

0.000696222 -3.6981e-06 1.06094e-07
-3.6981e-06 0.000686512 1.56776e-08
1.06094e-07 1.56776e-08 0.000718002

0.000773946 -1.73578e-05 8.48853e-08
-1.73578e-05 0.000760612 -1.02274e-09
8.48853e-08 -1.02274e-09 0.00075086

0.000700167 -2.74609e-05 -1.31699e-07
-2.74609e-05 0.000689856 4.059e-08
-1.31699e-07 4.059e-08 0.000714339

0.000716201 1.83914e-05 -2.87203e-08
1.83914e-05 0.000712109 -5.09618e-08
-2.87203e-08 -5.09618e-08 0.000726552

0.000755806 -4.76007e-06 1.30455e-07
-4.76007e-06 0.000771849 1.82993e-07
1.30455e-07 1.82993e-07 0.000757227

0.000736074 -1.38825e-05 -4.1584e-08
-1.38825e-05 0.000730117 -8.29165e-08
-4.1584e-08 -8.29165e-08 0.000736659

0.000780567 2.12684e-05 4.64328e-08
2.12684e-05 0.000757468 -3.86898e-08
4.64328e-08 -3.86898e-08 0.000744099

0.000710811 2.80277e-06 -6.63794e-10
2.80277e-06 0.000711702 -5.51715e-09
-6.63794e-10 -5.51715e-09 0.000729462

0.00071128 -1.43181e-06 3.65019e-08
-1.43181e-06 0.000702591 3.23349e-08
3.65019e-08 3.23349e-08 0.000727603

0.000753255 5.33174e-06 1.32548e-07
5.33174e-06 0.000771837 -1.77248e-07
1.32548e-07 -1.77248e-07 0.000757231

0.000754054 -7.42308e-07 4.81077e-08
-7.42308e-07 0.000772174 1.01325e-07
4.81077e-08 1.01325e-07 0.000759174

0.000804345 4.6681e-06 1.15567e-07
4.6681e-06 0.000800069 -8.33155e-08
1.15567e-07 -8.33155e-08 0.000771476

0.000804345 -4.80417e-06 1.14391e-07
-4.80417e-06 0.000799414 8.24016e-08
1.14391e-07 8.24016e-08 0.000771473

0.000753735 5.61679e-06 -5.61317e-08
5.61679e-06 0.000757326 1.36646e-07
-5.61317e-08 1.36646e-07 0.000747667

0.000677751 -3.27679e-05 1.39761e-07
-3.27679e-05 0.000699634 -3.40802e-08
1.39761e-07 -3.40802e-08 0.000702014

0.00067646 3.34867e-05 -1.63331e-09
3.34867e-05 0.000700953 8.87263e-08
-1.63331e-09 8.87263e-08 0.000702079

0.000712466 -4.11646e-06 8.07829e-08
-4.11646e-06 0.000630944 -3.4864e-08
8.07829e-08 -3.4864e-08 0.000699186

0.000635429 -5.64296e-05 -3.03788e-08
-5.64296e-05 0.000662016 1.46875e-07
-3.03788e-08 1.46875e-07 0.000671478

0.000729273 3.26439e-06 -1.62815e-07
3.26439e-06 0.000739931 4.85412e-08
-1.62815e-07 4.85412e-08 0.000741711

0.000712424 4.75697e-07 -1.13819e-07
4.75697e-07 0.000701909 -1.86521e-07
-1.13819e-07 -1.86521e-07 0.000727332

0.000727015 6.69964e-06 1.15309e-09
6.69964e-06 0.000734333 -2.21021e-08
1.15309e-09 -2.21021e-08 0.000739624

0.000727921 -6.54395e-06 -1.71391e-07
-6.54395e-06 0.000734207 -7.32985e-08
-1.71391e-07 -7.32985e-08 0.00073999

0.000735951 2.83821e-06 2.78304e-07
2.83821e-06 0.000744502 -1.38895e-08
2.78304e-07 -1.38895e-08 0.000745503

0.000774434 1.71081e-05 1.33903e-07
1.71081e-05 0.00076065 -1.0649e-07
1.33903e-07 -1.0649e-07 0.000750846

0.000717376 5.67932e-06 -4.21567e-08
5.67932e-06 0.000719582 -1.9305e-07
-4.21567e-08 -1.9305e-07 0.00073315

0.000736447 1.82324e-06 3.48478e-08
1.82324e-06 0.000742045 1.1461e-08
3.48478e-08 1.1461e-08 0.000744993

0.000761374 -1.97892e-05 -4.06469e-08
-1.97892e-05 0.000693226 4.20046e-08
-4.06469e-08 4.20046e-08 0.000704296

0.000802448 2.14632e-05 -4.73539e-08
2.14632e-05 0.000750882 -2.57039e-07
-4.73539e-08 -2.57039e-07 0.00073509

0.000701709 -2.35016e-05 5.73852e-08
-2.35016e-05 0.000662137 -2.94627e-08
5.73852e-08 -2.94627e-08 0.000703931

0.000710471 -3.89407e-06 -4.92937e-08
-3.89407e-06 0.000562435 5.07814e-08
-4.92937e-08 5.07814e-08 0.000667738

0.000731035 -8.59345e-06 5.64793e-08
-8.59345e-06 0.000743842 9.31479e-09
5.64793e-08 9.31479e-09 0.000741989

0.000731058 9.00887e-06 2.29807e-09
9.00887e-06 0.000744615 2.74086e-08
2.29807e-09 2.74086e-08 0.000742181

0.000712563 -3.17644e-06 6.37248e-08
-3.17644e-06 0.000617771 5.82361e-08
6.37248e-08 5.82361e-08 0.000698485

0.000742541 1.30545e-05 6.42913e-08
1.30545e-05 0.000752534 4.266e-08
6.42913e-08 4.266e-08 0.000744308

0.000780614 6.97355e-06 -4.79798e-08
6.97355e-06 0.000789095 -1.34596e-07
-4.79798e-08 -1.34596e-07 0.000768505

0.000778842 -8.18607e-06 -4.95049e-08
-8.18607e-06 0.000789251 1.36173e-07
-4.95049e-08 1.36173e-07 0.000768501

0.000682769 -9.11007e-06 -1.23116e-07
-9.11007e-06 0.000685252 1.36801e-07
-1.23116e-07 1.36801e-07 0.000708238

0.000671093 -2.83206e-05 1.38023e-07
-2.83206e-05 0.000684444 -1.09633e-07
1.38023e-07 -1.09633e-07 0.000701395

0.000701683 -2.47547e-05 6.51664e-08
-2.47547e-05 0.000639221 5.0179e-08
6.51664e-08 5.0179e-08 0.000701988

0.000706771 3.58293e-07 4.76819e-08
3.58293e-07 0.000687793 2.7069e-09
4.76819e-08 2.7069e-09 0.000721934

0.000688917 -2.1304e-05 8.71231e-08
-2.1304e-05 0.000687154 -1.32437e-07
8.71231e-08 -1.32437e-07 0.000703937

0.000712713 -4.55981e-06 -2.87313e-08
-4.55981e-06 0.000712079 -3.77739e-08
-2.87313e-08 -3.77739e-08 0.000731324

0.000715804 -1.7302e-05 8.26708e-08
-1.7302e-05 0.000715302 -2.10376e-08
8.26708e-08 -2.10376e-08 0.000726944

0.000736699 1.3134e-05 5.36861e-08
1.3134e-05 0.000725818 -2.97666e-08
5.36861e-08 -2.97666e-08 0.000736027

0.000786634 -2.09401e-05 -1.05432e-07
-2.09401e-05 0.000739336 1.03951e-07
-1.05432e-07 1.03951e-07 0.00072553

0.000777603 1.56483e-05 -2.92938e-08
1.56483e-05 0.000737375 -1.23221e-07
-2.92938e-08 -1.23221e-07 0.000723769

0.000767931 3.03635e-07 -9.51238e-08
3.03635e-07 0.000785993 6.77281e-08
-9.51238e-08 6.77281e-08 0.000766208

0.000768136 -4.14424e-07 -8.54996e-08
-4.14424e-07 0.000785913 -5.30401e-08
-8.54996e-08 -5.30401e-08 0.000766214

0.00066787 -1.55295e-05 -2.34187e-07
-1.55295e-05 0.000682487 8.78717e-08
-2.34187e-07 8.78717e-08 0.00070565

0.000667141 1.62336e-05 3.22262e-08
1.62336e-05 0.000684322 5.82002e-08
3.22262e-08 5.82002e-08 0.000705184

0.000665922 -8.28475e-06 1.12701e-07
-8.28475e-06 0.000707399 8.20683e-08
1.12701e-07 8.20683e-08 0.000694161

0.000664773 9.29894e-06 -3.55709e-08
9.29894e-06 0.000706592 -5.56041e-08
-3.55709e-08 -5.56041e-08 0.000694079

0.000794168 -6.01981e-08 3.92261e-07
-6.01981e-08 0.00079955 -6.71292e-08
3.92261e-07 -6.71292e-08 0.000770655

0.000794168 -2.52925e-07 3.89594e-07
-2.52925e-07 0.000798916 6.63025e-08
3.89594e-07 6.63025e-08 0.000770651

0.000777883 1.13722e-05 -3.06777e-09
1.13722e-05 0.000768488 -8.21927e-08
-3.06777e-09 -8.21927e-08 0.000759287

0.000776567 -1.13222e-05 2.17112e-08
-1.13222e-05 0.000768835 2.87444e-08
2.17112e-08 2.87444e-08 0.000759295

0.000748862 -2.37722e-06 -1.62574e-07
-2.37722e-06 0.000769186 -9.28073e-09
-1.62574e-07 -9.28073e-09 0.000756151

0.000722989 -1.22792e-05 -4.3546e-08
-1.22792e-05 0.000699913 9.54368e-08
-4.3546e-08 9.54368e-08 0.000719255

0.000742784 2.83962e-06 1.33269e-08
2.83962e-06 0.000741004 1.40875e-08
1.33269e-08 1.40875e-08 0.000739588

0.000707098 -5.61582e-06 -2.2834e-08
-5.61582e-06 0.000692953 -2.48171e-07
-2.2834e-08 -2.48171e-07 0.000722488

0.000749814 2.62448e-06 -1.20406e-07
2.62448e-06 0.000769277 -5.96793e-09
-1.20406e-07 -5.96793e-09 0.000756085

0.000716687 1.01026e-05 1.0824e-07
1.01026e-05 0.000704127 1.40791e-08
1.0824e-07 1.40791e-08 0.000719335

0.00074522 -5.04323e-06 -1.44998e-07
-5.04323e-06 0.000764171 -5.97118e-08
-1.44998e-07 -5.97118e-08 0.000752621

0.000619971 -3.58716e-05 1.22885e-08
-3.58716e-05 0.000679841 7.39859e-08
1.22885e-08 7.39859e-08 0.000676464

0.000619909 3.60872e-05 1.60427e-07
3.60872e-05 0.000679503 5.43727e-08
1.60427e-07 5.43727e-08 0.000676573

0.000743589 4.254e-06 -1.96129e-07
4.254e-06 0.000764238 1.76078e-08
-1.96129e-07 1.76078e-08 0.00075255

0.000699707 2.6346e-05 -1.50457e-07
2.6346e-05 0.000663193 -4.03865e-09
-1.50457e-07 -4.03865e-09 0.000703325

0.000886212 6.82829e-06 -2.8436e-08
6.82829e-06 0.000665104 4.57785e-08
-2.8436e-08 4.57785e-08 0.00071338

0.000850053 -1.31874e-05 2.0612e-07
-1.31874e-05 0.000799318 -1.57556e-08
2.0612e-07 -1.57556e-08 0.000726524

0.000763193 5.35165e-06 -3.6325e-08
5.35165e-06 0.000748318 3.6109e-08
-3.6325e-08 3.6109e-08 0.000742237

0.000681214 -2.04151e-05 -1.30573e-07
-2.04151e-05 0.000662495 3.64985e-08
-1.30573e-07 3.64985e-08 0.000709222

0.000706971 -3.88499e-05 -6.44711e-09
-3.88499e-05 0.000649958 5.93588e-08
-6.44711e-09 5.93588e-08 0.000690615

0.000728887 -2.14877e-06 4.00723e-09
-2.14877e-06 0.000733553 -4.92133e-08
4.00723e-09 -4.92133e-08 0.000740409

0.00072635 6.2142e-07 2.36164e-08
6.2142e-07 0.000744329 -2.48894e-08
2.36164e-08 -2.48894e-08 0.000742821

0.000775901 3.9547e-06 -8.89564e-08
3.9547e-06 0.000782773 7.53858e-08
-8.89564e-08 7.53858e-08 0.000766912

0.000776025 -3.66078e-06 -9.49119e-08
-3.66078e-06 0.000782634 -4.19686e-08
-9.49119e-08 -4.19686e-08 0.000766913

0.000707522 3.85847e-05 1.38621e-07
3.85847e-05 0.000651376 -7.28657e-08
1.38621e-07 -7.28657e-08 0.00069067

0.000744769 -4.21064e-06 -1.16907e-08
-4.21064e-06 0.000739705 -6.06363e-08
-1.16907e-08 -6.06363e-08 0.000740255

0.000745679 -7.27949e-06 2.99325e-08
-7.27949e-06 0.000763643 1.34326e-07
2.99325e-08 1.34326e-07 0.000753586

0.000765071 1.11408e-05 -1.31215e-08
1.11408e-05 0.000776338 2.51795e-07
-1.31215e-08 2.51795e-07 0.000761483

0.000763601 -1.21702e-05 -6.89331e-09
-1.21702e-05 0.000776629 -2.72654e-07
-6.89331e-09 -2.72654e-07 0.00076148

0.000718391 -5.66645e-05 -4.00594e-08
-5.66645e-05 0.000689826 -4.74302e-07
-4.00594e-08 -4.74302e-07 0.000698662

0.000717299 5.83754e-05 -9.10473e-08
5.83754e-05 0.000690511 -2.89099e-07
-9.10473e-08 -2.89099e-07 0.000698711

0.000757447 1.64761e-05 -7.6207e-08
1.64761e-05 0.000758222 2.00296e-08
-7.6207e-08 2.00296e-08 0.000746292

0.000695667 -7.08197e-06 -1.47123e-07
-7.08197e-06 0.000674651 2.28824e-08
-1.47123e-07 2.28824e-08 0.000711109

0.000769095 9.85478e-06 3.45652e-08
9.85478e-06 0.000784884 1.4593e-07
3.45652e-08 1.4593e-07 0.000765923

0.000768735 -8.78684e-06 5.80705e-08
-8.78684e-06 0.000785189 -1.41301e-07
5.80705e-08 -1.41301e-07 0.00076592

0.000724614 -2.49252e-05 6.11913e-09
-2.49252e-05 0.000681978 5.05102e-08
6.11913e-09 5.05102e-08 0.000704916

0.000690847 -4.85012e-05 9.08754e-08
-4.85012e-05 0.000657783 1.26488e-07
9.08754e-08 1.26488e-07 0.000681641

0.000719773 -7.04368e-06 -2.51448e-07
-7.04368e-06 0.000731161 1.05721e-07
-2.51448e-07 1.05721e-07 0.000738735

0.000645866 3.5095e-06 1.48287e-07
3.5095e-06 0.00070542 7.88321e-08
1.48287e-07 7.88321e-08 0.000690561

0.000646274 -2.95889e-06 -5.20766e-08
-2.95889e-06 0.000705069 -5.66829e-08
-5.20766e-08 -5.66829e-08 0.000690445

0.000680856 -4.78834e-05 1.22094e-07
-4.78834e-05 0.000671774 8.75688e-08
1.22094e-07 8.75688e-08 0.000697494

0.000745943 8.06578e-06 -9.86486e-08
8.06578e-06 0.000762998 -2.36081e-08
-9.86486e-08 -2.36081e-08 0.000753812

0.000682812 9.66593e-06 -2.0187e-08
9.66593e-06 0.000686138 9.29756e-08
-2.0187e-08 9.29756e-08 0.00070768

0.000656025 3.06708e-06 -1.37641e-07
3.06708e-06 0.000691957 -2.38118e-07
-1.37641e-07 -2.38118e-07 0.000699736

0.000656037 -3.50312e-06 -1.08752e-08
-3.50312e-06 0.000693301 -1.04273e-07
-1.08752e-08 -1.04273e-07 0.000699519

0.000699686 3.06362e-05 -1.50234e-07
3.06362e-05 0.000633623 -9.39496e-08
-1.50234e-07 -9.39496e-08 0.000700976

0.000774921 5.57524e-06 -9.97085e-08
5.57524e-06 0.000790875 1.28827e-07
-9.97085e-08 1.28827e-07 0.000768418

0.000774921 -5.57524e-06 -1.12946e-07
-5.57524e-06 0.000790875 -1.31603e-07
-1.12946e-07 -1.31603e-07 0.000768414

0.000804559 -1.14034e-06 -4.21474e-08
-1.14034e-06 0.000765532 5.97055e-08
-4.21474e-08 5.97055e-08 0.000719835

0.000801992 2.78336e-05 1.58922e-07
2.78336e-05 0.00076557 3.21837e-08
1.58922e-07 3.21837e-08 0.000724902

0.000716213 1.83398e-06 -3.85177e-09
1.83398e-06 0.00072877 2.50476e-08
-3.85177e-09 2.50476e-08 0.000735057

0.000720272 -1.41185e-06 1.71564e-07
-1.41185e-06 0.000700784 1.18031e-07
1.71564e-07 1.18031e-07 0.000727082

0.000762651 1.14669e-05 -2.25058e-08
1.14669e-05 0.000774903 -1.24751e-07
-2.25058e-08 -1.24751e-07 0.0007584

0.000761521 -1.08954e-05 -7.99768e-09
-1.08954e-05 0.000774672 1.32319e-07
-7.99768e-09 1.32319e-07 0.000758402

0.000761246 1.2414e-05 2.8591e-09
1.2414e-05 0.000762227 -8.80942e-08
2.8591e-09 -8.80942e-08 0.000747454

0.000721655 2.94758e-06 -2.50916e-07
2.94758e-06 0.000730002 1.11399e-07
-2.50916e-07 1.11399e-07 0.00073735

0.000732757 -9.81888e-07 -7.40956e-08
-9.81888e-07 0.000732732 1.33284e-07
-7.40956e-08 1.33284e-07 0.000741876

0.000801916 -8.37034e-06 -2.66797e-07
-8.37034e-06 0.000807898 4.28708e-07
-2.66797e-07 4.28708e-07 0.000771798

0.000796282 5.67539e-06 -2.65512e-07
5.67539e-06 0.000808554 -4.29523e-07
-2.65512e-07 -4.29523e-07 0.000771802

0.000658316 -1.51266e-06 -1.37346e-07
-1.51266e-06 0.00068489 -6.95827e-09
-1.37346e-07 -6.95827e-09 0.000705979

0.000752037 9.28519e-06 -1.87803e-07
9.28519e-06 0.00075674 3.18448e-08
-1.87803e-07 3.18448e-08 0.000751059

0.000764261 7.13851e-06 -8.27328e-08
7.13851e-06 0.000772391 2.15566e-07
-8.27328e-08 2.15566e-07 0.000758545

0.000762489 -7.97464e-06 -6.66373e-08
-7.97464e-06 0.000772566 -2.41588e-07
-6.66373e-08 -2.41588e-07 0.000758546

0.000752094 6.0165e-06 -1.19361e-07
6.0165e-06 0.000765314 -5.89759e-08
-1.19361e-07 -5.89759e-08 0.000752868

0.000750684 -7.50243e-06 -9.61721e-08
-7.50243e-06 0.000756424 -1.43839e-07
-9.61721e-08 -1.43839e-07 0.000751005

0.00071834 -3.46793e-07 -1.62902e-07
-3.46793e-07 0.000731152 -6.6537e-08
-1.62902e-07 -6.6537e-08 0.000735557

0.000718723 -4.47189e-07 7.17353e-08
-4.47189e-07 0.000732787 -1.0466e-07
7.17353e-08 -1.0466e-07 0.000735943

0.000733453 -1.69673e-06 2.39264e-07
-1.69673e-06 0.000751296 -1.80477e-07
2.39264e-07 -1.80477e-07 0.000746745

0.000750415 -4.59165e-06 -6.8132e-09
-4.59165e-06 0.000765427 -1.4331e-08
-6.8132e-09 -1.4331e-08 0.000752814

0.0007194 -5.36746e-06 3.13205e-08
-5.36746e-06 0.000720088 -1.52856e-07
3.13205e-08 -1.52856e-07 0.000734066

0.000708406 2.73864e-06 -6.08024e-08
2.73864e-06 0.000699534 1.69047e-07
-6.08024e-08 1.69047e-07 0.000724912

0.000771646 1.08003e-05 -4.78095e-08
1.08003e-05 0.000774782 -1.19385e-07
-4.78095e-08 -1.19385e-07 0.000761514

0.000771276 -1.01695e-05 -3.248e-08
-1.01695e-05 0.000774588 1.27588e-07
-3.248e-08 1.27588e-07 0.000761512

0.000768471 6.51596e-06 4.17003e-08
6.51596e-06 0.000782538 1.86205e-07
4.17003e-08 1.86205e-07 0.000763375

0.000768528 -6.60446e-06 6.01317e-08
-6.60446e-06 0.000782903 -1.93483e-07
6.01317e-08 -1.93483e-07 0.000763372

0.000712603 -4.93126e-06 -2.50308e-08
-4.93126e-06 0.000721455 1.11709e-08
-2.50308e-08 1.11709e-08 0.000732416

0.000711526 -4.95296e-06 8.01038e-08
-4.95296e-06 0.000712024 -2.90963e-08
8.01038e-08 -2.90963e-08 0.00072853

0.0007574 -1.16826e-05 1.6012e-07
-1.16826e-05 0.000769865 -7.88558e-08
1.6012e-07 -7.88558e-08 0.000756365

0.000754762 1.23566e-05 1.56157e-07
1.23566e-05 0.000769767 4.62243e-08
1.56157e-07 4.62243e-08 0.000756366

0.000804677 -6.72537e-06 -4.49544e-08
-6.72537e-06 0.000691557 4.2256e-08
-4.49544e-08 4.2256e-08 0.00071852

0.00079328 -2.20751e-07 1.10913e-07
-2.20751e-07 0.000753438 -2.66253e-07
1.10913e-07 -2.66253e-07 0.00072911

0.000773584 7.37772e-06 -2.79434e-08
7.37772e-06 0.000780818 -1.53369e-07
-2.79434e-08 -1.53369e-07 0.000762659

0.000772658 -7.12889e-06 -1.75358e-08
-7.12889e-06 0.000780758 1.51283e-07
-1.75358e-08 1.51283e-07 0.000762655

0.000780011 4.15066e-06 -1.38995e-08
4.15066e-06 0.000787752 1.76187e-07
-1.38995e-08 1.76187e-07 0.000768034

0.000777876 -3.73166e-06 -1.39815e-08
-3.73166e-06 0.000787939 -1.86223e-07
-1.39815e-08 -1.86223e-07 0.000768029

0.000663545 -8.8033e-06 -8.80927e-08
-8.8033e-06 0.000693143 -1.05415e-07
-8.80927e-08 -1.05415e-07 0.000699147

0.000666505 8.52425e-06 6.05816e-08
8.52425e-06 0.000691614 -2.44172e-07
6.05816e-08 -2.44172e-07 0.000699587

0.000767072 -4.78423e-05 -4.13826e-08
-4.78423e-05 0.000701517 4.91389e-08
-4.13826e-08 4.91389e-08 0.00070056

0.000670444 2.7114e-06 -7.46516e-09
2.7114e-06 0.000712961 -7.48812e-08
-7.46516e-09 -7.48812e-08 0.000691205

0.0007862 1.5184e-06 8.81101e-08
1.5184e-06 0.000795185 1.81464e-08
8.81101e-08 1.81464e-08 0.000770132

0.000801812 -6.26382e-06 -2.2708e-07
-6.26382e-06 0.000796219 3.09823e-07
-2.2708e-07 3.09823e-07 0.000771128

0.00078449 -9.88613e-07 9.40205e-08
-9.88613e-07 0.000795344 -1.54652e-08
9.40205e-08 -1.54652e-08 0.000770135

0.000797513 5.43358e-06 -2.26175e-07
5.43358e-06 0.000796078 -3.11774e-07
-2.26175e-07 -3.11774e-07 0.000771131

0.000800516 2.92993e-05 -7.98971e-08
2.92993e-05 0.000780597 5.84939e-08
-7.98971e-08 5.84939e-08 0.000733202

0.000671234 -2.54372e-06 -1.83013e-07
-2.54372e-06 0.000712739 -1.18277e-07
-1.83013e-07 -1.18277e-07 0.000691203

0.000798295 2.60388e-06 -1.09443e-06
2.60388e-06 0.000795594 -1.66458e-06
-1.09443e-06 -1.66458e-06 0.000769257

0.000802529 1.19228e-06 -2.31621e-06
1.19228e-06 0.000798783 1.14079e-06
-2.31621e-06 1.14079e-06 0.000771644

0.000802529 3.63556e-08 -2.31528e-06
3.63556e-08 0.000799107 -1.14196e-06
-2.31528e-06 -1.14196e-06 0.000771648

0.000798295 -2.7522e-06 3.79963e-07
-2.7522e-06 0.000795471 -5.66159e-07
3.79963e-07 -5.66159e-07 0.0007693

0.0007938 -3.40312e-06 2.00302e-07
-3.40312e-06 0.000787711 2.97954e-07
2.00302e-07 2.97954e-07 0.000768479

0.000782208 -1.15044e-05 -2.03819e-08
-1.15044e-05 0.000782065 1.51819e-07
-2.03819e-08 1.51819e-07 0.000766171

0.000792691 -2.77973e-06 3.18616e-07
-2.77973e-06 0.000805717 -2.49929e-07
3.18616e-07 -2.49929e-07 0.000770882

0.0007938 3.35656e-06 2.02947e-07
3.35656e-06 0.00078728 -2.9784e-07
2.02947e-07 -2.9784e-07 0.000768482

0.000792691 2.66111e-06 3.21168e-07
2.66111e-06 0.000804618 2.49612e-07
3.21168e-07 2.49612e-07 0.000770886

0.000782208 1.12144e-05 -1.80357e-08
1.12144e-05 0.000781956 -1.51507e-07
-1.80357e-08 -1.51507e-07 0.000766175

0.000783346 3.94623e-06 -4.56257e-08
3.94623e-06 0.000789107 1.86562e-07
-4.56257e-08 1.86562e-07 0.000767659

0.000787516 7.55454e-06 9.76884e-08
7.55454e-06 0.00079095 2.31195e-07
9.76884e-08 2.31195e-07 0.000769735

0.000783346 -4.25087e-06 -4.81872e-08
-4.25087e-06 0.000788855 -1.88888e-07
-4.81872e-08 -1.88888e-07 0.000767655

0.000787516 -7.72114e-06 9.39146e-08
-7.72114e-06 0.000790612 -2.33144e-07
9.39146e-08 -2.33144e-07 0.000769731

0.000411877 5.30175e-05 -8.39209e-08
5.30175e-05 0.000532009 1.23833e-07
-8.39209e-08 1.23833e-07 0.0004636

0.00057777 8.72466e-06 -1.79693e-08
8.72466e-06 0.000620159 -2.8003e-08
-1.79693e-08 -2.8003e-08 0.000585946

0.000462027 1.53441e-05 7.98003e-09
1.53441e-05 0.00061947 -5.77063e-08
7.98003e-09 -5.77063e-08 0.000550589

0.000575703 2.72162e-05 -1.8113e-07
2.72162e-05 0.000409157 -8.59164e-08
-1.8113e-07 -8.59164e-08 0.000493347

0.000556351 7.88697e-06 3.20412e-08
7.88697e-06 0.000393742 3.14067e-08
3.20412e-08 3.14067e-08 0.000458273

0.000580138 -6.00117e-06 -2.19507e-08
-6.00117e-06 0.00064241 1.82963e-08
-2.19507e-08 1.82963e-08 0.000624698

0.000460319 2.31841e-05 1.42026e-08
2.31841e-05 0.000668123 -1.30082e-07
1.42026e-08 -1.30082e-07 0.000582704

0.000560319 -7.52284e-06 2.91653e-08
-7.52284e-06 0.000410661 5.20368e-08
2.91653e-08 5.20368e-08 0.000461592

0.000647846 6.18098e-06 9.17568e-08
6.18098e-06 0.00045149 -4.26774e-08
9.17568e-08 -4.26774e-08 0.000557251

0.000337759 4.80158e-05 -1.35804e-07
4.80158e-05 0.000442693 -5.71898e-10
-1.35804e-07 -5.71898e-10 0.000370657

0.000363436 -7.74545e-05 1.26568e-07
-7.74545e-05 0.000446473 -2.95553e-08
1.26568e-07 -2.95553e-08 0.000368256

0.000453052 4.8412e-05 -9.63658e-08
4.8412e-05 0.000352799 -8.04732e-08
-9.63658e-08 -8.04732e-08 0.000376781

0.00059544 -8.82138e-05 -1.67674e-07
-8.82138e-05 0.000649354 -7.16019e-08
-1.67674e-07 -7.16019e-08 0.000612371

0.000553921 -3.00924e-05 -1.17079e-07
-3.00924e-05 0.000641565 -4.72297e-08
-1.17079e-07 -4.72297e-08 0.000592923

0.000411785 4.57193e-05 -8.54912e-08
4.57193e-05 0.0005548 -1.26077e-07
-8.54912e-08 -1.26077e-07 0.000499628

0.000434414 5.35752e-05 1.01329e-07
5.35752e-05 0.000599787 1.02844e-07
1.01329e-07 1.02844e-07 0.000549566

0.000458255 -2.53331e-05 -7.86432e-08
-2.53331e-05 0.000671479 -7.07179e-08
-7.86432e-08 -7.07179e-08 0.00058064

0.000549433 -6.61966e-05 -1.64609e-08
-6.61966e-05 0.000639588 -1.63527e-07
-1.64609e-08 -1.63527e-07 0.000604683

0.000576246 -4.72591e-05 -5.49041e-08
-4.72591e-05 0.000425562 1.35256e-08
-5.49041e-08 1.35256e-08 0.000515354

0.000355558 1.53478e-05 -5.32308e-08
1.53478e-05 0.000502451 -1.60871e-07
-5.32308e-08 -1.60871e-07 0.000400155

0.000396794 -3.0244e-05 1.32925e-07
-3.0244e-05 0.000504791 -1.73605e-08
1.32925e-07 -1.73605e-08 0.000407441

0.000498065 1.14969e-05 -8.57116e-08
1.14969e-05 0.000381681 -8.73408e-08
-8.57116e-08 -8.73408e-08 0.000404039

0.000424448 6.1677e-05 8.46049e-08
6.1677e-05 0.00049751 -6.24347e-08
8.46049e-08 -6.24347e-08 0.000460794

0.000519119 -4.21659e-05 4.13429e-08
-4.21659e-05 0.000388159 5.73911e-08
4.13429e-08 5.73911e-08 0.000431599

0.000485673 6.74371e-05 -5.94882e-08
6.74371e-05 0.000497945 -6.99697e-08
-5.94882e-08 -6.99697e-08 0.000493644

0.000506581 4.78453e-05 3.14455e-08
4.78453e-05 0.000541153 8.13938e-08
3.14455e-08 8.13938e-08 0.000492552

0.000592123 -1.4566e-05 -8.33927e-08
-1.4566e-05 0.000411219 9.69477e-08
-8.33927e-08 9.69477e-08 0.000499078

0.00033148 3.23221e-05 -1.3593e-07
3.23221e-05 0.000406094 -8.16456e-10
-1.3593e-07 -8.16456e-10 0.000330771

0.000621492 1.62422e-05 1.06019e-07
1.62422e-05 0.000440786 -8.20112e-08
1.06019e-07 -8.20112e-08 0.00054534

0.000402583 3.02388e-05 2.26589e-09
3.02388e-05 0.000348443 -2.4421e-08
2.26589e-09 -2.4421e-08 0.000337245

0.000625774 -3.02326e-05 1.58218e-07
-3.02326e-05 0.000654352 -5.17363e-08
1.58218e-07 -5.17363e-08 0.000629145

0.000551666 3.25667e-06 -1.01269e-07
3.25667e-06 0.000669813 -8.51987e-08
-1.01269e-07 -8.51987e-08 0.000594503

0.00069238 -3.2479e-05 -2.29169e-08
-3.2479e-05 0.000638365 -4.55952e-08
-2.29169e-08 -4.55952e-08 0.000629801

0.000657903 7.8282e-05 -5.09732e-08
7.8282e-05 0.000666048 -4.18026e-08
-5.09732e-08 -4.18026e-08 0.000630668

0.000487295 -2.06868e-05 -8.13462e-08
-2.06868e-05 0.000374376 1.21815e-07
-8.13462e-08 1.21815e-07 0.000387441

0.000475706 7.15731e-05 1.26122e-08
7.15731e-05 0.000521681 1.53279e-08
1.26122e-08 1.53279e-08 0.000522366

0.000592395 4.11806e-05 1.50947e-08
4.11806e-05 0.000580375 -3.23787e-08
1.50947e-08 -3.23787e-08 0.000594718

0.00061382 -1.13844e-05 -1.08631e-08
-1.13844e-05 0.000597854 6.62708e-08
-1.08631e-08 6.62708e-08 0.000597016

0.000650893 6.21884e-06 6.8229e-08
6.21884e-06 0.000441614 -8.03435e-08
6.8229e-08 -8.03435e-08 0.000559116

0.000481356 6.75725e-05 5.31849e-09
6.75725e-05 0.000533381 1.1622e-07
5.31849e-09 1.1622e-07 0.000486976

0.000514464 -5.33659e-05 1.758e-08
-5.33659e-05 0.000445007 -1.00609e-07
1.758e-08 -1.00609e-07 0.000444339

0.000648735 -5.85354e-07 8.6136e-08
-5.85354e-07 0.000421629 5.37986e-08
8.6136e-08 5.37986e-08 0.000547157

0.000445067 -9.24437e-05 -1.94906e-08
-9.24437e-05 0.000532149 1.03064e-07
-1.94906e-08 1.03064e-07 0.000459888

0.000456376 -8.07059e-05 -9.09867e-09
-8.07059e-05 0.000544317 1.14224e-07
-9.09867e-09 1.14224e-07 0.000468643

0.000580866 4.08379e-05 4.5232e-08
4.08379e-05 0.000615002 1.02039e-07
4.5232e-08 1.02039e-07 0.000597394

0.000466694 -9.26093e-05 -1.66215e-07
-9.26093e-05 0.000438593 -1.16458e-07
-1.66215e-07 -1.16458e-07 0.000418816

0.000279692 -9.24062e-05 -3.58548e-08
-9.24062e-05 0.000272486 8.11659e-08
-3.58548e-08 8.11659e-08 0.000272613

0.00026926 -9.80739e-05 1.44585e-07
-9.80739e-05 0.000294867 1.36975e-07
1.44585e-07 1.36975e-07 0.000276511

0.000529412 -0.000107612 7.21075e-08
-0.000107612 0.00064413 1.91745e-08
7.21075e-08 1.91745e-08 0.000592788

0.000276598 -3.64964e-05 1.39783e-07
-3.64964e-05 0.000269021 5.5354e-08
1.39783e-07 5.5354e-08 0.000291787

0.000258467 -2.95699e-05 -1.37169e-07
-2.95699e-05 0.0002786 7.62778e-08
-1.37169e-07 7.62778e-08 0.000286873

0.00069506 4.66069e-05 -4.4741e-09
4.66069e-05 0.00060078 -5.29051e-08
-4.4741e-09 -5.29051e-08 0.000647377

0.000645402 -6.14694e-05 1.00941e-07
-6.14694e-05 0.000580354 -2.7237e-08
1.00941e-07 -2.7237e-08 0.000601607

0.000592829 -3.25748e-05 -1.30322e-07
-3.25748e-05 0.000433991 -1.36471e-08
-1.30322e-07 -1.36471e-08 0.000543495

0.000691104 6.30977e-05 -5.62893e-08
6.30977e-05 0.000564606 3.11748e-07
-5.62893e-08 3.11748e-07 0.000640717

0.00063842 -8.64028e-05 1.3387e-07
-8.64028e-05 0.000575204 2.04504e-07
1.3387e-07 2.04504e-07 0.000601742

0.000506234 4.71327e-05 1.3327e-08
4.71327e-05 0.000577858 -1.45781e-07
1.3327e-08 -1.45781e-07 0.000533479

0.000687778 -3.01326e-05 -1.35025e-07
-3.01326e-05 0.000594977 -1.55406e-10
-1.35025e-07 -1.55406e-10 0.000620826

0.000647515 4.02448e-05 -4.14692e-09
4.02448e-05 0.000621713 5.10899e-08
-4.14692e-09 5.10899e-08 0.000621516

0.00063824 7.35443e-05 -6.07869e-08
7.35443e-05 0.000539075 9.46486e-08
-6.07869e-08 9.46486e-08 0.000601636

0.00058667 -9.34437e-05 -1.92069e-08
-9.34437e-05 0.000522961 1.36239e-07
-1.92069e-08 1.36239e-07 0.00056813

0.000432614 -6.38411e-05 -8.22768e-08
-6.38411e-05 0.0003457 1.21368e-07
-8.22768e-08 1.21368e-07 0.000358015

0.000655271 -1.83094e-05 -1.17987e-07
-1.83094e-05 0.000706015 -5.65575e-09
-1.17987e-07 -5.65575e-09 0.000676972

0.000579377 -3.22956e-06 1.12922e-08
-3.22956e-06 0.000741493 1.20183e-07
1.12922e-08 1.20183e-07 0.000617787

0.000423429 -7.82176e-05 -1.01978e-07
-7.82176e-05 0.000501577 1.45476e-08
-1.01978e-07 1.45476e-08 0.000464174

0.000317368 -2.70451e-05 -4.47111e-08
-2.70451e-05 0.000395781 2.11196e-07
-4.47111e-08 2.11196e-07 0.000327032

0.000387595 -2.48015e-05 8.65156e-08
-2.48015e-05 0.000313732 9.54212e-09
8.65156e-08 9.54212e-09 0.000321618

0.000532187 3.02541e-05 -1.4352e-07
3.02541e-05 0.000612702 6.19174e-08
-1.4352e-07 6.19174e-08 0.000574553

0.000422338 4.54812e-05 -1.37979e-07
4.54812e-05 0.00059666 4.68312e-08
-1.37979e-07 4.68312e-08 0.000536519

0.000825133 5.88843e-05 7.40032e-07
5.88843e-05 0.000647647 2.63472e-07
7.40032e-07 2.63472e-07 0.000690871

0.000780926 1.69955e-05 8.13889e-07
1.69955e-05 0.000840531 8.94414e-08
8.13889e-07 8.94414e-08 0.000636602

0.000461104 6.84485e-05 2.14012e-08
6.84485e-05 0.00056338 -4.51289e-08
2.14012e-08 -4.51289e-08 0.000566821

0.000614949 5.43969e-05 -6.50601e-08
5.43969e-05 0.000475087 -8.28874e-08
-6.50601e-08 -8.28874e-08 0.00056266

0.000585025 -8.24814e-05 -2.01365e-08
-8.24814e-05 0.000467802 -1.29957e-08
-2.01365e-08 -1.29957e-08 0.000543863

0.000477348 9.41125e-05 -8.46871e-08
9.41125e-05 0.000555771 5.25615e-08
-8.46871e-08 5.25615e-08 0.000561132

0.00046712 -7.18527e-05 9.2375e-08
-7.18527e-05 0.000622187 3.45513e-08
9.2375e-08 3.45513e-08 0.000579801

0.000483945 -6.838e-06 -6.26337e-08
-6.838e-06 0.00034337 -7.8904e-09
-6.26337e-08 -7.8904e-09 0.000382958

0.000559985 -2.72067e-05 5.62785e-08
-2.72067e-05 0.00040873 -4.6105e-08
5.62785e-08 -4.6105e-08 0.000478941

0.000512276 3.36583e-05 8.68898e-09
3.36583e-05 0.000383389 3.74212e-08
8.68898e-09 3.74212e-08 0.000423797

0.000596961 3.7447e-05 4.20408e-09
3.7447e-05 0.000524507 1.56491e-08
4.20408e-09 1.56491e-08 0.00058315

0.000567324 2.51618e-05 2.04069e-07
2.51618e-05 0.000734832 -1.60125e-07
2.04069e-07 -1.60125e-07 0.000635338

0.000651387 -1.86758e-05 -3.0915e-07
-1.86758e-05 0.000662384 -1.88575e-07
-3.0915e-07 -1.88575e-07 0.00063467

0.000409458 5.40657e-05 -4.50386e-08
5.40657e-05 0.000441511 -6.85782e-09
-4.50386e-08 -6.85782e-09 0.000389415

0.000508955 -6.92444e-05 -3.18818e-08
-6.92444e-05 0.000481587 -5.19464e-08
-3.18818e-08 -5.19464e-08 0.000484112

0.000585964 3.77047e-05 -2.85302e-08
3.77047e-05 0.000467 -5.34701e-08
-2.85302e-08 -5.34701e-08 0.000531033

0.000624591 4.10491e-05 1.23692e-08
4.10491e-05 0.000760359 1.20446e-07
1.23692e-08 1.20446e-07 0.000625007

0.00064713 -2.78427e-05 3.12614e-07
-2.78427e-05 0.000701859 9.9088e-08
3.12614e-07 9.9088e-08 0.000673087

0.000617926 -1.01184e-05 -2.65678e-08
-1.01184e-05 0.00052661 -4.1686e-09
-2.65678e-08 -4.1686e-09 0.000587394

0.000550933 -5.39775e-05 -1.57469e-09
-5.39775e-05 0.00061876 9.09736e-08
-1.57469e-09 9.09736e-08 0.00056973

0.000459676 -1.7796e-05 -7.53045e-08
-1.7796e-05 0.000624285 -2.68891e-08
-7.53045e-08 -2.68891e-08 0.000549206

0.000627984 1.17023e-05 -1.06489e-07
1.17023e-05 0.00043024 6.24889e-08
-1.06489e-07 6.24889e-08 0.000573166

0.000617773 -3.78341e-05 5.24463e-08
-3.78341e-05 0.000430737 -1.28626e-07
5.24463e-08 -1.28626e-07 0.000565542

0.000438281 -7.65056e-05 1.48641e-08
-7.65056e-05 0.000405823 -1.03229e-07
1.48641e-08 -1.03229e-07 0.000388762

0.000661969 4.73547e-05 3.32655e-08
4.73547e-05 0.000475024 3.6303e-08
3.32655e-08 3.6303e-08 0.000605628

0.000635904 -7.35934e-05 -1.00757e-07
-7.35934e-05 0.000487214 1.7825e-07
-1.00757e-07 1.7825e-07 0.000583395

0.000573204 -6.5363e-05 -5.45503e-08
-6.5363e-05 0.000446581 1.79332e-08
-5.45503e-08 1.79332e-08 0.000516133

0.000425155 -6.53778e-05 -4.24285e-08
-6.53778e-05 0.00053178 9.12248e-08
-4.24285e-08 9.12248e-08 0.000469524

0.000619532 2.8567e-05 -7.87791e-08
2.8567e-05 0.000482189 -8.09795e-08
-7.87791e-08 -8.09795e-08 0.000581154

0.000610973 -5.2802e-05 7.45221e-08
-5.2802e-05 0.000471148 -7.52291e-09
7.45221e-08 -7.52291e-09 0.000565132

0.000584367 -1.74746e-05 -6.61123e-08
-1.74746e-05 0.0004613 5.90388e-08
-6.61123e-08 5.90388e-08 0.000513413

0.00063118 8.23767e-05 7.28716e-09
8.23767e-05 0.000590806 8.15629e-08
7.28716e-09 8.15629e-08 0.000613938

0.000485088 5.46535e-05 1.7081e-07
5.46535e-05 0.000448591 9.10057e-08
1.7081e-07 9.10057e-08 0.000444271

0.000470554 8.13764e-05 -9.68161e-08
8.13764e-05 0.000544216 1.34921e-08
-9.68161e-08 1.34921e-08 0.000570997

0.000594936 6.07453e-05 2.80421e-08
6.07453e-05 0.000640068 6.96509e-08
2.80421e-08 6.96509e-08 0.0006306

0.000535723 3.01043e-05 1.33862e-07
3.01043e-05 0.000390839 1.43356e-08
1.33862e-07 1.43356e-08 0.000450851

0.00055431 -4.05673e-05 2.33041e-08
-4.05673e-05 0.000504732 -1.88718e-07
2.33041e-08 -1.88718e-07 0.00054078

0.000568216 2.53626e-05 -1.35075e-07
2.53626e-05 0.000449293 3.27336e-08
-1.35075e-07 3.27336e-08 0.00050459

0.000424917 6.53309e-05 9.34779e-08
6.53309e-05 0.000449163 1.20383e-07
9.34779e-08 1.20383e-07 0.00042794

0.000486801 6.13999e-05 -5.80378e-08
6.13999e-05 0.000458158 -8.9313e-08
-5.80378e-08 -8.9313e-08 0.000480465

0.000405978 8.53909e-07 -4.0684e-09
8.53909e-07 0.000619402 -6.39067e-08
-4.0684e-09 -6.39067e-08 0.000530954

0.000498087 -2.67587e-05 1.05287e-07
-2.67587e-05 0.000604742 3.54402e-08
1.05287e-07 3.54402e-08 0.00055544

0.000438425 -7.71574e-05 1.17236e-08
-7.71574e-05 0.00035096 -2.61222e-08
1.17236e-08 -2.61222e-08 0.00037496

0.00050338 -0.000104976 -7.32518e-09
-0.000104976 0.00060311 -4.71967e-08
-7.32518e-09 -4.71967e-08 0.000560086

0.000428674 -9.26917e-05 -1.17844e-07
-9.26917e-05 0.000476281 1.14302e-07
-1.17844e-07 1.14302e-07 0.000431462

0.000483959 7.55435e-05 -2.92101e-08
7.55435e-05 0.000485512 -1.71517e-07
-2.92101e-08 -1.71517e-07 0.000449241

0.000563873 -3.45021e-05 -1.18874e-07
-3.45021e-05 0.000485228 -5.6712e-08
-1.18874e-07 -5.6712e-08 0.000509473

0.000660844 -2.61645e-06 -5.97789e-08
-2.61645e-06 0.000456224 1.06294e-07
-5.97789e-08 1.06294e-07 0.000580083

0.000641943 1.09272e-05 3.43897e-08
1.09272e-05 0.000467044 -1.223e-07
3.43897e-08 -1.223e-07 0.000578275

0.00036765 3.44627e-05 9.63153e-08
3.44627e-05 0.000524226 2.00467e-07
9.63153e-08 2.00467e-07 0.000439754

0.000501094 -8.27085e-05 5.47791e-10
-8.27085e-05 0.000528498 1.00362e-07
5.47791e-10 1.00362e-07 0.000493271

0.000312603 -1.13847e-05 1.91657e-07
-1.13847e-05 0.000489629 -8.14442e-08
1.91657e-07 -8.14442e-08 0.000383842

0.000355568 -1.42667e-05 -7.43836e-08
-1.42667e-05 0.000498986 4.29132e-08
-7.43836e-08 4.29132e-08 0.000394069

0.000483027 -1.92047e-05 2.07189e-09
-1.92047e-05 0.000329529 1.65334e-07
2.07189e-09 1.65334e-07 0.000385953

0.000453161 5.45939e-05 -7.64943e-08
5.45939e-05 0.000429532 5.04225e-08
-7.64943e-08 5.04225e-08 0.00039829

0.000466227 -9.47085e-05 5.40418e-08
-9.47085e-05 0.000415344 -1.40077e-07
5.40418e-08 -1.40077e-07 0.000431285

0.000780802 -2.49822e-05 3.88503e-08
-2.49822e-05 0.000786529 1.1205e-07
3.88503e-08 1.1205e-07 0.000632866

0.000632442 -8.52839e-05 4.52996e-07
-8.52839e-05 0.000739767 5.45724e-08
4.52996e-07 5.45724e-08 0.000680097

0.000523172 -5.6378e-05 1.37268e-07
-5.6378e-05 0.000387457 -4.21264e-11
1.37268e-07 -4.21264e-11 0.000446894

0.000562165 7.59902e-05 9.88337e-08
7.59902e-05 0.000587648 -7.58523e-08
9.88337e-08 -7.58523e-08 0.000569434

0.000597281 4.79431e-06 -1.26658e-07
4.79431e-06 0.000436543 4.77439e-08
-1.26658e-07 4.77439e-08 0.000546204

0.000423084 -6.88295e-05 8.94217e-08
-6.88295e-05 0.000540225 8.55671e-08
8.94217e-08 8.55671e-08 0.000450385

0.000444753 7.14959e-05 3.28793e-08
7.14959e-05 0.000627031 -7.00155e-08
3.28793e-08 -7.00155e-08 0.000582946

0.000618803 2.99308e-05 9.07487e-08
2.99308e-05 0.000661492 -6.63051e-08
9.07487e-08 -6.63051e-08 0.000652822

0.000502036 -9.73339e-05 6.02732e-08
-9.73339e-05 0.000544971 1.99269e-08
6.02732e-08 1.99269e-08 0.00056049

0.000623019 7.34357e-05 -6.43843e-09
7.34357e-05 0.000631804 3.22821e-08
-6.43843e-09 3.22821e-08 0.000637841

0.000435021 5.84241e-05 1.10517e-07
5.84241e-05 0.000556993 6.97419e-08
1.10517e-07 6.97419e-08 0.000528047

0.000643364 -6.7758e-06 1.35717e-08
-6.7758e-06 0.000366498 -4.13365e-08
1.35717e-08 -4.13365e-08 0.000583217

0.000503352 7.12237e-05 -3.54691e-08
7.12237e-05 0.000426932 8.05106e-08
-3.54691e-08 8.05106e-08 0.000442787

0.000503833 -0.000111143 -2.31013e-08
-0.000111143 0.000635996 6.64564e-11
-2.31013e-08 6.64564e-11 0.000567778

0.000502047 6.47572e-05 -5.23434e-08
6.47572e-05 0.000484643 -1.43028e-07
-5.23434e-08 -1.43028e-07 0.00046515

0.000410093 -6.29273e-05 9.99158e-08
-6.29273e-05 0.000448176 -3.13022e-08
9.99158e-08 -3.13022e-08 0.00038304

0.000494783 -9.09238e-05 -9.87469e-09
-9.09238e-05 0.000566468 1.15739e-07
-9.87469e-09 1.15739e-07 0.00052314

0.000365658 -4.11463e-05 -6.99451e-08
-4.11463e-05 0.00050632 6.75381e-08
-6.99451e-08 6.75381e-08 0.000408824

0.000425458 1.56859e-05 -1.2381e-07
1.56859e-05 0.000510998 1.63666e-08
-1.2381e-07 1.63666e-08 0.000422275

0.000490229 -3.87546e-05 7.24473e-08
-3.87546e-05 0.000379302 2.18867e-08
7.24473e-08 2.18867e-08 0.000407013

0.000465191 -8.31579e-05 3.62754e-08
-8.31579e-05 0.000453285 2.83295e-07
3.62754e-08 2.83295e-07 0.000445272

0.000406528 -3.66284e-06 -1.43885e-08
-3.66284e-06 0.000579035 1.43356e-07
-1.43885e-08 1.43356e-07 0.000486521

0.000496988 -1.51061e-05 1.10872e-07
-1.51061e-05 0.000579644 -7.68251e-08
1.10872e-07 -7.68251e-08 0.000506123

0.000370514 -8.29725e-05 -3.89754e-08
-8.29725e-05 0.000421758 -1.34973e-07
-3.89754e-08 -1.34973e-07 0.000371034

0.000412153 6.16523e-05 2.15854e-08
6.16523e-05 0.000432833 9.9431e-10
2.15854e-08 9.9431e-10 0.000385002

0.000609666 2.78893e-07 -4.30173e-08
2.78893e-07 0.000434597 5.18229e-08
-4.30173e-08 5.18229e-08 0.00058702

0.000602849 -1.47335e-05 -5.60425e-08
-1.47335e-05 0.000440438 -1.50042e-07
-5.60425e-08 -1.50042e-07 0.000579532

0.00057642 6.61325e-05 -9.88674e-08
6.61325e-05 0.000593545 1.06355e-08
-9.88674e-08 1.06355e-08 0.000579215

0.000522367 -0.000109778 -3.55763e-10
-0.000109778 0.000646576 4.50611e-08
-3.55763e-10 4.50611e-08 0.000589379

0.000509952 7.55556e-05 -4.69008e-08
7.55556e-05 0.000522086 1.08547e-08
-4.69008e-08 1.08547e-08 0.000542862

0.00041299 3.46406e-05 1.4082e-07
3.46406e-05 0.00033524 7.02434e-08
1.4082e-07 7.02434e-08 0.000345954

0.000441135 4.12552e-05 -1.00345e-07
4.12552e-05 0.000540678 7.5204e-08
-1.00345e-07 7.5204e-08 0.000463504

0.000667992 3.79374e-05 -1.98061e-07
3.79374e-05 0.000541174 9.87468e-08
-1.98061e-07 9.87468e-08 0.000618598

0.000634339 -6.63671e-05 1.76335e-07
-6.63671e-05 0.00052414 1.40588e-07
1.76335e-07 1.40588e-07 0.000585581

0.000614557 5.44663e-05 -7.89215e-08
5.44663e-05 0.000524926 7.59206e-08
-7.89215e-08 7.59206e-08 0.000573294

0.000585486 -7.87009e-05 -8.2137e-09
-7.87009e-05 0.000493581 1.24806e-07
-8.2137e-09 1.24806e-07 0.000545352

0.000260132 -3.93989e-05 9.95952e-08
-3.93989e-05 0.000186032 -5.42835e-08
9.95952e-08 -5.42835e-08 0.000287519

0.000180459 -4.61658e-05 1.49252e-07
-4.61658e-05 0.000273786 1.32744e-07
1.49252e-07 1.32744e-07 0.000291482

0.000370715 -5.24989e-05 -7.9743e-08
-5.24989e-05 0.000529215 9.65423e-08
-7.9743e-08 9.65423e-08 0.000445888

0.000753453 6.31616e-05 2.71549e-08
6.31616e-05 0.000587587 2.20824e-07
2.71549e-08 2.20824e-07 0.000664156

0.000717553 -8.86668e-05 -1.1116e-08
-8.86668e-05 0.000636463 1.69524e-07
-1.1116e-08 1.69524e-07 0.000623245

0.000564345 6.33322e-05 6.68523e-08
6.33322e-05 0.000502313 -4.6381e-08
6.68523e-08 -4.6381e-08 0.000523383

0.000420292 2.55198e-05 2.04248e-07
2.55198e-05 0.000327892 -1.10601e-07
2.04248e-07 -1.10601e-07 0.00034528

0.000492191 -7.60777e-05 6.38122e-08
-7.60777e-05 0.000611379 1.23815e-07
6.38122e-08 1.23815e-07 0.000549721

0.000424116 -3.72496e-05 3.15753e-08
-3.72496e-05 0.000613774 2.50779e-08
3.15753e-08 2.50779e-08 0.000536943

0.000445552 -9.0631e-05 -1.36537e-08
-9.0631e-05 0.000469808 5.51919e-08
-1.36537e-08 5.51919e-08 0.000425207

0.000485581 -7.33201e-05 1.44709e-08
-7.33201e-05 0.000545781 1.54383e-07
1.44709e-08 1.54383e-07 0.000569599

0.000531429 -8.51999e-05 6.31723e-09
-8.51999e-05 0.000469481 1.36464e-07
6.31723e-09 1.36464e-07 0.000498678

0.000419255 0.000110953 -5.28594e-08
0.000110953 0.000573865 -5.37906e-08
-5.28594e-08 -5.37906e-08 0.000569068

0.000629421 2.70274e-05 -1.01537e-07
2.70274e-05 0.000661826 -5.37312e-08
-1.01537e-07 -5.37312e-08 0.00065182

0.000558464 4.64371e-05 7.73581e-08
4.64371e-05 0.000629822 -7.29248e-08
7.73581e-08 -7.29248e-08 0.000594648

0.000488579 -8.17921e-05 1.19552e-07
-8.17921e-05 0.000531278 -1.51977e-08
1.19552e-07 -1.51977e-08 0.000536214

0.000473086 7.95025e-05 -4.58176e-10
7.95025e-05 0.000538764 1.06648e-07
-4.58176e-10 1.06648e-07 0.000535432

0.000487869 5.31462e-05 1.10992e-07
5.31462e-05 0.000392504 -1.47129e-07
1.10992e-07 -1.47129e-07 0.000419661

0.000554736 -4.97693e-08 4.59562e-08
-4.97693e-08 0.00041815 6.24483e-08
4.59562e-08 6.24483e-08 0.000483441

0.000642347 5.523e-05 -2.58708e-08
5.523e-05 0.000638676 6.47561e-08
-2.58708e-08 6.47561e-08 0.0006452

0.00045732 -8.867e-05 9.5822e-09
-8.867e-05 0.000584345 -1.43594e-07
9.5822e-09 -1.43594e-07 0.000507547

0.000376665 1.38292e-05 1.47608e-07
1.38292e-05 0.000568845 5.54872e-08
1.47608e-07 5.54872e-08 0.000472623

0.000589695 8.29002e-05 1.67375e-07
8.29002e-05 0.000517213 4.02551e-08
1.67375e-07 4.02551e-08 0.000555902

0.000468233 2.31418e-06 -7.35919e-08
2.31418e-06 0.000569614 1.00373e-08
-7.35919e-08 1.00373e-08 0.00049788

0.000445452 -6.14693e-05 1.52607e-10
-6.14693e-05 0.000617571 6.68688e-08
1.52607e-10 6.68688e-08 0.000580957

0.000313354 -5.19588e-05 -8.75608e-08
-5.19588e-05 0.000343835 -2.71432e-07
-8.75608e-08 -2.71432e-07 0.000300947

0.000344421 -5.3488e-05 1.99232e-07
-5.3488e-05 0.000308494 2.06563e-08
1.99232e-07 2.06563e-08 0.000299384

0.000588209 1.8529e-05 -3.24092e-08
1.8529e-05 0.000428428 1.64755e-08
-3.24092e-08 1.64755e-08 0.000522564

0.000533779 -9.77122e-05 1.58797e-08
-9.77122e-05 0.000489159 1.28292e-07
1.58797e-08 1.28292e-07 0.000526111

0.00082493 5.4293e-05 4.61814e-07
5.4293e-05 0.000626725 -4.06121e-07
4.61814e-07 -4.06121e-07 0.000683647

0.000831566 -1.6841e-05 7.7001e-07
-1.6841e-05 0.00071007 1.95042e-07
7.7001e-07 1.95042e-07 0.00063482

0.000450939 -6.8457e-05 2.24264e-08
-6.8457e-05 0.000553277 -6.26241e-08
2.24264e-08 -6.26241e-08 0.000530485

0.000602896 -2.05112e-05 1.00157e-07
-2.05112e-05 0.000637278 -7.13783e-08
1.00157e-07 -7.13783e-08 0.000616821

0.00058733 7.16998e-05 2.03196e-08
7.16998e-05 0.000666675 -2.57012e-08
2.03196e-08 -2.57012e-08 0.000617624

0.000620784 6.22108e-06 8.33049e-09
6.22108e-06 0.000418325 -1.96199e-07
8.33049e-09 -1.96199e-07 0.000519273

0.000495125 -0.000119035 -2.41672e-08
-0.000119035 0.000631592 -1.49847e-09
-2.41672e-08 -1.49847e-09 0.00056662

0.000346082 3.9856e-05 3.50206e-08
3.9856e-05 0.000349787 -3.75189e-08
3.50206e-08 -3.75189e-08 0.000322195

0.00033529 3.86058e-05 -1.55313e-07
3.86058e-05 0.00033578 5.64101e-08
-1.55313e-07 5.64101e-08 0.000315986

0.000301899 -4.60952e-05 -8.60655e-08
-4.60952e-05 0.000409624 -9.3898e-08
-8.60655e-08 -9.3898e-08 0.000336405

0.000343342 2.29412e-05 3.89092e-08
2.29412e-05 0.000422189 1.77095e-08
3.89092e-08 1.77095e-08 0.000348442

0.000406206 -3.92336e-05 -4.75408e-08
-3.92336e-05 0.000308641 2.77352e-08
-4.75408e-08 2.77352e-08 0.00033707

0.000433409 -0.000109712 -5.81069e-08
-0.000109712 0.000566086 3.584e-08
-5.81069e-08 3.584e-08 0.0005683

0.000267459 2.01665e-06 1.16844e-07
2.01665e-06 0.000393587 7.59987e-08
1.16844e-07 7.59987e-08 0.000316564

0.000392268 3.26349e-06 4.06442e-08
3.26349e-06 0.000285302 1.08451e-07
4.06442e-08 1.08451e-07 0.000321809

0.000577244 7.47057e-06 -3.52142e-08
7.47057e-06 0.000697626 1.20328e-07
-3.52142e-08 1.20328e-07 0.000610935

0.000612943 -6.26244e-05 -1.39456e-07
-6.26244e-05 0.000680783 -1.38395e-08
-1.39456e-07 -1.38395e-08 0.000636085

0.000602459 2.53422e-05 -4.10982e-08
2.53422e-05 0.000496463 -2.7496e-08
-4.10982e-08 -2.7496e-08 0.000551238

0.000654068 4.31147e-06 4.0984e-08
4.31147e-06 0.000425676 -7.76983e-10
4.0984e-08 -7.76983e-10 0.000558521

0.000363301 -5.92625e-05 -6.68129e-08
-5.92625e-05 0.000466378 7.12807e-08
-6.68129e-08 7.12807e-08 0.000399748

0.000405902 3.82389e-05 5.07757e-09
3.82389e-05 0.000485041 -1.38956e-07
5.07757e-09 -1.38956e-07 0.000413589

0.000621159 4.73021e-06 -5.0293e-08
4.73021e-06 0.000423429 1.23758e-07
-5.0293e-08 1.23758e-07 0.000521685

0.000424295 -5.99624e-05 -3.49369e-08
-5.99624e-05 0.000556246 -1.7853e-08
-3.49369e-08 -1.7853e-08 0.000504479

0.00071072 3.57737e-05 6.54637e-08
3.57737e-05 0.000582382 2.65967e-07
6.54637e-08 2.65967e-07 0.000650517

0.000678174 -4.89865e-05 1.27261e-09
-4.89865e-05 0.000597628 1.54923e-07
1.27261e-09 1.54923e-07 0.000612978

0.000537083 5.72969e-05 -2.8477e-08
5.72969e-05 0.000533042 -5.62713e-09
-2.8477e-08 -5.62713e-09 0.000547668

0.000488942 -0.000100706 -4.03898e-08
-0.000100706 0.000603183 -2.7359e-08
-4.03898e-08 -2.7359e-08 0.00053493

0.000603121 2.61207e-05 -3.06693e-08
2.61207e-05 0.000443044 7.92388e-08
-3.06693e-08 7.92388e-08 0.000538885

0.000413045 5.27138e-05 -3.19816e-09
5.27138e-05 0.000396002 -1.72478e-07
-3.19816e-09 -1.72478e-07 0.000379497

0.000488748 -0.000108574 -1.02328e-07
-0.000108574 0.000596172 -5.51072e-08
-1.02328e-07 -5.51072e-08 0.000531388

0.000259023 9.64628e-05 -2.54257e-07
9.64628e-05 0.000260373 2.93733e-08
-2.54257e-07 2.93733e-08 0.000265459

0.000441204 -3.95454e-05 1.15242e-08
-3.95454e-05 0.000568944 -1.19269e-07
1.15242e-08 -1.19269e-07 0.000486484

0.000388915 -2.37601e-05 -6.70266e-08
-2.37601e-05 0.000567062 1.24813e-07
-6.70266e-08 1.24813e-07 0.000474403

0.000554506 -1.12691e-05 -1.09414e-07
-1.12691e-05 0.000742511 -3.74559e-08
-1.09414e-07 -3.74559e-08 0.000613668

0.000631764 -4.93001e-05 1.65114e-07
-4.93001e-05 0.000672049 -9.21498e-08
1.65114e-07 -9.21498e-08 0.000652382

0.000672685 2.72993e-05 -7.96884e-08
2.72993e-05 0.000397072 3.7297e-09
-7.96884e-08 3.7297e-09 0.000607911

0.000654379 -4.05968e-05 -1.24224e-07
-4.05968e-05 0.00042122 -6.19276e-08
-1.24224e-07 -6.19276e-08 0.0005924

0.000549301 8.30699e-05 -3.90665e-08
8.30699e-05 0.000553378 -1.02918e-08
-3.90665e-08 -1.02918e-08 0.000577012

0.000556455 -5.30198e-05 -1.27742e-07
-5.30198e-05 0.000578768 3.29307e-08
-1.27742e-07 3.29307e-08 0.000579322

0.000593572 6.35136e-05 -8.40725e-09
6.35136e-05 0.000621953 9.76073e-08
-8.40725e-09 9.76073e-08 0.000613054

0.000590633 -4.41419e-05 9.77595e-08
-4.41419e-05 0.000658087 -8.15696e-08
9.77595e-08 -8.15696e-08 0.000611395

0.000792423 6.00204e-05 -3.20316e-07
6.00204e-05 0.000626167 -3.60367e-07
-3.20316e-07 -3.60367e-07 0.00068233

0.000751487 -8.48401e-05 -1.8957e-07
-8.48401e-05 0.000702389 1.38907e-07
-1.8957e-07 1.38907e-07 0.000630955

0.000694218 6.27041e-05 9.00012e-08
6.27041e-05 0.00062374 5.33095e-08
9.00012e-08 5.33095e-08 0.000661824

0.000508954 -0.000118569 9.53774e-08
-0.000118569 0.00056308 1.38071e-07
9.53774e-08 1.38071e-07 0.00058503

0.000565983 6.52948e-05 7.22324e-08
6.52948e-05 0.00045934 -6.82393e-08
7.22324e-08 -6.82393e-08 0.000509148

0.000493233 -7.41525e-05 2.64855e-08
-7.41525e-05 0.000588508 -1.33079e-07
2.64855e-08 -1.33079e-07 0.000515792

0.000422629 -4.50401e-05 3.05059e-08
-4.50401e-05 0.000573502 1.88366e-08
3.05059e-08 1.88366e-08 0.000506574

0.000432551 -6.58149e-05 -6.05336e-08
-6.58149e-05 0.000417565 -1.99126e-07
-6.05336e-08 -1.99126e-07 0.00037665

0.000532293 -8.63117e-05 -1.80258e-08
-8.63117e-05 0.000440762 2.39843e-08
-1.80258e-08 2.39843e-08 0.000490189

0.000421757 2.99131e-05 -1.40398e-07
2.99131e-05 0.000573952 -8.1283e-08
-1.40398e-07 -8.1283e-08 0.000502986

0.000537094 8.69514e-05 5.75057e-08
8.69514e-05 0.00049636 -4.51016e-08
5.75057e-08 -4.51016e-08 0.000504688

0.000478114 0.000129602 5.25789e-08
0.000129602 0.000574216 6.11518e-08
5.25789e-08 6.11518e-08 0.000588224

0.000516028 -0.000105 1.47826e-07
-0.000105 0.000630715 -5.54894e-08
1.47826e-07 -5.54894e-08 0.000583718

0.000484789 -9.90125e-05 1.73535e-07
-9.90125e-05 0.000466068 1.65828e-07
1.73535e-07 1.65828e-07 0.000479838

0.000618269 -6.99076e-06 1.30304e-07
-6.99076e-06 0.000520453 -1.51019e-07
1.30304e-07 -1.51019e-07 0.000558794

0.000668842 -3.29729e-05 -3.13044e-08
-3.29729e-05 0.000725582 1.49553e-07
-3.13044e-08 1.49553e-07 0.000670261

0.000783824 -3.68977e-05 6.8786e-08
-3.68977e-05 0.000766743 -2.95082e-07
6.8786e-08 -2.95082e-07 0.000631788

0.000465501 -3.87942e-05 9.36537e-08
-3.87942e-05 0.000596608 -1.72852e-08
9.36537e-08 -1.72852e-08 0.000555255

0.000536782 5.34813e-05 -3.03821e-08
5.34813e-05 0.000484802 -3.1256e-08
-3.03821e-08 -3.1256e-08 0.000533463

0.000639644 -3.98509e-06 -2.95936e-08
-3.98509e-06 0.000550303 2.88111e-08
-2.95936e-08 2.88111e-08 0.000596346

0.000306949 -6.71616e-05 -9.63315e-08
-6.71616e-05 0.000354165 3.6434e-09
-9.63315e-08 3.6434e-09 0.000307697

0.000348343 -6.05533e-05 -7.79615e-08
-6.05533e-05 0.000306909 2.6422e-08
-7.79615e-08 2.6422e-08 0.000309263

0.000670618 -2.25671e-06 -1.04404e-07
-2.25671e-06 0.000473664 3.44194e-08
-1.04404e-07 3.44194e-08 0.000618531

0.000658295 -1.27516e-05 7.62021e-08
-1.27516e-05 0.000479886 1.67711e-07
7.62021e-08 1.67711e-07 0.000596673

0.000663299 1.34732e-05 -9.9708e-08
1.34732e-05 0.000537769 -3.07699e-08
-9.9708e-08 -3.07699e-08 0.000597546

0.000532282 3.49452e-05 -1.44534e-07
3.49452e-05 0.000582676 -4.28356e-08
-1.44534e-07 -4.28356e-08 0.000535805

0.000536224 4.5274e-05 1.33269e-07
4.5274e-05 0.000446223 -2.05318e-08
1.33269e-07 -2.05318e-08 0.000468089

0.000640412 6.24742e-05 -2.2697e-08
6.24742e-05 0.000577564 -2.08925e-07
-2.2697e-08 -2.08925e-07 0.000610722

0.00058954 -8.16059e-05 -5.87945e-08
-8.16059e-05 0.000528041 -1.8153e-07
-5.87945e-08 -1.8153e-07 0.000569994

0.000684964 -1.0535e-05 -1.16172e-07
-1.0535e-05 0.000632948 4.94513e-07
-1.16172e-07 4.94513e-07 0.000637466

0.000658631 8.94803e-05 -4.99993e-09
8.94803e-05 0.000778232 2.4776e-07
-4.99993e-09 2.4776e-07 0.000638516

0.000449909 -6.96416e-05 2.5502e-08
-6.96416e-05 0.000574269 -4.47622e-08
2.5502e-08 -4.47622e-08 0.000550891

0.000552665 4.57275e-05 -9.46002e-08
4.57275e-05 0.000461292 -8.4091e-08
-9.46002e-08 -8.4091e-08 0.000501574

0.000662185 4.18786e-05 3.76119e-08
4.18786e-05 0.000539413 -1.54749e-07
3.76119e-08 -1.54749e-07 0.000618141

0.000636655 -5.66844e-05 -1.08621e-07
-5.66844e-05 0.00054213 -1.6273e-07
-1.08621e-07 -1.6273e-07 0.000589459

0.00053096 -9.73014e-05 7.86938e-08
-9.73014e-05 0.00062215 1.1347e-07
7.86938e-08 1.1347e-07 0.000565091

0.000508319 -0.000124172 -3.46319e-08
-0.000124172 0.000632947 2.61095e-10
-3.46319e-08 2.61095e-10 0.00056795

0.000269775 0.000115116 3.65379e-08
0.000115116 0.000282192 -1.36793e-07
3.65379e-08 -1.36793e-07 0.000270453

0.000508377 8.8212e-05 3.65106e-08
8.8212e-05 0.000618165 9.35214e-08
3.65106e-08 9.35214e-08 0.000597139

0.00053731 -7.76802e-05 1.3622e-07
-7.76802e-05 0.00065393 -7.90539e-08
1.3622e-07 -7.90539e-08 0.000594597

0.000488677 -0.000106875 -8.37872e-08
-0.000106875 0.000620349 6.15491e-08
-8.37872e-08 6.15491e-08 0.000555002

0.000526496 -7.25589e-05 1.49264e-07
-7.25589e-05 0.000423397 -1.01455e-07
1.49264e-07 -1.01455e-07 0.000457363

0.000554921 -4.7923e-05 1.62389e-08
-4.7923e-05 0.000572681 -6.25967e-08
1.62389e-08 -6.25967e-08 0.000551687

0.000548793 8.33004e-05 -4.3534e-08
8.33004e-05 0.000557615 4.7918e-09
-4.3534e-08 4.7918e-09 0.000584002

0.000546739 -6.64677e-05 -8.85719e-08
-6.64677e-05 0.00061545 1.80588e-07
-8.85719e-08 1.80588e-07 0.00058233

0.000618268 -6.61913e-06 1.29968e-07
-6.61913e-06 0.000448015 -1.60443e-08
1.29968e-07 -1.60443e-08 0.000546114

0.000678172 2.45107e-05 -1.09713e-07
2.45107e-05 0.000553131 8.04138e-09
-1.09713e-07 8.04138e-09 0.000638179

0.000658122 -2.374e-05 1.32495e-07
-2.374e-05 0.000593392 -1.12077e-07
1.32495e-07 -1.12077e-07 0.000609417

0.000644432 -3.42198e-05 1.07938e-07
-3.42198e-05 0.000753298 8.12116e-09
1.07938e-07 8.12116e-09 0.000667315

0.000621298 2.75209e-05 -2.8864e-07
2.75209e-05 0.000803556 6.79628e-08
-2.8864e-07 6.79628e-08 0.00062783

0.000292098 9.09442e-06 9.1551e-08
9.09442e-06 0.000201829 8.72989e-08
9.1551e-08 8.72989e-08 0.000290182

0.000204712 8.02323e-06 2.68359e-08
8.02323e-06 0.000284686 -1.65699e-07
2.68359e-08 -1.65699e-07 0.000284927

0.000625123 7.9384e-05 4.65706e-08
7.9384e-05 0.000605054 3.76745e-08
4.65706e-08 3.76745e-08 0.000617051

0.000537389 -7.86599e-05 8.87997e-09
-7.86599e-05 0.000539172 -4.14286e-08
8.87997e-09 -4.14286e-08 0.000565994

0.000468519 -7.56224e-05 -3.0617e-08
-7.56224e-05 0.000555823 3.1981e-08
-3.0617e-08 3.1981e-08 0.000565334

0.000253791 2.82822e-05 4.15446e-08
2.82822e-05 0.000255023 -8.31958e-08
4.15446e-08 -8.31958e-08 0.000282384

0.000254874 3.06107e-05 2.42634e-08
3.06107e-05 0.000256279 -1.38704e-07
2.42634e-08 -1.38704e-07 0.000285126

0.000777851 1.35173e-05 -5.34113e-08
1.35173e-05 0.000809565 -5.53031e-07
-5.34113e-08 -5.53031e-07 0.000636587

0.000781433 1.91976e-05 -4.32432e-07
1.91976e-05 0.000726393 4.06294e-07
-4.32432e-07 4.06294e-07 0.000682173

0.000517532 -7.11602e-05 1.91076e-07
-7.11602e-05 0.000560242 8.6535e-08
1.91076e-07 8.6535e-08 0.00054413

0.000485113 -8.79101e-05 7.01408e-08
-8.79101e-05 0.000503095 -1.09907e-08
7.01408e-08 -1.09907e-08 0.000492449

0.000627355 8.29509e-05 5.59073e-09
8.29509e-05 0.000559791 -2.2364e-07
5.59073e-09 -2.2364e-07 0.000598706

0.000545151 -9.90618e-05 2.58806e-08
-9.90618e-05 0.00052189 -1.37496e-07
2.58806e-08 -1.37496e-07 0.00055654

0.000485231 -9.36293e-05 1.11672e-07
-9.36293e-05 0.000518065 -6.60999e-08
1.11672e-07 -6.60999e-08 0.000520612

0.000548078 6.73659e-05 -3.22913e-08
6.73659e-05 0.000531246 1.09612e-07
-3.22913e-08 1.09612e-07 0.00052083

0.000307927 -3.06249e-05 2.04012e-07
-3.06249e-05 0.000417562 -1.53296e-08
2.04012e-07 -1.53296e-08 0.000340137

0.000344527 1.82863e-05 -7.18458e-08
1.82863e-05 0.00042337 3.19961e-08
-7.18458e-08 3.19961e-08 0.000348823

0.000410071 -2.82189e-05 -1.804e-08
-2.82189e-05 0.000328417 1.62944e-07
-1.804e-08 1.62944e-07 0.000343259

0.000568985 9.00872e-05 -9.92273e-08
9.00872e-05 0.000553191 1.26083e-08
-9.92273e-08 1.26083e-08 0.000555851

0.000296855 -2.20315e-05 6.92276e-08
-2.20315e-05 0.000395006 2.0023e-07
6.92276e-08 2.0023e-07 0.000320971

0.000385524 -1.47908e-05 1.10759e-07
-1.47908e-05 0.000285988 -1.84129e-07
1.10759e-07 -1.84129e-07 0.000313366

0.000673154 6.62995e-05 6.02657e-08
6.62995e-05 0.000598204 4.03212e-08
6.02657e-08 4.03212e-08 0.000638393

0.000583345 -9.70196e-05 -1.27293e-07
-9.70196e-05 0.000544893 -1.25417e-08
-1.27293e-07 -1.25417e-08 0.000583869

0.00066523 8.15193e-05 9.28023e-08
8.15193e-05 0.000587928 -7.24938e-08
9.28023e-08 -7.24938e-08 0.000634344

0.00058256 -9.47567e-05 -1.46175e-07
-9.47567e-05 0.000569496 -7.70003e-08
-1.46175e-07 -7.70003e-08 0.000587311

0.000249798 3.52238e-05 -2.67676e-07
3.52238e-05 0.000254229 -1.4807e-07
-2.67676e-07 -1.4807e-07 0.000278136

0.000249891 3.37125e-05 1.69082e-07
3.37125e-05 0.000250425 6.31271e-08
1.69082e-07 6.31271e-08 0.000275073

0.000591444 7.25695e-05 1.82878e-07
7.25695e-05 0.000563378 -9.64412e-08
1.82878e-07 -9.64412e-08 0.000572227

0.000535182 -8.97727e-05 -9.53283e-09
-8.97727e-05 0.000513728 -1.12377e-07
-9.53283e-09 -1.12377e-07 0.000535434

0.000639026 -5.69161e-05 1.02141e-07
-5.69161e-05 0.00068003 -2.79079e-08
1.02141e-07 -2.79079e-08 0.000651634

0.000609135 -1.85673e-05 -2.77939e-07
-1.85673e-05 0.00070055 1.34462e-07
-2.77939e-07 1.34462e-07 0.000617816

0.000680788 8.25698e-05 8.27454e-08
8.25698e-05 0.000630608 7.59626e-08
8.27454e-08 7.59626e-08 0.000659262

0.000534352 -7.40756e-05 -2.08806e-08
-7.40756e-05 0.000609765 -1.94577e-07
-2.08806e-08 -1.94577e-07 0.000593796

0.000709775 4.33563e-05 1.0688e-07
4.33563e-05 0.000522702 -1.115e-07
1.0688e-07 -1.115e-07 0.00063942

0.000674871 -6.71603e-05 -3.84454e-08
-6.71603e-05 0.000540362 -2.06422e-07
-3.84454e-08 -2.06422e-07 0.000607317

0.00050254 7.61434e-05 -4.96653e-08
7.61434e-05 0.000558096 4.979e-09
-4.96653e-08 4.979e-09 0.000565222

0.000520603 -8.7882e-05 1.42324e-07
-8.7882e-05 0.000614822 1.84e-07
1.42324e-07 1.84e-07 0.000563758

0.000641544 -6.13418e-05 -2.48324e-07
-6.13418e-05 0.000657731 1.55804e-07
-2.48324e-07 1.55804e-07 0.00062458

0.000610632 -5.45116e-05 -1.59748e-07
-5.45116e-05 0.000740688 1.82893e-07
-1.59748e-07 1.82893e-07 0.000650129

0.000750751 6.1301e-05 -7.9719e-08
6.1301e-05 0.000567672 3.0383e-08
-7.9719e-08 3.0383e-08 0.000657759

0.000794501 1.94808e-05 -4.08485e-07
1.94808e-05 0.000607606 3.34622e-07
-4.08485e-07 3.34622e-07 0.000672639

0.000718306 -6.60187e-05 -2.89361e-08
-6.60187e-05 0.000622985 8.15885e-09
-2.89361e-08 8.15885e-09 0.000623147

0.000775404 -1.31269e-05 2.07009e-07
-1.31269e-05 0.00067198 2.26503e-07
2.07009e-07 2.26503e-07 0.000631314

0.000581238 -1.55899e-05 5.94778e-09
-1.55899e-05 0.000769332 -2.78766e-07
5.94778e-09 -2.78766e-07 0.000621326

0.000659655 0.000112378 4.16676e-08
0.000112378 0.000657831 1.31534e-07
4.16676e-08 1.31534e-07 0.000626423

0.000812975 6.46889e-05 3.22456e-07
6.46889e-05 0.000643291 6.22527e-07
3.22456e-07 6.22527e-07 0.000697932

0.000837166 5.96125e-05 2.82147e-06
5.96125e-05 0.000639626 -1.31458e-06
2.82147e-06 -1.31458e-06 0.000696944

0.000841488 1.16317e-05 1.12383e-06
1.16317e-05 0.000797587 3.24424e-07
1.12383e-06 3.24424e-07 0.000637087

0.000676929 -7.73473e-05 -1.74434e-07
-7.73473e-05 0.000743668 1.07394e-07
-1.74434e-07 1.07394e-07 0.000626732

0.000803476 5.0464e-05 -1.12842e-07
5.0464e-05 0.000621992 -3.72941e-08
-1.12842e-07 -3.72941e-08 0.000689309

0.000725001 4.14749e-05 6.36229e-08
4.14749e-05 0.000644498 7.95594e-08
6.36229e-08 7.95594e-08 0.000673228

0.000795048 6.77338e-05 -1.7902e-07
6.77338e-05 0.000642787 2.6916e-07
-1.7902e-07 2.6916e-07 0.000691431

0.000716224 -7.51831e-05 -4.03478e-08
-7.51831e-05 0.000646822 -9.58518e-08
-4.03478e-08 -9.58518e-08 0.000622456

0.000726412 -3.74487e-05 -8.76809e-08
-3.74487e-05 0.000777835 -3.1504e-07
-8.76809e-08 -3.1504e-07 0.000633127

0.000648397 -3.32837e-05 8.00797e-08
-3.32837e-05 0.000621073 -1.75597e-07
8.00797e-08 -1.75597e-07 0.000609882

0.00072941 6.68828e-05 5.8225e-08
6.68828e-05 0.000605238 1.34228e-08
5.8225e-08 1.34228e-08 0.000665393

0.000758514 3.95339e-05 5.09948e-08
3.95339e-05 0.00061945 1.56747e-08
5.09948e-08 1.56747e-08 0.000672372

0.000657192 -8.71868e-05 6.48569e-08
-8.71868e-05 0.000621571 1.09368e-08
6.48569e-08 1.09368e-08 0.000614251

0.000728044 -4.32018e-05 -3.30894e-08
-4.32018e-05 0.000642096 -1.95668e-08
-3.30894e-08 -1.95668e-08 0.000624653

SCALARS pressure float
LOOKUP_TABLE default
-3.03022
-0.0896022
0.088901
-0.0606004
-2.52937
5.52842
5.60666
-2.85176
1.71201
-5.53253
-6.11131
-5.93052
3.35425
3.2381
-0.0292423
1.50997
5.76557
5.74602
-0.483259
-6.55559
-6.84523
-7.31297
-2.31881
-2.57847
-1.54231
-3.14348
-0.0393224
-12.3179
2.02482
-12.3931
3.79619
3.84426
13.1129
13.1693
-7.38013
0.655477
4.74288
5.17633
1.71806
-2.81623
-3.94646
1.49818
-2.44793
-3.11637
1.0181
-4.06184
-11.9807
-11.9489
3.71271
-16.2527
-15.5853
4.11757
4.14561
-0.198445
5.2666
5.27633
-0.441742
10.6563
10.7122
2.22943
2.26058
-6.19986
10.1228
10.0841
-2.76601
-12.9326
-12.7821
1.0967
1.43892
17.5287
17.5202
1.60874
1.32887
1.27535
2.38934
3.38236
-5.8535
-4.02759
6.05763
18.6768
18.4841
-7.01131
-0.260716
-1.46534
13.7626
13.7338
6.40107
0.269903
0.17933
1.29826
1.37445
-7.47167
-3.0327
3.02323
3.04804
-1.60716
-3.22427
0.742303
0.836681
-0.220045
1.14109
-4.22571
1.75945
1.15582
-3.13796
3.01352
-0.884909
-2.70926
-0.103974
2.62338
2.58815
-6.10258
2.41906
-4.37465
-4.34671
-0.780604
4.24429
3.87307
-2.57827
-1.64085
-4.84877
-5.07951
-5.60881
-7.71797
-3.21868
18.738
18.6708
-3.01503
-0.639851
-0.282284
-2.65784
3.03903
3.49079
1.16226
0.940282
-0.11051
1.43372
-3.32497
1.79069
-4.02547
-7.36154
0.566716
-6.69812
-6.60719
-7.20997
-4.14516
-3.09181
-3.03393
-6.61513
-6.2105
2.01141
2.02529
-0.366986
3.00765
2.16776
-9.04421
-3.13461
3.22063
3.18107
-0.191271
-0.135665
-22.2974
-22.1411
-2.88564
8.36993
8.3731
-1.8457
-8.91332
-3.04826
1.81136
1.62671
-3.82717
0.957726
-1.96977
1.90056
3.51063
3.69474
-0.302642
0.0277807
-3.80621
1.12074
-0.0370474
-1.25355
0.415832
-1.4845
2.45818
-11.0711
-11.07
0.39573
-0.513162
13.8303
13.8332
-0.479879
9.73932
9.87059
-0.345158
1.81947
-9.00531
-8.39549
-10.6532
-10.664
-11.1444
1.0274
-9.01573
-9.47553
7.07003
7.06949
0.164778
2.12118
-5.00136
-4.91836
0.00768594
-0.340516
5.64023
5.66912
0.791804
0.103875
1.90241
-5.59181
-0.0323608
-12.9532
-1.25545
-1.46257
9.0982
9.09803
2.55032
2.5756
5.25717
5.0239
6.97957
6.94253
11.8091
11.811
2.15527
2.18813
-1.02011
-1.65223
-1.87533
-7.73752
-1.13174
-1.6412
-1.83233
3.78765
3.84021
-1.82758
0.778952
20.0126
19.9956
0.295475
2.67727
4.35439
-11.2409
-11.2294
3.41118
3.4466
4.5089
-1.87486
-4.42331
1.28309
1.30861
21.0964
20.5709
1.20807
-1.59667
2.70998
2.67617
0.651982
1.52229
-13.1781
4.25753
4.2934
1.67904
-4.43481
0.921517
3.82761
3.89712
2.61356
4.7033
4.68363
13.3146
13.3071
-21.8335
-20.7861
0.696842
0.710347
1.06251
-17.0039
-16.9144
15.5124
15.5103
2.32444
-1.8147
1.48634
1.50804
-0.365539
-1.76431
-10.6697
-9.77319
-11.0457
-0.39708
-9.63613
-9.52748
2.65794
2.66001
3.04186
3.05956
-17.4379
-17.1908
-0.441116
-0.495291
10.547
10.5082
2.78867
2.82544
6.09241
6.09518
1.92215
1.88409
11.7024
8.45544
12.3278
8.46335
12.3292
11.659
12.5084
12.5413
12.1576
10.9904
10.9792
12.1658
8.66796
4.4565
14.3647
8.68295
14.3605
4.47177
6.9541
8.88221
6.9618
8.90075
0.599095
1.64188
0.845038
-1.61449
6.02112
5.10393
-1.33159
3.62729
-6.43712
-7.57457
-7.63068
3.05756
3.84432
-0.714541
4.98631
6.16342
0.325248
-6.12075
-6.47957
-7.21364
-2.80521
-1.8836
1.25655
-12.695
3.56277
4.40103
3.51749
8.30735
10.8626
-0.215382
-2.30004
-5.93899
4.18279
4.59096
4.96471
-1.14381
4.62439
-3.86587
-1.34824
-3.36011
-2.94125
-2.35558
2.85419
1.81688
-2.6874
-2.55769
-32.3546
-32.8638
4.9981
4.06795
0.0113604
-20.4258
-21.024
6.46852
5.6458
0.358834
6.49754
7.13185
0.802213
7.75184
9.59717
3.78931
3.51595
7.54532
10.7531
-12.313
-12.2989
1.58927
2.62119
14.1666
20.0747
-2.9769
2.53904
2.56424
6.35535
-5.69389
11.9068
8.04908
0.346941
-1.01977
-6.93006
8.62145
14.2496
5.12993
0.840914
1.79813
2.43789
2.34132
-7.58384
-2.48643
4.24456
4.20819
-0.566067
1.53062
1.2161
0.588951
-3.77738
2.22633
4.07443
4.97512
1.66412
-2.96075
-11.255
2.58407
-0.0365403
-10.9181
0.10411
2.43476
2.95246
-2.80456
-7.00042
3.67302
2.33287
-3.84767
-4.30694
0.117623
6.26987
6.64373
-2.98234
-0.703213
-5.68644
-6.24096
-6.81546
-2.546
18.9677
6.18995
-3.30054
-2.66169
-9.68752
2.27361
0.0016142
0.278608
-1.77156
5.65381
3.74782
-7.23826
-8.09175
-9.69856
1.65081
5.77373
2.15998
5.14284
1.95336
1.82014
-5.3825
-6.01246
-6.10232
-2.87518
-2.36158
-1.27645
-7.7867
-7.17327
1.83601
1.92214
2.54896
0.261069
5.56734
3.44987
2.55794
-2.12768
4.45288
5.24361
-0.512048
1.50487
0.480624
-16.3532
-3.88009
-17.5554
-2.80493
9.96951
10.6293
-1.40516
-2.2712
-3.34674
2.11971
2.1831
3.97657
3.44389
2.04207
6.43269
0.787685
-1.01261
2.07375
1.46395
-4.06149
0.222937
-0.913625
-17.3046
-17.155
-7.37206
0.443602
14.912
15.9134
6.39127
10.0205
2.04234
2.12873
6.02049
-13.6171
-12.8335
-10.7799
-10.9717
-11.182
-6.08974
-12.8837
-12.6025
4.8581
7.55129
1.79908
6.5372
-5.23445
-4.75644
1.55246
7.50542
7.42597
1.54683
1.69477
0.481271
3.11559
2.09212
0.396565
-33.8263
-1.04798
-1.11094
5.55401
9.45007
3.59374
3.50056
4.22101
5.20535
4.266
5.70458
14.6816
11.0018
3.5025
6.84212
-0.228314
0.262838
-0.250633
-1.07856
0.134434
-1.23228
-1.25948
5.59421
3.72354
1.83596
7.20291
20.5911
2.68017
5.2567
-16.3222
-15.6784
4.40281
4.00301
3.40128
0.0855766
-4.11188
3.95744
2.23884
7.42216
18.5394
-0.297074
3.69381
3.62698
1.17921
2.63593
4.88698
1.84503
-34.9408
4.85153
4.32709
3.34669
1.99786
-3.36307
1.87357
3.51249
3.7218
3.38534
5.13848
5.61019
13.6352
9.33597
-18.5924
-17.7145
1.53589
4.05614
-22.5801
-21.9122
19.7222
17.8477
2.07305
2.6903
3.61968
-1.12592
-0.436904
-10.4688
-10.6293
-11.1838
0.436167
1.72397
-13.7086
-13.8598
5.63692
4.00175
4.90321
4.5165
-22.9486
-22.9483
0.249275
1.74192
7.49941
11.1237
5.70655
4.15991
8.41696
8.03444
3.52993
2.05354
11.2214
15.6421
11.7163
16.2626
8.87027
8.29027
12.4014
12.2036
16.6755
14.8099
5.53942
11.2876
11.8079
6.24994
18.1501
9.83559
11.9251
6.6949
7.57323
11.5455
9.41929
11.3078
-2.22868
0.939058
2.05054
0.540586
-1.50603
5.7641
6.08731
-1.97641
3.53343
-6.53569
-7.30106
-7.32021
4.5804
3.42918
0.981868
3.22257
5.90837
6.0344
0.358504
-6.2807
-6.2505
-7.21525
-1.28598
-2.74598
-0.514786
-2.36159
1.118
-13.069
2.70213
-13.4362
4.5699
4.54155
8.27873
8.28154
-6.68346
1.81576
4.20678
3.94667
4.33405
-2.22093
-2.94826
4.19742
-1.30747
-2.20034
1.73449
-3.93119
-32.4791
-33.5196
5.55276
-21.918
-20.0883
5.94337
5.96411
0.277714
7.48996
7.44224
0.0916117
7.66234
7.73022
3.75801
3.7754
-7.72827
9.51065
10.2181
-2.22509
-12.3064
-12.4305
1.83049
2.87935
21.5504
20.9165
5.19958
2.77567
2.72243
3.8563
4.15097
-6.03792
-2.5985
-3.93043
4.96511
8.08444
8.03043
-6.99335
0.0181135
-1.03204
10.6394
13.8676
4.98205
2.00546
1.36953
2.42053
2.48713
-7.94435
4.44872
4.41148
-1.05667
-2.3182
1.13058
1.1866
0.300822
2.40631
-3.24016
5.11541
2.00332
-2.95472
2.41624
-0.342929
-2.79521
-0.0172359
2.93278
2.88929
-7.11202
3.93246
-3.99129
-4.11063
0.394518
5.99831
5.55605
-1.96106
-0.710427
-5.78242
-5.87759
-6.89627
-8.05222
-2.78855
15.267
12.4439
-2.78187
0.373544
0.166315
-1.90073
6.48668
3.64938
2.43315
2.06144
2.44231
2.15158
-3.18882
5.19713
-3.75528
-7.5022
1.88089
-5.69302
-5.66748
-6.33242
-3.711
-1.67449
-1.67393
-7.2556
-7.44498
1.73056
1.73214
0.519737
6.78099
2.16192
-9.65628
-2.72505
4.63234
4.59818
-1.27188
0.558905
0.566575
-17.717
-16.572
-2.52766
11.02
10.9332
-9.83984
2.72428
2.08288
-3.67461
2.05063
6.31189
3.81508
4.88406
0.596367
1.82395
-1.24807
-3.56383
-2.45302
2.15425
1.1592
-0.722257
1.67753
-1.03443
2.985
-17.2431
-17.5146
0.438562
1.71149
16.6522
16.3348
0.502424
6.33965
6.30623
1.71021
6.48789
-13.7801
-12.998
-11.1934
-11.0014
-11.2643
2.07761
-12.6495
-13.6437
6.98889
6.73672
1.47485
6.00183
-5.23515
-5.20378
1.31388
0.134714
7.71103
7.70687
1.65516
1.92256
2.75027
-6.37167
2.36992
-33.9482
-0.757512
-1.06399
8.17483
8.12443
3.56812
3.57892
4.19563
4.20146
4.27342
4.26417
15.5277
15.2787
3.74576
3.76524
-0.0353409
0.197819
-0.905899
-0.689924
-7.85749
-0.0906137
-0.0620543
5.75542
5.77501
1.9096
11.1739
19.0061
1.03738
2.11418
3.51696
-1.00951
-16.625
-15.9556
4.06665
4.13366
3.41714
-0.760676
-4.09486
2.48181
2.47214
7.39299
7.40648
1.97998
-0.239856
3.89396
3.8976
3.36728
5.18025
-34.8033
4.85839
4.81984
3.81929
-3.98873
1.79186
3.59501
3.49457
3.19557
5.85023
5.81639
12.4565
11.7927
-17.8792
-18.3148
1.89712
1.87808
1.97236
-21.8524
-22.4288
17.9364
18.2231
2.24616
-1.03993
2.89998
2.90317
0.746592
-1.06931
-10.5228
-11.0452
-11.0937
0.709375
-13.8456
-13.5437
4.30465
4.27246
4.83332
4.86287
-23.0254
-23.1873
0.420819
0.397018
9.36884
10.5903
4.44683
4.55033
8.27408
8.25302
3.49543
3.47369
11.4786
16.0087
11.4684
16.1435
11.9915
8.28392
8.27669
10.4391
17.5722
16.7001
17.4385
16.0964
12.3033
6.62957
19.4152
12.3152
6.68675
19.0079
9.89225
11.756
9.83197
11.6945
-2.96984
1.68047
0.639314
0.706355
-1.43561
5.0993
6.01881
-1.46949
4.59865
-7.10948
-7.01994
-7.4766
3.76304
3.04781
0.0577473
0.117134
1.88947
6.18705
4.99126
0.403581
-6.5728
-5.87776
-6.99553
-2.08079
-2.36618
1.38232
-12.968
2.99339
3.521
4.43102
10.82
8.29687
0.0585028
-1.40951
-5.80219
4.88198
3.92482
4.4286
4.40996
-3.63475
-3.3781
-3.01157
2.87651
-2.13517
-1.26624
-33.0643
-32.2007
5.03019
0.809463
-20.0241
-21.2475
5.62736
6.46228
0.361936
7.18394
6.49286
9.52515
7.81084
3.5113
3.79188
7.53898
10.6301
-2.35982
-12.0902
-12.2082
2.64517
1.77692
20.6771
14.1081
-3.37431
1.9543
2.57195
2.52369
2.70058
3.86541
5.15005
-5.80281
8.06842
11.8836
0.122278
-0.490048
-7.12952
14.2738
8.62116
6.5232
1.7904
0.814842
2.48578
2.32027
-7.92304
-2.25559
4.27458
4.18435
-1.11096
-2.51702
1.15064
1.5876
0.867638
-3.31532
4.0697
1.97082
4.97179
-2.91531
-11.1206
3.15951
-0.23546
-10.7577
0.0726516
2.97408
2.41499
-3.06053
-7.14908
3.22869
-4.16958
-4.0851
-0.0232545
6.95645
5.8082
-2.71791
-2.13212
-6.02917
-5.97553
-6.85895
-2.94011
19.1786
6.18924
-3.20847
-2.74258
-9.82708
2.2337
0.259079
3.88455
5.65756
-6.89725
-7.65578
2.27733
-9.7454
5.78294
0.199911
2.16804
5.14347
-0.863352
-6.0051
-5.39207
-6.37817
-3.92021
-1.1837
-2.46192
-7.6546
-7.40014
1.91685
1.84267
2.49974
5.56788
2.29463
5.2648
4.42579
0.477543
1.50241
-16.5618
-3.38501
-17.6132
0.920057
-2.80062
-1.92233
10.7171
9.95266
-0.577252
-2.53488
-3.05348
2.0923
2.11249
1.62961
-1.3334
2.2286
3.44504
4.12905
0.380373
0.292023
6.43241
-0.787556
-1.00418
2.08122
-3.12653
0.800216
3.18893
-17.1929
-17.0783
-7.0588
1.47617
0.375056
14.8641
16.2121
0.286941
9.97327
6.35118
1.86373
6.01914
-13.2152
-13.2786
-11.0095
-10.7397
-11.3388
-6.58652
1.93246
-13.1541
-12.6177
4.85974
7.60197
1.53602
6.66494
-4.63545
-5.28239
1.89018
0.089888
7.42811
7.51378
1.76674
2.14795
2.79879
1.83388
-34.2824
-1.15139
-1.14879
5.55041
9.44333
3.46186
3.61061
5.48358
4.24192
5.77239
4.30583
14.9194
10.981
3.48685
6.84379
0.124829
0.285212
-1.18233
-0.255916
-1.19289
-0.0381516
-0.342914
3.95287
5.54496
-1.13819
2.19899
7.20492
20.4215
0.977077
2.2058
3.49167
-16.4216
-15.8036
3.95435
4.48091
5.26269
-3.49428
2.25331
3.95193
18.3842
7.37995
1.87065
-0.183443
3.64194
3.69625
2.61551
4.86558
-34.5232
4.54294
4.70494
3.37198
-3.94612
1.58803
3.47454
3.58645
3.6052
5.14354
5.64515
9.337
13.6297
-18.3038
-17.7408
1.53457
4.04836
1.55417
-22.5753
-21.7735
19.6351
18.1317
2.34555
-1.14132
2.69589
3.61442
0.535213
-0.385592
-9.94124
-10.9979
-11.19
1.70667
-13.4605
-13.8548
4.03753
5.63247
4.49858
4.90351
-23.0278
-23.136
1.72905
0.254694
7.49767
11.0875
4.06513
5.71041
8.05848
8.40313
2.49205
3.1894
12.2993
12.2762
8.31249
8.8736
11.7027
16.2133
11.2184
15.7728
16.8061
11.2821
5.53265
15.3717
11.7936
6.19585
9.83233
6.6825
11.899
18.5421
9.47881
11.3648
7.57429
11.5248
1.7058
-0.293083
-0.214318
-2.78715
5.12002
4.16638
-2.62923
1.7417
-7.5923
-7.96043
-7.34982
2.18629
3.14444
-1.6121
4.13939
5.23406
0.69382
-7.19448
-6.20067
-6.97787
-3.03183
-2.21803
-3.78031
0.048335
-13.5147
1.96021
-13.352
3.60366
2.92177
12.5646
12.5799
-7.50256
-0.420243
4.39544
6.12632
1.82715
-1.15391
-2.68309
-3.59644
1.73504
-3.44113
-1.35951
-3.37635
-2.12128
0.383653
2.57972
-4.0912
-33.346
-33.5511
2.5383
5.45072
-20.9811
-20.9377
4.32247
3.55162
2.52219
5.17643
5.0572
0.622808
-0.751531
10.3726
10.9758
3.23839
2.49429
-8.28152
7.57303
7.82082
-12.9618
-13.3731
2.67676
0.916279
6.21203
11.8821
2.21366
1.96866
-7.08589
-1.86043
-4.40015
5.80823
18.311
17.8584
-7.97717
0.290321
0.243853
10.8142
8.71512
6.28343
-0.173525
1.88553
3.78183
3.89108
-8.40962
4.0713
4.55297
0.0377589
2.7774
3.19062
0.0381987
3.70413
0.786661
-4.71369
1.76104
5.02329
-2.69427
3.24445
-1.32027
-3.45093
-0.418559
1.5957
2.46908
-7.58609
4.52369
1.75091
-5.25177
-4.12135
0.0300098
4.46134
3.78121
-0.747985
-6.84525
-6.14702
-6.6402
-7.58363
-3.57862
15.1999
6.15714
-2.71925
2.3245
-0.384059
1.96076
-3.69439
-2.02912
5.66894
2.28112
5.33259
1.5213
7.05128
-3.26491
1.08311
6.20937
-2.85652
-7.90861
2.13797
-7.01859
-5.635
-6.4687
-4.11027
-1.25741
-3.25204
-8.5445
-7.3322
5.29968
5.88597
2.08598
-0.378345
2.1337
5.99617
2.31965
-10.5668
-3.53698
-2.05478
3.86311
3.41186
-1.34298
1.3475
0.753528
-17.4662
-17.4268
6.53744
7.41804
-0.614179
-10.5298
0.918803
2.40608
-3.73201
3.60317
3.37168
-4.55489
-1.40987
6.20612
0.572913
-0.772085
1.09662
1.7341
0.436862
-1.0933
-2.24091
-18.2672
-18.3179
0.925606
7.42315
10.6813
7.91074
9.26451
-0.331099
1.33688
6.87676
-13.991
-13.9805
-11.7421
-11.0894
-11.7242
-13.9292
-13.8359
5.02276
5.06397
0.212612
2.1212
-5.94169
-4.80961
0.157762
5.36757
5.48941
0.603947
2.50636
-0.525737
1.83949
-7.3825
2.34637
-0.42308
-35.2651
-0.891859
-1.83157
5.66536
6.92086
6.3604
7.37282
4.54264
5.19204
6.49423
7.47771
7.48541
8.91835
6.0029
1.2261
-0.0358562
-1.95454
0.242929
-1.63007
-8.39694
-0.905585
-0.355268
7.17581
3.40945
1.58388
7.19109
14.2675
2.42553
4.17841
-17.9961
-17.3183
4.80848
5.75373
4.28072
-2.08031
0.0428051
-3.10604
2.84583
1.44303
19.3909
12.9837
-1.73213
3.29105
3.70751
2.71295
0.0201135
0.631351
5.35741
-37.8546
3.67271
6.20134
4.0242
0.984738
-3.66268
2.3382
3.7001
5.46345
2.92605
3.61257
5.37816
9.43383
10.1821
-18.9664
-19.4107
3.45664
1.04176
-24.1112
-23.7624
8.99368
6.48805
3.17343
3.05501
1.28998
-0.886545
-2.19844
-12.0202
-10.3913
-11.8168
1.61017
-0.319845
-14.1603
-14.5162
4.23988
2.04509
4.25329
2.94688
-24.259
-24.5302
1.24609
-0.219897
7.88251
7.58635
4.9404
2.3175
6.25803
6.32728
1.18196
4.16632
8.64216
12.0243
10.4045
9.02988
7.74817
8.05618
8.58769
9.5349
9.3918
4.86901
10.7043
8.00819
7.92038
4.25928
7.92922
6.49407
10.0877
3.42834
6.36923
6.95734
5.79505
7.08587
1.37631
0.0941626
0.440938
2.65892
1.96044
0.759693
2.04742
2.13201
2.57209
1.14366
1.05863
0.208926
0.74711
-0.345545
1.78008
1.88175
2.16256
0.772628
-0.128624
0.949197
0.947377
0.214145
1.55394
2.19356
1.91738
0.245028
2.31196
0.938863
3.48511
0.453326
0.545823
0.938412
8.44725
8.44909
1.48186
2.25619
4.42112
4.65775
2.00668
0.055917
1.67583
2.22319
1.48445
1.39115
-0.15472
1.70681
1.15943
0.871709
2.23962
0.684854
1.01504
0.00288709
0.0012219
-0.232252
-0.0158194
-0.0159181
0.0537871
7.90143
7.95435
-0.148592
-0.152411
1.58967
4.17453
0.832368
0.0641266
0.961322
1.09414
-0.0290675
1.56353
0.728281
0.734341
0.881316
-0.174319
-0.181441
2.8676
-0.511856
1.65457
2.07786
5.17892
11.8976
11.9202
1.26424
2.52017
-0.104157
1.58245
4.25947
5.38266
0.575032
0.279357
-0.261381
-0.258381
0.300137
-0.0270651
-0.206245
-0.208253
-0.0891925
0.25006
-0.182508
-0.190222
2.77692
-0.428225
1.5617
1.54234
-0.616352
0.0467494
3.82501
2.58647
1.874
2.60395
1.3195
1.00769
0.242264
2.89067
0.239996
0.269734
2.21822
4.07557
3.96686
1.05537
2.02093
0.760165
0.7371
0.186661
0.351668
0.0839253
1.10749
2.67131
0.0209925
-0.277182
-0.208753
1.01954
-0.905158
2.45838
-0.428363
-0.499278
1.16937
-0.444291
0.110632
1.5738
-0.00272979
1.44249
2.17103
0.55426
0.56104
0.179749
0.0213427
0.449501
0.407481
0.348003
0.320547
-0.418066
-0.422223
-0.313242
2.0799
3.45636
1.26469
0.365918
-0.102226
-0.105737
-0.100898
-0.0992545
0.752657
0.388268
0.347266
0.224607
0.227077
-0.0867677
1.53921
-0.0270253
1.51735
0.278244
1.67629
-0.501734
-0.0776469
2.44761
-0.597699
1.04
-0.278313
2.09353
1.79717
-0.890624
1.65541
1.16887
-0.150686
0.514199
-1.08435
1.19755
1.31208
-0.152369
-0.1399
0.666319
0.670787
-0.250308
7.22333
7.2925
2.0255
2.40116
0.456304
1.30659
0.622742
0.656936
0.352194
-0.914881
0.962882
0.411565
2.11077
0.113135
2.24631
3.102
0.366775
0.361635
2.68434
0.0268546
0.202837
0.202505
2.60577
2.14111
2.93674
1.64966
1.29578
1.316
1.1252
0.619952
1.20138
1.63244
-0.331342
-0.322022
4.5228
4.64975
5.46138
5.54774
0.487873
0.492032
-0.546973
-0.554131
-0.0572141
0.745244
0.149208
1.42964
-0.0688302
0.762745
0.0358081
3.69121
3.7283
0.0471924
2.52347
5.30565
0.142851
-0.294668
3.67673
3.72712
0.614814
0.495757
-0.325267
-0.328779
3.79944
0.210535
0.0438431
-0.11045
-0.114155
13.7152
13.7624
-0.397945
1.9912
-0.0589146
-0.0606383
0.57094
0.782779
0.918058
3.39006
3.44985
2.20254
0.0634973
2.6855
4.06574
4.10516
3.40304
-0.0738496
-0.0730246
2.35147
2.91018
0.715873
0.812061
-0.275689
-0.286109
-0.586931
0.701175
0.615423
0.839315
0.835045
3.54376
-0.0510624
-0.265476
-0.268947
-0.149492
-0.0408802
0.652415
0.608637
0.298469
-0.152737
0.918427
1.29372
-0.213386
-0.21628
-0.208089
-0.211465
0.993674
0.890111
-0.150004
-0.139478
3.24029
1.49314
-0.417685
-0.429583
-0.0120893
-0.0126235
2.41068
2.40842
4.7418
9.34105
0.404292
0.600527
0.40107
0.596888
1.07682
9.33805
0.705907
0.769297
0.765509
0.70161
0.433736
0.0526281
0.706627
0.430914
0.701761
0.0511087
0.0454055
0.511571
0.0460389
0.513079
-2.12621
-0.288313
1.74705
-0.0402626
-2.4436
4.14676
5.24583
-2.99444
1.70191
-6.73916
-8.78972
-7.74554
2.15272
3.18567
0.938712
3.02129
5.1841
4.11904
0.882947
-6.18789
-7.16053
-7.20121
-1.28541
-3.32523
-0.509072
-3.72626
-0.0957317
-13.1156
2.02018
-13.7761
2.90666
3.60456
12.6178
12.5854
-7.86103
2.08931
5.70944
4.85431
1.89975
-2.69206
-4.4022
1.55133
-3.28749
-3.50372
0.407913
-5.02253
-33.5153
-34.6292
2.50248
-21.8414
-20.994
3.52293
4.31504
2.33928
4.98228
5.2006
-0.750697
10.4336
10.9129
2.47154
3.24092
-8.6154
7.80955
7.63511
-1.01685
-13.4293
-13.59
0.902679
2.82202
11.7823
6.21959
5.23049
1.90449
2.22899
4.431
5.08919
-6.89452
-1.77104
-4.18665
6.01036
18.4273
18.0259
-7.35995
-0.81997
0.022642
8.71234
10.7975
6.12921
-0.209149
1.84184
3.82055
3.88589
-7.65302
4.55276
4.02296
0.258018
-2.0965
3.00077
2.95319
-0.473308
0.822967
-3.68195
6.10793
1.7558
-2.91161
2.71712
-0.501527
-2.64594
0.32503
2.51467
1.55881
-7.20587
2.032
-4.11595
-5.08459
-0.925053
4.13273
4.01408
-2.04902
-1.87802
-5.88823
-7.11581
-6.66138
-8.22081
-2.83004
6.15525
15.1617
-2.45903
-0.368425
2.14081
-3.83488
5.90107
2.29062
3.68894
1.52451
2.54328
7.05442
-3.9353
1.05434
-4.05698
-8.59706
0.0732519
-5.65074
-6.96562
-6.15623
-3.03508
-1.28119
-3.24141
-7.67675
-8.30888
5.76757
5.40816
-0.362633
2.08731
3.06381
-10.3281
-3.50762
3.35975
3.90717
0.759152
1.35562
-16.8577
-17.478
-1.7686
7.37414
6.53617
-1.29311
-10.4488
0.886781
2.20826
-4.57208
5.38975
-0.640485
6.63146
3.36873
3.59187
2.17109
2.37891
-4.0988
-1.516
0.629112
-0.878551
-0.862649
0.458839
-2.24666
5.88519
-18.6477
-18.6523
0.726054
1.71269
10.6712
7.43484
2.32232
9.36919
7.85437
0.0112687
1.30824
-14.7652
-13.3207
-11.0588
-11.7558
-11.4377
6.48192
-13.2098
-14.0284
4.96958
5.05024
1.02864
2.23481
-4.69013
-5.91807
0.0615554
0.860664
5.43801
5.38095
2.06313
-0.406213
2.22945
-6.50545
-0.519294
-35.0365
-1.84021
-1.21304
5.70348
6.90264
7.3768
6.37653
5.16669
4.86972
7.4597
6.49279
8.76636
7.49475
1.29674
6.03185
-0.785183
-2.11072
0.413723
-9.15396
-0.14999
-0.0736185
-1.64546
7.16552
3.41544
-0.314676
0.610498
14.2429
7.19091
2.74056
2.9203
4.24
-17.1504
-16.6503
5.57096
4.99721
4.31554
-2.03986
-3.65305
1.43821
2.86524
19.9105
13.0389
3.56415
-0.744276
3.64219
3.33303
-0.0518956
0.627705
-36.6446
6.12913
3.7412
0.938197
-3.14622
0.574446
5.3724
3.50769
2.54097
5.39622
3.57725
10.1719
9.42121
-19.5669
-19.395
1.05373
3.50968
4.9697
-23.2958
-23.3013
6.50081
9.01401
2.03227
-0.920443
1.29082
3.05163
1.66393
-2.12443
-10.8734
-11.5861
-11.5586
-0.304146
-14.8278
-14.5074
2.01878
4.264
2.92281
4.26193
-24.4568
-24.3845
-0.195843
1.21344
7.86133
7.59874
2.36297
4.84945
6.28472
6.27084
4.10182
1.3496
11.9668
8.63507
8.58326
9.49941
7.74512
8.0691
8.97972
10.395
7.65247
10.5851
4.86547
9.4143
6.26091
3.34912
9.87272
7.94965
7.93596
4.29173
5.65482
7.01557
6.38267
6.97649
