# vtk DataFile Version 3.0
vtk output at time 0.8
ASCII
DATASET UNSTRUCTURED_GRID
POINTS 2586 float
-1.84029e-05 0.000489375 0 1.84029e-05 0.000489375 0 -0.000414597 0.000260625 0 
-0.00041175 0.00025 0 -0.000433 0.00022875 0 -0.000433 -0.00022875 0 
-0.00041175 -0.00025 0 -0.000414597 -0.000260625 0 -1.84029e-05 -0.000489375 0 
1.84029e-05 -0.000489375 0 0.000414597 -0.000260625 0 0.000433 -0.00022875 0 
0.000433 0.00022875 0 0.000414597 0.000260625 0 4.25e-05 0 0 
2.125e-05 0.0005 0 5.90898e-17 0.00052125 0 5.90919e-17 0.00097875 0 
2.125e-05 0.001 0 1.84029e-05 0.00101063 0 0.000414597 0.00123937 0 
0.000451403 0.00123937 0 0.000847597 0.00101063 0 0.000866 0.00097875 0 
0.000866 0.00052125 0 0.000847597 0.000489375 0 0.000451403 0.000260625 0 
0.0004755 0.00075 0 0.00045425 0.00025 0 0.000884403 0.000489375 0 
0.0012806 0.000260625 0 0.001299 0.00022875 0 0.001299 -0.00022875 0 
0.0012806 -0.000260625 0 0.000884403 -0.000489375 0 0.000847597 -0.000489375 0 
0.000451403 -0.000260625 0 0.00045425 -0.00025 0 0.0009085 0 0 
0.000866 -0.00052125 0 0.000866 -0.00097875 0 0.000847597 -0.00101063 0 
0.000451403 -0.00123937 0 0.000414597 -0.00123937 0 1.84029e-05 -0.00101063 0 
2.125e-05 -0.001 0 5.90898e-17 -0.00097875 0 5.90919e-17 -0.00052125 0 
2.125e-05 -0.0005 0 0.0004755 -0.00075 0 -1.84029e-05 -0.00101063 0 
-0.000414597 -0.00123937 0 -0.000451403 -0.00123937 0 -0.000847597 -0.00101063 0 
-0.00084475 -0.001 0 -0.000866 -0.00097875 0 -0.000866 -0.00052125 0 
-0.00084475 -0.0005 0 -0.000847597 -0.000489375 0 -0.000451403 -0.000260625 0 
-0.0003905 -0.00075 0 -0.000884403 -0.000489375 0 -0.0012806 -0.000260625 0 
-0.00127775 -0.00025 0 -0.001299 -0.00022875 0 -0.001299 0.00022875 0 
-0.00127775 0.00025 0 -0.0012806 0.000260625 0 -0.000884403 0.000489375 0 
-0.000847597 0.000489375 0 -0.000451403 0.000260625 0 -0.0008235 0 0 
-0.00084475 0.0005 0 -0.000866 0.00052125 0 -0.000866 0.00097875 0 
-0.00084475 0.001 0 -0.000847597 0.00101063 0 -0.000451403 0.00123937 0 
-0.000414597 0.00123937 0 -1.84029e-05 0.00101063 0 -0.0003905 0.00075 0 
-1.84029e-05 0.000489375 -0.0005 1.84029e-05 0.000489375 -0.0005 -0.000414597 0.000260625 -0.0005 
-0.00041175 0.00025 -0.0005 -0.000433 0.00022875 -0.0005 -0.000433 -0.00022875 -0.0005 
-0.00041175 -0.00025 -0.0005 -0.000414597 -0.000260625 -0.0005 -1.84029e-05 -0.000489375 -0.0005 
1.84029e-05 -0.000489375 -0.0005 0.000414597 -0.000260625 -0.0005 0.000433 -0.00022875 -0.0005 
0.000433 0.00022875 -0.0005 0.000414597 0.000260625 -0.0005 4.25e-05 0 -0.0005 
2.125e-05 0.0005 -0.0005 5.90898e-17 0.00052125 -0.0005 5.90919e-17 0.00097875 -0.0005 
2.125e-05 0.001 -0.0005 1.84029e-05 0.00101063 -0.0005 0.000414597 0.00123937 -0.0005 
0.000451403 0.00123937 -0.0005 0.000847597 0.00101063 -0.0005 0.000866 0.00097875 -0.0005 
0.000866 0.00052125 -0.0005 0.000847597 0.000489375 -0.0005 0.000451403 0.000260625 -0.0005 
0.0004755 0.00075 -0.0005 0.00045425 0.00025 -0.0005 0.000884403 0.000489375 -0.0005 
0.0012806 0.000260625 -0.0005 0.001299 0.00022875 -0.0005 0.001299 -0.00022875 -0.0005 
0.0012806 -0.000260625 -0.0005 0.000884403 -0.000489375 -0.0005 0.000847597 -0.000489375 -0.0005 
0.000451403 -0.000260625 -0.0005 0.00045425 -0.00025 -0.0005 0.0009085 0 -0.0005 
0.000866 -0.00052125 -0.0005 0.000866 -0.00097875 -0.0005 0.000847597 -0.00101063 -0.0005 
0.000451403 -0.00123937 -0.0005 0.000414597 -0.00123937 -0.0005 1.84029e-05 -0.00101063 -0.0005 
2.125e-05 -0.001 -0.0005 5.90898e-17 -0.00097875 -0.0005 5.90919e-17 -0.00052125 -0.0005 
2.125e-05 -0.0005 -0.0005 0.0004755 -0.00075 -0.0005 -1.84029e-05 -0.00101063 -0.0005 
-0.000414597 -0.00123937 -0.0005 -0.000451403 -0.00123937 -0.0005 -0.000847597 -0.00101063 -0.0005 
-0.00084475 -0.001 -0.0005 -0.000866 -0.00097875 -0.0005 -0.000866 -0.00052125 -0.0005 
-0.00084475 -0.0005 -0.0005 -0.000847597 -0.000489375 -0.0005 -0.000451403 -0.000260625 -0.0005 
-0.0003905 -0.00075 -0.0005 -0.000884403 -0.000489375 -0.0005 -0.0012806 -0.000260625 -0.0005 
-0.00127775 -0.00025 -0.0005 -0.001299 -0.00022875 -0.0005 -0.001299 0.00022875 -0.0005 
-0.00127775 0.00025 -0.0005 -0.0012806 0.000260625 -0.0005 -0.000884403 0.000489375 -0.0005 
-0.000847597 0.000489375 -0.0005 -0.000451403 0.000260625 -0.0005 -0.0008235 0 -0.0005 
-0.00084475 0.0005 -0.0005 -0.000866 0.00052125 -0.0005 -0.000866 0.00097875 -0.0005 
-0.00084475 0.001 -0.0005 -0.000847597 0.00101063 -0.0005 -0.000451403 0.00123937 -0.0005 
-0.000414597 0.00123937 -0.0005 -1.84029e-05 0.00101063 -0.0005 -0.0003905 0.00075 -0.0005 
-9.82724e-20 0.00047875 0 -0.000335358 0.000306375 0 -0.000256119 0.000352125 0 
-0.000176881 0.000397875 0 -9.76417e-05 0.000443625 0 -0.000412474 0.0002555 0 
-0.000417974 0.000234974 0 -0.000433 -0.00013725 0 -0.000433 -4.575e-05 0 
-0.000433 4.575e-05 0 -0.000433 0.00013725 0 -0.000417974 -0.000234974 0 
-0.000412474 -0.0002555 0 -9.76417e-05 -0.000443625 0 -0.000176881 -0.000397875 0 
-0.000256119 -0.000352125 0 -0.000335358 -0.000306375 0 -1.07223e-19 -0.00047875 0 
0.000335358 -0.000306375 0 0.000256119 -0.000352125 0 0.000176881 -0.000397875 0 
9.76417e-05 -0.000443625 0 0.000414597 -0.000239375 0 0.000433 0.00013725 0 
0.000433 4.575e-05 0 0.000433 -4.575e-05 0 0.000433 -0.00013725 0 
0.000414597 0.000239375 0 9.76417e-05 0.000443625 0 0.000176881 0.000397875 0 
0.000256119 0.000352125 0 0.000335358 0.000306375 0 -1.29514e-19 4.25e-05 0 
-4.25e-05 -3.53397e-19 0 4.07417e-19 -4.25e-05 0 2.05259e-05 0.0004945 0 
1.5026e-05 0.000515026 0 0 0.00061275 0 0 0.00070425 0 
0 0.00079575 0 0 0.00088725 0 1.5026e-05 0.000984974 0 
2.05259e-05 0.0010055 0 9.76417e-05 0.00105638 0 0.000176881 0.00110213 0 
0.000256119 0.00114787 0 0.000335358 0.00119362 0 0.000433 0.00122875 0 
0.000530642 0.00119362 0 0.000609881 0.00114787 0 0.000689119 0.00110213 0 
0.000768358 0.00105638 0 0.000847597 0.000989375 0 0.000866 0.00088725 0 
0.000866 0.00079575 0 0.000866 0.00070425 0 0.000866 0.00061275 0 
0.000847597 0.000510625 0 0.000530642 0.000306375 0 0.000609881 0.000352125 0 
0.000689119 0.000397875 0 0.000768358 0.000443625 0 0.000433 0.00027125 0 
0.000433 0.0007925 0 0.0003905 0.00075 0 0.000433 0.0007075 0 
0.000448026 0.000234974 0 0.000453526 0.0002555 0 0.000866 0.00047875 0 
0.000963642 0.000443625 0 0.00104288 0.000397875 0 0.00112212 0.000352125 0 
0.00120136 0.000306375 0 0.0012806 0.000239375 0 0.001299 0.00013725 0 
0.001299 4.575e-05 0 0.001299 -4.575e-05 0 0.001299 -0.00013725 0 
0.0012806 -0.000239375 0 0.00120136 -0.000306375 0 0.00112212 -0.000352125 0 
0.00104288 -0.000397875 0 0.000963642 -0.000443625 0 0.000866 -0.00047875 0 
0.000530642 -0.000306375 0 0.000609881 -0.000352125 0 0.000689119 -0.000397875 0 
0.000768358 -0.000443625 0 0.000453526 -0.0002555 0 0.000448026 -0.000234974 0 
0.000866 4.25e-05 0 0.0008235 -3.53397e-19 0 0.000866 -4.25e-05 0 
0.000433 -0.00027125 0 0.000847597 -0.000510625 0 0.000866 -0.00061275 0 
0.000866 -0.00070425 0 0.000866 -0.00079575 0 0.000866 -0.00088725 0 
0.000847597 -0.000989375 0 0.000768358 -0.00105638 0 0.000689119 -0.00110213 0 
0.000609881 -0.00114787 0 0.000530642 -0.00119362 0 0.000433 -0.00122875 0 
0.000335358 -0.00119362 0 0.000256119 -0.00114787 0 0.000176881 -0.00110213 0 
9.76417e-05 -0.00105638 0 2.05259e-05 -0.0010055 0 1.5026e-05 -0.000984974 0 
0 -0.00061275 0 0 -0.00070425 0 0 -0.00079575 0 
0 -0.00088725 0 1.5026e-05 -0.000515026 0 2.05259e-05 -0.0004945 0 
0.000433 -0.0007075 0 0.0003905 -0.00075 0 0.000433 -0.0007925 0 
-1.84031e-05 -0.000510625 0 -1.84031e-05 -0.000989375 0 -9.76417e-05 -0.00105638 0 
-0.000176881 -0.00110213 0 -0.000256119 -0.00114787 0 -0.000335358 -0.00119362 0 
-0.000433 -0.00122875 0 -0.000530642 -0.00119362 0 -0.000609881 -0.00114787 0 
-0.000689119 -0.00110213 0 -0.000768358 -0.00105638 0 -0.000845474 -0.0010055 0 
-0.000850974 -0.000984974 0 -0.000866 -0.00088725 0 -0.000866 -0.00079575 0 
-0.000866 -0.00070425 0 -0.000866 -0.00061275 0 -0.000850974 -0.000515026 0 
-0.000845474 -0.0004945 0 -0.000530642 -0.000306375 0 -0.000609881 -0.000352125 0 
-0.000689119 -0.000397875 0 -0.000768358 -0.000443625 0 -0.000433 -0.00027125 0 
-0.000433 -0.0007075 0 -0.0004755 -0.00075 0 -0.000433 -0.0007925 0 
-0.000451403 -0.000239375 0 -0.000866 -0.00047875 0 -0.000963642 -0.000443625 0 
-0.00104288 -0.000397875 0 -0.00112212 -0.000352125 0 -0.00120136 -0.000306375 0 
-0.00127847 -0.0002555 0 -0.00128397 -0.000234974 0 -0.001299 -0.00013725 0 
-0.001299 -4.575e-05 0 -0.001299 4.575e-05 0 -0.001299 0.00013725 0 
-0.00128397 0.000234974 0 -0.00127847 0.0002555 0 -0.00120136 0.000306375 0 
-0.00112212 0.000352125 0 -0.00104288 0.000397875 0 -0.000963642 0.000443625 0 
-0.000866 0.00047875 0 -0.000530642 0.000306375 0 -0.000609881 0.000352125 0 
-0.000689119 0.000397875 0 -0.000768358 0.000443625 0 -0.000451403 0.000239375 0 
-0.000866 4.25e-05 0 -0.0009085 -3.53397e-19 0 -0.000866 -4.25e-05 0 
-0.000433 0.00027125 0 -0.000845474 0.0004945 0 -0.000850974 0.000515026 0 
-0.000866 0.00061275 0 -0.000866 0.00070425 0 -0.000866 0.00079575 0 
-0.000866 0.00088725 0 -0.000850974 0.000984974 0 -0.000845474 0.0010055 0 
-0.000768358 0.00105638 0 -0.000689119 0.00110213 0 -0.000609881 0.00114787 0 
-0.000530642 0.00119362 0 -0.000433 0.00122875 0 -0.000335358 0.00119362 0 
-0.000256119 0.00114787 0 -0.000176881 0.00110213 0 -9.76417e-05 0.00105638 0 
-1.84031e-05 0.000989375 0 -1.84031e-05 0.000510625 0 -0.000433 0.0007925 0 
-0.0004755 0.00075 0 -0.000433 0.0007075 0 -9.82724e-20 0.00047875 -0.0005 
-0.000335358 0.000306375 -0.0005 -0.000256119 0.000352125 -0.0005 -0.000176881 0.000397875 -0.0005 
-9.76417e-05 0.000443625 -0.0005 -0.000412474 0.0002555 -0.0005 -0.000417974 0.000234974 -0.0005 
-0.000433 -0.00013725 -0.0005 -0.000433 -4.575e-05 -0.0005 -0.000433 4.575e-05 -0.0005 
-0.000433 0.00013725 -0.0005 -0.000417974 -0.000234974 -0.0005 -0.000412474 -0.0002555 -0.0005 
-9.76417e-05 -0.000443625 -0.0005 -0.000176881 -0.000397875 -0.0005 -0.000256119 -0.000352125 -0.0005 
-0.000335358 -0.000306375 -0.0005 -1.07223e-19 -0.00047875 -0.0005 0.000335358 -0.000306375 -0.0005 
0.000256119 -0.000352125 -0.0005 0.000176881 -0.000397875 -0.0005 9.76417e-05 -0.000443625 -0.0005 
0.000414597 -0.000239375 -0.0005 0.000433 0.00013725 -0.0005 0.000433 4.575e-05 -0.0005 
0.000433 -4.575e-05 -0.0005 0.000433 -0.00013725 -0.0005 0.000414597 0.000239375 -0.0005 
9.76417e-05 0.000443625 -0.0005 0.000176881 0.000397875 -0.0005 0.000256119 0.000352125 -0.0005 
0.000335358 0.000306375 -0.0005 -1.29514e-19 4.25e-05 -0.0005 -4.25e-05 -3.53397e-19 -0.0005 
4.07417e-19 -4.25e-05 -0.0005 2.05259e-05 0.0004945 -0.0005 1.5026e-05 0.000515026 -0.0005 
0 0.00061275 -0.0005 0 0.00070425 -0.0005 0 0.00079575 -0.0005 
0 0.00088725 -0.0005 1.5026e-05 0.000984974 -0.0005 2.05259e-05 0.0010055 -0.0005 
9.76417e-05 0.00105638 -0.0005 0.000176881 0.00110213 -0.0005 0.000256119 0.00114787 -0.0005 
0.000335358 0.00119362 -0.0005 0.000433 0.00122875 -0.0005 0.000530642 0.00119362 -0.0005 
0.000609881 0.00114787 -0.0005 0.000689119 0.00110213 -0.0005 0.000768358 0.00105638 -0.0005 
0.000847597 0.000989375 -0.0005 0.000866 0.00088725 -0.0005 0.000866 0.00079575 -0.0005 
0.000866 0.00070425 -0.0005 0.000866 0.00061275 -0.0005 0.000847597 0.000510625 -0.0005 
0.000530642 0.000306375 -0.0005 0.000609881 0.000352125 -0.0005 0.000689119 0.000397875 -0.0005 
0.000768358 0.000443625 -0.0005 0.000433 0.00027125 -0.0005 0.000433 0.0007925 -0.0005 
0.0003905 0.00075 -0.0005 0.000433 0.0007075 -0.0005 0.000448026 0.000234974 -0.0005 
0.000453526 0.0002555 -0.0005 0.000866 0.00047875 -0.0005 0.000963642 0.000443625 -0.0005 
0.00104288 0.000397875 -0.0005 0.00112212 0.000352125 -0.0005 0.00120136 0.000306375 -0.0005 
0.0012806 0.000239375 -0.0005 0.001299 0.00013725 -0.0005 0.001299 4.575e-05 -0.0005 
0.001299 -4.575e-05 -0.0005 0.001299 -0.00013725 -0.0005 0.0012806 -0.000239375 -0.0005 
0.00120136 -0.000306375 -0.0005 0.00112212 -0.000352125 -0.0005 0.00104288 -0.000397875 -0.0005 
0.000963642 -0.000443625 -0.0005 0.000866 -0.00047875 -0.0005 0.000530642 -0.000306375 -0.0005 
0.000609881 -0.000352125 -0.0005 0.000689119 -0.000397875 -0.0005 0.000768358 -0.000443625 -0.0005 
0.000453526 -0.0002555 -0.0005 0.000448026 -0.000234974 -0.0005 0.000866 4.25e-05 -0.0005 
0.0008235 -3.53397e-19 -0.0005 0.000866 -4.25e-05 -0.0005 0.000433 -0.00027125 -0.0005 
0.000847597 -0.000510625 -0.0005 0.000866 -0.00061275 -0.0005 0.000866 -0.00070425 -0.0005 
0.000866 -0.00079575 -0.0005 0.000866 -0.00088725 -0.0005 0.000847597 -0.000989375 -0.0005 
0.000768358 -0.00105638 -0.0005 0.000689119 -0.00110213 -0.0005 0.000609881 -0.00114787 -0.0005 
0.000530642 -0.00119362 -0.0005 0.000433 -0.00122875 -0.0005 0.000335358 -0.00119362 -0.0005 
0.000256119 -0.00114787 -0.0005 0.000176881 -0.00110213 -0.0005 9.76417e-05 -0.00105638 -0.0005 
2.05259e-05 -0.0010055 -0.0005 1.5026e-05 -0.000984974 -0.0005 0 -0.00061275 -0.0005 
0 -0.00070425 -0.0005 0 -0.00079575 -0.0005 0 -0.00088725 -0.0005 
1.5026e-05 -0.000515026 -0.0005 2.05259e-05 -0.0004945 -0.0005 0.000433 -0.0007075 -0.0005 
0.0003905 -0.00075 -0.0005 0.000433 -0.0007925 -0.0005 -1.84031e-05 -0.000510625 -0.0005 
-1.84031e-05 -0.000989375 -0.0005 -9.76417e-05 -0.00105638 -0.0005 -0.000176881 -0.00110213 -0.0005 
-0.000256119 -0.00114787 -0.0005 -0.000335358 -0.00119362 -0.0005 -0.000433 -0.00122875 -0.0005 
-0.000530642 -0.00119362 -0.0005 -0.000609881 -0.00114787 -0.0005 -0.000689119 -0.00110213 -0.0005 
-0.000768358 -0.00105638 -0.0005 -0.000845474 -0.0010055 -0.0005 -0.000850974 -0.000984974 -0.0005 
-0.000866 -0.00088725 -0.0005 -0.000866 -0.00079575 -0.0005 -0.000866 -0.00070425 -0.0005 
-0.000866 -0.00061275 -0.0005 -0.000850974 -0.000515026 -0.0005 -0.000845474 -0.0004945 -0.0005 
-0.000530642 -0.000306375 -0.0005 -0.000609881 -0.000352125 -0.0005 -0.000689119 -0.000397875 -0.0005 
-0.000768358 -0.000443625 -0.0005 -0.000433 -0.00027125 -0.0005 -0.000433 -0.0007075 -0.0005 
-0.0004755 -0.00075 -0.0005 -0.000433 -0.0007925 -0.0005 -0.000451403 -0.000239375 -0.0005 
-0.000866 -0.00047875 -0.0005 -0.000963642 -0.000443625 -0.0005 -0.00104288 -0.000397875 -0.0005 
-0.00112212 -0.000352125 -0.0005 -0.00120136 -0.000306375 -0.0005 -0.00127847 -0.0002555 -0.0005 
-0.00128397 -0.000234974 -0.0005 -0.001299 -0.00013725 -0.0005 -0.001299 -4.575e-05 -0.0005 
-0.001299 4.575e-05 -0.0005 -0.001299 0.00013725 -0.0005 -0.00128397 0.000234974 -0.0005 
-0.00127847 0.0002555 -0.0005 -0.00120136 0.000306375 -0.0005 -0.00112212 0.000352125 -0.0005 
-0.00104288 0.000397875 -0.0005 -0.000963642 0.000443625 -0.0005 -0.000866 0.00047875 -0.0005 
-0.000530642 0.000306375 -0.0005 -0.000609881 0.000352125 -0.0005 -0.000689119 0.000397875 -0.0005 
-0.000768358 0.000443625 -0.0005 -0.000451403 0.000239375 -0.0005 -0.000866 4.25e-05 -0.0005 
-0.0009085 -3.53397e-19 -0.0005 -0.000866 -4.25e-05 -0.0005 -0.000433 0.00027125 -0.0005 
-0.000845474 0.0004945 -0.0005 -0.000850974 0.000515026 -0.0005 -0.000866 0.00061275 -0.0005 
-0.000866 0.00070425 -0.0005 -0.000866 0.00079575 -0.0005 -0.000866 0.00088725 -0.0005 
-0.000850974 0.000984974 -0.0005 -0.000845474 0.0010055 -0.0005 -0.000768358 0.00105638 -0.0005 
-0.000689119 0.00110213 -0.0005 -0.000609881 0.00114787 -0.0005 -0.000530642 0.00119362 -0.0005 
-0.000433 0.00122875 -0.0005 -0.000335358 0.00119362 -0.0005 -0.000256119 0.00114787 -0.0005 
-0.000176881 0.00110213 -0.0005 -9.76417e-05 0.00105638 -0.0005 -1.84031e-05 0.000989375 -0.0005 
-1.84031e-05 0.000510625 -0.0005 -0.000433 0.0007925 -0.0005 -0.0004755 0.00075 -0.0005 
-0.000433 0.0007075 -0.0005 0.000166833 -0.000159585 0 0.000165961 0.000165961 0 
-0.000162277 0.000168837 0 -0.000162539 -0.000168697 0 -0.000316174 -0.000207462 0 
-0.000316174 0.000207462 0 -1.7625e-06 0.00020878 0 -0.000200494 5.10348e-06 0 
0.000198022 -6.49099e-06 0 -3.82827e-06 -0.000208798 0 -0.0003642 0.000214286 0 
-0.0003642 -0.000214286 0 0.000301049 0.000166193 0 0.000312424 -0.000170987 0 
-7.30908e-06 -0.00035148 0 7.30908e-06 0.00035148 0 0.000109232 0.000285545 0 
-0.000107519 -0.000286192 0 -0.000304808 7.69979e-05 0 -0.000308572 -7.52569e-05 0 
0.000106639 -0.000294843 0 -0.00010493 0.000296588 0 8.50608e-05 -8.41794e-05 0 
8.82006e-05 9.78925e-05 0 -9.29688e-05 8.1944e-05 0 -9.5784e-05 -8.5049e-05 0 
-0.00037448 0.000247295 0 -0.00037448 -0.000247295 0 -0.000226807 0.000247375 0 
-0.00022696 -0.000246565 0 0.000318161 -5.24395e-05 0 0.00030573 6.09258e-05 0 
-0.000251653 -0.000142326 0 -0.000251653 0.000142326 0 3.07451e-05 -0.00041094 0 
-3.07451e-05 0.00041094 0 0.00022921 -0.000246251 0 0.000229478 0.000241816 0 
2.27436e-05 0.000133221 0 1.86722e-05 -0.000131409 0 -0.000131489 -2.16615e-05 0 
0.00013003 -1.62999e-05 0 -0.00037383 0.000149154 0 -0.00037383 -0.000149154 0 
0.000234918 -9.03863e-05 0 0.000328799 0.000234244 0 0.000330695 -0.000235043 0 
0.000223602 9.28059e-05 0 -8.24081e-05 0.000181543 0 -7.93229e-05 -0.000178683 0 
-0.000174487 7.88274e-05 0 9.06107e-05 -0.000168878 0 9.31592e-05 0.000169495 0 
-0.000165177 -7.38619e-05 0 -9.20929e-05 -0.000358769 0 9.20929e-05 0.000358769 0 
3.47644e-05 0.000422113 0 -3.47644e-05 -0.000422113 0 -0.00039524 0.000187946 0 
-0.00039524 -0.000187946 0 -0.00036071 1.92365e-06 0 0.000388959 -0.000188051 0 
0.000390003 0.000186364 0 6.43444e-05 -0.000355671 0 -6.37768e-05 0.000356891 0 
2.80563e-05 -0.000283426 0 -2.80563e-05 0.000283426 0 0.000158032 5.64575e-05 0 
4.0579e-05 0.000286843 0 -4.0579e-05 -0.000286843 0 0.000187449 0.000307262 0 
0.000159892 -7.91024e-05 0 -0.000184905 -0.00030951 0 0.000358611 0.000105752 0 
0.000363074 -0.00011688 0 -0.000325009 0.000251333 0 -0.000325009 -0.000251333 0 
-0.000240838 -7.12684e-05 0 -0.000314691 -0.000147697 0 -0.000314417 0.000147824 0 
-0.000404578 0.00024054 0 -0.000403308 0.000218831 0 -0.000404578 -0.00024054 0 
-0.000403308 -0.000218831 0 0.000191925 -0.0003084 0 -0.000260053 0.000200474 0 
-0.000260078 -0.000200417 0 -2.84262e-05 0.000450764 0 2.84262e-05 -0.000450764 0 
-0.000189066 0.000311072 0 -0.000240999 7.45278e-05 0 -0.000278935 4.78174e-06 0 
0.000354779 1.89656e-05 0 0.000162497 0.000232229 0 0.000376671 0.000245397 0 
0.000376841 -0.000245894 0 0.000157204 -0.000230896 0 0.000234792 0.000171119 0 
-0.000151291 -0.000232673 0 -2.32986e-05 8.92785e-05 0 -3.11926e-05 -8.95957e-05 0 
-9.03847e-05 2.2115e-05 0 9.12302e-05 3.30279e-05 0 -0.000152334 0.000235849 0 
0.000239556 -0.000175069 0 -0.000374753 9.03378e-05 0 -0.000376425 -8.91537e-05 0 
4.61669e-05 -4.59906e-05 0 6.62281e-05 0.000232832 0 3.85868e-05 8.10868e-05 0 
-7.69579e-05 -3.79434e-05 0 0.000127486 -0.000360083 0 7.07506e-05 -0.00023716 0 
0.000272535 3.89675e-06 0 -7.65081e-05 -0.000238638 0 0.00014561 0.000112396 0 
-0.000352537 0.000183264 0 -0.000352576 -0.000183245 0 -0.000270615 -0.000285639 0 
-0.000269954 0.000283517 0 -7.38981e-05 0.000241237 0 0.00028245 0.000113194 0 
-0.000128597 0.00035529 0 0.000277733 0.00021912 0 0.000279019 -0.000221334 0 
0.000293419 -0.000117053 0 -4.98304e-05 4.71675e-05 0 -3.82924e-05 0.000144636 0 
-3.82924e-05 -0.000144636 0 -0.000137965 3.32657e-05 0 -0.00012318 0.000133204 0 
-0.000120047 -0.000136339 0 -0.000206789 -0.00019438 0 0.000125599 -0.000122936 0 
-0.000206748 0.000194842 0 -0.000279599 0.000238032 0 -0.000279767 -0.000238283 0 
-0.000195529 0.000130609 0 -0.000197761 -0.000129013 0 2.37414e-05 -7.8735e-05 0 
7.89976e-05 -2.26884e-05 0 0.000279552 0.000278672 0 0.000279873 -0.000279044 0 
4.48012e-06 0.00044547 0 -4.48012e-06 -0.00044547 0 0.000598961 0.000584039 0 
0.000602744 0.00091226 0 0.000270474 0.000918651 0 0.000270149 0.000581615 0 
0.000116826 0.000957462 0 0.000116826 0.000542538 0 0.000429172 0.000958798 0 
0.000232505 0.000755103 0 0.000636012 0.000747201 0 0.000434763 0.00054122 0 
6.87997e-05 0.000964286 0 6.87997e-05 0.000535714 0 0.000745424 0.000920987 0 
0.000734049 0.000583807 0 0.000425691 0.00039852 0 0.000425691 0.00110148 0 
0.000325481 0.00103619 0 0.00032556 0.000464273 0 0.000128192 0.000826998 0 
0.000124428 0.000674743 0 0.000539639 0.00104484 0 0.000539618 0.000454793 0 
0.000520463 0.000653783 0 0.000521988 0.00084822 0 0.000340031 0.000831944 0 
0.00034624 0.000661734 0 5.85195e-05 0.000997295 0 5.85195e-05 0.000502705 0 
0.00020604 0.000996565 0 0.00020604 0.000503435 0 0.000751161 0.00080244 0 
0.00073873 0.000689074 0 0.000181347 0.000607674 0 0.000181347 0.000892326 0 
0.000463745 0.00033906 0 0.000463745 0.00116094 0 0.00066221 0.000996251 0 
0.000655871 0.000515061 0 0.000455531 0.000883279 0 0.0004137 0.000617913 0 
0.000302544 0.000731006 0 0.000569409 0.000742828 0 5.91695e-05 0.000899154 0 
5.91695e-05 0.000600846 0 0.000666622 0.000847886 0 0.000763695 0.000985043 0 
0.000761799 0.000515756 0 0.000662952 0.000664982 0 0.000353677 0.000928683 0 
0.000512323 0.000571317 0 0.000258513 0.000828827 0 0.000526529 0.000920143 0 
0.000348994 0.000575642 0 0.000269055 0.00067649 0 0.000340907 0.000391231 0 
0.000340907 0.00110877 0 0.000398236 0.00117211 0 0.000398236 0.000327887 0 
3.77595e-05 0.000937946 0 3.77595e-05 0.000562054 0 7.22902e-05 0.000751924 0 
0.000821959 0.000938051 0 0.000823003 0.000563636 0 0.000497344 0.00110567 0 
0.000497341 0.000394268 0 0.000595975 0.000808208 0 0.000461056 0.000466574 0 
0.000461056 0.00103343 0 0.000392421 0.00103684 0 0.000392458 0.000463164 0 
0.000248106 0.000440556 0 0.000248095 0.00105951 0 0.000791611 0.000644248 0 
0.000796074 0.00086688 0 0.000107991 0.00100133 0 0.000107991 0.000498667 0 
0.000192237 0.000678753 0 0.000118309 0.000602303 0 0.000118584 0.000897824 0 
2.84222e-05 0.00099054 0 2.96921e-05 0.000968831 0 2.84222e-05 0.00050946 0 
2.96921e-05 0.000531169 0 0.000584827 0.000674445 0 0.000624925 0.0010584 0 
0.000620086 0.000439056 0 0.000172934 0.000950423 0 0.000172922 0.000549583 0 
0.000461426 0.00120076 0 0.000461426 0.000299236 0 0.000192001 0.000824528 0 
0.000154074 0.000754784 0 0.000787779 0.000731034 0 0.000809841 0.000995894 0 
0.000809671 0.000504603 0 0.000589469 0.00097835 0 0.000571747 0.000512487 0 
0.000673596 0.000588147 0 0.000281249 0.000518091 0 0.00028171 0.000982668 0 
0.000409676 0.000839285 0 0.000465934 0.000658411 0 0.000524589 0.000782934 0 
0.000342119 0.000777068 0 0.000672682 0.000926159 0 5.82468e-05 0.000840338 0 
5.65752e-05 0.000660846 0 0.000386493 0.000703192 0 0.000361584 0.000514775 0 
0.000471587 0.000831087 0 0.000510532 0.000709986 0 0.000559513 0.000389323 0 
0.000560486 0.00111008 0 0.000503751 0.00098716 0 0.000707209 0.000747103 0 
0.000356492 0.000988637 0 8.04633e-05 0.000933264 0 8.04241e-05 0.000566755 0 
0.000162386 0.000464369 0 0.000162385 0.00103564 0 0.000578393 0.000862613 0 
0.000503901 0.000509278 0 0.000714127 0.000640342 0 0.000712044 0.000971552 0 
0.000710619 0.000533186 0 0.000726252 0.00086828 0 0.000383065 0.000798159 0 
0.000471292 0.000605364 0 0.000394708 0.000894636 0 0.000295143 0.00078479 0 
0.000311567 0.000884914 0 0.000544105 0.000613927 0 0.000226145 0.000555712 0 
0.000226234 0.0009443 0 0.000307419 0.000615421 0 0.000153235 0.000988284 0 
0.000153233 0.000511718 0 0.000237647 0.000880726 0 0.000238317 0.000620115 0 
0.000410377 0.000668704 0 0.000352297 0.000726325 0 0.000712874 0.00102905 0 
0.000708438 0.00047242 0 0.00042852 0.00030453 0 0.00042852 0.00119547 0 
0.00103283 -0.000159585 0 0.00103196 0.000165961 0 0.00070371 0.000168883 0 
0.000703474 -0.000168651 0 0.000549826 0.000207462 0 0.000549826 -0.000207462 0 
0.000864237 0.00020878 0 0.000665505 -1.75358e-06 0 0.00106402 -6.49099e-06 0 
0.000862172 -0.000208798 0 0.0005018 0.000214286 0 0.0005018 -0.000214286 0 
0.00117842 -0.000170987 0 0.00116705 0.000166193 0 0.000858691 -0.00035148 0 
0.000873309 0.00035148 0 0.000975232 0.000285545 0 0.000758481 -0.000286192 0 
0.000561503 7.6703e-05 0 0.000555269 -7.65899e-05 0 0.000972639 -0.000294843 0 
0.00076107 0.000296588 0 0.000951061 -8.41794e-05 0 0.000954201 9.78925e-05 0 
0.000770216 8.5049e-05 0 0.000773031 -8.1944e-05 0 0.00049152 0.000247295 0 
0.00049152 -0.000247295 0 0.000639193 0.000247375 0 0.00063904 -0.000246565 0 
0.00118416 -5.24395e-05 0 0.00117173 6.09258e-05 0 0.000614347 -0.000142326 0 
0.000614347 0.000142326 0 0.000896745 -0.00041094 0 0.000835255 0.00041094 0 
0.00109521 -0.000246251 0 0.00109548 0.000241816 0 0.000888744 0.000133221 0 
0.000884672 -0.000131409 0 0.000734511 2.22198e-05 0 0.00099603 -1.62999e-05 0 
0.00049217 0.000149154 0 0.00049217 -0.000149154 0 0.00110092 -9.03863e-05 0 
0.0011967 -0.000235043 0 0.0011948 0.000234244 0 0.0010896 9.28059e-05 0 
0.000783591 0.000181545 0 0.000786677 -0.000178683 0 0.000691513 -7.86239e-05 0 
0.000956611 -0.000168878 0 0.000959159 0.000169495 0 0.000700823 7.45132e-05 0 
0.000773907 -0.000358769 0 0.000958093 0.000358769 0 0.000900764 0.000422113 0 
0.000831236 -0.000422113 0 0.00047076 0.000187946 0 0.00047076 -0.000187946 0 
0.000506327 1.20793e-06 0 0.00125496 -0.000188051 0 0.001256 0.000186364 0 
0.000930344 -0.000355671 0 0.000802223 0.000356891 0 0.000894056 -0.000283426 0 
0.000837944 0.000283426 0 0.00102403 5.64575e-05 0 0.000906579 0.000286843 0 
0.000825421 -0.000286843 0 0.00105345 0.000307262 0 0.00102589 -7.91024e-05 0 
0.000681095 -0.00030951 0 0.00122461 0.000105752 0 0.00122907 -0.00011688 0 
0.000540991 0.000251333 0 0.000540991 -0.000251333 0 0.000624479 7.32103e-05 0 
0.000551152 -0.000147794 0 0.000551606 0.000147802 0 0.000461422 0.00024054 0 
0.000462692 0.000218831 0 0.000461422 -0.00024054 0 0.000462692 -0.000218831 0 
0.00105793 -0.0003084 0 0.000605948 0.000200473 0 0.000605915 -0.000200421 0 
0.000894426 -0.000450764 0 0.000837574 0.000450764 0 0.000676934 0.000311072 0 
0.000626182 -7.08972e-05 0 0.000584992 5.90258e-06 0 0.00122078 1.89656e-05 0 
0.0010285 0.000232229 0 0.00124284 -0.000245894 0 0.00124267 0.000245397 0 
0.0010232 -0.000230896 0 0.00110079 0.000171119 0 0.00071471 -0.000232668 0 
0.000834965 9.05283e-05 0 0.000842673 -8.85226e-05 0 0.00095723 3.30279e-05 0 
0.000775615 -2.20485e-05 0 0.000713665 0.000235853 0 0.00110556 -0.000175069 0 
0.000491363 9.025e-05 0 0.000488571 -8.87482e-05 0 0.000912167 -4.59906e-05 0 
0.000932228 0.000232832 0 0.000904587 8.10868e-05 0 0.000789049 3.8011e-05 0 
0.000993486 -0.000360083 0 0.000936751 -0.00023716 0 0.00113854 3.89675e-06 0 
0.000789492 -0.000238637 0 0.00101161 0.000112396 0 0.000513466 0.00018326 0 
0.000513402 -0.000183259 0 0.000596046 0.000283517 0 0.000595385 -0.000285639 0 
0.000792102 0.000241238 0 0.00114845 0.000113194 0 0.000737403 0.00035529 0 
0.00114502 -0.000221334 0 0.00114373 0.00021912 0 0.00115942 -0.000117053 0 
0.000816164 -4.7003e-05 0 0.000827708 0.000144636 0 0.000827708 -0.000144636 0 
0.000728035 -3.243e-05 0 0.00074578 0.000136564 0 0.000744567 -0.000134897 0 
0.000659232 -0.0001943 0 0.000991599 -0.000122936 0 0.00065923 0.000194923 0 
0.000586401 0.000238032 0 0.000586231 -0.000238284 0 0.000670788 -0.000130267 0 
0.000668203 0.000129229 0 0.000889614 -8.00602e-05 0 0.000944998 -2.26884e-05 0 
0.00114587 -0.000279044 0 0.00114555 0.000278672 0 0.00087048 0.00044547 0 
0.00086152 -0.00044547 0 0.000598961 -0.000915961 0 0.000603317 -0.000588209 0 
0.000270723 -0.000581163 0 0.000270149 -0.000918385 0 0.000116826 -0.000542538 0 
0.000116826 -0.000957462 0 0.000431238 -0.00054122 0 0.000232505 -0.000744897 0 
0.000636012 -0.000752799 0 0.000434763 -0.00095878 0 6.87997e-05 -0.000535714 0 
6.87997e-05 -0.000964286 0 0.000745424 -0.000579013 0 0.000734049 -0.000916193 0 
0.000425691 -0.00110148 0 0.000440309 -0.00039852 0 0.000542232 -0.000464455 0 
0.00032556 -0.00103573 0 0.000128192 -0.000673002 0 0.000124428 -0.000825257 0 
0.000539618 -0.00104521 0 0.00032807 -0.000453412 0 0.000520463 -0.000846217 0 
0.000521988 -0.00065178 0 0.000340031 -0.000668056 0 0.00034624 -0.000838266 0 
5.85195e-05 -0.000502705 0 5.85195e-05 -0.000997295 0 0.000206193 -0.000502625 0 
0.00020604 -0.000996565 0 0.000751161 -0.00069756 0 0.00073873 -0.000810926 0 
0.000181347 -0.000892326 0 0.000181347 -0.000607674 0 0.000463745 -0.00116094 0 
0.000402255 -0.00033906 0 0.000662471 -0.000504287 0 0.000655871 -0.000984939 0 
0.000455875 -0.000616724 0 0.0004137 -0.000882087 0 0.000302544 -0.000768994 0 
0.000569409 -0.000757172 0 5.91695e-05 -0.000600846 0 5.91695e-05 -0.000899154 0 
0.000666622 -0.000652114 0 0.000763695 -0.000514957 0 0.000761799 -0.000984244 0 
0.000662952 -0.000835018 0 0.000350592 -0.000568457 0 0.000512323 -0.000928683 0 
0.000258513 -0.000671173 0 0.000526882 -0.000581015 0 0.000348994 -0.000924358 0 
0.000269055 -0.00082351 0 0.000340907 -0.00110877 0 0.000525093 -0.000391231 0 
0.000398236 -0.00117211 0 0.000467764 -0.000327887 0 3.77595e-05 -0.000562054 0 
3.77595e-05 -0.000937946 0 7.22902e-05 -0.000748076 0 0.000821959 -0.000561949 0 
0.000823003 -0.000936364 0 0.000497341 -0.00110573 0 0.000369223 -0.000393109 0 
0.000595975 -0.000691792 0 0.000461056 -0.00103343 0 0.000404944 -0.000466574 0 
0.000473579 -0.000463157 0 0.000392458 -0.00103684 0 0.000620449 -0.000442181 0 
0.000248106 -0.00105944 0 0.000791611 -0.000855752 0 0.000796074 -0.00063312 0 
0.000107991 -0.000498667 0 0.000107991 -0.00100133 0 0.000192237 -0.000821247 0 
0.000118309 -0.000897697 0 0.000118584 -0.000602176 0 2.84222e-05 -0.00050946 0 
2.96921e-05 -0.000531169 0 2.84222e-05 -0.00099054 0 2.96921e-05 -0.000968831 0 
0.000584827 -0.000825555 0 0.000620086 -0.00106094 0 0.000172947 -0.000549526 0 
0.000172922 -0.000950417 0 0.000461426 -0.00120076 0 0.000404574 -0.000299236 0 
0.000243934 -0.000438928 0 0.000192001 -0.000675472 0 0.000154074 -0.000745216 0 
0.000787779 -0.000768966 0 0.000588723 -0.000523989 0 0.000809841 -0.000504106 0 
0.000809671 -0.000995397 0 0.000571747 -0.000987513 0 0.000673596 -0.000911853 0 
0.000281249 -0.000981909 0 0.000409717 -0.000660715 0 0.000465934 -0.000841589 0 
0.000524589 -0.000717066 0 0.000342119 -0.000722933 0 0.000280666 -0.000514151 0 
0.000672694 -0.000574319 0 5.82468e-05 -0.000659662 0 5.65752e-05 -0.000839154 0 
0.000386493 -0.000796808 0 0.000361584 -0.000985225 0 0.000499228 -0.000517168 0 
0.000471587 -0.000668913 0 0.000510532 -0.000790014 0 0.000559513 -0.00111068 0 
0.000707209 -0.000752897 0 8.04633e-05 -0.000566736 0 8.04241e-05 -0.000933245 0 
0.000163046 -0.000466483 0 0.000162386 -0.00103563 0 0.000578393 -0.000637387 0 
0.000503901 -0.000990722 0 0.000359102 -0.000508763 0 0.000714127 -0.000859658 0 
0.000304403 -0.00039471 0 0.000712099 -0.000528651 0 0.000710619 -0.000966814 0 
0.000726254 -0.000631789 0 0.000383073 -0.000701841 0 0.000471292 -0.000894636 0 
0.000394708 -0.000605364 0 0.000295143 -0.00071521 0 0.000544105 -0.000886073 0 
0.00030982 -0.000616796 0 0.000226145 -0.000944288 0 0.000307419 -0.000884579 0 
0.000226252 -0.000555158 0 0.000153401 -0.000511968 0 0.000153233 -0.000988282 0 
0.000237471 -0.000619391 0 0.000238317 -0.000879885 0 0.000410377 -0.000831296 0 
0.000352297 -0.000773675 0 0.00071621 -0.000470678 0 0.000708438 -0.00102758 0 
0.00043748 -0.00030453 0 0.00042852 -0.00119547 0 -0.000266167 -0.000909585 0 
-0.00026339 -0.000582669 0 -0.000595526 -0.000581349 0 -0.000595539 -0.000918697 0 
-0.000749174 -0.000957462 0 -0.000749174 -0.000542538 0 -0.000436828 -0.000541202 0 
-0.000633495 -0.000748246 0 -0.000234978 -0.000756491 0 -0.000436828 -0.000958798 0 
-0.0007972 -0.000964286 0 -0.0007972 -0.000535714 0 -0.000131951 -0.000583807 0 
-0.000120576 -0.000920987 0 -0.000440309 -0.00110148 0 -0.000440309 -0.00039852 0 
-0.000540519 -0.000463808 0 -0.000540519 -0.00103619 0 -0.000737497 -0.000826703 0 
-0.000743731 -0.00067341 0 -0.000326361 -0.000455157 0 -0.000326361 -0.00104484 0 
-0.000347939 -0.000834179 0 -0.000344799 -0.000652107 0 -0.000525969 -0.000668056 0 
-0.000528784 -0.000835049 0 -0.00080748 -0.000997295 0 -0.00080748 -0.000502705 0 
-0.00065996 -0.000996565 0 -0.00065996 -0.000503435 0 -0.000114839 -0.00080244 0 
-0.00012727 -0.000689074 0 -0.000684653 -0.000892326 0 -0.000684653 -0.000607674 0 
-0.000402255 -0.00033906 0 -0.000402255 -0.00116094 0 -0.00020379 -0.000996251 0 
-0.000209694 -0.000514898 0 -0.000410601 -0.000616776 0 -0.000414328 -0.000881409 0 
-0.000564489 -0.00077222 0 -0.00030297 -0.0007663 0 -0.000806831 -0.000899154 0 
-0.000806831 -0.000600846 0 -0.000198082 -0.000840386 0 -0.000104201 -0.000515756 0 
-0.000102305 -0.000985043 0 -0.000210482 -0.000662469 0 -0.000512323 -0.000571317 0 
-0.000512323 -0.000928683 0 -0.000607487 -0.000671376 0 -0.000342389 -0.000918878 0 
-0.000339591 -0.000579218 0 -0.000598177 -0.000824513 0 -0.000525093 -0.00110877 0 
-0.000525093 -0.000391231 0 -0.000467764 -0.00117211 0 -0.000467764 -0.000327887 0 
-0.00082824 -0.000937946 0 -0.00082824 -0.000562054 0 -0.000792673 -0.000751208 0 
-4.40406e-05 -0.000938051 0 -4.29968e-05 -0.000563636 0 -0.000368656 -0.000394329 0 
-0.000368656 -0.00110567 0 -0.000404944 -0.000466574 0 -0.000404944 -0.00103343 0 
-0.000274968 -0.000693542 0 -0.000473579 -0.000463157 0 -0.000473579 -0.00103684 0 
-0.000273108 -0.000829102 0 -0.000617905 -0.00105951 0 -0.000617905 -0.00044049 0 
-7.4389e-05 -0.000644248 0 -6.99258e-05 -0.00086688 0 -0.000758009 -0.00100133 0 
-0.000758009 -0.000498667 0 -0.000674521 -0.00082321 0 -0.000747394 -0.000897802 0 
-0.000747848 -0.000602206 0 -0.000837578 -0.00099054 0 -0.000836308 -0.000968831 0 
-0.000837578 -0.00050946 0 -0.000836308 -0.000531169 0 -0.00024589 -0.000439066 0 
-0.000241075 -0.0010584 0 -0.000693065 -0.000950422 0 -0.000693085 -0.000549579 0 
-0.000404574 -0.00120076 0 -0.000404574 -0.000299236 0 -0.000672818 -0.000679103 0 
-0.000714008 -0.000755903 0 -7.82213e-05 -0.000731034 0 -5.6329e-05 -0.000504603 0 
-5.61586e-05 -0.000995894 0 -0.000275796 -0.000980896 0 -0.000285676 -0.000513219 0 
-0.000186165 -0.000585602 0 -0.000584291 -0.000982673 0 -0.00058429 -0.000517332 0 
-0.00045634 -0.000660721 0 -0.000464193 -0.000839596 0 -0.00034177 -0.000716972 0 
-0.000523385 -0.000727952 0 -0.000193444 -0.000925069 0 -0.000807637 -0.00084025 0 
-0.000810429 -0.000661252 0 -0.000386833 -0.000795991 0 -0.000394413 -0.000668913 0 
-0.000509958 -0.000787971 0 -0.000305514 -0.00111008 0 -0.000306477 -0.00038941 0 
-0.000362249 -0.00098716 0 -0.00035868 -0.000511074 0 -0.000160645 -0.000746982 0 
-0.000509508 -0.000511363 0 -0.000509508 -0.000988638 0 -0.00028739 -0.000637604 0 
-0.000785534 -0.00093326 0 -0.000785598 -0.000566741 0 -0.000703615 -0.00103564 0 
-0.000703615 -0.000464361 0 -0.000148903 -0.000636616 0 -0.00015636 -0.000534148 0 
-0.000153981 -0.000971334 0 -0.000139581 -0.000867053 0 -0.000482839 -0.000702846 0 
-0.000471292 -0.000605364 0 -0.000471292 -0.000894636 0 -0.000570965 -0.00071757 0 
-0.000554433 -0.000615103 0 -0.000553903 -0.000884892 0 -0.000639788 -0.00094438 0 
-0.000639768 -0.0005557 0 -0.000307401 -0.000872936 0 -0.000712765 -0.000988284 0 
-0.000712769 -0.000511716 0 -0.000628213 -0.000619733 0 -0.000630855 -0.000879083 0 
-0.000409259 -0.000828735 0 -0.000354002 -0.000772688 0 -0.000155373 -0.000471972 0 
-0.000153127 -0.00102904 0 -0.00043748 -0.00030453 0 -0.00043748 -0.00119547 0 
-0.000699167 -0.000159585 0 -0.00102828 0.000168837 0 -0.000700039 0.000165961 0 
-0.00102854 -0.000168697 0 -0.00118217 0.000207462 0 -0.00118217 -0.000207462 0 
-0.000867762 0.00020878 0 -0.00106649 5.10348e-06 0 -0.000667978 -6.49099e-06 0 
-0.000869828 -0.000208798 0 -0.0012302 0.000214286 0 -0.0012302 -0.000214286 0 
-0.000564951 0.000166193 0 -0.000553576 -0.000170987 0 -0.000873309 -0.00035148 0 
-0.000858691 0.00035148 0 -0.000756768 0.000285545 0 -0.000973519 -0.000286192 0 
-0.00117081 7.69979e-05 0 -0.00117457 -7.52569e-05 0 -0.000759361 -0.000294843 0 
-0.00097093 0.000296588 0 -0.000780939 -8.41794e-05 0 -0.000958969 8.1944e-05 0 
-0.000777799 9.78925e-05 0 -0.000961784 -8.5049e-05 0 -0.00124048 0.000247295 0 
-0.00124048 -0.000247295 0 -0.00109281 0.000247375 0 -0.00109296 -0.000246565 0 
-0.000547839 -5.24395e-05 0 -0.00056027 6.09258e-05 0 -0.00111765 0.000142326 0 
-0.00111765 -0.000142326 0 -0.000835255 -0.00041094 0 -0.000896745 0.00041094 0 
-0.00063679 -0.000246251 0 -0.000636522 0.000241816 0 -0.000843256 0.000133221 0 
-0.000847328 -0.000131409 0 -0.000997489 -2.16615e-05 0 -0.00073597 -1.62999e-05 0 
-0.00123983 0.000149154 0 -0.00123983 -0.000149154 0 -0.000631082 -9.03863e-05 0 
-0.000535305 -0.000235043 0 -0.000537201 0.000234244 0 -0.000642398 9.28059e-05 0 
-0.000948408 0.000181543 0 -0.000945323 -0.000178683 0 -0.00104049 7.88274e-05 0 
-0.000775389 -0.000168878 0 -0.000772841 0.000169495 0 -0.00103118 -7.38619e-05 0 
-0.000958093 -0.000358769 0 -0.000773907 0.000358769 0 -0.000900764 -0.000422113 0 
-0.000831236 0.000422113 0 -0.00126124 0.000187946 0 -0.00126124 -0.000187946 0 
-0.00122671 1.92365e-06 0 -0.000477041 -0.000188051 0 -0.000475997 0.000186364 0 
-0.000801656 -0.000355671 0 -0.000929777 0.000356891 0 -0.000837944 -0.000283426 0 
-0.000894056 0.000283426 0 -0.000707968 5.64575e-05 0 -0.000825421 0.000286843 0 
-0.000906579 -0.000286843 0 -0.000678551 0.000307262 0 -0.000706108 -7.91024e-05 0 
-0.0010509 -0.00030951 0 -0.000507389 0.000105752 0 -0.000502926 -0.00011688 0 
-0.00119101 0.000251333 0 -0.00119101 -0.000251333 0 -0.00110684 -7.12684e-05 0 
-0.00118042 0.000147824 0 -0.00118069 -0.000147697 0 -0.00127058 0.00024054 0 
-0.00126931 0.000218831 0 -0.00127058 -0.00024054 0 -0.00126931 -0.000218831 0 
-0.000674075 -0.0003084 0 -0.00112605 0.000200474 0 -0.00112608 -0.000200417 0 
-0.000837574 -0.000450764 0 -0.000894426 0.000450764 0 -0.00105507 0.000311072 0 
-0.001107 7.45278e-05 0 -0.00114494 4.78174e-06 0 -0.000511221 1.89656e-05 0 
-0.000703503 0.000232229 0 -0.000489329 0.000245397 0 -0.000489159 -0.000245894 0 
-0.000708796 -0.000230896 0 -0.000631208 0.000171119 0 -0.00101729 -0.000232673 0 
-0.000889299 8.92785e-05 0 -0.000897193 -8.95957e-05 0 -0.00077477 3.30279e-05 0 
-0.000956385 2.2115e-05 0 -0.00101833 0.000235849 0 -0.000626444 -0.000175069 0 
-0.00124075 9.03378e-05 0 -0.00124242 -8.91537e-05 0 -0.000819833 -4.59906e-05 0 
-0.000799772 0.000232832 0 -0.000827413 8.10868e-05 0 -0.000942958 -3.79434e-05 0 
-0.000738514 -0.000360083 0 -0.000795249 -0.00023716 0 -0.000593465 3.89675e-06 0 
-0.000942508 -0.000238638 0 -0.00072039 0.000112396 0 -0.00121854 0.000183264 0 
-0.00121858 -0.000183245 0 -0.00113595 0.000283517 0 -0.00113662 -0.000285639 0 
-0.000939898 0.000241237 0 -0.00058355 0.000113194 0 -0.000994597 0.00035529 0 
-0.000586981 -0.000221334 0 -0.000588267 0.00021912 0 -0.000572581 -0.000117053 0 
-0.00091583 4.71675e-05 0 -0.000904292 -0.000144636 0 -0.000904292 0.000144636 0 
-0.00100396 3.32657e-05 0 -0.00098918 0.000133204 0 -0.000986047 -0.000136339 0 
-0.00107279 -0.00019438 0 -0.000740401 -0.000122936 0 -0.00107275 0.000194842 0 
-0.0011456 0.000238032 0 -0.00114577 -0.000238283 0 -0.00106153 0.000130609 0 
-0.00106376 -0.000129013 0 -0.000842259 -7.8735e-05 0 -0.000787002 -2.26884e-05 0 
-0.000586448 0.000278672 0 -0.000586127 -0.000279044 0 -0.00087048 -0.00044547 0 
-0.00086152 0.00044547 0 -0.000266167 0.000590415 0 -0.000267039 0.000915961 0 
-0.000595277 0.000918837 0 -0.000595539 0.000581303 0 -0.000749174 0.000542538 0 
-0.000749174 0.000957462 0 -0.000434763 0.00095878 0 -0.000633495 0.000751754 0 
-0.000234978 0.000743509 0 -0.000436828 0.000541202 0 -0.0007972 0.000535714 0 
-0.0007972 0.000964286 0 -0.000131951 0.000916193 0 -0.000120576 0.000579013 0 
-0.000440309 0.00039852 0 -0.000425691 0.00110148 0 -0.000323768 0.00103554 0 
-0.000540519 0.000463808 0 -0.000737497 0.000673297 0 -0.000743731 0.00082659 0 
-0.000326361 0.000455157 0 -0.00053793 0.00104659 0 -0.000347939 0.000665821 0 
-0.000344799 0.000847893 0 -0.000525969 0.000831944 0 -0.000528784 0.000664951 0 
-0.00080748 0.000502705 0 -0.00080748 0.000997295 0 -0.00065996 0.000503435 0 
-0.000659807 0.000997375 0 -0.000114839 0.00069756 0 -0.00012727 0.000810926 0 
-0.000684653 0.000607674 0 -0.000684653 0.000892326 0 -0.000402255 0.00033906 0 
-0.000463745 0.00116094 0 -0.00020379 0.000503749 0 -0.000203522 0.000991815 0 
-0.000410256 0.000883221 0 -0.000414328 0.000618591 0 -0.000564489 0.00072778 0 
-0.00030297 0.0007337 0 -0.000806831 0.000600846 0 -0.000806831 0.000899154 0 
-0.000198082 0.000659614 0 -0.000104201 0.000984244 0 -0.000102305 0.000514957 0 
-0.000209398 0.000842806 0 -0.000515408 0.000931543 0 -0.000512323 0.000571317 0 
-0.000607487 0.000828624 0 -0.000342389 0.000581122 0 -0.000339841 0.000919495 0 
-0.000598177 0.000675487 0 -0.000525093 0.000391231 0 -0.000340907 0.00110877 0 
-0.000398236 0.00117211 0 -0.000467764 0.000327887 0 -0.00082824 0.000562054 0 
-0.00082824 0.000937946 0 -0.000792673 0.000748792 0 -4.40406e-05 0.000561949 0 
-4.29968e-05 0.000936364 0 -0.000368656 0.000394329 0 -0.000496777 0.00110689 0 
-0.000404944 0.000466574 0 -0.000461056 0.00103343 0 -0.000274968 0.000806458 0 
-0.000392421 0.00103684 0 -0.000473579 0.000463157 0 -0.000245551 0.00105726 0 
-0.000273108 0.000670898 0 -0.000617905 0.00044049 0 -7.4389e-05 0.000855752 0 
-6.99258e-05 0.00063312 0 -0.000758009 0.000498667 0 -0.000758009 0.00100133 0 
-0.000674521 0.00067679 0 -0.000747394 0.000602198 0 -0.000747848 0.000897794 0 
-0.000837578 0.00050946 0 -0.000836308 0.000531169 0 -0.000837578 0.00099054 0 
-0.000836308 0.000968831 0 -0.000241075 0.0004416 0 -0.000693065 0.000549578 0 
-0.000693072 0.000950473 0 -0.000404574 0.000299236 0 -0.000461426 0.00120076 0 
-0.000622066 0.00106107 0 -0.000672818 0.000820897 0 -0.000714008 0.000744097 0 
-7.82213e-05 0.000768966 0 -0.000270503 0.000982229 0 -5.6329e-05 0.000995397 0 
-5.61586e-05 0.000504106 0 -0.000275796 0.000519104 0 -0.000198208 0.000921119 0 
-0.000584291 0.000517327 0 -0.000456299 0.000839279 0 -0.000464193 0.000660404 0 
-0.00034177 0.000783028 0 -0.000523385 0.000772048 0 -0.000585334 0.000985849 0 
-0.000193444 0.000574931 0 -0.000807637 0.00065975 0 -0.000810429 0.000838748 0 
-0.000386833 0.000704009 0 -0.000366772 0.000982832 0 -0.000394413 0.000831087 0 
-0.000509958 0.000712029 0 -0.000305514 0.000389917 0 -0.000362249 0.00051284 0 
-0.000160465 0.000753897 0 -0.000509508 0.000511362 0 -0.00028739 0.000862396 0 
-0.000785534 0.00056674 0 -0.000785598 0.000933259 0 -0.000703615 0.000464361 0 
-0.000702954 0.00103352 0 -0.000506898 0.000991237 0 -0.00015055 0.000863194 0 
-0.000561597 0.00110529 0 -0.000153981 0.000528666 0 -0.000155267 0.00096912 0 
-0.000139581 0.000632947 0 -0.00048283 0.000797154 0 -0.000471292 0.000894636 0 
-0.000471292 0.000605364 0 -0.000570965 0.00078243 0 -0.00055618 0.00088318 0 
-0.000553903 0.000615108 0 -0.000639788 0.00055562 0 -0.000307401 0.000627064 0 
-0.00063975 0.000944842 0 -0.000712765 0.000511716 0 -0.000712603 0.000988032 0 
-0.000628389 0.00088015 0 -0.000630855 0.000620917 0 -0.000409259 0.000671265 0 
-0.000354002 0.000727312 0 -0.000153448 0.00102867 0 -0.000153127 0.000470956 0 
-0.00042852 0.00119547 0 -0.00043748 0.00030453 0 0.000166833 -0.000159585 -0.0005 
0.000165961 0.000165961 -0.0005 -0.000162277 0.000168837 -0.0005 -0.000162539 -0.000168697 -0.0005 
-0.000316174 -0.000207462 -0.0005 -0.000316174 0.000207462 -0.0005 -1.7625e-06 0.00020878 -0.0005 
-0.000200494 5.10348e-06 -0.0005 0.000198022 -6.49099e-06 -0.0005 -3.82827e-06 -0.000208798 -0.0005 
-0.0003642 0.000214286 -0.0005 -0.0003642 -0.000214286 -0.0005 0.000301049 0.000166193 -0.0005 
0.000312424 -0.000170987 -0.0005 -7.30908e-06 -0.00035148 -0.0005 7.30908e-06 0.00035148 -0.0005 
0.000109232 0.000285545 -0.0005 -0.000107519 -0.000286192 -0.0005 -0.000304808 7.69979e-05 -0.0005 
-0.000308572 -7.52569e-05 -0.0005 0.000106639 -0.000294843 -0.0005 -0.00010493 0.000296588 -0.0005 
8.50608e-05 -8.41794e-05 -0.0005 8.82006e-05 9.78925e-05 -0.0005 -9.29688e-05 8.1944e-05 -0.0005 
-9.5784e-05 -8.5049e-05 -0.0005 -0.00037448 0.000247295 -0.0005 -0.00037448 -0.000247295 -0.0005 
-0.000226807 0.000247375 -0.0005 -0.00022696 -0.000246565 -0.0005 0.000318161 -5.24395e-05 -0.0005 
0.00030573 6.09258e-05 -0.0005 -0.000251653 -0.000142326 -0.0005 -0.000251653 0.000142326 -0.0005 
3.07451e-05 -0.00041094 -0.0005 -3.07451e-05 0.00041094 -0.0005 0.00022921 -0.000246251 -0.0005 
0.000229478 0.000241816 -0.0005 2.27436e-05 0.000133221 -0.0005 1.86722e-05 -0.000131409 -0.0005 
-0.000131489 -2.16615e-05 -0.0005 0.00013003 -1.62999e-05 -0.0005 -0.00037383 0.000149154 -0.0005 
-0.00037383 -0.000149154 -0.0005 0.000234918 -9.03863e-05 -0.0005 0.000328799 0.000234244 -0.0005 
0.000330695 -0.000235043 -0.0005 0.000223602 9.28059e-05 -0.0005 -8.24081e-05 0.000181543 -0.0005 
-7.93229e-05 -0.000178683 -0.0005 -0.000174487 7.88274e-05 -0.0005 9.06107e-05 -0.000168878 -0.0005 
9.31592e-05 0.000169495 -0.0005 -0.000165177 -7.38619e-05 -0.0005 -9.20929e-05 -0.000358769 -0.0005 
9.20929e-05 0.000358769 -0.0005 3.47644e-05 0.000422113 -0.0005 -3.47644e-05 -0.000422113 -0.0005 
-0.00039524 0.000187946 -0.0005 -0.00039524 -0.000187946 -0.0005 -0.00036071 1.92365e-06 -0.0005 
0.000388959 -0.000188051 -0.0005 0.000390003 0.000186364 -0.0005 6.43444e-05 -0.000355671 -0.0005 
-6.37768e-05 0.000356891 -0.0005 2.80563e-05 -0.000283426 -0.0005 -2.80563e-05 0.000283426 -0.0005 
0.000158032 5.64575e-05 -0.0005 4.0579e-05 0.000286843 -0.0005 -4.0579e-05 -0.000286843 -0.0005 
0.000187449 0.000307262 -0.0005 0.000159892 -7.91024e-05 -0.0005 -0.000184905 -0.00030951 -0.0005 
0.000358611 0.000105752 -0.0005 0.000363074 -0.00011688 -0.0005 -0.000325009 0.000251333 -0.0005 
-0.000325009 -0.000251333 -0.0005 -0.000240838 -7.12684e-05 -0.0005 -0.000314691 -0.000147697 -0.0005 
-0.000314417 0.000147824 -0.0005 -0.000404578 0.00024054 -0.0005 -0.000403308 0.000218831 -0.0005 
-0.000404578 -0.00024054 -0.0005 -0.000403308 -0.000218831 -0.0005 0.000191925 -0.0003084 -0.0005 
-0.000260053 0.000200474 -0.0005 -0.000260078 -0.000200417 -0.0005 -2.84262e-05 0.000450764 -0.0005 
2.84262e-05 -0.000450764 -0.0005 -0.000189066 0.000311072 -0.0005 -0.000240999 7.45278e-05 -0.0005 
-0.000278935 4.78174e-06 -0.0005 0.000354779 1.89656e-05 -0.0005 0.000162497 0.000232229 -0.0005 
0.000376671 0.000245397 -0.0005 0.000376841 -0.000245894 -0.0005 0.000157204 -0.000230896 -0.0005 
0.000234792 0.000171119 -0.0005 -0.000151291 -0.000232673 -0.0005 -2.32986e-05 8.92785e-05 -0.0005 
-3.11926e-05 -8.95957e-05 -0.0005 -9.03847e-05 2.2115e-05 -0.0005 9.12302e-05 3.30279e-05 -0.0005 
-0.000152334 0.000235849 -0.0005 0.000239556 -0.000175069 -0.0005 -0.000374753 9.03378e-05 -0.0005 
-0.000376425 -8.91537e-05 -0.0005 4.61669e-05 -4.59906e-05 -0.0005 6.62281e-05 0.000232832 -0.0005 
3.85868e-05 8.10868e-05 -0.0005 -7.69579e-05 -3.79434e-05 -0.0005 0.000127486 -0.000360083 -0.0005 
7.07506e-05 -0.00023716 -0.0005 0.000272535 3.89675e-06 -0.0005 -7.65081e-05 -0.000238638 -0.0005 
0.00014561 0.000112396 -0.0005 -0.000352537 0.000183264 -0.0005 -0.000352576 -0.000183245 -0.0005 
-0.000270615 -0.000285639 -0.0005 -0.000269954 0.000283517 -0.0005 -7.38981e-05 0.000241237 -0.0005 
0.00028245 0.000113194 -0.0005 -0.000128597 0.00035529 -0.0005 0.000277733 0.00021912 -0.0005 
0.000279019 -0.000221334 -0.0005 0.000293419 -0.000117053 -0.0005 -4.98304e-05 4.71675e-05 -0.0005 
-3.82924e-05 0.000144636 -0.0005 -3.82924e-05 -0.000144636 -0.0005 -0.000137965 3.32657e-05 -0.0005 
-0.00012318 0.000133204 -0.0005 -0.000120047 -0.000136339 -0.0005 -0.000206789 -0.00019438 -0.0005 
0.000125599 -0.000122936 -0.0005 -0.000206748 0.000194842 -0.0005 -0.000279599 0.000238032 -0.0005 
-0.000279767 -0.000238283 -0.0005 -0.000195529 0.000130609 -0.0005 -0.000197761 -0.000129013 -0.0005 
2.37414e-05 -7.8735e-05 -0.0005 7.89976e-05 -2.26884e-05 -0.0005 0.000279552 0.000278672 -0.0005 
0.000279873 -0.000279044 -0.0005 4.48012e-06 0.00044547 -0.0005 -4.48012e-06 -0.00044547 -0.0005 
0.000598961 0.000584039 -0.0005 0.000602744 0.00091226 -0.0005 0.000270474 0.000918651 -0.0005 
0.000270149 0.000581615 -0.0005 0.000116826 0.000957462 -0.0005 0.000116826 0.000542538 -0.0005 
0.000429172 0.000958798 -0.0005 0.000232505 0.000755103 -0.0005 0.000636012 0.000747201 -0.0005 
0.000434763 0.00054122 -0.0005 6.87997e-05 0.000964286 -0.0005 6.87997e-05 0.000535714 -0.0005 
0.000745424 0.000920987 -0.0005 0.000734049 0.000583807 -0.0005 0.000425691 0.00039852 -0.0005 
0.000425691 0.00110148 -0.0005 0.000325481 0.00103619 -0.0005 0.00032556 0.000464273 -0.0005 
0.000128192 0.000826998 -0.0005 0.000124428 0.000674743 -0.0005 0.000539639 0.00104484 -0.0005 
0.000539618 0.000454793 -0.0005 0.000520463 0.000653783 -0.0005 0.000521988 0.00084822 -0.0005 
0.000340031 0.000831944 -0.0005 0.00034624 0.000661734 -0.0005 5.85195e-05 0.000997295 -0.0005 
5.85195e-05 0.000502705 -0.0005 0.00020604 0.000996565 -0.0005 0.00020604 0.000503435 -0.0005 
0.000751161 0.00080244 -0.0005 0.00073873 0.000689074 -0.0005 0.000181347 0.000607674 -0.0005 
0.000181347 0.000892326 -0.0005 0.000463745 0.00033906 -0.0005 0.000463745 0.00116094 -0.0005 
0.00066221 0.000996251 -0.0005 0.000655871 0.000515061 -0.0005 0.000455531 0.000883279 -0.0005 
0.0004137 0.000617913 -0.0005 0.000302544 0.000731006 -0.0005 0.000569409 0.000742828 -0.0005 
5.91695e-05 0.000899154 -0.0005 5.91695e-05 0.000600846 -0.0005 0.000666622 0.000847886 -0.0005 
0.000763695 0.000985043 -0.0005 0.000761799 0.000515756 -0.0005 0.000662952 0.000664982 -0.0005 
0.000353677 0.000928683 -0.0005 0.000512323 0.000571317 -0.0005 0.000258513 0.000828827 -0.0005 
0.000526529 0.000920143 -0.0005 0.000348994 0.000575642 -0.0005 0.000269055 0.00067649 -0.0005 
0.000340907 0.000391231 -0.0005 0.000340907 0.00110877 -0.0005 0.000398236 0.00117211 -0.0005 
0.000398236 0.000327887 -0.0005 3.77595e-05 0.000937946 -0.0005 3.77595e-05 0.000562054 -0.0005 
7.22902e-05 0.000751924 -0.0005 0.000821959 0.000938051 -0.0005 0.000823003 0.000563636 -0.0005 
0.000497344 0.00110567 -0.0005 0.000497341 0.000394268 -0.0005 0.000595975 0.000808208 -0.0005 
0.000461056 0.000466574 -0.0005 0.000461056 0.00103343 -0.0005 0.000392421 0.00103684 -0.0005 
0.000392458 0.000463164 -0.0005 0.000248106 0.000440556 -0.0005 0.000248095 0.00105951 -0.0005 
0.000791611 0.000644248 -0.0005 0.000796074 0.00086688 -0.0005 0.000107991 0.00100133 -0.0005 
0.000107991 0.000498667 -0.0005 0.000192237 0.000678753 -0.0005 0.000118309 0.000602303 -0.0005 
0.000118584 0.000897824 -0.0005 2.84222e-05 0.00099054 -0.0005 2.96921e-05 0.000968831 -0.0005 
2.84222e-05 0.00050946 -0.0005 2.96921e-05 0.000531169 -0.0005 0.000584827 0.000674445 -0.0005 
0.000624925 0.0010584 -0.0005 0.000620086 0.000439056 -0.0005 0.000172934 0.000950423 -0.0005 
0.000172922 0.000549583 -0.0005 0.000461426 0.00120076 -0.0005 0.000461426 0.000299236 -0.0005 
0.000192001 0.000824528 -0.0005 0.000154074 0.000754784 -0.0005 0.000787779 0.000731034 -0.0005 
0.000809841 0.000995894 -0.0005 0.000809671 0.000504603 -0.0005 0.000589469 0.00097835 -0.0005 
0.000571747 0.000512487 -0.0005 0.000673596 0.000588147 -0.0005 0.000281249 0.000518091 -0.0005 
0.00028171 0.000982668 -0.0005 0.000409676 0.000839285 -0.0005 0.000465934 0.000658411 -0.0005 
0.000524589 0.000782934 -0.0005 0.000342119 0.000777068 -0.0005 0.000672682 0.000926159 -0.0005 
5.82468e-05 0.000840338 -0.0005 5.65752e-05 0.000660846 -0.0005 0.000386493 0.000703192 -0.0005 
0.000361584 0.000514775 -0.0005 0.000471587 0.000831087 -0.0005 0.000510532 0.000709986 -0.0005 
0.000559513 0.000389323 -0.0005 0.000560486 0.00111008 -0.0005 0.000503751 0.00098716 -0.0005 
0.000707209 0.000747103 -0.0005 0.000356492 0.000988637 -0.0005 8.04633e-05 0.000933264 -0.0005 
8.04241e-05 0.000566755 -0.0005 0.000162386 0.000464369 -0.0005 0.000162385 0.00103564 -0.0005 
0.000578393 0.000862613 -0.0005 0.000503901 0.000509278 -0.0005 0.000714127 0.000640342 -0.0005 
0.000712044 0.000971552 -0.0005 0.000710619 0.000533186 -0.0005 0.000726252 0.00086828 -0.0005 
0.000383065 0.000798159 -0.0005 0.000471292 0.000605364 -0.0005 0.000394708 0.000894636 -0.0005 
0.000295143 0.00078479 -0.0005 0.000311567 0.000884914 -0.0005 0.000544105 0.000613927 -0.0005 
0.000226145 0.000555712 -0.0005 0.000226234 0.0009443 -0.0005 0.000307419 0.000615421 -0.0005 
0.000153235 0.000988284 -0.0005 0.000153233 0.000511718 -0.0005 0.000237647 0.000880726 -0.0005 
0.000238317 0.000620115 -0.0005 0.000410377 0.000668704 -0.0005 0.000352297 0.000726325 -0.0005 
0.000712874 0.00102905 -0.0005 0.000708438 0.00047242 -0.0005 0.00042852 0.00030453 -0.0005 
0.00042852 0.00119547 -0.0005 0.00103283 -0.000159585 -0.0005 0.00103196 0.000165961 -0.0005 
0.00070371 0.000168883 -0.0005 0.000703474 -0.000168651 -0.0005 0.000549826 0.000207462 -0.0005 
0.000549826 -0.000207462 -0.0005 0.000864237 0.00020878 -0.0005 0.000665505 -1.75358e-06 -0.0005 
0.00106402 -6.49099e-06 -0.0005 0.000862172 -0.000208798 -0.0005 0.0005018 0.000214286 -0.0005 
0.0005018 -0.000214286 -0.0005 0.00117842 -0.000170987 -0.0005 0.00116705 0.000166193 -0.0005 
0.000858691 -0.00035148 -0.0005 0.000873309 0.00035148 -0.0005 0.000975232 0.000285545 -0.0005 
0.000758481 -0.000286192 -0.0005 0.000561503 7.6703e-05 -0.0005 0.000555269 -7.65899e-05 -0.0005 
0.000972639 -0.000294843 -0.0005 0.00076107 0.000296588 -0.0005 0.000951061 -8.41794e-05 -0.0005 
0.000954201 9.78925e-05 -0.0005 0.000770216 8.5049e-05 -0.0005 0.000773031 -8.1944e-05 -0.0005 
0.00049152 0.000247295 -0.0005 0.00049152 -0.000247295 -0.0005 0.000639193 0.000247375 -0.0005 
0.00063904 -0.000246565 -0.0005 0.00118416 -5.24395e-05 -0.0005 0.00117173 6.09258e-05 -0.0005 
0.000614347 -0.000142326 -0.0005 0.000614347 0.000142326 -0.0005 0.000896745 -0.00041094 -0.0005 
0.000835255 0.00041094 -0.0005 0.00109521 -0.000246251 -0.0005 0.00109548 0.000241816 -0.0005 
0.000888744 0.000133221 -0.0005 0.000884672 -0.000131409 -0.0005 0.000734511 2.22198e-05 -0.0005 
0.00099603 -1.62999e-05 -0.0005 0.00049217 0.000149154 -0.0005 0.00049217 -0.000149154 -0.0005 
0.00110092 -9.03863e-05 -0.0005 0.0011967 -0.000235043 -0.0005 0.0011948 0.000234244 -0.0005 
0.0010896 9.28059e-05 -0.0005 0.000783591 0.000181545 -0.0005 0.000786677 -0.000178683 -0.0005 
0.000691513 -7.86239e-05 -0.0005 0.000956611 -0.000168878 -0.0005 0.000959159 0.000169495 -0.0005 
0.000700823 7.45132e-05 -0.0005 0.000773907 -0.000358769 -0.0005 0.000958093 0.000358769 -0.0005 
0.000900764 0.000422113 -0.0005 0.000831236 -0.000422113 -0.0005 0.00047076 0.000187946 -0.0005 
0.00047076 -0.000187946 -0.0005 0.000506327 1.20793e-06 -0.0005 0.00125496 -0.000188051 -0.0005 
0.001256 0.000186364 -0.0005 0.000930344 -0.000355671 -0.0005 0.000802223 0.000356891 -0.0005 
0.000894056 -0.000283426 -0.0005 0.000837944 0.000283426 -0.0005 0.00102403 5.64575e-05 -0.0005 
0.000906579 0.000286843 -0.0005 0.000825421 -0.000286843 -0.0005 0.00105345 0.000307262 -0.0005 
0.00102589 -7.91024e-05 -0.0005 0.000681095 -0.00030951 -0.0005 0.00122461 0.000105752 -0.0005 
0.00122907 -0.00011688 -0.0005 0.000540991 0.000251333 -0.0005 0.000540991 -0.000251333 -0.0005 
0.000624479 7.32103e-05 -0.0005 0.000551152 -0.000147794 -0.0005 0.000551606 0.000147802 -0.0005 
0.000461422 0.00024054 -0.0005 0.000462692 0.000218831 -0.0005 0.000461422 -0.00024054 -0.0005 
0.000462692 -0.000218831 -0.0005 0.00105793 -0.0003084 -0.0005 0.000605948 0.000200473 -0.0005 
0.000605915 -0.000200421 -0.0005 0.000894426 -0.000450764 -0.0005 0.000837574 0.000450764 -0.0005 
0.000676934 0.000311072 -0.0005 0.000626182 -7.08972e-05 -0.0005 0.000584992 5.90258e-06 -0.0005 
0.00122078 1.89656e-05 -0.0005 0.0010285 0.000232229 -0.0005 0.00124284 -0.000245894 -0.0005 
0.00124267 0.000245397 -0.0005 0.0010232 -0.000230896 -0.0005 0.00110079 0.000171119 -0.0005 
0.00071471 -0.000232668 -0.0005 0.000834965 9.05283e-05 -0.0005 0.000842673 -8.85226e-05 -0.0005 
0.00095723 3.30279e-05 -0.0005 0.000775615 -2.20485e-05 -0.0005 0.000713665 0.000235853 -0.0005 
0.00110556 -0.000175069 -0.0005 0.000491363 9.025e-05 -0.0005 0.000488571 -8.87482e-05 -0.0005 
0.000912167 -4.59906e-05 -0.0005 0.000932228 0.000232832 -0.0005 0.000904587 8.10868e-05 -0.0005 
0.000789049 3.8011e-05 -0.0005 0.000993486 -0.000360083 -0.0005 0.000936751 -0.00023716 -0.0005 
0.00113854 3.89675e-06 -0.0005 0.000789492 -0.000238637 -0.0005 0.00101161 0.000112396 -0.0005 
0.000513466 0.00018326 -0.0005 0.000513402 -0.000183259 -0.0005 0.000596046 0.000283517 -0.0005 
0.000595385 -0.000285639 -0.0005 0.000792102 0.000241238 -0.0005 0.00114845 0.000113194 -0.0005 
0.000737403 0.00035529 -0.0005 0.00114502 -0.000221334 -0.0005 0.00114373 0.00021912 -0.0005 
0.00115942 -0.000117053 -0.0005 0.000816164 -4.7003e-05 -0.0005 0.000827708 0.000144636 -0.0005 
0.000827708 -0.000144636 -0.0005 0.000728035 -3.243e-05 -0.0005 0.00074578 0.000136564 -0.0005 
0.000744567 -0.000134897 -0.0005 0.000659232 -0.0001943 -0.0005 0.000991599 -0.000122936 -0.0005 
0.00065923 0.000194923 -0.0005 0.000586401 0.000238032 -0.0005 0.000586231 -0.000238284 -0.0005 
0.000670788 -0.000130267 -0.0005 0.000668203 0.000129229 -0.0005 0.000889614 -8.00602e-05 -0.0005 
0.000944998 -2.26884e-05 -0.0005 0.00114587 -0.000279044 -0.0005 0.00114555 0.000278672 -0.0005 
0.00087048 0.00044547 -0.0005 0.00086152 -0.00044547 -0.0005 0.000598961 -0.000915961 -0.0005 
0.000603317 -0.000588209 -0.0005 0.000270723 -0.000581163 -0.0005 0.000270149 -0.000918385 -0.0005 
0.000116826 -0.000542538 -0.0005 0.000116826 -0.000957462 -0.0005 0.000431238 -0.00054122 -0.0005 
0.000232505 -0.000744897 -0.0005 0.000636012 -0.000752799 -0.0005 0.000434763 -0.00095878 -0.0005 
6.87997e-05 -0.000535714 -0.0005 6.87997e-05 -0.000964286 -0.0005 0.000745424 -0.000579013 -0.0005 
0.000734049 -0.000916193 -0.0005 0.000425691 -0.00110148 -0.0005 0.000440309 -0.00039852 -0.0005 
0.000542232 -0.000464455 -0.0005 0.00032556 -0.00103573 -0.0005 0.000128192 -0.000673002 -0.0005 
0.000124428 -0.000825257 -0.0005 0.000539618 -0.00104521 -0.0005 0.00032807 -0.000453412 -0.0005 
0.000520463 -0.000846217 -0.0005 0.000521988 -0.00065178 -0.0005 0.000340031 -0.000668056 -0.0005 
0.00034624 -0.000838266 -0.0005 5.85195e-05 -0.000502705 -0.0005 5.85195e-05 -0.000997295 -0.0005 
0.000206193 -0.000502625 -0.0005 0.00020604 -0.000996565 -0.0005 0.000751161 -0.00069756 -0.0005 
0.00073873 -0.000810926 -0.0005 0.000181347 -0.000892326 -0.0005 0.000181347 -0.000607674 -0.0005 
0.000463745 -0.00116094 -0.0005 0.000402255 -0.00033906 -0.0005 0.000662471 -0.000504287 -0.0005 
0.000655871 -0.000984939 -0.0005 0.000455875 -0.000616724 -0.0005 0.0004137 -0.000882087 -0.0005 
0.000302544 -0.000768994 -0.0005 0.000569409 -0.000757172 -0.0005 5.91695e-05 -0.000600846 -0.0005 
5.91695e-05 -0.000899154 -0.0005 0.000666622 -0.000652114 -0.0005 0.000763695 -0.000514957 -0.0005 
0.000761799 -0.000984244 -0.0005 0.000662952 -0.000835018 -0.0005 0.000350592 -0.000568457 -0.0005 
0.000512323 -0.000928683 -0.0005 0.000258513 -0.000671173 -0.0005 0.000526882 -0.000581015 -0.0005 
0.000348994 -0.000924358 -0.0005 0.000269055 -0.00082351 -0.0005 0.000340907 -0.00110877 -0.0005 
0.000525093 -0.000391231 -0.0005 0.000398236 -0.00117211 -0.0005 0.000467764 -0.000327887 -0.0005 
3.77595e-05 -0.000562054 -0.0005 3.77595e-05 -0.000937946 -0.0005 7.22902e-05 -0.000748076 -0.0005 
0.000821959 -0.000561949 -0.0005 0.000823003 -0.000936364 -0.0005 0.000497341 -0.00110573 -0.0005 
0.000369223 -0.000393109 -0.0005 0.000595975 -0.000691792 -0.0005 0.000461056 -0.00103343 -0.0005 
0.000404944 -0.000466574 -0.0005 0.000473579 -0.000463157 -0.0005 0.000392458 -0.00103684 -0.0005 
0.000620449 -0.000442181 -0.0005 0.000248106 -0.00105944 -0.0005 0.000791611 -0.000855752 -0.0005 
0.000796074 -0.00063312 -0.0005 0.000107991 -0.000498667 -0.0005 0.000107991 -0.00100133 -0.0005 
0.000192237 -0.000821247 -0.0005 0.000118309 -0.000897697 -0.0005 0.000118584 -0.000602176 -0.0005 
2.84222e-05 -0.00050946 -0.0005 2.96921e-05 -0.000531169 -0.0005 2.84222e-05 -0.00099054 -0.0005 
2.96921e-05 -0.000968831 -0.0005 0.000584827 -0.000825555 -0.0005 0.000620086 -0.00106094 -0.0005 
0.000172947 -0.000549526 -0.0005 0.000172922 -0.000950417 -0.0005 0.000461426 -0.00120076 -0.0005 
0.000404574 -0.000299236 -0.0005 0.000243934 -0.000438928 -0.0005 0.000192001 -0.000675472 -0.0005 
0.000154074 -0.000745216 -0.0005 0.000787779 -0.000768966 -0.0005 0.000588723 -0.000523989 -0.0005 
0.000809841 -0.000504106 -0.0005 0.000809671 -0.000995397 -0.0005 0.000571747 -0.000987513 -0.0005 
0.000673596 -0.000911853 -0.0005 0.000281249 -0.000981909 -0.0005 0.000409717 -0.000660715 -0.0005 
0.000465934 -0.000841589 -0.0005 0.000524589 -0.000717066 -0.0005 0.000342119 -0.000722933 -0.0005 
0.000280666 -0.000514151 -0.0005 0.000672694 -0.000574319 -0.0005 5.82468e-05 -0.000659662 -0.0005 
5.65752e-05 -0.000839154 -0.0005 0.000386493 -0.000796808 -0.0005 0.000361584 -0.000985225 -0.0005 
0.000499228 -0.000517168 -0.0005 0.000471587 -0.000668913 -0.0005 0.000510532 -0.000790014 -0.0005 
0.000559513 -0.00111068 -0.0005 0.000707209 -0.000752897 -0.0005 8.04633e-05 -0.000566736 -0.0005 
8.04241e-05 -0.000933245 -0.0005 0.000163046 -0.000466483 -0.0005 0.000162386 -0.00103563 -0.0005 
0.000578393 -0.000637387 -0.0005 0.000503901 -0.000990722 -0.0005 0.000359102 -0.000508763 -0.0005 
0.000714127 -0.000859658 -0.0005 0.000304403 -0.00039471 -0.0005 0.000712099 -0.000528651 -0.0005 
0.000710619 -0.000966814 -0.0005 0.000726254 -0.000631789 -0.0005 0.000383073 -0.000701841 -0.0005 
0.000471292 -0.000894636 -0.0005 0.000394708 -0.000605364 -0.0005 0.000295143 -0.00071521 -0.0005 
0.000544105 -0.000886073 -0.0005 0.00030982 -0.000616796 -0.0005 0.000226145 -0.000944288 -0.0005 
0.000307419 -0.000884579 -0.0005 0.000226252 -0.000555158 -0.0005 0.000153401 -0.000511968 -0.0005 
0.000153233 -0.000988282 -0.0005 0.000237471 -0.000619391 -0.0005 0.000238317 -0.000879885 -0.0005 
0.000410377 -0.000831296 -0.0005 0.000352297 -0.000773675 -0.0005 0.00071621 -0.000470678 -0.0005 
0.000708438 -0.00102758 -0.0005 0.00043748 -0.00030453 -0.0005 0.00042852 -0.00119547 -0.0005 
-0.000266167 -0.000909585 -0.0005 -0.00026339 -0.000582669 -0.0005 -0.000595526 -0.000581349 -0.0005 
-0.000595539 -0.000918697 -0.0005 -0.000749174 -0.000957462 -0.0005 -0.000749174 -0.000542538 -0.0005 
-0.000436828 -0.000541202 -0.0005 -0.000633495 -0.000748246 -0.0005 -0.000234978 -0.000756491 -0.0005 
-0.000436828 -0.000958798 -0.0005 -0.0007972 -0.000964286 -0.0005 -0.0007972 -0.000535714 -0.0005 
-0.000131951 -0.000583807 -0.0005 -0.000120576 -0.000920987 -0.0005 -0.000440309 -0.00110148 -0.0005 
-0.000440309 -0.00039852 -0.0005 -0.000540519 -0.000463808 -0.0005 -0.000540519 -0.00103619 -0.0005 
-0.000737497 -0.000826703 -0.0005 -0.000743731 -0.00067341 -0.0005 -0.000326361 -0.000455157 -0.0005 
-0.000326361 -0.00104484 -0.0005 -0.000347939 -0.000834179 -0.0005 -0.000344799 -0.000652107 -0.0005 
-0.000525969 -0.000668056 -0.0005 -0.000528784 -0.000835049 -0.0005 -0.00080748 -0.000997295 -0.0005 
-0.00080748 -0.000502705 -0.0005 -0.00065996 -0.000996565 -0.0005 -0.00065996 -0.000503435 -0.0005 
-0.000114839 -0.00080244 -0.0005 -0.00012727 -0.000689074 -0.0005 -0.000684653 -0.000892326 -0.0005 
-0.000684653 -0.000607674 -0.0005 -0.000402255 -0.00033906 -0.0005 -0.000402255 -0.00116094 -0.0005 
-0.00020379 -0.000996251 -0.0005 -0.000209694 -0.000514898 -0.0005 -0.000410601 -0.000616776 -0.0005 
-0.000414328 -0.000881409 -0.0005 -0.000564489 -0.00077222 -0.0005 -0.00030297 -0.0007663 -0.0005 
-0.000806831 -0.000899154 -0.0005 -0.000806831 -0.000600846 -0.0005 -0.000198082 -0.000840386 -0.0005 
-0.000104201 -0.000515756 -0.0005 -0.000102305 -0.000985043 -0.0005 -0.000210482 -0.000662469 -0.0005 
-0.000512323 -0.000571317 -0.0005 -0.000512323 -0.000928683 -0.0005 -0.000607487 -0.000671376 -0.0005 
-0.000342389 -0.000918878 -0.0005 -0.000339591 -0.000579218 -0.0005 -0.000598177 -0.000824513 -0.0005 
-0.000525093 -0.00110877 -0.0005 -0.000525093 -0.000391231 -0.0005 -0.000467764 -0.00117211 -0.0005 
-0.000467764 -0.000327887 -0.0005 -0.00082824 -0.000937946 -0.0005 -0.00082824 -0.000562054 -0.0005 
-0.000792673 -0.000751208 -0.0005 -4.40406e-05 -0.000938051 -0.0005 -4.29968e-05 -0.000563636 -0.0005 
-0.000368656 -0.000394329 -0.0005 -0.000368656 -0.00110567 -0.0005 -0.000404944 -0.000466574 -0.0005 
-0.000404944 -0.00103343 -0.0005 -0.000274968 -0.000693542 -0.0005 -0.000473579 -0.000463157 -0.0005 
-0.000473579 -0.00103684 -0.0005 -0.000273108 -0.000829102 -0.0005 -0.000617905 -0.00105951 -0.0005 
-0.000617905 -0.00044049 -0.0005 -7.4389e-05 -0.000644248 -0.0005 -6.99258e-05 -0.00086688 -0.0005 
-0.000758009 -0.00100133 -0.0005 -0.000758009 -0.000498667 -0.0005 -0.000674521 -0.00082321 -0.0005 
-0.000747394 -0.000897802 -0.0005 -0.000747848 -0.000602206 -0.0005 -0.000837578 -0.00099054 -0.0005 
-0.000836308 -0.000968831 -0.0005 -0.000837578 -0.00050946 -0.0005 -0.000836308 -0.000531169 -0.0005 
-0.00024589 -0.000439066 -0.0005 -0.000241075 -0.0010584 -0.0005 -0.000693065 -0.000950422 -0.0005 
-0.000693085 -0.000549579 -0.0005 -0.000404574 -0.00120076 -0.0005 -0.000404574 -0.000299236 -0.0005 
-0.000672818 -0.000679103 -0.0005 -0.000714008 -0.000755903 -0.0005 -7.82213e-05 -0.000731034 -0.0005 
-5.6329e-05 -0.000504603 -0.0005 -5.61586e-05 -0.000995894 -0.0005 -0.000275796 -0.000980896 -0.0005 
-0.000285676 -0.000513219 -0.0005 -0.000186165 -0.000585602 -0.0005 -0.000584291 -0.000982673 -0.0005 
-0.00058429 -0.000517332 -0.0005 -0.00045634 -0.000660721 -0.0005 -0.000464193 -0.000839596 -0.0005 
-0.00034177 -0.000716972 -0.0005 -0.000523385 -0.000727952 -0.0005 -0.000193444 -0.000925069 -0.0005 
-0.000807637 -0.00084025 -0.0005 -0.000810429 -0.000661252 -0.0005 -0.000386833 -0.000795991 -0.0005 
-0.000394413 -0.000668913 -0.0005 -0.000509958 -0.000787971 -0.0005 -0.000305514 -0.00111008 -0.0005 
-0.000306477 -0.00038941 -0.0005 -0.000362249 -0.00098716 -0.0005 -0.00035868 -0.000511074 -0.0005 
-0.000160645 -0.000746982 -0.0005 -0.000509508 -0.000511363 -0.0005 -0.000509508 -0.000988638 -0.0005 
-0.00028739 -0.000637604 -0.0005 -0.000785534 -0.00093326 -0.0005 -0.000785598 -0.000566741 -0.0005 
-0.000703615 -0.00103564 -0.0005 -0.000703615 -0.000464361 -0.0005 -0.000148903 -0.000636616 -0.0005 
-0.00015636 -0.000534148 -0.0005 -0.000153981 -0.000971334 -0.0005 -0.000139581 -0.000867053 -0.0005 
-0.000482839 -0.000702846 -0.0005 -0.000471292 -0.000605364 -0.0005 -0.000471292 -0.000894636 -0.0005 
-0.000570965 -0.00071757 -0.0005 -0.000554433 -0.000615103 -0.0005 -0.000553903 -0.000884892 -0.0005 
-0.000639788 -0.00094438 -0.0005 -0.000639768 -0.0005557 -0.0005 -0.000307401 -0.000872936 -0.0005 
-0.000712765 -0.000988284 -0.0005 -0.000712769 -0.000511716 -0.0005 -0.000628213 -0.000619733 -0.0005 
-0.000630855 -0.000879083 -0.0005 -0.000409259 -0.000828735 -0.0005 -0.000354002 -0.000772688 -0.0005 
-0.000155373 -0.000471972 -0.0005 -0.000153127 -0.00102904 -0.0005 -0.00043748 -0.00030453 -0.0005 
-0.00043748 -0.00119547 -0.0005 -0.000699167 -0.000159585 -0.0005 -0.00102828 0.000168837 -0.0005 
-0.000700039 0.000165961 -0.0005 -0.00102854 -0.000168697 -0.0005 -0.00118217 0.000207462 -0.0005 
-0.00118217 -0.000207462 -0.0005 -0.000867762 0.00020878 -0.0005 -0.00106649 5.10348e-06 -0.0005 
-0.000667978 -6.49099e-06 -0.0005 -0.000869828 -0.000208798 -0.0005 -0.0012302 0.000214286 -0.0005 
-0.0012302 -0.000214286 -0.0005 -0.000564951 0.000166193 -0.0005 -0.000553576 -0.000170987 -0.0005 
-0.000873309 -0.00035148 -0.0005 -0.000858691 0.00035148 -0.0005 -0.000756768 0.000285545 -0.0005 
-0.000973519 -0.000286192 -0.0005 -0.00117081 7.69979e-05 -0.0005 -0.00117457 -7.52569e-05 -0.0005 
-0.000759361 -0.000294843 -0.0005 -0.00097093 0.000296588 -0.0005 -0.000780939 -8.41794e-05 -0.0005 
-0.000958969 8.1944e-05 -0.0005 -0.000777799 9.78925e-05 -0.0005 -0.000961784 -8.5049e-05 -0.0005 
-0.00124048 0.000247295 -0.0005 -0.00124048 -0.000247295 -0.0005 -0.00109281 0.000247375 -0.0005 
-0.00109296 -0.000246565 -0.0005 -0.000547839 -5.24395e-05 -0.0005 -0.00056027 6.09258e-05 -0.0005 
-0.00111765 0.000142326 -0.0005 -0.00111765 -0.000142326 -0.0005 -0.000835255 -0.00041094 -0.0005 
-0.000896745 0.00041094 -0.0005 -0.00063679 -0.000246251 -0.0005 -0.000636522 0.000241816 -0.0005 
-0.000843256 0.000133221 -0.0005 -0.000847328 -0.000131409 -0.0005 -0.000997489 -2.16615e-05 -0.0005 
-0.00073597 -1.62999e-05 -0.0005 -0.00123983 0.000149154 -0.0005 -0.00123983 -0.000149154 -0.0005 
-0.000631082 -9.03863e-05 -0.0005 -0.000535305 -0.000235043 -0.0005 -0.000537201 0.000234244 -0.0005 
-0.000642398 9.28059e-05 -0.0005 -0.000948408 0.000181543 -0.0005 -0.000945323 -0.000178683 -0.0005 
-0.00104049 7.88274e-05 -0.0005 -0.000775389 -0.000168878 -0.0005 -0.000772841 0.000169495 -0.0005 
-0.00103118 -7.38619e-05 -0.0005 -0.000958093 -0.000358769 -0.0005 -0.000773907 0.000358769 -0.0005 
-0.000900764 -0.000422113 -0.0005 -0.000831236 0.000422113 -0.0005 -0.00126124 0.000187946 -0.0005 
-0.00126124 -0.000187946 -0.0005 -0.00122671 1.92365e-06 -0.0005 -0.000477041 -0.000188051 -0.0005 
-0.000475997 0.000186364 -0.0005 -0.000801656 -0.000355671 -0.0005 -0.000929777 0.000356891 -0.0005 
-0.000837944 -0.000283426 -0.0005 -0.000894056 0.000283426 -0.0005 -0.000707968 5.64575e-05 -0.0005 
-0.000825421 0.000286843 -0.0005 -0.000906579 -0.000286843 -0.0005 -0.000678551 0.000307262 -0.0005 
-0.000706108 -7.91024e-05 -0.0005 -0.0010509 -0.00030951 -0.0005 -0.000507389 0.000105752 -0.0005 
-0.000502926 -0.00011688 -0.0005 -0.00119101 0.000251333 -0.0005 -0.00119101 -0.000251333 -0.0005 
-0.00110684 -7.12684e-05 -0.0005 -0.00118042 0.000147824 -0.0005 -0.00118069 -0.000147697 -0.0005 
-0.00127058 0.00024054 -0.0005 -0.00126931 0.000218831 -0.0005 -0.00127058 -0.00024054 -0.0005 
-0.00126931 -0.000218831 -0.0005 -0.000674075 -0.0003084 -0.0005 -0.00112605 0.000200474 -0.0005 
-0.00112608 -0.000200417 -0.0005 -0.000837574 -0.000450764 -0.0005 -0.000894426 0.000450764 -0.0005 
-0.00105507 0.000311072 -0.0005 -0.001107 7.45278e-05 -0.0005 -0.00114494 4.78174e-06 -0.0005 
-0.000511221 1.89656e-05 -0.0005 -0.000703503 0.000232229 -0.0005 -0.000489329 0.000245397 -0.0005 
-0.000489159 -0.000245894 -0.0005 -0.000708796 -0.000230896 -0.0005 -0.000631208 0.000171119 -0.0005 
-0.00101729 -0.000232673 -0.0005 -0.000889299 8.92785e-05 -0.0005 -0.000897193 -8.95957e-05 -0.0005 
-0.00077477 3.30279e-05 -0.0005 -0.000956385 2.2115e-05 -0.0005 -0.00101833 0.000235849 -0.0005 
-0.000626444 -0.000175069 -0.0005 -0.00124075 9.03378e-05 -0.0005 -0.00124242 -8.91537e-05 -0.0005 
-0.000819833 -4.59906e-05 -0.0005 -0.000799772 0.000232832 -0.0005 -0.000827413 8.10868e-05 -0.0005 
-0.000942958 -3.79434e-05 -0.0005 -0.000738514 -0.000360083 -0.0005 -0.000795249 -0.00023716 -0.0005 
-0.000593465 3.89675e-06 -0.0005 -0.000942508 -0.000238638 -0.0005 -0.00072039 0.000112396 -0.0005 
-0.00121854 0.000183264 -0.0005 -0.00121858 -0.000183245 -0.0005 -0.00113595 0.000283517 -0.0005 
-0.00113662 -0.000285639 -0.0005 -0.000939898 0.000241237 -0.0005 -0.00058355 0.000113194 -0.0005 
-0.000994597 0.00035529 -0.0005 -0.000586981 -0.000221334 -0.0005 -0.000588267 0.00021912 -0.0005 
-0.000572581 -0.000117053 -0.0005 -0.00091583 4.71675e-05 -0.0005 -0.000904292 -0.000144636 -0.0005 
-0.000904292 0.000144636 -0.0005 -0.00100396 3.32657e-05 -0.0005 -0.00098918 0.000133204 -0.0005 
-0.000986047 -0.000136339 -0.0005 -0.00107279 -0.00019438 -0.0005 -0.000740401 -0.000122936 -0.0005 
-0.00107275 0.000194842 -0.0005 -0.0011456 0.000238032 -0.0005 -0.00114577 -0.000238283 -0.0005 
-0.00106153 0.000130609 -0.0005 -0.00106376 -0.000129013 -0.0005 -0.000842259 -7.8735e-05 -0.0005 
-0.000787002 -2.26884e-05 -0.0005 -0.000586448 0.000278672 -0.0005 -0.000586127 -0.000279044 -0.0005 
-0.00087048 -0.00044547 -0.0005 -0.00086152 0.00044547 -0.0005 -0.000266167 0.000590415 -0.0005 
-0.000267039 0.000915961 -0.0005 -0.000595277 0.000918837 -0.0005 -0.000595539 0.000581303 -0.0005 
-0.000749174 0.000542538 -0.0005 -0.000749174 0.000957462 -0.0005 -0.000434763 0.00095878 -0.0005 
-0.000633495 0.000751754 -0.0005 -0.000234978 0.000743509 -0.0005 -0.000436828 0.000541202 -0.0005 
-0.0007972 0.000535714 -0.0005 -0.0007972 0.000964286 -0.0005 -0.000131951 0.000916193 -0.0005 
-0.000120576 0.000579013 -0.0005 -0.000440309 0.00039852 -0.0005 -0.000425691 0.00110148 -0.0005 
-0.000323768 0.00103554 -0.0005 -0.000540519 0.000463808 -0.0005 -0.000737497 0.000673297 -0.0005 
-0.000743731 0.00082659 -0.0005 -0.000326361 0.000455157 -0.0005 -0.00053793 0.00104659 -0.0005 
-0.000347939 0.000665821 -0.0005 -0.000344799 0.000847893 -0.0005 -0.000525969 0.000831944 -0.0005 
-0.000528784 0.000664951 -0.0005 -0.00080748 0.000502705 -0.0005 -0.00080748 0.000997295 -0.0005 
-0.00065996 0.000503435 -0.0005 -0.000659807 0.000997375 -0.0005 -0.000114839 0.00069756 -0.0005 
-0.00012727 0.000810926 -0.0005 -0.000684653 0.000607674 -0.0005 -0.000684653 0.000892326 -0.0005 
-0.000402255 0.00033906 -0.0005 -0.000463745 0.00116094 -0.0005 -0.00020379 0.000503749 -0.0005 
-0.000203522 0.000991815 -0.0005 -0.000410256 0.000883221 -0.0005 -0.000414328 0.000618591 -0.0005 
-0.000564489 0.00072778 -0.0005 -0.00030297 0.0007337 -0.0005 -0.000806831 0.000600846 -0.0005 
-0.000806831 0.000899154 -0.0005 -0.000198082 0.000659614 -0.0005 -0.000104201 0.000984244 -0.0005 
-0.000102305 0.000514957 -0.0005 -0.000209398 0.000842806 -0.0005 -0.000515408 0.000931543 -0.0005 
-0.000512323 0.000571317 -0.0005 -0.000607487 0.000828624 -0.0005 -0.000342389 0.000581122 -0.0005 
-0.000339841 0.000919495 -0.0005 -0.000598177 0.000675487 -0.0005 -0.000525093 0.000391231 -0.0005 
-0.000340907 0.00110877 -0.0005 -0.000398236 0.00117211 -0.0005 -0.000467764 0.000327887 -0.0005 
-0.00082824 0.000562054 -0.0005 -0.00082824 0.000937946 -0.0005 -0.000792673 0.000748792 -0.0005 
-4.40406e-05 0.000561949 -0.0005 -4.29968e-05 0.000936364 -0.0005 -0.000368656 0.000394329 -0.0005 
-0.000496777 0.00110689 -0.0005 -0.000404944 0.000466574 -0.0005 -0.000461056 0.00103343 -0.0005 
-0.000274968 0.000806458 -0.0005 -0.000392421 0.00103684 -0.0005 -0.000473579 0.000463157 -0.0005 
-0.000245551 0.00105726 -0.0005 -0.000273108 0.000670898 -0.0005 -0.000617905 0.00044049 -0.0005 
-7.4389e-05 0.000855752 -0.0005 -6.99258e-05 0.00063312 -0.0005 -0.000758009 0.000498667 -0.0005 
-0.000758009 0.00100133 -0.0005 -0.000674521 0.00067679 -0.0005 -0.000747394 0.000602198 -0.0005 
-0.000747848 0.000897794 -0.0005 -0.000837578 0.00050946 -0.0005 -0.000836308 0.000531169 -0.0005 
-0.000837578 0.00099054 -0.0005 -0.000836308 0.000968831 -0.0005 -0.000241075 0.0004416 -0.0005 
-0.000693065 0.000549578 -0.0005 -0.000693072 0.000950473 -0.0005 -0.000404574 0.000299236 -0.0005 
-0.000461426 0.00120076 -0.0005 -0.000622066 0.00106107 -0.0005 -0.000672818 0.000820897 -0.0005 
-0.000714008 0.000744097 -0.0005 -7.82213e-05 0.000768966 -0.0005 -0.000270503 0.000982229 -0.0005 
-5.6329e-05 0.000995397 -0.0005 -5.61586e-05 0.000504106 -0.0005 -0.000275796 0.000519104 -0.0005 
-0.000198208 0.000921119 -0.0005 -0.000584291 0.000517327 -0.0005 -0.000456299 0.000839279 -0.0005 
-0.000464193 0.000660404 -0.0005 -0.00034177 0.000783028 -0.0005 -0.000523385 0.000772048 -0.0005 
-0.000585334 0.000985849 -0.0005 -0.000193444 0.000574931 -0.0005 -0.000807637 0.00065975 -0.0005 
-0.000810429 0.000838748 -0.0005 -0.000386833 0.000704009 -0.0005 -0.000366772 0.000982832 -0.0005 
-0.000394413 0.000831087 -0.0005 -0.000509958 0.000712029 -0.0005 -0.000305514 0.000389917 -0.0005 
-0.000362249 0.00051284 -0.0005 -0.000160465 0.000753897 -0.0005 -0.000509508 0.000511362 -0.0005 
-0.00028739 0.000862396 -0.0005 -0.000785534 0.00056674 -0.0005 -0.000785598 0.000933259 -0.0005 
-0.000703615 0.000464361 -0.0005 -0.000702954 0.00103352 -0.0005 -0.000506898 0.000991237 -0.0005 
-0.00015055 0.000863194 -0.0005 -0.000561597 0.00110529 -0.0005 -0.000153981 0.000528666 -0.0005 
-0.000155267 0.00096912 -0.0005 -0.000139581 0.000632947 -0.0005 -0.00048283 0.000797154 -0.0005 
-0.000471292 0.000894636 -0.0005 -0.000471292 0.000605364 -0.0005 -0.000570965 0.00078243 -0.0005 
-0.00055618 0.00088318 -0.0005 -0.000553903 0.000615108 -0.0005 -0.000639788 0.00055562 -0.0005 
-0.000307401 0.000627064 -0.0005 -0.00063975 0.000944842 -0.0005 -0.000712765 0.000511716 -0.0005 
-0.000712603 0.000988032 -0.0005 -0.000628389 0.00088015 -0.0005 -0.000630855 0.000620917 -0.0005 
-0.000409259 0.000671265 -0.0005 -0.000354002 0.000727312 -0.0005 -0.000153448 0.00102867 -0.0005 
-0.000153127 0.000470956 -0.0005 -0.00042852 0.00119547 -0.0005 -0.00043748 0.00030453 -0.0005 

CELLS 2380 16660
6 649 608 664 1664 1623 1679 
6 570 610 625 1585 1625 1640 
6 571 611 624 1586 1626 1639 
6 603 587 669 1618 1602 1684 
6 564 603 669 1579 1618 1684 
6 610 570 613 1625 1585 1628 
6 611 571 612 1626 1586 1627 
6 600 564 669 1615 1579 1684 
6 586 187 630 1601 384 1645 
6 579 594 608 1594 1609 1623 
6 595 578 607 1610 1593 1622 
6 596 581 609 1611 1596 1624 
6 183 590 619 380 1605 1634 
6 166 591 620 363 1606 1635 
6 572 649 664 1587 1664 1679 
6 572 611 626 1587 1626 1641 
6 590 570 619 1605 1585 1634 
6 591 571 620 1606 1586 1635 
6 633 575 647 1648 1590 1662 
6 594 562 608 1609 1577 1623 
6 565 595 607 1580 1610 1622 
6 563 596 609 1578 1611 1624 
6 557 608 649 1572 1623 1664 
6 564 600 627 1579 1615 1642 
6 557 649 653 1572 1664 1668 
6 654 605 670 1669 1620 1685 
6 586 600 669 1601 1615 1684 
6 594 579 665 1609 1594 1680 
6 587 629 648 1602 1644 1663 
6 581 596 666 1596 1611 1681 
6 570 590 613 1585 1605 1628 
6 571 591 612 1586 1606 1627 
6 189 618 650 386 1633 1665 
6 617 184 651 1632 381 1666 
6 597 564 627 1612 1579 1642 
6 649 593 653 1664 1608 1668 
6 568 601 618 1583 1616 1633 
6 602 569 617 1617 1584 1632 
6 629 186 648 1644 383 1663 
6 559 605 654 1574 1620 1669 
6 600 556 627 1615 1571 1642 
6 187 586 648 384 1601 1663 
6 607 556 652 1622 1571 1667 
6 607 652 668 1622 1667 1683 
6 573 610 628 1588 1625 1643 
6 627 556 689 1642 1571 1704 
6 14 194 665 95 391 1680 
6 195 196 666 392 393 1681 
6 183 619 667 380 1634 1682 
6 196 656 666 393 1671 1681 
6 658 14 665 1673 95 1680 
6 561 566 631 1576 1581 1646 
6 567 560 632 1582 1575 1647 
6 575 616 647 1590 1631 1662 
6 566 561 672 1581 1576 1687 
6 560 567 673 1575 1582 1688 
6 573 654 670 1588 1669 1685 
6 12 185 618 93 382 1633 
6 188 11 617 385 92 1632 
6 635 561 641 1650 1576 1656 
6 560 634 642 1575 1649 1657 
6 578 597 627 1593 1612 1642 
6 8 175 613 89 372 1628 
6 1 190 612 82 387 1627 
6 604 558 659 1619 1573 1674 
6 578 595 695 1593 1610 1710 
6 597 578 696 1612 1593 1711 
6 610 573 625 1625 1588 1640 
6 611 572 624 1626 1587 1639 
6 168 3 636 365 84 1651 
6 6 173 638 87 370 1653 
6 611 191 626 1626 388 1641 
6 575 588 634 1590 1603 1649 
6 589 574 635 1604 1589 1650 
6 593 626 697 1608 1641 1712 
6 166 620 678 363 1635 1693 
6 564 597 623 1579 1612 1638 
6 603 564 623 1618 1579 1638 
6 568 618 629 1583 1633 1644 
6 11 184 617 92 381 1632 
6 189 12 618 386 93 1633 
6 579 608 671 1594 1623 1686 
6 556 600 660 1571 1615 1675 
6 588 575 633 1603 1590 1648 
6 8 613 700 89 1628 1715 
6 1 612 699 82 1627 1714 
6 617 569 630 1632 1584 1645 
6 619 570 621 1634 1585 1636 
6 620 571 622 1635 1586 1637 
6 574 616 661 1589 1631 1676 
6 616 575 662 1631 1590 1677 
6 580 606 686 1595 1621 1701 
6 563 633 647 1578 1648 1662 
6 598 635 661 1613 1650 1676 
6 634 599 662 1649 1614 1677 
6 574 589 646 1589 1604 1661 
6 604 659 676 1619 1674 1691 
6 635 574 661 1650 1589 1676 
6 575 634 662 1590 1649 1677 
6 600 586 681 1615 1601 1696 
6 585 628 674 1600 1643 1689 
6 557 603 671 1572 1618 1686 
6 626 192 697 1641 389 1712 
6 610 176 628 1625 373 1643 
6 563 609 633 1578 1624 1648 
6 569 660 681 1584 1675 1696 
6 587 603 677 1602 1618 1692 
6 608 557 671 1623 1572 1686 
6 603 557 653 1618 1572 1668 
6 622 571 624 1637 1586 1639 
6 621 570 625 1636 1585 1640 
6 606 580 685 1621 1595 1700 
6 640 592 698 1655 1607 1713 
6 558 604 686 1573 1619 1701 
6 605 559 687 1620 1574 1702 
6 660 600 681 1675 1615 1696 
6 187 188 630 384 385 1645 
6 185 186 629 382 383 1644 
6 608 562 664 1623 1577 1679 
6 652 556 660 1667 1571 1675 
6 562 594 683 1577 1609 1698 
6 595 565 684 1610 1580 1699 
6 596 563 685 1611 1578 1700 
6 609 581 687 1624 1596 1702 
6 686 606 693 1701 1621 1708 
6 162 1 699 359 82 1714 
6 179 8 700 376 89 1715 
6 606 563 646 1621 1578 1661 
6 573 628 654 1588 1643 1669 
6 616 574 647 1631 1589 1662 
6 565 607 668 1580 1622 1683 
6 175 176 610 372 373 1625 
6 190 191 611 387 388 1626 
6 645 584 675 1660 1599 1690 
6 628 177 674 1643 374 1689 
6 572 626 649 1587 1641 1664 
6 170 171 616 367 368 1631 
6 609 687 694 1624 1702 1709 
6 181 640 698 378 1655 1713 
6 687 559 694 1702 1574 1709 
6 607 578 689 1622 1593 1704 
6 592 652 660 1607 1667 1675 
6 604 562 683 1619 1577 1698 
6 565 605 684 1580 1620 1699 
6 563 606 685 1578 1621 1700 
6 558 686 693 1573 1701 1708 
6 565 621 625 1580 1636 1640 
6 562 622 624 1577 1637 1639 
6 683 580 686 1698 1595 1701 
6 581 684 687 1596 1699 1702 
6 616 171 661 1631 368 1676 
6 170 616 662 367 1631 1677 
6 628 585 654 1643 1600 1669 
6 182 183 667 379 380 1682 
6 653 593 679 1668 1608 1694 
6 579 623 658 1594 1638 1673 
6 605 565 670 1620 1580 1685 
6 634 560 673 1649 1575 1688 
6 561 635 672 1576 1650 1687 
6 589 635 641 1604 1650 1656 
6 634 588 642 1649 1603 1657 
6 194 655 665 391 1670 1680 
6 657 195 666 1672 392 1681 
6 562 604 676 1577 1619 1691 
6 566 614 637 1581 1629 1652 
6 615 567 639 1630 1582 1654 
6 688 588 694 1703 1603 1709 
6 623 597 658 1638 1612 1673 
6 646 563 647 1661 1578 1662 
6 576 619 621 1591 1634 1636 
6 577 620 622 1592 1635 1637 
6 556 607 689 1571 1622 1704 
6 164 645 675 361 1660 1690 
6 589 690 693 1604 1705 1708 
6 191 192 626 388 389 1641 
6 175 610 613 372 1625 1628 
6 190 611 612 387 1626 1627 
6 584 645 659 1599 1660 1674 
6 626 593 649 1641 1608 1664 
6 603 623 671 1618 1638 1686 
6 176 177 628 373 374 1643 
6 652 576 668 1667 1591 1683 
6 562 624 664 1577 1639 1679 
6 642 588 688 1657 1603 1703 
6 565 625 670 1580 1640 1685 
6 165 166 678 362 363 1693 
6 663 578 695 1678 1593 1710 
6 578 663 696 1593 1678 1711 
6 589 641 690 1604 1656 1705 
6 574 646 647 1589 1661 1662 
6 638 173 639 1653 370 1654 
6 168 636 637 365 1651 1652 
6 645 577 659 1660 1592 1674 
6 618 601 650 1633 1616 1665 
6 602 617 651 1617 1632 1666 
6 587 648 669 1602 1663 1684 
6 181 182 640 378 379 1655 
6 656 581 666 1671 1596 1681 
6 579 658 665 1594 1673 1680 
6 655 580 683 1670 1595 1698 
6 581 656 684 1596 1671 1699 
6 580 657 685 1595 1672 1700 
6 164 165 645 361 362 1660 
6 655 594 665 1670 1609 1680 
6 596 657 666 1611 1672 1681 
6 590 183 644 1605 380 1659 
6 591 166 643 1606 363 1658 
6 568 629 677 1583 1644 1692 
6 186 187 648 383 384 1663 
6 604 683 686 1619 1698 1701 
6 684 605 687 1699 1620 1702 
6 648 586 669 1663 1601 1684 
6 659 577 676 1674 1592 1691 
6 614 566 672 1629 1581 1687 
6 567 615 673 1582 1630 1688 
6 568 653 679 1583 1668 1694 
6 592 640 652 1607 1655 1667 
6 629 587 677 1644 1602 1692 
6 623 579 671 1638 1594 1686 
6 640 576 652 1655 1591 1667 
6 196 14 663 393 95 1678 
6 621 565 668 1636 1580 1683 
6 622 562 676 1637 1577 1691 
6 612 591 699 1627 1606 1714 
6 613 590 700 1628 1605 1715 
6 171 172 661 368 369 1676 
6 169 170 662 366 367 1677 
6 569 602 680 1584 1617 1695 
6 601 568 679 1616 1583 1694 
6 180 602 651 377 1617 1666 
6 601 193 650 1616 390 1665 
6 583 638 639 1598 1653 1654 
6 636 582 637 1651 1597 1652 
6 163 164 675 360 361 1690 
6 177 178 674 374 375 1689 
6 588 633 694 1603 1648 1709 
6 576 621 668 1591 1636 1683 
6 577 622 676 1592 1637 1691 
6 578 627 689 1593 1642 1704 
6 646 589 693 1661 1604 1708 
6 624 572 664 1639 1587 1679 
6 559 688 694 1574 1703 1709 
6 180 181 698 377 378 1713 
6 192 193 697 389 390 1712 
6 690 558 693 1705 1573 1708 
6 630 569 681 1645 1584 1696 
6 9 179 644 90 376 1659 
6 0 162 643 81 359 1658 
6 620 577 678 1635 1592 1693 
6 653 568 677 1668 1583 1692 
6 618 185 629 1633 382 1644 
6 580 655 682 1595 1670 1697 
6 657 580 682 1672 1595 1697 
6 172 598 661 369 1613 1676 
6 599 169 662 1614 366 1677 
6 188 617 630 385 1632 1645 
6 625 573 670 1640 1588 1685 
6 633 609 694 1648 1624 1709 
6 641 561 691 1656 1576 1706 
6 560 642 692 1575 1657 1707 
6 184 10 651 381 91 1666 
6 13 189 650 94 386 1665 
6 577 645 678 1592 1660 1693 
6 603 653 677 1618 1668 1692 
6 599 634 673 1614 1649 1688 
6 635 598 672 1650 1613 1687 
6 619 576 667 1634 1591 1682 
6 640 182 667 1655 379 1682 
6 194 195 682 391 392 1697 
6 193 601 697 390 1616 1712 
6 602 180 698 1617 377 1713 
6 576 640 667 1591 1655 1682 
6 606 646 693 1621 1661 1708 
6 660 569 680 1675 1584 1695 
6 601 679 697 1616 1694 1712 
6 680 602 698 1695 1617 1713 
6 586 630 681 1601 1645 1696 
6 169 599 615 366 1614 1630 
6 598 172 614 1613 369 1629 
6 644 179 700 1659 376 1715 
6 643 162 699 1658 359 1714 
6 656 196 695 1671 393 1710 
6 14 658 696 95 1673 1711 
6 675 584 691 1690 1599 1706 
6 585 674 692 1600 1689 1707 
6 645 165 678 1660 362 1693 
6 655 194 682 1670 391 1697 
6 195 657 682 392 1672 1697 
6 4 168 637 85 365 1652 
6 173 5 639 370 86 1654 
6 592 660 680 1607 1675 1695 
6 659 558 690 1674 1573 1705 
6 584 641 691 1599 1656 1706 
6 642 585 692 1657 1600 1707 
6 584 659 690 1599 1674 1705 
6 559 654 688 1574 1669 1703 
6 594 655 683 1609 1670 1698 
6 656 595 684 1671 1610 1699 
6 657 596 685 1672 1611 1700 
6 654 585 688 1669 1600 1703 
6 595 656 695 1610 1671 1710 
6 658 597 696 1673 1612 1711 
6 631 675 691 1646 1690 1706 
6 674 632 692 1689 1647 1707 
6 561 631 691 1576 1646 1706 
6 632 560 692 1647 1575 1707 
6 196 663 695 393 1678 1710 
6 663 14 696 1678 95 1711 
6 585 642 688 1600 1657 1703 
6 641 584 690 1656 1599 1705 
6 590 644 700 1605 1659 1715 
6 591 643 699 1606 1658 1714 
6 631 163 675 1646 360 1690 
6 178 632 674 375 1647 1689 
6 598 614 672 1613 1629 1687 
6 615 599 673 1630 1614 1688 
6 679 593 697 1694 1608 1712 
6 592 680 698 1607 1695 1713 
6 166 0 643 363 81 1658 
6 172 4 614 369 85 1629 
6 614 4 637 1629 85 1652 
6 5 169 615 86 366 1630 
6 5 615 639 86 1630 1654 
6 183 9 644 380 90 1659 
6 10 180 651 91 377 1666 
6 193 13 650 390 94 1665 
6 2 163 167 83 360 364 
6 3 167 636 84 364 1651 
6 174 6 638 371 87 1653 
6 174 178 7 371 375 88 
6 167 163 582 364 360 1597 
6 582 163 631 1597 360 1646 
6 167 582 636 364 1597 1651 
6 178 174 583 375 371 1598 
6 583 174 638 1598 371 1653 
6 178 583 632 375 1598 1647 
6 566 582 631 1581 1597 1646 
6 582 566 637 1597 1581 1652 
6 583 567 632 1598 1582 1647 
6 567 583 639 1582 1598 1654 
6 715 755 770 1730 1770 1785 
6 756 716 769 1771 1731 1784 
6 732 748 815 1747 1763 1830 
6 748 709 815 1763 1724 1830 
6 755 715 758 1770 1730 1773 
6 716 756 757 1731 1771 1772 
6 709 745 815 1724 1760 1830 
6 216 731 774 413 1746 1789 
6 724 739 752 1739 1754 1767 
6 726 740 753 1741 1755 1768 
6 741 726 754 1756 1741 1769 
6 736 210 764 1751 407 1779 
6 220 735 765 417 1750 1780 
6 738 701 798 1753 1716 1813 
6 716 736 764 1731 1751 1779 
6 735 715 765 1750 1730 1780 
6 777 720 792 1792 1735 1807 
6 739 707 752 1754 1722 1767 
6 740 710 753 1755 1725 1768 
6 708 741 754 1723 1756 1769 
6 799 753 809 1814 1768 1824 
6 749 800 816 1764 1815 1831 
6 745 731 815 1760 1746 1830 
6 739 724 810 1754 1739 1825 
6 773 732 793 1788 1747 1808 
6 715 735 758 1730 1750 1773 
6 736 716 757 1751 1731 1772 
6 214 762 794 411 1777 1809 
6 763 219 795 1778 416 1810 
6 701 738 797 1716 1753 1812 
6 750 701 797 1765 1716 1812 
6 742 709 784 1757 1724 1799 
6 713 746 762 1728 1761 1777 
6 747 714 763 1762 1729 1778 
6 217 773 793 414 1788 1808 
6 749 703 800 1764 1718 1815 
6 731 216 793 1746 413 1808 
6 748 701 784 1763 1716 1799 
6 702 752 796 1717 1767 1811 
6 745 709 766 1760 1724 1781 
6 709 748 784 1724 1763 1799 
6 796 752 814 1811 1767 1829 
6 756 717 772 1771 1732 1787 
6 718 755 771 1733 1770 1786 
6 750 797 822 1765 1812 1837 
6 704 753 799 1719 1768 1814 
6 27 225 810 108 422 1825 
6 227 27 811 424 108 1826 
6 764 210 813 1779 407 1828 
6 220 765 812 417 1780 1827 
6 718 799 809 1733 1814 1824 
6 802 227 811 1817 424 1826 
6 803 27 810 1818 108 1825 
6 705 711 775 1720 1726 1790 
6 712 706 776 1727 1721 1791 
6 720 761 792 1735 1776 1807 
6 711 705 817 1726 1720 1832 
6 706 712 818 1721 1727 1833 
6 800 717 816 1815 1732 1831 
6 23 215 762 104 412 1777 
6 218 24 763 415 105 1778 
6 779 705 787 1794 1720 1802 
6 706 778 788 1721 1793 1803 
6 208 20 757 405 101 1772 
6 13 193 758 94 390 1773 
6 740 726 840 1755 1741 1855 
6 726 741 841 1741 1756 1856 
6 755 718 770 1770 1733 1785 
6 717 756 769 1732 1771 1784 
6 203 18 780 400 99 1795 
6 15 198 782 96 395 1797 
6 702 745 821 1717 1760 1836 
6 720 733 778 1735 1748 1793 
6 734 719 779 1749 1734 1794 
6 763 714 773 1778 1729 1788 
6 709 742 766 1724 1757 1781 
6 24 219 763 105 416 1778 
6 214 23 762 411 104 1777 
6 745 702 805 1760 1717 1820 
6 733 720 777 1748 1735 1792 
6 724 752 821 1739 1767 1836 
6 757 20 845 1772 101 1860 
6 13 758 844 94 1773 1859 
6 713 762 774 1728 1777 1789 
6 765 715 767 1780 1730 1782 
6 716 764 768 1731 1779 1783 
6 719 761 806 1734 1776 1821 
6 761 720 807 1776 1735 1822 
6 725 751 831 1740 1766 1846 
6 708 777 792 1723 1792 1807 
6 778 744 807 1793 1759 1822 
6 743 779 806 1758 1794 1821 
6 719 734 791 1734 1749 1806 
6 779 719 806 1794 1734 1821 
6 720 778 807 1735 1793 1822 
6 731 745 826 1746 1760 1841 
6 784 701 832 1799 1716 1847 
6 730 771 819 1745 1786 1834 
6 772 729 820 1787 1744 1835 
6 207 756 772 404 1771 1787 
6 755 192 771 1770 389 1786 
6 708 754 777 1723 1769 1792 
6 784 723 811 1799 1738 1826 
6 805 713 826 1820 1728 1841 
6 748 732 823 1763 1747 1838 
6 742 784 811 1757 1799 1826 
6 701 748 798 1716 1763 1813 
6 716 768 769 1731 1783 1784 
6 767 715 770 1782 1730 1785 
6 752 702 821 1767 1717 1836 
6 751 725 830 1766 1740 1845 
6 737 785 842 1752 1800 1857 
6 786 738 843 1801 1753 1858 
6 703 749 831 1718 1764 1846 
6 701 750 832 1716 1765 1847 
6 745 805 826 1760 1820 1841 
6 215 216 774 412 413 1789 
6 217 218 773 414 415 1788 
6 753 710 809 1768 1725 1824 
6 702 796 805 1717 1811 1820 
6 707 739 829 1722 1754 1844 
6 710 740 828 1725 1755 1843 
6 741 708 830 1756 1723 1845 
6 831 751 838 1846 1766 1853 
6 224 13 844 421 94 1859 
6 20 209 845 101 406 1860 
6 745 766 821 1760 1781 1836 
6 751 708 791 1766 1723 1806 
6 724 766 803 1739 1781 1818 
6 772 717 800 1787 1732 1815 
6 718 771 799 1733 1786 1814 
6 761 719 792 1776 1734 1807 
6 752 707 814 1767 1722 1829 
6 207 208 756 404 405 1771 
6 193 192 755 390 389 1770 
6 726 753 835 1741 1768 1850 
6 754 726 835 1769 1741 1850 
6 766 742 803 1781 1757 1818 
6 771 191 819 1786 388 1834 
6 206 772 820 403 1787 1835 
6 200 201 761 397 398 1776 
6 785 212 842 1800 409 1857 
6 222 786 843 419 1801 1858 
6 796 737 805 1811 1752 1820 
6 749 707 829 1764 1722 1844 
6 750 710 828 1765 1725 1843 
6 708 751 830 1723 1766 1845 
6 703 831 838 1718 1846 1853 
6 710 767 770 1725 1782 1785 
6 768 707 769 1783 1722 1784 
6 828 723 832 1843 1738 1847 
6 829 725 831 1844 1740 1846 
6 200 761 807 397 1776 1822 
6 761 201 806 1776 398 1821 
6 729 772 800 1744 1787 1815 
6 771 730 799 1786 1745 1814 
6 210 211 813 407 408 1828 
6 221 220 812 418 417 1827 
6 738 798 825 1753 1813 1840 
6 707 749 816 1722 1764 1831 
6 778 706 818 1793 1721 1833 
6 705 779 817 1720 1794 1832 
6 734 834 838 1749 1849 1853 
6 734 779 787 1749 1794 1802 
6 778 733 788 1793 1748 1803 
6 225 801 810 422 1816 1825 
6 753 704 835 1768 1719 1850 
6 27 803 811 108 1818 1826 
6 710 750 822 1725 1765 1837 
6 711 759 781 1726 1774 1796 
6 760 712 783 1775 1727 1798 
6 833 733 839 1848 1748 1854 
6 791 708 792 1806 1723 1807 
6 754 835 839 1769 1850 1854 
6 764 721 768 1779 1736 1783 
6 722 765 767 1737 1780 1782 
6 193 755 758 390 1770 1773 
6 756 208 757 1771 405 1772 
6 192 191 771 389 388 1786 
6 206 207 772 403 404 1787 
6 721 796 814 1736 1811 1829 
6 710 770 809 1725 1785 1824 
6 734 787 834 1749 1802 1849 
6 788 733 833 1803 1748 1848 
6 835 704 839 1850 1719 1854 
6 797 722 822 1812 1737 1837 
6 769 707 816 1784 1722 1831 
6 726 808 840 1741 1823 1855 
6 808 726 841 1823 1741 1856 
6 723 784 832 1738 1799 1847 
6 719 791 792 1734 1806 1807 
6 203 780 781 400 1795 1796 
6 782 198 783 1797 395 1798 
6 762 746 794 1777 1761 1809 
6 747 763 795 1762 1778 1810 
6 793 732 815 1808 1747 1830 
6 222 221 786 419 418 1801 
6 211 212 785 408 409 1800 
6 723 802 811 1738 1817 1826 
6 724 803 810 1739 1818 1825 
6 801 725 829 1816 1740 1844 
6 802 723 828 1817 1738 1843 
6 725 804 830 1740 1819 1845 
6 766 724 821 1781 1739 1836 
6 801 739 810 1816 1754 1825 
6 803 742 811 1818 1757 1826 
6 210 736 789 407 1751 1804 
6 735 220 790 1750 417 1805 
6 773 714 823 1788 1729 1838 
6 216 217 793 413 414 1808 
6 750 828 832 1765 1843 1847 
6 749 829 831 1764 1844 1846 
6 731 793 815 1746 1808 1830 
6 759 711 817 1774 1726 1832 
6 712 760 818 1727 1775 1833 
6 798 714 825 1813 1729 1840 
6 785 737 796 1800 1752 1811 
6 738 786 797 1753 1801 1812 
6 732 773 823 1747 1788 1838 
6 721 785 796 1736 1800 1811 
6 786 722 797 1801 1737 1812 
6 226 227 808 423 424 1823 
6 707 768 814 1722 1783 1829 
6 767 710 822 1782 1725 1837 
6 736 757 845 1751 1772 1860 
6 758 735 844 1773 1750 1859 
6 201 202 806 398 399 1821 
6 199 200 807 396 397 1822 
6 746 713 824 1761 1728 1839 
6 714 747 825 1729 1762 1840 
6 746 213 794 1761 410 1809 
6 223 747 795 420 1762 1810 
6 728 782 783 1743 1797 1798 
6 780 727 781 1795 1742 1796 
6 191 190 819 388 387 1834 
6 205 206 820 402 403 1835 
6 733 777 839 1748 1792 1854 
6 768 721 814 1783 1736 1829 
6 834 703 838 1849 1718 1853 
6 722 767 822 1737 1782 1837 
6 791 734 838 1806 1749 1853 
6 770 718 809 1785 1733 1824 
6 704 833 839 1719 1848 1854 
6 212 213 842 409 410 1857 
6 223 222 843 420 419 1858 
6 713 774 826 1728 1789 1841 
6 209 21 789 406 102 1804 
6 26 224 790 107 421 1805 
6 714 798 823 1729 1813 1838 
6 218 763 773 415 1778 1788 
6 725 801 827 1740 1816 1842 
6 804 725 827 1819 1740 1842 
6 202 743 806 399 1758 1821 
6 744 199 807 1759 396 1822 
6 762 215 774 1777 412 1789 
6 717 769 816 1732 1784 1831 
6 777 754 839 1792 1769 1854 
6 787 705 836 1802 1720 1851 
6 706 788 837 1721 1803 1852 
6 22 214 794 103 411 1809 
6 219 25 795 416 106 1810 
6 798 748 823 1813 1763 1838 
6 744 778 818 1759 1793 1833 
6 779 743 817 1794 1758 1832 
6 765 722 812 1780 1737 1827 
6 721 764 813 1736 1779 1828 
6 211 785 813 408 1800 1828 
6 786 221 812 1801 418 1827 
6 225 226 827 422 423 1842 
6 213 746 842 410 1761 1857 
6 747 223 843 1762 420 1858 
6 785 721 813 1800 1736 1828 
6 722 786 812 1737 1801 1827 
6 751 791 838 1766 1806 1853 
6 713 805 824 1728 1820 1839 
6 746 824 842 1761 1839 1857 
6 825 747 843 1840 1762 1858 
6 774 731 826 1789 1746 1841 
6 743 202 759 1758 399 1774 
6 199 744 760 396 1759 1775 
6 790 224 844 1805 421 1859 
6 209 789 845 406 1804 1860 
6 227 802 840 424 1817 1855 
6 804 226 841 1819 423 1856 
6 730 819 837 1745 1834 1852 
6 820 729 836 1835 1744 1851 
6 801 225 827 1816 422 1842 
6 226 804 827 423 1819 1842 
6 17 203 781 98 400 1796 
6 198 16 783 395 97 1798 
6 805 737 824 1820 1752 1839 
6 788 730 837 1803 1745 1852 
6 729 787 836 1744 1802 1851 
6 704 799 833 1719 1814 1848 
6 800 703 834 1815 1718 1849 
6 739 801 829 1754 1816 1844 
6 740 802 828 1755 1817 1843 
6 804 741 830 1819 1756 1845 
6 799 730 833 1814 1745 1848 
6 729 800 834 1744 1815 1849 
6 802 740 840 1817 1755 1855 
6 741 804 841 1756 1819 1856 
6 775 820 836 1790 1835 1851 
6 819 776 837 1834 1791 1852 
6 705 775 836 1720 1790 1851 
6 776 706 837 1791 1721 1852 
6 808 227 840 1823 424 1855 
6 226 808 841 423 1823 1856 
6 730 788 833 1745 1803 1848 
6 787 729 834 1802 1744 1849 
6 789 736 845 1804 1751 1860 
6 735 790 844 1750 1805 1859 
6 775 205 820 1790 402 1835 
6 190 776 819 387 1791 1834 
6 743 759 817 1758 1774 1832 
6 760 744 818 1775 1759 1833 
6 824 737 842 1839 1752 1857 
6 738 825 843 1753 1840 1858 
6 16 199 760 97 396 1775 
6 16 760 783 97 1775 1798 
6 202 17 759 399 98 1774 
6 759 17 781 1774 98 1796 
6 21 210 789 102 407 1804 
6 213 22 794 410 103 1809 
6 25 223 795 106 420 1810 
6 220 26 790 417 107 1805 
6 1 197 190 82 394 387 
6 197 15 782 394 96 1797 
6 18 204 780 99 401 1795 
6 19 205 204 100 402 401 
6 190 197 728 387 394 1743 
6 190 728 776 387 1743 1791 
6 728 197 782 1743 394 1797 
6 204 205 727 401 402 1742 
6 204 727 780 401 1742 1795 
6 727 205 775 1742 402 1790 
6 711 727 775 1726 1742 1790 
6 727 711 781 1742 1726 1796 
6 728 712 776 1743 1727 1791 
6 712 728 783 1727 1743 1798 
6 939 898 954 1954 1913 1969 
6 860 900 915 1875 1915 1930 
6 861 901 914 1876 1916 1929 
6 893 877 959 1908 1892 1974 
6 854 893 959 1869 1908 1974 
6 900 860 903 1915 1875 1918 
6 901 861 902 1916 1876 1917 
6 890 854 959 1905 1869 1974 
6 876 238 920 1891 435 1935 
6 869 884 898 1884 1899 1913 
6 885 868 897 1900 1883 1912 
6 870 886 899 1885 1901 1914 
6 244 880 909 441 1895 1924 
6 223 881 910 420 1896 1925 
6 862 939 954 1877 1954 1969 
6 862 901 916 1877 1916 1931 
6 880 860 909 1895 1875 1924 
6 881 861 910 1896 1876 1925 
6 936 865 937 1951 1880 1952 
6 884 852 898 1899 1867 1913 
6 855 885 897 1870 1900 1912 
6 886 853 899 1901 1868 1914 
6 847 898 939 1862 1913 1954 
6 854 890 917 1869 1905 1932 
6 847 939 943 1862 1954 1958 
6 944 895 960 1959 1910 1975 
6 876 890 959 1891 1905 1974 
6 884 869 955 1899 1884 1970 
6 877 919 938 1892 1934 1953 
6 886 870 956 1901 1885 1971 
6 860 880 903 1875 1895 1918 
6 861 881 902 1876 1896 1917 
6 907 240 940 1922 437 1955 
6 235 908 941 432 1923 1956 
6 887 854 917 1902 1869 1932 
6 939 883 943 1954 1898 1958 
6 891 858 907 1906 1873 1922 
6 859 892 908 1874 1907 1923 
6 919 237 938 1934 434 1953 
6 849 895 944 1864 1910 1959 
6 890 846 917 1905 1861 1932 
6 238 876 938 435 1891 1953 
6 897 846 942 1912 1861 1957 
6 897 942 958 1912 1957 1973 
6 863 900 918 1878 1915 1933 
6 917 846 979 1932 1861 1994 
6 38 252 955 119 449 1970 
6 252 253 956 449 450 1971 
6 244 909 957 441 1924 1972 
6 945 252 956 1960 449 1971 
6 947 38 955 1962 119 1970 
6 850 856 921 1865 1871 1936 
6 857 851 922 1872 1866 1937 
6 865 906 937 1880 1921 1952 
6 856 850 962 1871 1865 1977 
6 851 857 963 1866 1872 1978 
6 863 944 960 1878 1959 1975 
6 239 32 907 436 113 1922 
6 31 236 908 112 433 1923 
6 925 850 931 1940 1865 1946 
6 851 924 932 1866 1939 1947 
6 868 887 917 1883 1902 1932 
6 29 231 902 110 428 1917 
6 35 249 903 116 446 1918 
6 894 848 949 1909 1863 1964 
6 868 885 985 1883 1900 2000 
6 887 868 986 1902 1883 2001 
6 900 863 915 1915 1878 1930 
6 901 862 914 1916 1877 1929 
6 228 28 926 425 109 1941 
6 37 251 928 118 448 1943 
6 901 232 916 1916 429 1931 
6 865 878 924 1880 1893 1939 
6 879 864 925 1894 1879 1940 
6 883 916 988 1898 1931 2003 
6 223 910 968 420 1925 1983 
6 854 887 913 1869 1902 1928 
6 853 936 937 1868 1951 1952 
6 893 854 913 1908 1869 1928 
6 859 908 919 1874 1923 1934 
6 235 31 908 432 112 1923 
6 32 240 907 113 437 1922 
6 869 898 961 1884 1913 1976 
6 846 890 950 1861 1905 1965 
6 864 879 923 1879 1894 1938 
6 29 902 989 110 1917 2004 
6 35 903 990 116 1918 2005 
6 907 858 920 1922 1873 1935 
6 909 860 911 1924 1875 1926 
6 910 861 912 1925 1876 1927 
6 864 906 951 1879 1921 1966 
6 906 865 952 1921 1880 1967 
6 896 871 977 1911 1886 1992 
6 888 925 951 1903 1940 1966 
6 924 889 952 1939 1904 1967 
6 878 865 936 1893 1880 1951 
6 894 949 966 1909 1964 1981 
6 925 864 951 1940 1879 1966 
6 865 924 952 1880 1939 1967 
6 890 876 971 1905 1891 1986 
6 875 918 965 1890 1933 1980 
6 847 893 961 1862 1908 1976 
6 916 233 988 1931 430 2003 
6 900 248 918 1915 445 1933 
6 899 853 923 1914 1868 1938 
6 858 950 971 1873 1965 1986 
6 877 893 967 1892 1908 1982 
6 898 847 961 1913 1862 1976 
6 893 847 943 1908 1862 1958 
6 912 861 914 1927 1876 1929 
6 911 860 915 1926 1875 1930 
6 871 896 975 1886 1911 1990 
6 930 882 987 1945 1897 2002 
6 848 894 976 1863 1909 1991 
6 895 849 977 1910 1864 1992 
6 950 890 971 1965 1905 1986 
6 238 239 920 435 436 1935 
6 236 237 919 433 434 1934 
6 898 852 954 1913 1867 1969 
6 942 846 950 1957 1861 1965 
6 852 884 973 1867 1899 1988 
6 885 855 974 1900 1870 1989 
6 853 886 975 1868 1901 1990 
6 870 899 976 1885 1914 1991 
6 896 977 983 1911 1992 1998 
6 245 35 990 442 116 2005 
6 230 29 989 427 110 2004 
6 853 896 936 1868 1911 1951 
6 863 918 944 1878 1933 1959 
6 906 864 937 1921 1879 1952 
6 855 897 958 1870 1912 1973 
6 231 232 901 428 429 1916 
6 249 248 900 446 445 1915 
6 935 874 964 1950 1889 1979 
6 918 247 965 1933 444 1980 
6 862 916 939 1877 1931 1954 
6 187 186 906 384 383 1921 
6 976 899 984 1991 1914 1999 
6 242 930 987 439 1945 2002 
6 848 976 984 1863 1991 1999 
6 897 868 979 1912 1883 1994 
6 882 942 950 1897 1957 1965 
6 894 852 973 1909 1867 1988 
6 855 895 974 1870 1910 1989 
6 896 853 975 1911 1868 1990 
6 977 849 983 1992 1864 1998 
6 855 911 915 1870 1926 1930 
6 852 912 914 1867 1927 1929 
6 973 870 976 1988 1885 1991 
6 871 974 977 1886 1989 1992 
6 906 186 951 1921 383 1966 
6 187 906 952 384 1921 1967 
6 918 875 944 1933 1890 1959 
6 243 244 957 440 441 1972 
6 943 883 970 1958 1898 1985 
6 869 913 947 1884 1928 1962 
6 895 855 960 1910 1870 1975 
6 924 851 963 1939 1866 1978 
6 850 925 962 1865 1940 1977 
6 978 878 983 1993 1893 1998 
6 879 925 931 1894 1940 1946 
6 924 878 932 1939 1893 1947 
6 252 945 955 449 1960 1970 
6 253 948 956 450 1963 1971 
6 852 894 966 1867 1909 1981 
6 856 904 927 1871 1919 1942 
6 905 857 929 1920 1872 1944 
6 913 887 947 1928 1902 1962 
6 866 909 911 1881 1924 1926 
6 867 910 912 1882 1925 1927 
6 846 897 979 1861 1912 1994 
6 221 935 964 418 1950 1979 
6 232 233 916 429 430 1931 
6 249 900 903 446 1915 1918 
6 231 901 902 428 1916 1917 
6 874 935 949 1889 1950 1964 
6 916 883 939 1931 1898 1954 
6 879 980 984 1894 1995 1999 
6 893 913 961 1908 1928 1976 
6 923 853 937 1938 1868 1952 
6 248 247 918 445 444 1933 
6 942 866 958 1957 1881 1973 
6 852 914 954 1867 1929 1969 
6 932 878 978 1947 1893 1993 
6 855 915 960 1870 1930 1975 
6 222 223 968 419 420 1983 
6 953 868 985 1968 1883 2000 
6 868 953 986 1883 1968 2001 
6 864 923 937 1879 1938 1952 
6 879 931 980 1894 1946 1995 
6 228 926 927 425 1941 1942 
6 928 251 929 1943 448 1944 
6 935 867 949 1950 1882 1964 
6 891 907 940 1906 1922 1955 
6 908 892 941 1923 1907 1956 
6 877 938 959 1892 1953 1974 
6 242 243 930 439 440 1945 
6 870 945 956 1885 1960 1971 
6 869 947 955 1884 1962 1970 
6 945 870 973 1960 1885 1988 
6 871 946 974 1886 1961 1989 
6 948 871 975 1963 1886 1990 
6 221 222 935 418 419 1950 
6 945 884 955 1960 1899 1970 
6 948 886 956 1963 1901 1971 
6 880 244 933 1895 441 1948 
6 881 223 934 1896 420 1949 
6 859 919 967 1874 1934 1982 
6 237 238 938 434 435 1953 
6 974 895 977 1989 1910 1992 
6 894 973 976 1909 1988 1991 
6 938 876 959 1953 1891 1974 
6 949 867 966 1964 1882 1981 
6 904 856 962 1919 1871 1977 
6 857 905 963 1872 1920 1978 
6 859 943 970 1874 1958 1985 
6 882 930 942 1897 1945 1957 
6 919 877 967 1934 1892 1982 
6 913 869 961 1928 1884 1976 
6 930 866 942 1945 1881 1957 
6 254 38 953 451 119 1968 
6 911 855 958 1926 1870 1973 
6 912 852 966 1927 1867 1981 
6 902 881 989 1917 1896 2004 
6 903 880 990 1918 1895 2005 
6 186 185 951 383 382 1966 
6 188 187 952 385 384 1967 
6 858 891 969 1873 1906 1984 
6 892 859 970 1907 1874 1985 
6 241 891 940 438 1906 1955 
6 892 234 941 1907 431 1956 
6 926 872 927 1941 1887 1942 
6 873 928 929 1888 1943 1944 
6 220 221 964 417 418 1979 
6 247 246 965 444 443 1980 
6 923 879 984 1938 1894 1999 
6 866 911 958 1881 1926 1973 
6 849 978 983 1864 1993 1998 
6 867 912 966 1882 1927 1981 
6 868 917 979 1883 1932 1994 
6 878 936 983 1893 1951 1998 
6 914 862 954 1929 1877 1969 
6 241 242 987 438 439 2002 
6 233 234 988 430 431 2003 
6 920 858 971 1935 1873 1986 
6 34 245 933 115 442 1948 
6 25 230 934 106 427 1949 
6 910 867 968 1925 1882 1983 
6 943 859 967 1958 1874 1982 
6 908 236 919 1923 433 1934 
6 980 848 984 1995 1863 1999 
6 946 871 972 1961 1886 1987 
6 871 948 972 1886 1963 1987 
6 185 888 951 382 1903 1966 
6 889 188 952 1904 385 1967 
6 239 907 920 436 1922 1935 
6 915 863 960 1930 1878 1975 
6 899 923 984 1914 1938 1999 
6 931 850 981 1946 1865 1996 
6 851 932 982 1866 1947 1997 
6 240 33 940 437 114 1955 
6 30 235 941 111 432 1956 
6 867 935 968 1882 1950 1983 
6 893 943 967 1908 1958 1982 
6 889 924 963 1904 1939 1978 
6 925 888 962 1940 1903 1977 
6 909 866 957 1924 1881 1972 
6 930 243 957 1945 440 1972 
6 253 254 972 450 451 1987 
6 891 241 987 1906 438 2002 
6 234 892 988 431 1907 2003 
6 866 930 957 1881 1945 1972 
6 936 896 983 1951 1911 1998 
6 950 858 969 1965 1873 1984 
6 969 891 987 1984 1906 2002 
6 892 970 988 1907 1985 2003 
6 876 920 971 1891 1935 1986 
6 888 185 904 1903 382 1919 
6 188 889 905 385 1904 1920 
6 933 245 990 1948 442 2005 
6 934 230 989 1949 427 2004 
6 946 254 985 1961 451 2000 
6 38 947 986 119 1962 2001 
6 875 965 982 1890 1980 1997 
6 964 874 981 1979 1889 1996 
6 935 222 968 1950 419 1983 
6 254 946 972 451 1961 1987 
6 948 253 972 1963 450 1987 
6 251 11 929 448 92 1944 
6 12 228 927 93 425 1942 
6 882 950 969 1897 1965 1984 
6 949 848 980 1964 1863 1995 
6 932 875 982 1947 1890 1997 
6 874 931 981 1889 1946 1996 
6 874 949 980 1889 1964 1995 
6 849 944 978 1864 1959 1993 
6 884 945 973 1899 1960 1988 
6 946 885 974 1961 1900 1989 
6 886 948 975 1901 1963 1990 
6 944 875 978 1959 1890 1993 
6 885 946 985 1900 1961 2000 
6 947 887 986 1962 1902 2001 
6 921 964 981 1936 1979 1996 
6 965 922 982 1980 1937 1997 
6 850 921 981 1865 1936 1996 
6 922 851 982 1937 1866 1997 
6 254 953 985 451 1968 2000 
6 953 38 986 1968 119 2001 
6 875 932 978 1890 1947 1993 
6 931 874 980 1946 1889 1995 
6 880 933 990 1895 1948 2005 
6 881 934 989 1896 1949 2004 
6 921 220 964 1936 417 1979 
6 246 922 965 443 1937 1980 
6 888 904 962 1903 1919 1977 
6 905 889 963 1920 1904 1978 
6 882 969 987 1897 1984 2002 
6 970 883 988 1985 1898 2003 
6 11 188 905 92 385 1920 
6 11 905 929 92 1920 1944 
6 185 12 904 382 93 1919 
6 904 12 927 1919 93 1942 
6 223 25 934 420 106 1949 
6 234 30 941 431 111 1956 
6 33 241 940 114 438 1955 
6 244 34 933 441 115 1948 
6 26 220 229 107 417 426 
6 28 229 926 109 426 1941 
6 36 250 246 117 447 443 
6 250 37 928 447 118 1943 
6 229 220 872 426 417 1887 
6 872 220 921 1887 417 1936 
6 229 872 926 426 1887 1941 
6 246 250 873 443 447 1888 
6 246 873 922 443 1888 1937 
6 873 250 928 1888 447 1943 
6 856 872 921 1871 1887 1936 
6 872 856 927 1887 1871 1942 
6 873 857 922 1888 1872 1937 
6 857 873 929 1872 1888 1944 
6 1084 1042 1100 2099 2057 2115 
6 1005 1045 1060 2020 2060 2075 
6 1006 1046 1059 2021 2061 2074 
6 1022 1038 1104 2037 2053 2119 
6 1038 999 1104 2053 2014 2119 
6 1045 1005 1047 2060 2020 2062 
6 1046 1006 1048 2061 2021 2063 
6 999 1035 1104 2014 2050 2119 
6 258 1021 1064 455 2036 2079 
6 1014 1029 1042 2029 2044 2057 
6 1016 1030 1043 2031 2045 2058 
6 1031 1016 1044 2046 2031 2059 
6 180 1026 1055 377 2041 2070 
6 265 1025 1054 462 2040 2069 
6 1028 991 1088 2043 2006 2103 
6 1007 1084 1100 2022 2099 2115 
6 1007 1046 1061 2022 2061 2076 
6 1026 1006 1055 2041 2021 2070 
6 1025 1005 1054 2040 2020 2069 
6 1067 1010 1082 2082 2025 2097 
6 1029 997 1042 2044 2012 2057 
6 1030 1000 1043 2045 2015 2058 
6 998 1031 1044 2013 2046 2059 
6 1089 1043 1099 2104 2058 2114 
6 992 1042 1084 2007 2057 2099 
6 1035 1021 1104 2050 2036 2119 
6 1029 1014 1101 2044 2029 2116 
6 1063 1022 1083 2078 2037 2098 
6 1005 1025 1047 2020 2040 2062 
6 1006 1026 1048 2021 2041 2063 
6 256 1052 1085 453 2067 2100 
6 1053 261 1086 2068 458 2101 
6 991 1028 1087 2006 2043 2102 
6 1040 991 1087 2055 2006 2102 
6 1032 999 1074 2047 2014 2089 
6 1003 1036 1052 2018 2051 2067 
6 1037 1004 1053 2052 2019 2068 
6 259 1063 1083 456 2078 2098 
6 1021 258 1083 2036 455 2098 
6 1038 991 1074 2053 2006 2089 
6 1035 999 1056 2050 2014 2071 
6 999 1038 1074 2014 2053 2089 
6 1008 1045 1062 2023 2060 2077 
6 1040 1087 1110 2055 2102 2125 
6 994 1043 1089 2009 2058 2104 
6 49 279 1101 130 476 2116 
6 281 49 1102 478 130 2117 
6 265 1054 1103 462 2069 2118 
6 1008 1089 1099 2023 2104 2114 
6 1091 281 1102 2106 478 2117 
6 1092 49 1101 2107 130 2116 
6 995 1001 1065 2010 2016 2080 
6 1002 996 1066 2017 2011 2081 
6 1010 1051 1082 2025 2066 2097 
6 1001 995 1105 2016 2010 2120 
6 996 1002 1106 2011 2017 2121 
6 39 257 1052 120 454 2067 
6 260 40 1053 457 121 2068 
6 1069 995 1076 2084 2010 2091 
6 996 1068 1077 2011 2083 2092 
6 43 267 1047 124 464 2062 
6 36 246 1048 117 443 2063 
6 1039 993 1094 2054 2008 2109 
6 1030 1016 1130 2045 2031 2145 
6 1016 1031 1131 2031 2046 2146 
6 1045 1008 1060 2060 2023 2075 
6 1046 1007 1059 2061 2022 2074 
6 277 48 1070 474 129 2085 
6 45 272 1072 126 469 2087 
6 992 1035 1109 2007 2050 2124 
6 1046 247 1061 2061 444 2076 
6 1010 1023 1068 2025 2038 2083 
6 1024 1009 1069 2039 2024 2084 
6 1027 1061 1132 2042 2076 2147 
6 180 1055 1113 377 2070 2128 
6 1053 1004 1063 2068 2019 2078 
6 999 1032 1056 2014 2047 2071 
6 40 261 1053 121 458 2068 
6 256 39 1052 453 120 2067 
6 1035 992 1095 2050 2007 2110 
6 1023 1010 1067 2038 2025 2082 
6 1014 1042 1109 2029 2057 2124 
6 36 1048 1134 117 2063 2149 
6 43 1047 1135 124 2062 2150 
6 1003 1052 1064 2018 2067 2079 
6 1054 1005 1057 2069 2020 2072 
6 1055 1006 1058 2070 2021 2073 
6 1051 1010 1097 2066 2025 2112 
6 1009 1051 1096 2024 2066 2111 
6 1015 1041 1122 2030 2056 2137 
6 998 1067 1082 2013 2082 2097 
6 1033 1069 1096 2048 2084 2111 
6 1068 1034 1097 2083 2049 2112 
6 1009 1024 1081 2024 2039 2096 
6 1039 1094 1111 2054 2109 2126 
6 1069 1009 1096 2084 2024 2111 
6 1010 1068 1097 2025 2083 2112 
6 1021 1035 1116 2036 2050 2131 
6 1074 991 1121 2089 2006 2136 
6 1020 1062 1108 2035 2077 2123 
6 1061 248 1132 2076 445 2147 
6 1045 268 1062 2060 465 2077 
6 998 1044 1067 2013 2059 2082 
6 1074 1013 1102 2089 2028 2117 
6 1095 1003 1116 2110 2018 2131 
6 1038 1022 1112 2053 2037 2127 
6 1032 1074 1102 2047 2089 2117 
6 991 1038 1088 2006 2053 2103 
6 1058 1006 1059 2073 2021 2074 
6 1057 1005 1060 2072 2020 2075 
6 1042 992 1109 2057 2007 2124 
6 1041 1015 1120 2056 2030 2135 
6 1075 1028 1133 2090 2043 2148 
6 993 1039 1122 2008 2054 2137 
6 991 1040 1121 2006 2055 2136 
6 1035 1095 1116 2050 2110 2131 
6 257 258 1064 454 455 2079 
6 259 260 1063 456 457 2078 
6 1042 997 1100 2057 2012 2115 
6 1043 1000 1099 2058 2015 2114 
6 997 1029 1119 2012 2044 2134 
6 1000 1030 1118 2015 2045 2133 
6 1031 998 1120 2046 2013 2135 
6 1122 1041 1128 2137 2056 2143 
6 255 36 1134 452 117 2149 
6 266 43 1135 463 124 2150 
6 1035 1056 1109 2050 2071 2124 
6 1041 998 1081 2056 2013 2096 
6 1014 1056 1092 2029 2071 2107 
6 1008 1062 1089 2023 2077 2104 
6 1051 1009 1082 2066 2024 2097 
6 246 247 1046 443 444 2061 
6 267 268 1045 464 465 2060 
6 1016 1043 1124 2031 2058 2139 
6 1044 1016 1124 2059 2031 2139 
6 1080 1019 1107 2095 2034 2122 
6 1056 1032 1092 2071 2047 2107 
6 1062 269 1108 2077 466 2123 
6 1007 1061 1084 2022 2076 2099 
6 275 274 1051 472 471 2066 
6 263 1075 1133 460 2090 2148 
6 992 1084 1095 2007 2099 2110 
6 1039 997 1119 2054 2012 2134 
6 1040 1000 1118 2055 2015 2133 
6 998 1041 1120 2013 2056 2135 
6 993 1122 1128 2008 2137 2143 
6 1000 1057 1060 2015 2072 2075 
6 997 1058 1059 2012 2073 2074 
6 1119 1015 1122 2134 2030 2137 
6 1118 1013 1121 2133 2028 2136 
6 275 1051 1097 472 2066 2112 
6 1051 274 1096 2066 471 2111 
6 1062 1020 1089 2077 2035 2104 
6 264 265 1103 461 462 2118 
6 1028 1088 1115 2043 2103 2130 
6 1068 996 1106 2083 2011 2121 
6 995 1069 1105 2010 2084 2120 
6 1024 1069 1076 2039 2084 2091 
6 1068 1023 1077 2083 2038 2092 
6 279 1090 1101 476 2105 2116 
6 1043 994 1124 2058 2009 2139 
6 49 1092 1102 130 2107 2117 
6 1084 1027 1095 2099 2042 2110 
6 997 1039 1111 2012 2054 2126 
6 1000 1040 1110 2015 2055 2125 
6 1001 1049 1071 2016 2064 2086 
6 1050 1002 1073 2065 2017 2088 
6 1123 1023 1129 2138 2038 2144 
6 1081 998 1082 2096 2013 2097 
6 1044 1124 1129 2059 2139 2144 
6 1011 1054 1057 2026 2069 2072 
6 1012 1055 1058 2027 2070 2073 
6 182 1080 1107 379 2095 2122 
6 1024 1125 1128 2039 2140 2143 
6 247 248 1061 444 445 2076 
6 267 1045 1047 464 2060 2062 
6 246 1046 1048 443 2061 2063 
6 1019 1080 1094 2034 2095 2109 
6 1061 1027 1084 2076 2042 2099 
6 268 269 1062 465 466 2077 
6 1000 1060 1099 2015 2075 2114 
6 997 1059 1100 2012 2074 2115 
6 1077 1023 1123 2092 2038 2138 
6 1124 994 1129 2139 2009 2144 
6 1087 1011 1110 2102 2026 2125 
6 181 180 1113 378 377 2128 
6 1016 1098 1130 2031 2113 2145 
6 1098 1016 1131 2113 2031 2146 
6 1013 1074 1121 2028 2089 2136 
6 1024 1076 1125 2039 2091 2140 
6 1009 1081 1082 2024 2096 2097 
6 1072 272 1073 2087 469 2088 
6 277 1070 1071 474 2085 2086 
6 1080 1012 1094 2095 2027 2109 
6 1052 1036 1085 2067 2051 2100 
6 1037 1053 1086 2052 2068 2101 
6 1083 1022 1104 2098 2037 2119 
6 263 264 1075 460 461 2090 
6 1013 1091 1102 2028 2106 2117 
6 1014 1092 1101 2029 2107 2116 
6 1090 1015 1119 2105 2030 2134 
6 1091 1013 1118 2106 2028 2133 
6 1015 1093 1120 2030 2108 2135 
6 1056 1014 1109 2071 2029 2124 
6 182 181 1080 379 378 2095 
6 1090 1029 1101 2105 2044 2116 
6 1092 1032 1102 2107 2047 2117 
6 1025 265 1078 2040 462 2093 
6 1026 180 1079 2041 377 2094 
6 1063 1004 1112 2078 2019 2127 
6 258 259 1083 455 456 2098 
6 1040 1118 1121 2055 2133 2136 
6 1039 1119 1122 2054 2134 2137 
6 1021 1083 1104 2036 2098 2119 
6 1094 1012 1111 2109 2027 2126 
6 1049 1001 1105 2064 2016 2120 
6 1002 1050 1106 2017 2065 2121 
6 1088 1004 1115 2103 2019 2130 
6 1028 1075 1087 2043 2090 2102 
6 1022 1063 1112 2037 2078 2127 
6 1075 1011 1087 2090 2026 2102 
6 280 281 1098 477 478 2113 
6 1058 997 1111 2073 2012 2126 
6 1057 1000 1110 2072 2015 2125 
6 1047 1025 1135 2062 2040 2150 
6 1048 1026 1134 2063 2041 2149 
6 274 273 1096 471 470 2111 
6 276 275 1097 473 472 2112 
6 1036 1003 1114 2051 2018 2129 
6 1004 1037 1115 2019 2052 2130 
6 1036 249 1085 2051 446 2100 
6 262 1037 1086 459 2052 2101 
6 1070 1017 1071 2085 2032 2086 
6 1018 1072 1073 2033 2087 2088 
6 183 182 1107 380 379 2122 
6 269 270 1108 466 467 2123 
6 1023 1067 1129 2038 2082 2144 
6 1011 1057 1110 2026 2072 2125 
6 1012 1058 1111 2027 2073 2126 
6 1081 1024 1128 2096 2039 2143 
6 1059 1007 1100 2074 2022 2115 
6 1060 1008 1099 2075 2023 2114 
6 994 1123 1129 2009 2138 2144 
6 248 249 1132 445 446 2147 
6 262 263 1133 459 460 2148 
6 1125 993 1128 2140 2008 2143 
6 1003 1064 1116 2018 2079 2131 
6 42 266 1078 123 463 2093 
6 10 255 1079 91 452 2094 
6 1055 1012 1113 2070 2027 2128 
6 1004 1088 1112 2019 2103 2127 
6 260 1053 1063 457 2068 2078 
6 1015 1090 1117 2030 2105 2132 
6 1093 1015 1117 2108 2030 2132 
6 273 1033 1096 470 2048 2111 
6 1034 276 1097 2049 473 2112 
6 1052 257 1064 2067 454 2079 
6 1067 1044 1129 2082 2059 2144 
6 1076 995 1126 2091 2010 2141 
6 996 1077 1127 2011 2092 2142 
6 35 256 1085 116 453 2100 
6 261 41 1086 458 122 2101 
6 1012 1080 1113 2027 2095 2128 
6 1088 1038 1112 2103 2053 2127 
6 1034 1068 1106 2049 2083 2121 
6 1069 1033 1105 2084 2048 2120 
6 1054 1011 1103 2069 2026 2118 
6 1075 264 1103 2090 461 2118 
6 279 280 1117 476 477 2132 
6 249 1036 1132 446 2051 2147 
6 1037 262 1133 2052 459 2148 
6 1011 1075 1103 2026 2090 2118 
6 1041 1081 1128 2056 2096 2143 
6 1003 1095 1114 2018 2110 2129 
6 1036 1114 1132 2051 2129 2147 
6 1115 1037 1133 2130 2052 2148 
6 1064 1021 1116 2079 2036 2131 
6 276 1034 1050 473 2049 2065 
6 1033 273 1049 2048 470 2064 
6 1078 266 1135 2093 463 2150 
6 1079 255 1134 2094 452 2149 
6 281 1091 1130 478 2106 2145 
6 1093 280 1131 2108 477 2146 
6 1107 1019 1126 2122 2034 2141 
6 1020 1108 1127 2035 2123 2142 
6 1080 181 1113 2095 378 2128 
6 1090 279 1117 2105 476 2132 
6 280 1093 1117 477 2108 2132 
6 272 46 1073 469 127 2088 
6 47 277 1071 128 474 2086 
6 1095 1027 1114 2110 2042 2129 
6 1094 993 1125 2109 2008 2140 
6 1019 1076 1126 2034 2091 2141 
6 1077 1020 1127 2092 2035 2142 
6 1019 1094 1125 2034 2109 2140 
6 994 1089 1123 2009 2104 2138 
6 1030 1091 1118 2045 2106 2133 
6 1029 1090 1119 2044 2105 2134 
6 1093 1031 1120 2108 2046 2135 
6 1089 1020 1123 2104 2035 2138 
6 1091 1030 1130 2106 2045 2145 
6 1031 1093 1131 2046 2108 2146 
6 1065 1107 1126 2080 2122 2141 
6 1108 1066 1127 2123 2081 2142 
6 995 1065 1126 2010 2080 2141 
6 1066 996 1127 2081 2011 2142 
6 1098 281 1130 2113 478 2145 
6 280 1098 1131 477 2113 2146 
6 1020 1077 1123 2035 2092 2138 
6 1076 1019 1125 2091 2034 2140 
6 1025 1078 1135 2040 2093 2150 
6 1026 1079 1134 2041 2094 2149 
6 1065 183 1107 2080 380 2122 
6 270 1066 1108 467 2081 2123 
6 1033 1049 1105 2048 2064 2120 
6 1050 1034 1106 2065 2049 2121 
6 1114 1027 1132 2129 2042 2147 
6 1028 1115 1133 2043 2130 2148 
6 180 10 1079 377 91 2094 
6 249 35 1085 446 116 2100 
6 41 262 1086 122 459 2101 
6 265 42 1078 462 123 2093 
6 46 276 1050 127 473 2065 
6 46 1050 1073 127 2065 2088 
6 273 47 1049 470 128 2064 
6 1049 47 1071 2064 128 2086 
6 9 183 278 90 380 475 
6 44 271 270 125 468 467 
6 271 45 1072 468 126 2087 
6 48 278 1070 129 475 2085 
6 278 183 1017 475 380 2032 
6 1017 183 1065 2032 380 2080 
6 270 271 1018 467 468 2033 
6 270 1018 1066 467 2033 2081 
6 1018 271 1072 2033 468 2087 
6 278 1017 1070 475 2032 2085 
6 1001 1017 1065 2016 2032 2080 
6 1017 1001 1071 2032 2016 2086 
6 1018 1002 1066 2033 2017 2081 
6 1002 1018 1073 2017 2033 2088 
6 1150 1190 1205 2165 2205 2220 
6 1191 1151 1204 2206 2166 2219 
6 1183 1167 1250 2198 2182 2265 
6 1144 1183 1250 2159 2198 2265 
6 1190 1150 1192 2205 2165 2207 
6 1151 1191 1193 2166 2206 2208 
6 1180 1144 1250 2195 2159 2265 
6 1166 275 1210 2181 472 2225 
6 1175 1158 1187 2190 2173 2202 
6 1159 1174 1188 2174 2189 2203 
6 1176 1161 1189 2191 2176 2204 
6 1170 178 1199 2185 375 2214 
6 287 1171 1200 484 2186 2215 
6 1137 1173 1233 2152 2188 2248 
6 1151 1170 1199 2166 2185 2214 
6 1171 1150 1200 2186 2165 2215 
6 1155 1226 1227 2170 2241 2242 
6 1174 1142 1188 2189 2157 2203 
6 1145 1175 1187 2160 2190 2202 
6 1143 1176 1189 2158 2191 2204 
6 1144 1180 1206 2159 2195 2221 
6 1234 1185 1252 2249 2200 2267 
6 1184 1235 1251 2199 2250 2266 
6 1166 1180 1250 2181 2195 2265 
6 1174 1159 1244 2189 2174 2259 
6 1167 1209 1228 2182 2224 2243 
6 1161 1176 1245 2176 2191 2260 
6 1150 1171 1192 2165 2186 2207 
6 1170 1151 1193 2185 2166 2208 
6 1197 283 1230 2212 480 2245 
6 282 1198 1229 479 2213 2244 
6 1177 1144 1206 2192 2159 2221 
6 1173 1137 1232 2188 2152 2247 
6 1148 1181 1198 2163 2196 2213 
6 1182 1149 1197 2197 2164 2212 
6 1209 274 1228 2224 471 2243 
6 1139 1185 1234 2154 2200 2249 
6 1184 1138 1235 2199 2153 2250 
6 1180 1136 1206 2195 2151 2221 
6 275 1166 1228 472 2181 2243 
6 1137 1188 1232 2152 2203 2247 
6 1187 1136 1231 2202 2151 2246 
6 1232 1188 1249 2247 2203 2264 
6 1187 1231 1248 2202 2246 2263 
6 1191 1152 1208 2206 2167 2223 
6 1153 1190 1207 2168 2205 2222 
6 1206 1136 1270 2221 2151 2285 
6 60 306 1244 141 503 2259 
6 307 308 1245 504 505 2260 
6 1199 178 1247 2214 375 2262 
6 287 1200 1246 484 2215 2261 
6 308 1237 1245 505 2252 2260 
6 1238 60 1244 2253 141 2259 
6 1146 1140 1211 2161 2155 2226 
6 1141 1147 1212 2156 2162 2227 
6 1196 1155 1227 2211 2170 2242 
6 1140 1146 1254 2155 2161 2269 
6 1147 1141 1255 2162 2156 2270 
6 1153 1234 1252 2168 2249 2267 
6 1235 1152 1251 2250 2167 2266 
6 47 273 1198 128 470 2213 
6 276 46 1197 473 127 2212 
6 1140 1214 1222 2155 2229 2237 
6 1215 1141 1223 2230 2156 2238 
6 1158 1177 1206 2173 2192 2221 
6 52 289 1192 133 486 2207 
6 301 59 1193 498 140 2208 
6 1158 1175 1275 2173 2190 2290 
6 1177 1158 1276 2192 2173 2291 
6 1190 1153 1205 2205 2168 2220 
6 1152 1191 1204 2167 2206 2219 
6 54 294 1216 135 491 2231 
6 299 57 1218 496 138 2233 
6 1154 1168 1214 2169 2183 2229 
6 1169 1155 1215 2184 2170 2230 
6 1144 1177 1203 2159 2192 2218 
6 1226 1143 1227 2241 2158 2242 
6 1183 1144 1203 2198 2159 2218 
6 1148 1198 1209 2163 2213 2224 
6 46 283 1197 127 480 2212 
6 282 47 1198 479 128 2213 
6 1159 1188 1253 2174 2203 2268 
6 1136 1180 1240 2151 2195 2255 
6 1168 1154 1213 2183 2169 2228 
6 1193 59 1279 2208 140 2294 
6 52 1192 1280 133 2207 2295 
6 1197 1149 1210 2212 2164 2225 
6 1151 1199 1201 2166 2214 2216 
6 1200 1150 1202 2215 2165 2217 
6 1196 1154 1241 2211 2169 2256 
6 1155 1196 1242 2170 2211 2257 
6 1160 1186 1266 2175 2201 2281 
6 1214 1178 1241 2229 2193 2256 
6 1179 1215 1242 2194 2230 2257 
6 1155 1169 1226 2170 2184 2241 
6 1154 1214 1241 2169 2229 2256 
6 1215 1155 1242 2230 2170 2257 
6 1180 1166 1261 2195 2181 2276 
6 1164 1207 1256 2179 2222 2271 
6 1208 1165 1257 2223 2180 2272 
6 1137 1183 1253 2152 2198 2268 
6 302 1191 1208 499 2206 2223 
6 1190 290 1207 2205 487 2222 
6 1143 1189 1213 2158 2204 2228 
6 1149 1240 1261 2164 2255 2276 
6 1167 1183 1258 2182 2198 2273 
6 1188 1137 1253 2203 2152 2268 
6 1183 1137 1233 2198 2152 2248 
6 1151 1201 1204 2166 2216 2219 
6 1202 1150 1205 2217 2165 2220 
6 1186 1160 1265 2201 2175 2280 
6 1221 1172 1278 2236 2187 2293 
6 1173 1220 1277 2188 2235 2292 
6 1138 1184 1266 2153 2199 2281 
6 1185 1139 1267 2200 2154 2282 
6 1240 1180 1261 2255 2195 2276 
6 275 276 1210 472 473 2225 
6 273 274 1209 470 471 2224 
6 1231 1136 1240 2246 2151 2255 
6 1142 1174 1263 2157 2189 2278 
6 1175 1145 1264 2190 2160 2279 
6 1176 1143 1265 2191 2158 2280 
6 1189 1161 1267 2204 2176 2282 
6 1266 1186 1273 2281 2201 2288 
6 59 305 1279 140 502 2294 
6 288 52 1280 485 133 2295 
6 1186 1143 1226 2201 2158 2241 
6 1153 1207 1234 2168 2222 2249 
6 1208 1152 1235 2223 2167 2250 
6 1154 1196 1227 2169 2211 2242 
6 1188 1142 1249 2203 2157 2264 
6 1145 1187 1248 2160 2202 2263 
6 289 290 1190 486 487 2205 
6 302 301 1191 499 498 2206 
6 1207 291 1256 2222 488 2271 
6 303 1208 1257 500 2223 2272 
6 296 297 1196 493 494 2211 
6 1189 1267 1274 2204 2282 2289 
6 1220 176 1277 2235 373 2292 
6 285 1221 1278 482 2236 2293 
6 1267 1139 1274 2282 2154 2289 
6 1187 1158 1270 2202 2173 2285 
6 1172 1231 1240 2187 2246 2255 
6 1184 1142 1263 2199 2157 2278 
6 1145 1185 1264 2160 2200 2279 
6 1143 1186 1265 2158 2201 2280 
6 1138 1266 1273 2153 2281 2288 
6 1145 1202 1205 2160 2217 2220 
6 1201 1142 1204 2216 2157 2219 
6 1263 1160 1266 2278 2175 2281 
6 1161 1264 1267 2176 2279 2282 
6 296 1196 1241 493 2211 2256 
6 1196 297 1242 2211 494 2257 
6 1207 1164 1234 2222 2179 2249 
6 1165 1208 1235 2180 2223 2250 
6 178 177 1247 375 374 2262 
6 286 287 1246 483 484 2261 
6 1233 1173 1259 2248 2188 2274 
6 1159 1203 1238 2174 2218 2253 
6 1142 1184 1251 2157 2199 2266 
6 1185 1145 1252 2200 2160 2267 
6 1214 1140 1254 2229 2155 2269 
6 1141 1215 1255 2156 2230 2270 
6 1169 1269 1273 2184 2284 2288 
6 1214 1168 1222 2229 2183 2237 
6 1169 1215 1223 2184 2230 2238 
6 306 1236 1244 503 2251 2259 
6 1239 307 1245 2254 504 2260 
6 1194 1146 1217 2209 2161 2232 
6 1147 1195 1219 2162 2210 2234 
6 1268 1168 1274 2283 2183 2289 
6 1203 1177 1238 2218 2192 2253 
6 1199 1156 1201 2214 2171 2216 
6 1157 1200 1202 2172 2215 2217 
6 1136 1187 1270 2151 2202 2285 
6 289 1190 1192 486 2205 2207 
6 1191 301 1193 2206 498 2208 
6 1183 1203 1253 2198 2218 2268 
6 1143 1213 1227 2158 2228 2242 
6 290 291 1207 487 488 2222 
6 303 302 1208 500 499 2223 
6 1156 1232 1249 2171 2247 2264 
6 1231 1157 1248 2246 2172 2263 
6 1222 1168 1268 2237 2183 2283 
6 1169 1223 1269 2184 2238 2284 
6 1145 1205 1252 2160 2220 2267 
6 1204 1142 1251 2219 2157 2266 
6 1243 1158 1275 2258 2173 2290 
6 1158 1243 1276 2173 2258 2291 
6 1213 1154 1227 2228 2169 2242 
6 1216 294 1217 2231 491 2232 
6 299 1218 1219 496 2233 2234 
6 1182 1197 1230 2197 2212 2245 
6 1198 1181 1229 2213 2196 2244 
6 1167 1228 1250 2182 2243 2265 
6 177 176 1220 374 373 2235 
6 285 286 1221 482 483 2236 
6 1237 1161 1245 2252 2176 2260 
6 1159 1238 1244 2174 2253 2259 
6 1236 1160 1263 2251 2175 2278 
6 1161 1237 1264 2176 2252 2279 
6 1160 1239 1265 2175 2254 2280 
6 1236 1174 1244 2251 2189 2259 
6 1176 1239 1245 2191 2254 2260 
6 1171 287 1224 2186 484 2239 
6 178 1170 1225 375 2185 2240 
6 1148 1209 1258 2163 2224 2273 
6 274 275 1228 471 472 2243 
6 1184 1263 1266 2199 2278 2281 
6 1264 1185 1267 2279 2200 2282 
6 1228 1166 1250 2243 2181 2265 
6 1146 1194 1254 2161 2209 2269 
6 1195 1147 1255 2210 2162 2270 
6 1148 1233 1259 2163 2248 2274 
6 1172 1221 1231 2187 2236 2246 
6 1220 1173 1232 2235 2188 2247 
6 1209 1167 1258 2224 2182 2273 
6 1203 1159 1253 2218 2174 2268 
6 1221 1157 1231 2236 2172 2246 
6 1156 1220 1232 2171 2235 2247 
6 308 60 1243 505 141 2258 
6 1202 1145 1248 2217 2160 2263 
6 1142 1201 1249 2157 2216 2264 
6 1192 1171 1280 2207 2186 2295 
6 1170 1193 1279 2185 2208 2294 
6 295 296 1241 492 493 2256 
6 297 298 1242 494 495 2257 
6 1181 1148 1259 2196 2163 2274 
6 1149 1182 1260 2164 2197 2275 
6 1181 175 1229 2196 372 2244 
6 284 1182 1230 481 2197 2245 
6 1162 1216 1217 2177 2231 2232 
6 1218 1163 1219 2233 2178 2234 
6 291 292 1256 488 489 2271 
6 304 303 1257 501 500 2272 
6 1168 1213 1274 2183 2228 2289 
6 1201 1156 1249 2216 2171 2264 
6 1157 1202 1248 2172 2217 2263 
6 1269 1138 1273 2284 2153 2288 
6 1158 1206 1270 2173 2221 2285 
6 1226 1169 1273 2241 2184 2288 
6 1139 1268 1274 2154 2283 2289 
6 284 285 1278 481 482 2293 
6 176 175 1277 373 372 2292 
6 1210 1149 1261 2225 2164 2276 
6 51 288 1224 132 485 2239 
6 305 7 1225 502 88 2240 
6 1233 1148 1258 2248 2163 2273 
6 1198 273 1209 2213 470 2224 
6 1160 1236 1262 2175 2251 2277 
6 1239 1160 1262 2254 2175 2277 
6 1178 295 1241 2193 492 2256 
6 298 1179 1242 495 2194 2257 
6 276 1197 1210 473 2212 2225 
6 1152 1204 1251 2167 2219 2266 
6 1205 1153 1252 2220 2168 2267 
6 1213 1189 1274 2228 2204 2289 
6 1140 1222 1271 2155 2237 2286 
6 1223 1141 1272 2238 2156 2287 
6 8 282 1229 89 479 2244 
6 283 50 1230 480 131 2245 
6 1183 1233 1258 2198 2248 2273 
6 1178 1214 1254 2193 2229 2269 
6 1215 1179 1255 2230 2194 2270 
6 1200 1157 1246 2215 2172 2261 
6 1156 1199 1247 2171 2214 2262 
6 177 1220 1247 374 2235 2262 
6 1221 286 1246 2236 483 2261 
6 306 307 1262 503 504 2277 
6 175 1181 1277 372 2196 2292 
6 1182 284 1278 2197 481 2293 
6 1157 1221 1246 2172 2236 2261 
6 1220 1156 1247 2235 2171 2262 
6 1186 1226 1273 2201 2241 2288 
6 1240 1149 1260 2255 2164 2275 
6 1181 1259 1277 2196 2274 2292 
6 1260 1182 1278 2275 2197 2293 
6 1166 1210 1261 2181 2225 2276 
6 295 1178 1194 492 2193 2209 
6 1179 298 1195 2194 495 2210 
6 1224 288 1280 2239 485 2295 
6 305 1225 1279 502 2240 2294 
6 1237 308 1275 2252 505 2290 
6 60 1238 1276 141 2253 2291 
6 1164 1256 1271 2179 2271 2286 
6 1257 1165 1272 2272 2180 2287 
6 1236 306 1262 2251 503 2277 
6 307 1239 1262 504 2254 2277 
6 56 299 1219 137 496 2234 
6 294 55 1217 491 136 2232 
6 1172 1240 1260 2187 2255 2275 
6 1222 1164 1271 2237 2179 2286 
6 1165 1223 1272 2180 2238 2287 
6 1139 1234 1268 2154 2249 2283 
6 1235 1138 1269 2250 2153 2284 
6 1174 1236 1263 2189 2251 2278 
6 1237 1175 1264 2252 2190 2279 
6 1239 1176 1265 2254 2191 2280 
6 1234 1164 1268 2249 2179 2283 
6 1165 1235 1269 2180 2250 2284 
6 1175 1237 1275 2190 2252 2290 
6 1238 1177 1276 2253 2192 2291 
6 1256 1211 1271 2271 2226 2286 
6 1212 1257 1272 2227 2272 2287 
6 1211 1140 1271 2226 2155 2286 
6 1141 1212 1272 2156 2227 2287 
6 308 1243 1275 505 2258 2290 
6 1243 60 1276 2258 141 2291 
6 1164 1222 1268 2179 2237 2283 
6 1223 1165 1269 2238 2180 2284 
6 1225 1170 1279 2240 2185 2294 
6 1171 1224 1280 2186 2239 2295 
6 292 1211 1256 489 2226 2271 
6 1212 304 1257 2227 501 2272 
6 1194 1178 1254 2209 2193 2269 
6 1179 1195 1255 2194 2210 2270 
6 1259 1173 1277 2274 2188 2292 
6 1172 1260 1278 2187 2275 2293 
6 7 178 1225 88 375 2240 
6 175 8 1229 372 89 2244 
6 50 284 1230 131 481 2245 
6 287 51 1224 484 132 2239 
6 55 295 1194 136 492 2209 
6 55 1194 1217 136 2209 2232 
6 298 56 1195 495 137 2210 
6 1195 56 1219 2210 137 2234 
6 53 293 292 134 490 489 
6 293 54 1216 490 135 2231 
6 57 300 1218 138 497 2233 
6 58 304 300 139 501 497 
6 292 293 1162 489 490 2177 
6 292 1162 1211 489 2177 2226 
6 1162 293 1216 2177 490 2231 
6 300 304 1163 497 501 2178 
6 300 1163 1218 497 2178 2233 
6 1163 304 1212 2178 501 2227 
6 1162 1146 1211 2177 2161 2226 
6 1146 1162 1217 2161 2177 2232 
6 1147 1163 1212 2162 2178 2227 
6 1163 1147 1219 2178 2162 2234 
6 1374 1333 1389 2389 2348 2404 
6 1295 1335 1350 2310 2350 2365 
6 1296 1336 1349 2311 2351 2364 
6 1328 1312 1394 2343 2327 2409 
6 1289 1328 1394 2304 2343 2409 
6 1335 1295 1337 2350 2310 2352 
6 1336 1296 1338 2351 2311 2353 
6 1325 1289 1394 2340 2304 2409 
6 1311 170 1355 2326 367 2370 
6 1305 1319 1333 2320 2334 2348 
6 1320 1303 1332 2335 2318 2347 
6 1321 1306 1334 2336 2321 2349 
6 304 1315 1344 501 2330 2359 
6 326 1316 1345 523 2331 2360 
6 1297 1374 1389 2312 2389 2404 
6 1297 1336 1351 2312 2351 2366 
6 1315 1295 1344 2330 2310 2359 
6 1316 1296 1345 2331 2311 2360 
6 1358 1300 1372 2373 2315 2387 
6 1319 1287 1333 2334 2302 2348 
6 1290 1320 1332 2305 2335 2347 
6 1288 1321 1334 2303 2336 2349 
6 1283 1333 1374 2298 2348 2389 
6 1289 1325 1352 2304 2340 2367 
6 1283 1374 1378 2298 2389 2393 
6 1379 1330 1395 2394 2345 2410 
6 1311 1325 1394 2326 2340 2409 
6 1319 1305 1390 2334 2320 2405 
6 1312 1354 1373 2327 2369 2388 
6 1306 1321 1391 2321 2336 2406 
6 1295 1315 1337 2310 2330 2352 
6 1296 1316 1338 2311 2331 2353 
6 332 1343 1375 529 2358 2390 
6 1342 309 1376 2357 506 2391 
6 1322 1289 1352 2337 2304 2367 
6 1374 1318 1378 2389 2333 2393 
6 1293 1327 1343 2308 2342 2358 
6 1326 1294 1342 2341 2309 2357 
6 1354 171 1373 2369 368 2388 
6 1284 1330 1379 2299 2345 2394 
6 1325 1281 1352 2340 2296 2367 
6 170 1311 1373 367 2326 2388 
6 1332 1281 1377 2347 2296 2392 
6 1332 1377 1393 2347 2392 2408 
6 1298 1335 1353 2313 2350 2368 
6 1352 1281 1414 2367 2296 2429 
6 71 333 1390 152 530 2405 
6 334 335 1391 531 532 2406 
6 304 1344 1392 501 2359 2407 
6 335 1381 1391 532 2396 2406 
6 1382 71 1390 2397 152 2405 
6 1285 1291 1356 2300 2306 2371 
6 1292 1286 1357 2307 2301 2372 
6 1300 1341 1372 2315 2356 2387 
6 1291 1285 1397 2306 2300 2412 
6 1286 1292 1398 2301 2307 2413 
6 1298 1379 1395 2313 2394 2410 
6 4 172 1343 85 369 2358 
6 169 5 1342 366 86 2357 
6 1359 1285 1366 2374 2300 2381 
6 1286 1360 1367 2301 2375 2382 
6 1303 1322 1352 2318 2337 2367 
6 69 331 1338 150 528 2353 
6 61 311 1337 142 508 2352 
6 1329 1282 1384 2344 2297 2399 
6 1303 1320 1420 2318 2335 2435 
6 1322 1303 1421 2337 2318 2436 
6 1335 1298 1350 2350 2313 2365 
6 1336 1297 1349 2351 2312 2364 
6 321 66 1361 518 147 2376 
6 63 316 1363 144 513 2378 
6 1336 330 1351 2351 527 2366 
6 1313 1299 1359 2328 2314 2374 
6 1300 1314 1360 2315 2329 2375 
6 1318 1351 1422 2333 2366 2437 
6 326 1345 1403 523 2360 2418 
6 1289 1322 1348 2304 2337 2363 
6 1328 1289 1348 2343 2304 2363 
6 1293 1343 1354 2308 2358 2369 
6 5 309 1342 86 506 2357 
6 332 4 1343 529 85 2358 
6 1305 1333 1396 2320 2348 2411 
6 1281 1325 1385 2296 2340 2400 
6 1314 1300 1358 2329 2315 2373 
6 61 1337 1424 142 2352 2439 
6 69 1338 1425 150 2353 2440 
6 1342 1294 1355 2357 2309 2370 
6 1344 1295 1346 2359 2310 2361 
6 1345 1296 1347 2360 2311 2362 
6 1299 1341 1386 2314 2356 2401 
6 1341 1300 1387 2356 2315 2402 
6 1304 1331 1411 2319 2346 2426 
6 1288 1358 1372 2303 2373 2387 
6 1323 1359 1386 2338 2374 2401 
6 1360 1324 1387 2375 2339 2402 
6 1299 1313 1371 2314 2328 2386 
6 1329 1384 1401 2344 2399 2416 
6 1359 1299 1386 2374 2314 2401 
6 1300 1360 1387 2315 2375 2402 
6 1325 1311 1406 2340 2326 2421 
6 1310 1353 1400 2325 2368 2415 
6 1283 1328 1396 2298 2343 2411 
6 1351 329 1422 2366 526 2437 
6 1335 312 1353 2350 509 2368 
6 1288 1334 1358 2303 2349 2373 
6 1294 1385 1406 2309 2400 2421 
6 1312 1328 1402 2327 2343 2417 
6 1333 1283 1396 2348 2298 2411 
6 1328 1283 1378 2343 2298 2393 
6 1347 1296 1349 2362 2311 2364 
6 1346 1295 1350 2361 2310 2365 
6 1331 1304 1410 2346 2319 2425 
6 1365 1317 1423 2380 2332 2438 
6 1282 1329 1411 2297 2344 2426 
6 1330 1284 1412 2345 2299 2427 
6 1385 1325 1406 2400 2340 2421 
6 170 169 1355 367 366 2370 
6 172 171 1354 369 368 2369 
6 1333 1287 1389 2348 2302 2404 
6 1377 1281 1385 2392 2296 2400 
6 1287 1319 1409 2302 2334 2424 
6 1320 1290 1408 2335 2305 2423 
6 1321 1288 1410 2336 2303 2425 
6 1334 1306 1412 2349 2321 2427 
6 1411 1331 1418 2426 2346 2433 
6 310 61 1424 507 142 2439 
6 327 69 1425 524 150 2440 
6 1331 1288 1371 2346 2303 2386 
6 1298 1353 1379 2313 2368 2394 
6 1341 1299 1372 2356 2314 2387 
6 1290 1332 1393 2305 2347 2408 
6 311 312 1335 508 509 2350 
6 331 330 1336 528 527 2351 
6 1370 1309 1399 2385 2324 2414 
6 1353 313 1400 2368 510 2415 
6 1297 1351 1374 2312 2366 2389 
6 318 319 1341 515 516 2356 
6 1334 1412 1419 2349 2427 2434 
6 302 1365 1423 499 2380 2438 
6 1412 1284 1419 2427 2299 2434 
6 1332 1303 1414 2347 2318 2429 
6 1317 1377 1385 2332 2392 2400 
6 1329 1287 1409 2344 2302 2424 
6 1290 1330 1408 2305 2345 2423 
6 1288 1331 1410 2303 2346 2425 
6 1282 1411 1418 2297 2426 2433 
6 1290 1346 1350 2305 2361 2365 
6 1287 1347 1349 2302 2362 2364 
6 1409 1304 1411 2424 2319 2426 
6 1306 1408 1412 2321 2423 2427 
6 1341 319 1386 2356 516 2401 
6 318 1341 1387 515 2356 2402 
6 1353 1310 1379 2368 2325 2394 
6 303 304 1392 500 501 2407 
6 1378 1318 1405 2393 2333 2420 
6 1305 1348 1382 2320 2363 2397 
6 1330 1290 1395 2345 2305 2410 
6 1285 1359 1397 2300 2374 2412 
6 1360 1286 1398 2375 2301 2413 
6 1313 1359 1366 2328 2374 2381 
6 1360 1314 1367 2375 2329 2382 
6 333 1380 1390 530 2395 2405 
6 1383 334 1391 2398 531 2406 
6 1287 1329 1401 2302 2344 2416 
6 1291 1339 1362 2306 2354 2377 
6 1340 1292 1364 2355 2307 2379 
6 1413 1314 1419 2428 2329 2434 
6 1348 1322 1382 2363 2337 2397 
6 1371 1288 1372 2386 2303 2387 
6 1301 1344 1346 2316 2359 2361 
6 1302 1345 1347 2317 2360 2362 
6 1281 1332 1414 2296 2347 2429 
6 324 1370 1399 521 2385 2414 
6 1313 1415 1418 2328 2430 2433 
6 330 329 1351 527 526 2366 
6 311 1335 1337 508 2350 2352 
6 331 1336 1338 528 2351 2353 
6 1309 1370 1384 2324 2385 2399 
6 1351 1318 1374 2366 2333 2389 
6 1328 1348 1396 2343 2363 2411 
6 312 313 1353 509 510 2368 
6 1377 1301 1393 2392 2316 2408 
6 1287 1349 1389 2302 2364 2404 
6 1367 1314 1413 2382 2329 2428 
6 1290 1350 1395 2305 2365 2410 
6 325 326 1403 522 523 2418 
6 1388 1303 1420 2403 2318 2435 
6 1303 1388 1421 2318 2403 2436 
6 1313 1366 1415 2328 2381 2430 
6 1299 1371 1372 2314 2386 2387 
6 321 1361 1362 518 2376 2377 
6 1363 316 1364 2378 513 2379 
6 1370 1302 1384 2385 2317 2399 
6 1343 1327 1375 2358 2342 2390 
6 1326 1342 1376 2341 2357 2391 
6 1312 1373 1394 2327 2388 2409 
6 302 303 1365 499 500 2380 
6 1381 1306 1391 2396 2321 2406 
6 1305 1382 1390 2320 2397 2405 
6 1380 1304 1409 2395 2319 2424 
6 1306 1381 1408 2321 2396 2423 
6 1304 1383 1410 2319 2398 2425 
6 324 325 1370 521 522 2385 
6 1380 1319 1390 2395 2334 2405 
6 1321 1383 1391 2336 2398 2406 
6 1315 304 1368 2330 501 2383 
6 1316 326 1369 2331 523 2384 
6 1293 1354 1402 2308 2369 2417 
6 171 170 1373 368 367 2388 
6 1408 1330 1412 2423 2345 2427 
6 1329 1409 1411 2344 2424 2426 
6 1373 1311 1394 2388 2326 2409 
6 1384 1302 1401 2399 2317 2416 
6 1339 1291 1397 2354 2306 2412 
6 1292 1340 1398 2307 2355 2413 
6 1293 1378 1405 2308 2393 2420 
6 1317 1365 1377 2332 2380 2392 
6 1354 1312 1402 2369 2327 2417 
6 1348 1305 1396 2363 2320 2411 
6 1365 1301 1377 2380 2316 2392 
6 335 71 1388 532 152 2403 
6 1346 1290 1393 2361 2305 2408 
6 1347 1287 1401 2362 2302 2416 
6 1337 1315 1424 2352 2330 2439 
6 1338 1316 1425 2353 2331 2440 
6 319 320 1386 516 517 2401 
6 317 318 1387 514 515 2402 
6 1327 1293 1405 2342 2308 2420 
6 1294 1326 1404 2309 2341 2419 
6 1327 328 1375 2342 525 2390 
6 301 1326 1376 498 2341 2391 
6 1361 1307 1362 2376 2322 2377 
6 1308 1363 1364 2323 2378 2379 
6 323 324 1399 520 521 2414 
6 313 314 1400 510 511 2415 
6 1314 1358 1419 2329 2373 2434 
6 1301 1346 1393 2316 2361 2408 
6 1302 1347 1401 2317 2362 2416 
6 1303 1352 1414 2318 2367 2429 
6 1371 1313 1418 2386 2328 2433 
6 1349 1297 1389 2364 2312 2404 
6 1284 1413 1419 2299 2428 2434 
6 301 302 1423 498 499 2438 
6 329 328 1422 526 525 2437 
6 1415 1282 1418 2430 2297 2433 
6 1355 1294 1406 2370 2309 2421 
6 58 310 1368 139 507 2383 
6 68 327 1369 149 524 2384 
6 1345 1302 1403 2360 2317 2418 
6 1378 1293 1402 2393 2308 2417 
6 1343 172 1354 2358 369 2369 
6 1304 1380 1407 2319 2395 2422 
6 1383 1304 1407 2398 2319 2422 
6 320 1323 1386 517 2338 2401 
6 1324 317 1387 2339 514 2402 
6 169 1342 1355 366 2357 2370 
6 1350 1298 1395 2365 2313 2410 
6 1358 1334 1419 2373 2349 2434 
6 1366 1285 1416 2381 2300 2431 
6 1286 1367 1417 2301 2382 2432 
6 70 332 1375 151 529 2390 
6 309 59 1376 506 140 2391 
6 1302 1370 1403 2317 2385 2418 
6 1328 1378 1402 2343 2393 2417 
6 1359 1323 1397 2374 2338 2412 
6 1324 1360 1398 2339 2375 2413 
6 1344 1301 1392 2359 2316 2407 
6 1365 303 1392 2380 500 2407 
6 333 334 1407 530 531 2422 
6 328 1327 1422 525 2342 2437 
6 1326 301 1423 2341 498 2438 
6 1301 1365 1392 2316 2380 2407 
6 1331 1371 1418 2346 2386 2433 
6 1385 1294 1404 2400 2309 2419 
6 1327 1405 1422 2342 2420 2437 
6 1404 1326 1423 2419 2341 2438 
6 1311 1355 1406 2326 2370 2421 
6 1323 320 1339 2338 517 2354 
6 317 1324 1340 514 2339 2355 
6 1368 310 1424 2383 507 2439 
6 1369 327 1425 2384 524 2440 
6 1381 335 1420 2396 532 2435 
6 71 1382 1421 152 2397 2436 
6 1399 1309 1416 2414 2324 2431 
6 1310 1400 1417 2325 2415 2432 
6 1370 325 1403 2385 522 2418 
6 1380 333 1407 2395 530 2422 
6 334 1383 1407 531 2398 2422 
6 316 64 1364 513 145 2379 
6 65 321 1362 146 518 2377 
6 1317 1385 1404 2332 2400 2419 
6 1384 1282 1415 2399 2297 2430 
6 1309 1366 1416 2324 2381 2431 
6 1367 1310 1417 2382 2325 2432 
6 1309 1384 1415 2324 2399 2430 
6 1284 1379 1413 2299 2394 2428 
6 1319 1380 1409 2334 2395 2424 
6 1381 1320 1408 2396 2335 2423 
6 1383 1321 1410 2398 2336 2425 
6 1379 1310 1413 2394 2325 2428 
6 1320 1381 1420 2335 2396 2435 
6 1382 1322 1421 2397 2337 2436 
6 1356 1399 1416 2371 2414 2431 
6 1400 1357 1417 2415 2372 2432 
6 1285 1356 1416 2300 2371 2431 
6 1357 1286 1417 2372 2301 2432 
6 335 1388 1420 532 2403 2435 
6 1388 71 1421 2403 152 2436 
6 1310 1367 1413 2325 2382 2428 
6 1366 1309 1415 2381 2324 2430 
6 1315 1368 1424 2330 2383 2439 
6 1316 1369 1425 2331 2384 2440 
6 1356 323 1399 2371 520 2414 
6 314 1357 1400 511 2372 2415 
6 1323 1339 1397 2338 2354 2412 
6 1340 1324 1398 2355 2339 2413 
6 1317 1404 1423 2332 2419 2438 
6 1405 1318 1422 2420 2333 2437 
6 304 58 1368 501 139 2383 
6 59 301 1376 140 498 2391 
6 64 317 1340 145 514 2355 
6 64 1340 1364 145 2355 2379 
6 320 65 1339 517 146 2354 
6 1339 65 1362 2354 146 2377 
6 326 68 1369 523 149 2384 
6 328 70 1375 525 151 2390 
6 62 315 314 143 512 511 
6 315 63 1363 512 144 2378 
6 66 322 1361 147 519 2376 
6 67 323 322 148 520 519 
6 314 315 1308 511 512 2323 
6 314 1308 1357 511 2323 2372 
6 1308 315 1363 2323 512 2378 
6 322 323 1307 519 520 2322 
6 322 1307 1361 519 2322 2376 
6 1307 323 1356 2322 520 2371 
6 1291 1307 1356 2306 2322 2371 
6 1307 1291 1362 2322 2306 2377 
6 1308 1292 1357 2323 2307 2372 
6 1292 1308 1364 2307 2323 2379 
6 1519 1478 1534 2534 2493 2549 
6 1440 1480 1495 2455 2495 2510 
6 1441 1481 1494 2456 2496 2509 
6 1473 1457 1539 2488 2472 2554 
6 1434 1473 1539 2449 2488 2554 
6 1480 1440 1483 2495 2455 2498 
6 1481 1441 1482 2496 2456 2497 
6 1470 1434 1539 2485 2449 2554 
6 1456 200 1500 2471 397 2515 
6 1449 1464 1478 2464 2479 2493 
6 1465 1448 1477 2480 2463 2492 
6 1466 1451 1479 2481 2466 2494 
6 163 1460 1489 360 2475 2504 
6 348 1461 1490 545 2476 2505 
6 1442 1519 1534 2457 2534 2549 
6 1442 1481 1496 2457 2496 2511 
6 1461 1441 1490 2476 2456 2505 
6 1460 1440 1489 2475 2455 2504 
6 1445 1516 1517 2460 2531 2532 
6 1464 1432 1478 2479 2447 2493 
6 1435 1465 1477 2450 2480 2492 
6 1433 1466 1479 2448 2481 2494 
6 1427 1478 1519 2442 2493 2534 
6 1434 1470 1497 2449 2485 2512 
6 1427 1519 1523 2442 2534 2538 
6 1524 1475 1540 2539 2490 2555 
6 1456 1470 1539 2471 2485 2554 
6 1464 1449 1535 2479 2464 2550 
6 1457 1499 1518 2472 2514 2533 
6 1451 1466 1536 2466 2481 2551 
6 1440 1460 1483 2455 2475 2498 
6 1441 1461 1482 2456 2476 2497 
6 1487 355 1521 2502 552 2536 
6 354 1488 1520 551 2503 2535 
6 1467 1434 1497 2482 2449 2512 
6 1519 1463 1523 2534 2478 2538 
6 1438 1471 1488 2453 2486 2503 
6 1472 1439 1487 2487 2454 2502 
6 1499 201 1518 2514 398 2533 
6 1429 1475 1524 2444 2490 2539 
6 1470 1426 1497 2485 2441 2512 
6 200 1456 1518 397 2471 2533 
6 1477 1426 1522 2492 2441 2537 
6 1477 1522 1538 2492 2537 2553 
6 1443 1480 1498 2458 2495 2513 
6 1497 1426 1559 2512 2441 2574 
6 80 356 1535 161 553 2550 
6 357 358 1536 554 555 2551 
6 163 1489 1537 360 2504 2552 
6 358 1526 1536 555 2541 2551 
6 1527 80 1535 2542 161 2550 
6 1436 1430 1501 2451 2445 2516 
6 1431 1437 1502 2446 2452 2517 
6 1486 1445 1517 2501 2460 2532 
6 1430 1436 1542 2445 2451 2557 
6 1437 1431 1543 2452 2446 2558 
6 1443 1524 1540 2458 2539 2555 
6 199 16 1487 396 97 2502 
6 17 202 1488 98 399 2503 
6 1430 1504 1511 2445 2519 2526 
6 1505 1431 1512 2520 2446 2527 
6 1448 1467 1497 2463 2482 2512 
6 70 328 1483 151 525 2498 
6 78 350 1482 159 547 2497 
6 1474 1428 1529 2489 2443 2544 
6 1448 1465 1565 2463 2480 2580 
6 1467 1448 1566 2482 2463 2581 
6 1480 1443 1495 2495 2458 2510 
6 1481 1442 1494 2496 2457 2509 
6 72 338 1506 153 535 2521 
6 343 75 1508 540 156 2523 
6 1481 351 1496 2496 548 2511 
6 1444 1458 1504 2459 2473 2519 
6 1459 1445 1505 2474 2460 2520 
6 1463 1496 1567 2478 2511 2582 
6 348 1490 1548 545 2505 2563 
6 1434 1467 1493 2449 2482 2508 
6 1516 1433 1517 2531 2448 2532 
6 1473 1434 1493 2488 2449 2508 
6 1438 1488 1499 2453 2503 2514 
6 354 17 1488 551 98 2503 
6 16 355 1487 97 552 2502 
6 1449 1478 1541 2464 2493 2556 
6 1426 1470 1530 2441 2485 2545 
6 1458 1444 1503 2473 2459 2518 
6 78 1482 1569 159 2497 2584 
6 70 1483 1570 151 2498 2585 
6 1487 1439 1500 2502 2454 2515 
6 1489 1440 1491 2504 2455 2506 
6 1490 1441 1492 2505 2456 2507 
6 1486 1444 1531 2501 2459 2546 
6 1445 1486 1532 2460 2501 2547 
6 1450 1476 1556 2465 2491 2571 
6 1504 1468 1531 2519 2483 2546 
6 1469 1505 1532 2484 2520 2547 
6 1445 1459 1516 2460 2474 2531 
6 1474 1529 1546 2489 2544 2561 
6 1444 1504 1531 2459 2519 2546 
6 1505 1445 1532 2520 2460 2547 
6 1470 1456 1551 2485 2471 2566 
6 1454 1498 1544 2469 2513 2559 
6 1427 1473 1541 2442 2488 2556 
6 1496 352 1567 2511 549 2582 
6 1480 329 1498 2495 526 2513 
6 1433 1479 1503 2448 2494 2518 
6 1439 1530 1551 2454 2545 2566 
6 1457 1473 1547 2472 2488 2562 
6 1478 1427 1541 2493 2442 2556 
6 1473 1427 1523 2488 2442 2538 
6 1492 1441 1494 2507 2456 2509 
6 1491 1440 1495 2506 2455 2510 
6 1476 1450 1555 2491 2465 2570 
6 1510 1462 1568 2525 2477 2583 
6 1428 1474 1556 2443 2489 2571 
6 1475 1429 1557 2490 2444 2572 
6 1530 1470 1551 2545 2485 2566 
6 200 199 1500 397 396 2515 
6 202 201 1499 399 398 2514 
6 1478 1432 1534 2493 2447 2549 
6 1522 1426 1530 2537 2441 2545 
6 1432 1464 1553 2447 2479 2568 
6 1465 1435 1554 2480 2450 2569 
6 1466 1433 1555 2481 2448 2570 
6 1479 1451 1557 2494 2466 2572 
6 1556 1476 1563 2571 2491 2578 
6 349 78 1569 546 159 2584 
6 336 70 1570 533 151 2585 
6 1476 1433 1516 2491 2448 2531 
6 1443 1498 1524 2458 2513 2539 
6 1444 1486 1517 2459 2501 2532 
6 1435 1477 1538 2450 2492 2553 
6 350 351 1481 547 548 2496 
6 328 329 1480 525 526 2495 
6 1515 1455 1545 2530 2470 2560 
6 1498 330 1544 2513 527 2559 
6 1442 1496 1519 2457 2511 2534 
6 340 341 1486 537 538 2501 
6 1479 1557 1564 2494 2572 2579 
6 165 1510 1568 362 2525 2583 
6 1557 1429 1564 2572 2444 2579 
6 1477 1448 1559 2492 2463 2574 
6 1462 1522 1530 2477 2537 2545 
6 1474 1432 1553 2489 2447 2568 
6 1435 1475 1554 2450 2490 2569 
6 1433 1476 1555 2448 2491 2570 
6 1428 1556 1563 2443 2571 2578 
6 1432 1492 1494 2447 2507 2509 
6 1435 1491 1495 2450 2506 2510 
6 1553 1450 1556 2568 2465 2571 
6 1451 1554 1557 2466 2569 2572 
6 340 1486 1531 537 2501 2546 
6 1486 341 1532 2501 538 2547 
6 1498 1454 1524 2513 2469 2539 
6 164 163 1537 361 360 2552 
6 1523 1463 1550 2538 2478 2565 
6 1449 1493 1527 2464 2508 2542 
6 1475 1435 1540 2490 2450 2555 
6 1504 1430 1542 2519 2445 2557 
6 1431 1505 1543 2446 2520 2558 
6 1504 1458 1511 2519 2473 2526 
6 1459 1505 1512 2474 2520 2527 
6 356 1525 1535 553 2540 2550 
6 1528 357 1536 2543 554 2551 
6 1432 1474 1546 2447 2489 2561 
6 1484 1436 1507 2499 2451 2522 
6 1437 1485 1509 2452 2500 2524 
6 1558 1458 1564 2573 2473 2579 
6 1493 1467 1527 2508 2482 2542 
6 1446 1489 1491 2461 2504 2506 
6 1447 1490 1492 2462 2505 2507 
6 1426 1477 1559 2441 2492 2574 
6 346 1515 1545 543 2530 2560 
6 1459 1560 1563 2474 2575 2578 
6 351 352 1496 548 549 2511 
6 328 1480 1483 525 2495 2498 
6 350 1481 1482 547 2496 2497 
6 1455 1515 1529 2470 2530 2544 
6 1496 1463 1519 2511 2478 2534 
6 1473 1493 1541 2488 2508 2556 
6 1433 1503 1517 2448 2518 2532 
6 329 330 1498 526 527 2513 
6 1522 1446 1538 2537 2461 2553 
6 1432 1494 1534 2447 2509 2549 
6 1511 1458 1558 2526 2473 2573 
6 1435 1495 1540 2450 2510 2555 
6 347 348 1548 544 545 2563 
6 1533 1448 1565 2548 2463 2580 
6 1448 1533 1566 2463 2548 2581 
6 1503 1444 1517 2518 2459 2532 
6 1459 1512 1560 2474 2527 2575 
6 1506 338 1507 2521 535 2522 
6 343 1508 1509 540 2523 2524 
6 1515 1447 1529 2530 2462 2544 
6 1472 1487 1521 2487 2502 2536 
6 1488 1471 1520 2503 2486 2535 
6 1457 1518 1539 2472 2533 2554 
6 165 164 1510 362 361 2525 
6 1526 1451 1536 2541 2466 2551 
6 1449 1527 1535 2464 2542 2550 
6 1525 1450 1553 2540 2465 2568 
6 1451 1526 1554 2466 2541 2569 
6 1450 1528 1555 2465 2543 2570 
6 346 347 1515 543 544 2530 
6 1525 1464 1535 2540 2479 2550 
6 1466 1528 1536 2481 2543 2551 
6 1461 348 1514 2476 545 2529 
6 1460 163 1513 2475 360 2528 
6 1438 1499 1547 2453 2514 2562 
6 201 200 1518 398 397 2533 
6 1474 1553 1556 2489 2568 2571 
6 1554 1475 1557 2569 2490 2572 
6 1518 1456 1539 2533 2471 2554 
6 1529 1447 1546 2544 2462 2561 
6 1436 1484 1542 2451 2499 2557 
6 1485 1437 1543 2500 2452 2558 
6 1438 1523 1550 2453 2538 2565 
6 1462 1510 1522 2477 2525 2537 
6 1499 1457 1547 2514 2472 2562 
6 1493 1449 1541 2508 2464 2556 
6 1510 1446 1522 2525 2461 2537 
6 358 80 1533 555 161 2548 
6 1491 1435 1538 2506 2450 2553 
6 1492 1432 1546 2507 2447 2561 
6 1482 1461 1569 2497 2476 2584 
6 1483 1460 1570 2498 2475 2585 
6 339 340 1531 536 537 2546 
6 341 342 1532 538 539 2547 
6 1471 1438 1550 2486 2453 2565 
6 1439 1472 1549 2454 2487 2564 
6 1471 353 1520 2486 550 2535 
6 166 1472 1521 363 2487 2536 
6 1452 1506 1507 2467 2521 2522 
6 1508 1453 1509 2523 2468 2524 
6 330 331 1544 527 528 2559 
6 345 346 1545 542 543 2560 
6 1458 1503 1564 2473 2518 2579 
6 1446 1491 1538 2461 2506 2553 
6 1447 1492 1546 2462 2507 2561 
6 1448 1497 1559 2463 2512 2574 
6 1516 1459 1563 2531 2474 2578 
6 1494 1442 1534 2509 2457 2549 
6 1429 1558 1564 2444 2573 2579 
6 352 353 1567 549 550 2582 
6 166 165 1568 363 362 2583 
6 1560 1428 1563 2575 2443 2578 
6 1500 1439 1551 2515 2454 2566 
6 2 336 1513 83 533 2528 
6 77 349 1514 158 546 2529 
6 1490 1447 1548 2505 2462 2563 
6 1523 1438 1547 2538 2453 2562 
6 1488 202 1499 2503 399 2514 
6 1450 1525 1552 2465 2540 2567 
6 1528 1450 1552 2543 2465 2567 
6 1468 339 1531 2483 536 2546 
6 342 1469 1532 539 2484 2547 
6 199 1487 1500 396 2502 2515 
6 1495 1443 1540 2510 2458 2555 
6 1503 1479 1564 2518 2494 2579 
6 1430 1511 1561 2445 2526 2576 
6 1512 1431 1562 2527 2446 2577 
6 355 0 1521 552 81 2536 
6 79 354 1520 160 551 2535 
6 1447 1515 1548 2462 2530 2563 
6 1473 1523 1547 2488 2538 2562 
6 1468 1504 1542 2483 2519 2557 
6 1505 1469 1543 2520 2484 2558 
6 1489 1446 1537 2504 2461 2552 
6 1510 164 1537 2525 361 2552 
6 356 357 1552 553 554 2567 
6 353 1471 1567 550 2486 2582 
6 1472 166 1568 2487 363 2583 
6 1446 1510 1537 2461 2525 2552 
6 1476 1516 1563 2491 2531 2578 
6 1530 1439 1549 2545 2454 2564 
6 1471 1550 1567 2486 2565 2582 
6 1549 1472 1568 2564 2487 2583 
6 1456 1500 1551 2471 2515 2566 
6 339 1468 1484 536 2483 2499 
6 1469 342 1485 2484 539 2500 
6 1513 336 1570 2528 533 2585 
6 1514 349 1569 2529 546 2584 
6 1526 358 1565 2541 555 2580 
6 80 1527 1566 161 2542 2581 
6 1454 1544 1561 2469 2559 2576 
6 1545 1455 1562 2560 2470 2577 
6 1515 347 1548 2530 544 2563 
6 1525 356 1552 2540 553 2567 
6 357 1528 1552 554 2543 2567 
6 74 343 1509 155 540 2524 
6 338 73 1507 535 154 2522 
6 1462 1530 1549 2477 2545 2564 
6 1529 1428 1560 2544 2443 2575 
6 1511 1454 1561 2526 2469 2576 
6 1455 1512 1562 2470 2527 2577 
6 1455 1529 1560 2470 2544 2575 
6 1429 1524 1558 2444 2539 2573 
6 1464 1525 1553 2479 2540 2568 
6 1526 1465 1554 2541 2480 2569 
6 1528 1466 1555 2543 2481 2570 
6 1524 1454 1558 2539 2469 2573 
6 1465 1526 1565 2480 2541 2580 
6 1527 1467 1566 2542 2482 2581 
6 1544 1501 1561 2559 2516 2576 
6 1502 1545 1562 2517 2560 2577 
6 1501 1430 1561 2516 2445 2576 
6 1431 1502 1562 2446 2517 2577 
6 358 1533 1565 555 2548 2580 
6 1533 80 1566 2548 161 2581 
6 1454 1511 1558 2469 2526 2573 
6 1512 1455 1560 2527 2470 2575 
6 1460 1513 1570 2475 2528 2585 
6 1461 1514 1569 2476 2529 2584 
6 331 1501 1544 528 2516 2559 
6 1502 345 1545 2517 542 2560 
6 1484 1468 1542 2499 2483 2557 
6 1469 1485 1543 2484 2500 2558 
6 1550 1463 1567 2565 2478 2582 
6 1462 1549 1568 2477 2564 2583 
6 0 166 1521 81 363 2536 
6 163 2 1513 360 83 2528 
6 73 339 1484 154 536 2499 
6 73 1484 1507 154 2499 2522 
6 342 74 1485 539 155 2500 
6 1485 74 1509 2500 155 2524 
6 348 77 1514 545 158 2529 
6 353 79 1520 550 160 2535 
6 69 337 331 150 534 528 
6 337 72 1506 534 153 2521 
6 75 344 1508 156 541 2523 
6 76 345 344 157 542 541 
6 331 337 1452 528 534 2467 
6 331 1452 1501 528 2467 2516 
6 1452 337 1506 2467 534 2521 
6 344 345 1453 541 542 2468 
6 344 1453 1508 541 2468 2523 
6 1453 345 1502 2468 542 2517 
6 1452 1436 1501 2467 2451 2516 
6 1436 1452 1507 2451 2467 2522 
6 1437 1453 1502 2452 2468 2517 
6 1453 1437 1509 2468 2452 2524 

CELL_TYPES 2380
13
13
13
13
13
13
13
13
13
13
13
13
13
13
13
13
13
13
13
13
13
13
13
13
13
13
13
13
13
13
13
13
13
13
13
13
13
13
13
13
13
13
13
13
13
13
13
13
13
13
13
13
13
13
13
13
13
13
13
13
13
13
13
13
13
13
13
13
13
13
13
13
13
13
13
13
13
13
13
13
13
13
13
13
13
13
13
13
13
13
13
13
13
13
13
13
13
13
13
13
13
13
13
13
13
13
13
13
13
13
13
13
13
13
13
13
13
13
13
13
13
13
13
13
13
13
13
13
13
13
13
13
13
13
13
13
13
13
13
13
13
13
13
13
13
13
13
13
13
13
13
13
13
13
13
13
13
13
13
13
13
13
13
13
13
13
13
13
13
13
13
13
13
13
13
13
13
13
13
13
13
13
13
13
13
13
13
13
13
13
13
13
13
13
13
13
13
13
13
13
13
13
13
13
13
13
13
13
13
13
13
13
13
13
13
13
13
13
13
13
13
13
13
13
13
13
13
13
13
13
13
13
13
13
13
13
13
13
13
13
13
13
13
13
13
13
13
13
13
13
13
13
13
13
13
13
13
13
13
13
13
13
13
13
13
13
13
13
13
13
13
13
13
13
13
13
13
13
13
13
13
13
13
13
13
13
13
13
13
13
13
13
13
13
13
13
13
13
13
13
13
13
13
13
13
13
13
13
13
13
13
13
13
13
13
13
13
13
13
13
13
13
13
13
13
13
13
13
13
13
13
13
13
13
13
13
13
13
13
13
13
13
13
13
13
13
13
13
13
13
13
13
13
13
13
13
13
13
13
13
13
13
13
13
13
13
13
13
13
13
13
13
13
13
13
13
13
13
13
13
13
13
13
13
13
13
13
13
13
13
13
13
13
13
13
13
13
13
13
13
13
13
13
13
13
13
13
13
13
13
13
13
13
13
13
13
13
13
13
13
13
13
13
13
13
13
13
13
13
13
13
13
13
13
13
13
13
13
13
13
13
13
13
13
13
13
13
13
13
13
13
13
13
13
13
13
13
13
13
13
13
13
13
13
13
13
13
13
13
13
13
13
13
13
13
13
13
13
13
13
13
13
13
13
13
13
13
13
13
13
13
13
13
13
13
13
13
13
13
13
13
13
13
13
13
13
13
13
13
13
13
13
13
13
13
13
13
13
13
13
13
13
13
13
13
13
13
13
13
13
13
13
13
13
13
13
13
13
13
13
13
13
13
13
13
13
13
13
13
13
13
13
13
13
13
13
13
13
13
13
13
13
13
13
13
13
13
13
13
13
13
13
13
13
13
13
13
13
13
13
13
13
13
13
13
13
13
13
13
13
13
13
13
13
13
13
13
13
13
13
13
13
13
13
13
13
13
13
13
13
13
13
13
13
13
13
13
13
13
13
13
13
13
13
13
13
13
13
13
13
13
13
13
13
13
13
13
13
13
13
13
13
13
13
13
13
13
13
13
13
13
13
13
13
13
13
13
13
13
13
13
13
13
13
13
13
13
13
13
13
13
13
13
13
13
13
13
13
13
13
13
13
13
13
13
13
13
13
13
13
13
13
13
13
13
13
13
13
13
13
13
13
13
13
13
13
13
13
13
13
13
13
13
13
13
13
13
13
13
13
13
13
13
13
13
13
13
13
13
13
13
13
13
13
13
13
13
13
13
13
13
13
13
13
13
13
13
13
13
13
13
13
13
13
13
13
13
13
13
13
13
13
13
13
13
13
13
13
13
13
13
13
13
13
13
13
13
13
13
13
13
13
13
13
13
13
13
13
13
13
13
13
13
13
13
13
13
13
13
13
13
13
13
13
13
13
13
13
13
13
13
13
13
13
13
13
13
13
13
13
13
13
13
13
13
13
13
13
13
13
13
13
13
13
13
13
13
13
13
13
13
13
13
13
13
13
13
13
13
13
13
13
13
13
13
13
13
13
13
13
13
13
13
13
13
13
13
13
13
13
13
13
13
13
13
13
13
13
13
13
13
13
13
13
13
13
13
13
13
13
13
13
13
13
13
13
13
13
13
13
13
13
13
13
13
13
13
13
13
13
13
13
13
13
13
13
13
13
13
13
13
13
13
13
13
13
13
13
13
13
13
13
13
13
13
13
13
13
13
13
13
13
13
13
13
13
13
13
13
13
13
13
13
13
13
13
13
13
13
13
13
13
13
13
13
13
13
13
13
13
13
13
13
13
13
13
13
13
13
13
13
13
13
13
13
13
13
13
13
13
13
13
13
13
13
13
13
13
13
13
13
13
13
13
13
13
13
13
13
13
13
13
13
13
13
13
13
13
13
13
13
13
13
13
13
13
13
13
13
13
13
13
13
13
13
13
13
13
13
13
13
13
13
13
13
13
13
13
13
13
13
13
13
13
13
13
13
13
13
13
13
13
13
13
13
13
13
13
13
13
13
13
13
13
13
13
13
13
13
13
13
13
13
13
13
13
13
13
13
13
13
13
13
13
13
13
13
13
13
13
13
13
13
13
13
13
13
13
13
13
13
13
13
13
13
13
13
13
13
13
13
13
13
13
13
13
13
13
13
13
13
13
13
13
13
13
13
13
13
13
13
13
13
13
13
13
13
13
13
13
13
13
13
13
13
13
13
13
13
13
13
13
13
13
13
13
13
13
13
13
13
13
13
13
13
13
13
13
13
13
13
13
13
13
13
13
13
13
13
13
13
13
13
13
13
13
13
13
13
13
13
13
13
13
13
13
13
13
13
13
13
13
13
13
13
13
13
13
13
13
13
13
13
13
13
13
13
13
13
13
13
13
13
13
13
13
13
13
13
13
13
13
13
13
13
13
13
13
13
13
13
13
13
13
13
13
13
13
13
13
13
13
13
13
13
13
13
13
13
13
13
13
13
13
13
13
13
13
13
13
13
13
13
13
13
13
13
13
13
13
13
13
13
13
13
13
13
13
13
13
13
13
13
13
13
13
13
13
13
13
13
13
13
13
13
13
13
13
13
13
13
13
13
13
13
13
13
13
13
13
13
13
13
13
13
13
13
13
13
13
13
13
13
13
13
13
13
13
13
13
13
13
13
13
13
13
13
13
13
13
13
13
13
13
13
13
13
13
13
13
13
13
13
13
13
13
13
13
13
13
13
13
13
13
13
13
13
13
13
13
13
13
13
13
13
13
13
13
13
13
13
13
13
13
13
13
13
13
13
13
13
13
13
13
13
13
13
13
13
13
13
13
13
13
13
13
13
13
13
13
13
13
13
13
13
13
13
13
13
13
13
13
13
13
13
13
13
13
13
13
13
13
13
13
13
13
13
13
13
13
13
13
13
13
13
13
13
13
13
13
13
13
13
13
13
13
13
13
13
13
13
13
13
13
13
13
13
13
13
13
13
13
13
13
13
13
13
13
13
13
13
13
13
13
13
13
13
13
13
13
13
13
13
13
13
13
13
13
13
13
13
13
13
13
13
13
13
13
13
13
13
13
13
13
13
13
13
13
13
13
13
13
13
13
13
13
13
13
13
13
13
13
13
13
13
13
13
13
13
13
13
13
13
13
13
13
13
13
13
13
13
13
13
13
13
13
13
13
13
13
13
13
13
13
13
13
13
13
13
13
13
13
13
13
13
13
13
13
13
13
13
13
13
13
13
13
13
13
13
13
13
13
13
13
13
13
13
13
13
13
13
13
13
13
13
13
13
13
13
13
13
13
13
13
13
13
13
13
13
13
13
13
13
13
13
13
13
13
13
13
13
13
13
13
13
13
13
13
13
13
13
13
13
13
13
13
13
13
13
13
13
13
13
13
13
13
13
13
13
13
13
13
13
13
13
13
13
13
13
13
13
13
13
13
13
13
13
13
13
13
13
13
13
13
13
13
13
13
13
13
13
13
13
13
13
13
13
13
13
13
13
13
13
13
13
13
13
13
13
13
13
13
13
13
13
13
13
13
13
13
13
13
13
13
13
13
13
13
13
13
13
13
13
13
13
13
13
13
13
13
13
13
13
13
13
13
13
13
13
13
13
13
13
13
13
13
13
13
13
13
13
13
13
13
13
13
13
13
13
13
13
13
13
13
13
13
13
13
13
13
13
13
13
13
13
13
13
13
13
13
13
13
13
13
13
13
13
13
13
13
13
13
13
13
13
13
13
13
13
13
13
13
13
13
13
13
13
13
13
13
13
13
13
13
13
13
13
13
13
13
13
13
13
13
13
13
13
13
13
13
13
13
13
13
13
13
13
13
13
13
13
13
13
13
13
13
13
13
13
13
13
13
13
13
13
13
13
13
13
13
13
13
13
13
13
13
13
13
13
13
13
13
13
13
13
13
13
13
13
13
13
13
13
13
13
13
13
13
13
13
13
13
13
13
13
13
13
13
13
13
13
13
13
13
13
13
13
13
13
13
13
13
13
13
13
13
13
13
13
13
13
13
13
13
13
13
13
13
13
13
13
13
13
13
13
13
13
13
13
13
13
13
13
13
13
13
13
13
13
13
13
13
13
13
13
13
13
13
13
13
13
13
13
13
13
13
13
13
13
13
13
13
13
13
13
13
13
13
13
13
13
13
13
13
13
13
13
13
13
13
13
13
13
13
13
13
13
13
13
13
13
13
13
13
13
13
13
13
13
13
13
13
13
13
13
13
13
13
13
13
13
13
13
13
13
13
13
13
13
13
13
13
13
13
13
13
13
13
13
13
13
13
13
13
13
13
13
13
13
13
13
13
13
13
13
13
13
13
13
13
13
13
13
13
13
13
13
13
13
13
13
13
13
13
13
13
13
13
13
13
13
13
13
13
13
13
13
13
13
13
13
13
13
13
13
13
13
13
13
13
13
13
13
13
13
13
13
13
13
13
13
13
13
13
13
13
13
13
13
13
13
13
13
13
13
13
13
13
13
13
13
13
13
13
13
13
13
13
13
13
13
13
13
13
13
13
13
13
13
13
13
13
13
13
13
13
13
13
13
13
13
13
13
13
13
13
13
13
13
13
13
13
13
13
13
13
13
13
13
13
13
13
13
13
13
13
13
13
13
13
13
13
13
13
13
13
13
13
13
13
13
13
13
13
13
13
13
13
13
13
13
13
13
13
13
13
13
13
13
13
13
13
13
13
13
13
13
13
13
13
13
13
13
13
13
13
13
13
13
13
13
13
13
13
13
13
13
13
13
13
13
13
13
13
13
13
13
13
13
13
13
13
13
13
13
13
13
13
13
13
13
13
13
13
13
13
13
13
13
13
13
13
13
13
13
13
13
13
13
13
13
13
13
13
13
13
13
13
13
13
13
13
13
13
13
13
13
13
13
13
13
13
13
13
13
13
13
13
13
13
13
13
13
13
13
13
13
13
13
13
13
13
13
13
13
13
13
13
13
13
13
13
13
13
13
13
13
13
13
13

POINT_DATA 2586
VECTORS displacement float
-2.63309e-09 2.05217e-07 1.28306e-07
1.59267e-08 2.03851e-07 1.28426e-07
-1.71225e-07 1.27624e-07 1.34841e-07
-1.69596e-07 1.21633e-07 1.34904e-07
-1.79784e-07 1.1199e-07 1.38806e-07
-1.7997e-07 -1.12099e-07 1.38821e-07
-1.69785e-07 -1.21747e-07 1.34927e-07
-1.71413e-07 -1.27739e-07 1.34866e-07
-2.64832e-09 -2.04812e-07 1.28689e-07
1.5878e-08 -2.04052e-07 1.28086e-07
1.69545e-07 -1.05956e-07 1.27964e-07
1.78778e-07 -9.00739e-08 1.28293e-07
1.79009e-07 9.01861e-08 1.28351e-07
1.69717e-07 1.06329e-07 1.28344e-07
0 0 0
1.74239e-08 2.09113e-07 1.28121e-07
7.95147e-09 2.21078e-07 1.28595e-07
2.65004e-08 4.08774e-07 1.28698e-07
3.44363e-08 4.21908e-07 1.2783e-07
3.328e-08 4.2898e-07 1.28015e-07
1.89203e-07 5.09959e-07 1.27154e-07
2.13866e-07 5.09233e-07 1.26565e-07
3.67392e-07 4.09634e-07 1.26668e-07
3.78933e-07 3.87933e-07 1.26836e-07
3.67601e-07 2.12065e-07 1.28223e-07
3.53676e-07 1.95937e-07 1.28067e-07
1.88463e-07 1.05805e-07 1.27983e-07
1.99959e-07 3.00179e-07 5.10975e-08
1.89538e-07 1.00764e-07 1.27784e-07
3.74867e-07 1.99259e-07 1.28487e-07
5.28577e-07 1.1301e-07 1.26784e-07
5.40916e-07 9.1797e-08 1.26949e-07
5.40779e-07 -9.19824e-08 1.26858e-07
5.28436e-07 -1.13231e-07 1.2671e-07
3.74727e-07 -1.99687e-07 1.277e-07
3.5366e-07 -1.95838e-07 1.28279e-07
1.8832e-07 -1.06072e-07 1.28326e-07
1.89348e-07 -1.00937e-07 1.28012e-07
3.65537e-07 7.93159e-11 5.09538e-08
3.67531e-07 -2.12073e-07 1.28229e-07
3.78872e-07 -3.88075e-07 1.26988e-07
3.67292e-07 -4.09741e-07 1.26806e-07
2.13732e-07 -5.09205e-07 1.26548e-07
1.89067e-07 -5.09938e-07 1.27142e-07
3.31204e-08 -4.28903e-07 1.27982e-07
3.42718e-08 -4.21829e-07 1.27795e-07
2.62938e-08 -4.08674e-07 1.28642e-07
8.00305e-09 -2.20935e-07 1.28658e-07
1.74204e-08 -2.09224e-07 1.27897e-07
1.99747e-07 -3.01675e-07 5.11019e-08
2.10439e-08 -4.29562e-07 1.2849e-07
-1.10015e-07 -5.46882e-07 1.27115e-07
-1.34624e-07 -5.4997e-07 1.27688e-07
-3.1214e-07 -4.94735e-07 1.27577e-07
-3.12325e-07 -4.87454e-07 1.27385e-07
-3.2797e-07 -4.74036e-07 1.27987e-07
-3.80462e-07 -3.00211e-07 1.36744e-07
-3.72566e-07 -2.83958e-07 1.39288e-07
-3.77008e-07 -2.78923e-07 1.411e-07
-1.90752e-07 -1.3175e-07 1.38837e-07
-1.4636e-07 -3.33539e-07 5.15456e-08
-4.03435e-07 -2.87015e-07 1.45561e-07
-6.68495e-07 -1.64714e-07 1.54205e-07
-6.67045e-07 -1.5784e-07 1.54185e-07
-6.81205e-07 -1.44358e-07 1.54325e-07
-6.81174e-07 1.44295e-07 1.54326e-07
-6.67009e-07 1.57775e-07 1.54187e-07
-6.68456e-07 1.6465e-07 1.54207e-07
-4.02961e-07 2.86841e-07 1.45385e-07
-3.77342e-07 2.78792e-07 1.41337e-07
-1.90587e-07 1.31615e-07 1.38821e-07
-4.00922e-07 -4.51632e-11 1.45638e-07
-3.72831e-07 2.83829e-07 1.39472e-07
-3.80619e-07 3.00114e-07 1.36849e-07
-3.27765e-07 4.73898e-07 1.27993e-07
-3.12125e-07 4.8731e-07 1.27395e-07
-3.1194e-07 4.94593e-07 1.27587e-07
-1.3542e-07 5.49847e-07 1.27146e-07
-1.10815e-07 5.46921e-07 1.27725e-07
2.12097e-08 4.29638e-07 1.28558e-07
-1.46247e-07 3.33916e-07 5.15183e-08
-2.63309e-09 2.05217e-07 -1.28306e-07
1.59267e-08 2.03851e-07 -1.28426e-07
-1.71225e-07 1.27624e-07 -1.34841e-07
-1.69596e-07 1.21633e-07 -1.34904e-07
-1.79784e-07 1.1199e-07 -1.38806e-07
-1.7997e-07 -1.12099e-07 -1.38821e-07
-1.69785e-07 -1.21747e-07 -1.34927e-07
-1.71413e-07 -1.27739e-07 -1.34866e-07
-2.64832e-09 -2.04812e-07 -1.28689e-07
1.5878e-08 -2.04052e-07 -1.28086e-07
1.69545e-07 -1.05956e-07 -1.27964e-07
1.78778e-07 -9.00739e-08 -1.28293e-07
1.79009e-07 9.01861e-08 -1.28351e-07
1.69717e-07 1.06329e-07 -1.28344e-07
0 0 0
1.74239e-08 2.09113e-07 -1.28121e-07
7.95147e-09 2.21078e-07 -1.28595e-07
2.65004e-08 4.08774e-07 -1.28698e-07
3.44363e-08 4.21908e-07 -1.2783e-07
3.328e-08 4.2898e-07 -1.28015e-07
1.89203e-07 5.09959e-07 -1.27154e-07
2.13866e-07 5.09233e-07 -1.26565e-07
3.67392e-07 4.09634e-07 -1.26668e-07
3.78933e-07 3.87933e-07 -1.26836e-07
3.67601e-07 2.12065e-07 -1.28223e-07
3.53676e-07 1.95937e-07 -1.28067e-07
1.88463e-07 1.05805e-07 -1.27983e-07
1.99959e-07 3.00179e-07 -5.10975e-08
1.89538e-07 1.00764e-07 -1.27784e-07
3.74867e-07 1.99259e-07 -1.28487e-07
5.28577e-07 1.1301e-07 -1.26784e-07
5.40916e-07 9.1797e-08 -1.26949e-07
5.40779e-07 -9.19824e-08 -1.26858e-07
5.28436e-07 -1.13231e-07 -1.2671e-07
3.74727e-07 -1.99687e-07 -1.277e-07
3.5366e-07 -1.95838e-07 -1.28279e-07
1.8832e-07 -1.06072e-07 -1.28326e-07
1.89348e-07 -1.00937e-07 -1.28012e-07
3.65537e-07 7.93159e-11 -5.09538e-08
3.67531e-07 -2.12073e-07 -1.28229e-07
3.78872e-07 -3.88075e-07 -1.26988e-07
3.67292e-07 -4.09741e-07 -1.26806e-07
2.13732e-07 -5.09205e-07 -1.26548e-07
1.89067e-07 -5.09938e-07 -1.27142e-07
3.31204e-08 -4.28903e-07 -1.27982e-07
3.42718e-08 -4.21829e-07 -1.27795e-07
2.62938e-08 -4.08674e-07 -1.28642e-07
8.00305e-09 -2.20935e-07 -1.28658e-07
1.74204e-08 -2.09224e-07 -1.27897e-07
1.99747e-07 -3.01675e-07 -5.11019e-08
2.10439e-08 -4.29562e-07 -1.2849e-07
-1.10015e-07 -5.46882e-07 -1.27115e-07
-1.34624e-07 -5.4997e-07 -1.27688e-07
-3.1214e-07 -4.94735e-07 -1.27577e-07
-3.12325e-07 -4.87454e-07 -1.27385e-07
-3.2797e-07 -4.74036e-07 -1.27987e-07
-3.80462e-07 -3.00211e-07 -1.36744e-07
-3.72566e-07 -2.83958e-07 -1.39288e-07
-3.77008e-07 -2.78923e-07 -1.411e-07
-1.90752e-07 -1.3175e-07 -1.38837e-07
-1.4636e-07 -3.33539e-07 -5.15456e-08
-4.03435e-07 -2.87015e-07 -1.45561e-07
-6.68495e-07 -1.64714e-07 -1.54205e-07
-6.67045e-07 -1.5784e-07 -1.54185e-07
-6.81205e-07 -1.44358e-07 -1.54325e-07
-6.81174e-07 1.44295e-07 -1.54326e-07
-6.67009e-07 1.57775e-07 -1.54187e-07
-6.68456e-07 1.6465e-07 -1.54207e-07
-4.02961e-07 2.86841e-07 -1.45385e-07
-3.77342e-07 2.78792e-07 -1.41337e-07
-1.90587e-07 1.31615e-07 -1.38821e-07
-4.00922e-07 -4.51632e-11 -1.45638e-07
-3.72831e-07 2.83829e-07 -1.39472e-07
-3.80619e-07 3.00114e-07 -1.36849e-07
-3.27765e-07 4.73898e-07 -1.27993e-07
-3.12125e-07 4.8731e-07 -1.27395e-07
-3.1194e-07 4.94593e-07 -1.27587e-07
-1.3542e-07 5.49847e-07 -1.27146e-07
-1.10815e-07 5.46921e-07 -1.27725e-07
2.12097e-08 4.29638e-07 -1.28558e-07
-1.46247e-07 3.33916e-07 -5.15183e-08
6.45806e-09 1.99764e-07 1.27807e-07
-1.31637e-07 1.46186e-07 1.2375e-07
-1.0055e-07 1.59434e-07 1.14912e-07
-7.18055e-08 1.71981e-07 1.13883e-07
-4.14127e-08 1.8571e-07 1.20477e-07
-1.69887e-07 1.24552e-07 1.34923e-07
-1.72539e-07 1.14504e-07 1.36337e-07
-1.80191e-07 -6.32373e-08 1.34898e-07
-1.79517e-07 -2.06099e-08 1.31462e-07
-1.79429e-07 2.05247e-08 1.31337e-07
-1.80075e-07 6.31338e-08 1.34937e-07
-1.72727e-07 -1.14616e-07 1.36355e-07
-1.70076e-07 -1.24667e-07 1.34947e-07
-4.13548e-08 -1.8573e-07 1.20438e-07
-7.19248e-08 -1.71924e-07 1.14265e-07
-1.00728e-07 -1.59472e-07 1.14979e-07
-1.31826e-07 -1.46277e-07 1.23787e-07
6.27058e-09 -1.99646e-07 1.2783e-07
1.32841e-07 -1.28189e-07 1.19596e-07
1.05029e-07 -1.45137e-07 1.12242e-07
7.94351e-08 -1.61619e-07 1.12261e-07
5.20196e-08 -1.79573e-07 1.19695e-07
1.69581e-07 -9.56069e-08 1.27795e-07
1.77491e-07 4.74569e-08 1.195e-07
1.77214e-07 1.50015e-08 1.12366e-07
1.77095e-07 -1.49822e-08 1.12639e-07
1.77461e-07 -4.73855e-08 1.19393e-07
1.69813e-07 9.58328e-08 1.27968e-07
5.20287e-08 1.79807e-07 1.19593e-07
7.95302e-08 1.61795e-07 1.12611e-07
1.05207e-07 1.45365e-07 1.12606e-07
1.33103e-07 1.28201e-07 1.1954e-07
0 0 0
0 0 0
0 0 0
1.73171e-08 2.06617e-07 1.28445e-07
1.43396e-08 2.16446e-07 1.27896e-07
1.0613e-08 2.64594e-07 1.19889e-07
1.42098e-08 2.97962e-07 1.13263e-07
1.80952e-08 3.2913e-07 1.1303e-07
2.18472e-08 3.63294e-07 1.2007e-07
3.18245e-08 4.13002e-07 1.27869e-07
3.41393e-08 4.25508e-07 1.28063e-07
7.63297e-08 4.38898e-07 1.20422e-07
1.06402e-07 4.44483e-07 1.14393e-07
1.30147e-07 4.57222e-07 1.14442e-07
1.54166e-07 4.79069e-07 1.19792e-07
2.00844e-07 5.0415e-07 1.26346e-07
2.46516e-07 4.7543e-07 1.19965e-07
2.69314e-07 4.50444e-07 1.13787e-07
2.92525e-07 4.3493e-07 1.13907e-07
3.23262e-07 4.24992e-07 1.19504e-07
3.68425e-07 3.95932e-07 1.26442e-07
3.66035e-07 3.42125e-07 1.1963e-07
3.54764e-07 3.10883e-07 1.1465e-07
3.52583e-07 2.83727e-07 1.14433e-07
3.587e-07 2.53849e-07 1.20672e-07
3.56044e-07 2.0615e-07 1.27839e-07
2.26617e-07 1.27307e-07 1.19771e-07
2.55899e-07 1.42826e-07 1.12452e-07
2.83423e-07 1.57581e-07 1.12547e-07
3.13641e-07 1.73764e-07 1.19845e-07
1.79184e-07 1.10569e-07 1.27624e-07
1.91036e-07 3.13987e-07 5.18461e-08
1.76274e-07 3.02089e-07 5.12611e-08
1.87329e-07 2.89214e-07 5.05868e-08
1.85742e-07 9.41234e-08 1.27662e-07
1.89688e-07 1.03095e-07 1.28048e-07
3.63612e-07 1.92651e-07 1.27709e-07
4.05528e-07 1.69073e-07 1.20645e-07
4.2774e-07 1.47381e-07 1.14805e-07
4.51548e-07 1.34161e-07 1.14248e-07
4.8333e-07 1.26402e-07 1.19668e-07
5.30121e-07 9.93317e-08 1.26566e-07
5.30241e-07 4.592e-08 1.19731e-07
5.21844e-07 1.38046e-08 1.13889e-07
5.21463e-07 -1.43502e-08 1.14382e-07
5.30255e-07 -4.60466e-08 1.19557e-07
5.3e-07 -9.95263e-08 1.26476e-07
4.83146e-07 -1.26634e-07 1.19655e-07
4.51334e-07 -1.34334e-07 1.14227e-07
4.27499e-07 -1.47267e-07 1.14361e-07
4.05332e-07 -1.691e-07 1.20877e-07
3.63008e-07 -1.93043e-07 1.27481e-07
2.26394e-07 -1.2719e-07 1.19684e-07
2.55733e-07 -1.42842e-07 1.12825e-07
2.83306e-07 -1.57607e-07 1.12882e-07
3.13541e-07 -1.73792e-07 1.19683e-07
1.89513e-07 -1.03321e-07 1.28347e-07
1.85506e-07 -9.41297e-08 1.27701e-07
3.5417e-07 1.13161e-08 5.13834e-08
3.40033e-07 7.95898e-10 5.17563e-08
3.52942e-07 -1.19682e-08 5.14599e-08
1.79237e-07 -1.10493e-07 1.27607e-07
3.55987e-07 -2.06115e-07 1.2788e-07
3.5869e-07 -2.53927e-07 1.20497e-07
3.52143e-07 -2.83512e-07 1.14961e-07
3.55053e-07 -3.10555e-07 1.14177e-07
3.65881e-07 -3.42282e-07 1.19854e-07
3.68335e-07 -3.96055e-07 1.26595e-07
3.23093e-07 -4.24946e-07 1.19627e-07
2.92324e-07 -4.34937e-07 1.13961e-07
2.69125e-07 -4.50397e-07 1.13706e-07
2.46369e-07 -4.75393e-07 1.19924e-07
2.00708e-07 -5.04125e-07 1.26331e-07
1.54009e-07 -4.79055e-07 1.19801e-07
1.2998e-07 -4.5716e-07 1.1446e-07
1.06261e-07 -4.44387e-07 1.144e-07
7.61969e-08 -4.38811e-07 1.20412e-07
3.39782e-08 -4.25429e-07 1.2803e-07
3.1642e-08 -4.12914e-07 1.27824e-07
1.05128e-08 -2.64508e-07 1.19996e-07
1.42202e-08 -2.97963e-07 1.13002e-07
1.78861e-08 -3.29099e-07 1.13298e-07
2.17844e-08 -3.63221e-07 1.19972e-07
1.43864e-08 -2.16407e-07 1.27862e-07
1.72984e-08 -2.06778e-07 1.2815e-07
1.88184e-07 -2.8858e-07 5.16452e-08
1.76146e-07 -3.01395e-07 5.12584e-08
1.89928e-07 -3.13419e-07 5.07984e-08
-1.55019e-09 -2.1571e-07 1.2838e-07
1.92417e-08 -4.16311e-07 1.2828e-07
-1.69279e-08 -4.45962e-07 1.21068e-07
-4.24613e-08 -4.58695e-07 1.15128e-07
-6.14387e-08 -4.78288e-07 1.14718e-07
-8.06215e-08 -5.08104e-07 1.20667e-07
-1.23694e-07 -5.42979e-07 1.26893e-07
-1.72455e-07 -5.24247e-07 1.20381e-07
-1.99557e-07 -5.07837e-07 1.15043e-07
-2.27101e-07 -5.00599e-07 1.14855e-07
-2.6231e-07 -5.00124e-07 1.205e-07
-3.11764e-07 -4.911e-07 1.27621e-07
-3.18497e-07 -4.78106e-07 1.2732e-07
-3.25059e-07 -4.2841e-07 1.21424e-07
-3.25061e-07 -3.97515e-07 1.17171e-07
-3.34485e-07 -3.70706e-07 1.18738e-07
-3.54078e-07 -3.41743e-07 1.26186e-07
-3.72886e-07 -2.92769e-07 1.3684e-07
-3.74348e-07 -2.81257e-07 1.40391e-07
-2.3108e-07 -1.61877e-07 1.35401e-07
-2.66377e-07 -1.89084e-07 1.32173e-07
-3.01053e-07 -2.15795e-07 1.32344e-07
-3.37302e-07 -2.43937e-07 1.3644e-07
-1.81157e-07 -1.35018e-07 1.35847e-07
-1.60092e-07 -3.2419e-07 5.32834e-08
-1.7141e-07 -3.42173e-07 5.32961e-08
-1.56193e-07 -3.5004e-07 5.1769e-08
-1.89717e-07 -1.20028e-07 1.39887e-07
-3.92368e-07 -2.77474e-07 1.44126e-07
-4.60067e-07 -2.65685e-07 1.47968e-07
-5.13311e-07 -2.41923e-07 1.49304e-07
-5.65262e-07 -2.1696e-07 1.50817e-07
-6.16687e-07 -1.91229e-07 1.52679e-07
-6.67311e-07 -1.6139e-07 1.54217e-07
-6.71511e-07 -1.48231e-07 1.5421e-07
-6.82247e-07 -8.62034e-08 1.53488e-07
-6.82809e-07 -2.87359e-08 1.52864e-07
-6.82808e-07 2.86621e-08 1.52861e-07
-6.82231e-07 8.61326e-08 1.53488e-07
-6.71478e-07 1.48167e-07 1.54211e-07
-6.67274e-07 1.61326e-07 1.54219e-07
-6.16629e-07 1.91151e-07 1.52681e-07
-5.6519e-07 2.16844e-07 1.50804e-07
-5.1328e-07 2.4183e-07 1.49242e-07
-4.60059e-07 2.65707e-07 1.47996e-07
-3.91867e-07 2.77293e-07 1.44003e-07
-2.3093e-07 1.617e-07 1.35401e-07
-2.66249e-07 1.88876e-07 1.32201e-07
-3.00941e-07 2.15574e-07 1.32495e-07
-3.37191e-07 2.43792e-07 1.36438e-07
-1.89574e-07 1.19902e-07 1.39876e-07
-4.2462e-07 2.43464e-08 1.46799e-07
-4.4907e-07 -2.52775e-11 1.48074e-07
-4.24589e-07 -2.44424e-08 1.46856e-07
-1.8098e-07 1.34893e-07 1.35825e-07
-3.74659e-07 2.81115e-07 1.40605e-07
-3.7306e-07 2.92654e-07 1.36959e-07
-3.5414e-07 3.41629e-07 1.26247e-07
-3.34467e-07 3.70695e-07 1.18756e-07
-3.24936e-07 3.9749e-07 1.17208e-07
-3.24885e-07 4.28293e-07 1.21427e-07
-3.18296e-07 4.77965e-07 1.27328e-07
-3.11564e-07 4.90957e-07 1.27631e-07
-2.62129e-07 4.99933e-07 1.2053e-07
-2.26924e-07 5.00403e-07 1.14849e-07
-1.99478e-07 5.07267e-07 1.14607e-07
-1.72374e-07 5.2401e-07 1.20668e-07
-1.2348e-07 5.42937e-07 1.26927e-07
-8.05641e-08 5.08208e-07 1.20448e-07
-6.13703e-08 4.78784e-07 1.15207e-07
-4.23084e-08 4.5887e-07 1.15202e-07
-1.67361e-08 4.46057e-07 1.21118e-07
1.93841e-08 4.16398e-07 1.28355e-07
-1.60679e-09 2.15963e-07 1.282e-07
-1.54721e-07 3.50462e-07 5.26049e-08
-1.71285e-07 3.40461e-07 5.33163e-08
-1.6125e-07 3.24699e-07 5.24327e-08
6.45806e-09 1.99764e-07 -1.27807e-07
-1.31637e-07 1.46186e-07 -1.2375e-07
-1.0055e-07 1.59434e-07 -1.14912e-07
-7.18055e-08 1.71981e-07 -1.13883e-07
-4.14127e-08 1.8571e-07 -1.20477e-07
-1.69887e-07 1.24552e-07 -1.34923e-07
-1.72539e-07 1.14504e-07 -1.36337e-07
-1.80191e-07 -6.32373e-08 -1.34898e-07
-1.79517e-07 -2.06099e-08 -1.31462e-07
-1.79429e-07 2.05247e-08 -1.31337e-07
-1.80075e-07 6.31338e-08 -1.34937e-07
-1.72727e-07 -1.14616e-07 -1.36355e-07
-1.70076e-07 -1.24667e-07 -1.34947e-07
-4.13548e-08 -1.8573e-07 -1.20438e-07
-7.19248e-08 -1.71924e-07 -1.14265e-07
-1.00728e-07 -1.59472e-07 -1.14979e-07
-1.31826e-07 -1.46277e-07 -1.23787e-07
6.27058e-09 -1.99646e-07 -1.2783e-07
1.32841e-07 -1.28189e-07 -1.19596e-07
1.05029e-07 -1.45137e-07 -1.12242e-07
7.94351e-08 -1.61619e-07 -1.12261e-07
5.20196e-08 -1.79573e-07 -1.19695e-07
1.69581e-07 -9.56069e-08 -1.27795e-07
1.77491e-07 4.74569e-08 -1.195e-07
1.77214e-07 1.50015e-08 -1.12366e-07
1.77095e-07 -1.49822e-08 -1.12639e-07
1.77461e-07 -4.73855e-08 -1.19393e-07
1.69813e-07 9.58328e-08 -1.27968e-07
5.20287e-08 1.79807e-07 -1.19593e-07
7.95302e-08 1.61795e-07 -1.12611e-07
1.05207e-07 1.45365e-07 -1.12606e-07
1.33103e-07 1.28201e-07 -1.1954e-07
0 0 0
0 0 0
0 0 0
1.73171e-08 2.06617e-07 -1.28445e-07
1.43396e-08 2.16446e-07 -1.27896e-07
1.0613e-08 2.64594e-07 -1.19889e-07
1.42098e-08 2.97962e-07 -1.13263e-07
1.80952e-08 3.2913e-07 -1.1303e-07
2.18472e-08 3.63294e-07 -1.2007e-07
3.18245e-08 4.13002e-07 -1.27869e-07
3.41393e-08 4.25508e-07 -1.28063e-07
7.63297e-08 4.38898e-07 -1.20422e-07
1.06402e-07 4.44483e-07 -1.14393e-07
1.30147e-07 4.57222e-07 -1.14442e-07
1.54166e-07 4.79069e-07 -1.19792e-07
2.00844e-07 5.0415e-07 -1.26346e-07
2.46516e-07 4.7543e-07 -1.19965e-07
2.69314e-07 4.50444e-07 -1.13787e-07
2.92525e-07 4.3493e-07 -1.13907e-07
3.23262e-07 4.24992e-07 -1.19504e-07
3.68425e-07 3.95932e-07 -1.26442e-07
3.66035e-07 3.42125e-07 -1.1963e-07
3.54764e-07 3.10883e-07 -1.1465e-07
3.52583e-07 2.83727e-07 -1.14433e-07
3.587e-07 2.53849e-07 -1.20672e-07
3.56044e-07 2.0615e-07 -1.27839e-07
2.26617e-07 1.27307e-07 -1.19771e-07
2.55899e-07 1.42826e-07 -1.12452e-07
2.83423e-07 1.57581e-07 -1.12547e-07
3.13641e-07 1.73764e-07 -1.19845e-07
1.79184e-07 1.10569e-07 -1.27624e-07
1.91036e-07 3.13987e-07 -5.18461e-08
1.76274e-07 3.02089e-07 -5.12611e-08
1.87329e-07 2.89214e-07 -5.05868e-08
1.85742e-07 9.41234e-08 -1.27662e-07
1.89688e-07 1.03095e-07 -1.28048e-07
3.63612e-07 1.92651e-07 -1.27709e-07
4.05528e-07 1.69073e-07 -1.20645e-07
4.2774e-07 1.47381e-07 -1.14805e-07
4.51548e-07 1.34161e-07 -1.14248e-07
4.8333e-07 1.26402e-07 -1.19668e-07
5.30121e-07 9.93317e-08 -1.26566e-07
5.30241e-07 4.592e-08 -1.19731e-07
5.21844e-07 1.38046e-08 -1.13889e-07
5.21463e-07 -1.43502e-08 -1.14382e-07
5.30255e-07 -4.60466e-08 -1.19557e-07
5.3e-07 -9.95263e-08 -1.26476e-07
4.83146e-07 -1.26634e-07 -1.19655e-07
4.51334e-07 -1.34334e-07 -1.14227e-07
4.27499e-07 -1.47267e-07 -1.14361e-07
4.05332e-07 -1.691e-07 -1.20877e-07
3.63008e-07 -1.93043e-07 -1.27481e-07
2.26394e-07 -1.2719e-07 -1.19684e-07
2.55733e-07 -1.42842e-07 -1.12825e-07
2.83306e-07 -1.57607e-07 -1.12882e-07
3.13541e-07 -1.73792e-07 -1.19683e-07
1.89513e-07 -1.03321e-07 -1.28347e-07
1.85506e-07 -9.41297e-08 -1.27701e-07
3.5417e-07 1.13161e-08 -5.13834e-08
3.40033e-07 7.95898e-10 -5.17563e-08
3.52942e-07 -1.19682e-08 -5.14599e-08
1.79237e-07 -1.10493e-07 -1.27607e-07
3.55987e-07 -2.06115e-07 -1.2788e-07
3.5869e-07 -2.53927e-07 -1.20497e-07
3.52143e-07 -2.83512e-07 -1.14961e-07
3.55053e-07 -3.10555e-07 -1.14177e-07
3.65881e-07 -3.42282e-07 -1.19854e-07
3.68335e-07 -3.96055e-07 -1.26595e-07
3.23093e-07 -4.24946e-07 -1.19627e-07
2.92324e-07 -4.34937e-07 -1.13961e-07
2.69125e-07 -4.50397e-07 -1.13706e-07
2.46369e-07 -4.75393e-07 -1.19924e-07
2.00708e-07 -5.04125e-07 -1.26331e-07
1.54009e-07 -4.79055e-07 -1.19801e-07
1.2998e-07 -4.5716e-07 -1.1446e-07
1.06261e-07 -4.44387e-07 -1.144e-07
7.61969e-08 -4.38811e-07 -1.20412e-07
3.39782e-08 -4.25429e-07 -1.2803e-07
3.1642e-08 -4.12914e-07 -1.27824e-07
1.05128e-08 -2.64508e-07 -1.19996e-07
1.42202e-08 -2.97963e-07 -1.13002e-07
1.78861e-08 -3.29099e-07 -1.13298e-07
2.17844e-08 -3.63221e-07 -1.19972e-07
1.43864e-08 -2.16407e-07 -1.27862e-07
1.72984e-08 -2.06778e-07 -1.2815e-07
1.88184e-07 -2.8858e-07 -5.16452e-08
1.76146e-07 -3.01395e-07 -5.12584e-08
1.89928e-07 -3.13419e-07 -5.07984e-08
-1.55019e-09 -2.1571e-07 -1.2838e-07
1.92417e-08 -4.16311e-07 -1.2828e-07
-1.69279e-08 -4.45962e-07 -1.21068e-07
-4.24613e-08 -4.58695e-07 -1.15128e-07
-6.14387e-08 -4.78288e-07 -1.14718e-07
-8.06215e-08 -5.08104e-07 -1.20667e-07
-1.23694e-07 -5.42979e-07 -1.26893e-07
-1.72455e-07 -5.24247e-07 -1.20381e-07
-1.99557e-07 -5.07837e-07 -1.15043e-07
-2.27101e-07 -5.00599e-07 -1.14855e-07
-2.6231e-07 -5.00124e-07 -1.205e-07
-3.11764e-07 -4.911e-07 -1.27621e-07
-3.18497e-07 -4.78106e-07 -1.2732e-07
-3.25059e-07 -4.2841e-07 -1.21424e-07
-3.25061e-07 -3.97515e-07 -1.17171e-07
-3.34485e-07 -3.70706e-07 -1.18738e-07
-3.54078e-07 -3.41743e-07 -1.26186e-07
-3.72886e-07 -2.92769e-07 -1.3684e-07
-3.74348e-07 -2.81257e-07 -1.40391e-07
-2.3108e-07 -1.61877e-07 -1.35401e-07
-2.66377e-07 -1.89084e-07 -1.32173e-07
-3.01053e-07 -2.15795e-07 -1.32344e-07
-3.37302e-07 -2.43937e-07 -1.3644e-07
-1.81157e-07 -1.35018e-07 -1.35847e-07
-1.60092e-07 -3.2419e-07 -5.32834e-08
-1.7141e-07 -3.42173e-07 -5.32961e-08
-1.56193e-07 -3.5004e-07 -5.1769e-08
-1.89717e-07 -1.20028e-07 -1.39887e-07
-3.92368e-07 -2.77474e-07 -1.44126e-07
-4.60067e-07 -2.65685e-07 -1.47968e-07
-5.13311e-07 -2.41923e-07 -1.49304e-07
-5.65262e-07 -2.1696e-07 -1.50817e-07
-6.16687e-07 -1.91229e-07 -1.52679e-07
-6.67311e-07 -1.6139e-07 -1.54217e-07
-6.71511e-07 -1.48231e-07 -1.5421e-07
-6.82247e-07 -8.62034e-08 -1.53488e-07
-6.82809e-07 -2.87359e-08 -1.52864e-07
-6.82808e-07 2.86621e-08 -1.52861e-07
-6.82231e-07 8.61326e-08 -1.53488e-07
-6.71478e-07 1.48167e-07 -1.54211e-07
-6.67274e-07 1.61326e-07 -1.54219e-07
-6.16629e-07 1.91151e-07 -1.52681e-07
-5.6519e-07 2.16844e-07 -1.50804e-07
-5.1328e-07 2.4183e-07 -1.49242e-07
-4.60059e-07 2.65707e-07 -1.47996e-07
-3.91867e-07 2.77293e-07 -1.44003e-07
-2.3093e-07 1.617e-07 -1.35401e-07
-2.66249e-07 1.88876e-07 -1.32201e-07
-3.00941e-07 2.15574e-07 -1.32495e-07
-3.37191e-07 2.43792e-07 -1.36438e-07
-1.89574e-07 1.19902e-07 -1.39876e-07
-4.2462e-07 2.43464e-08 -1.46799e-07
-4.4907e-07 -2.52775e-11 -1.48074e-07
-4.24589e-07 -2.44424e-08 -1.46856e-07
-1.8098e-07 1.34893e-07 -1.35825e-07
-3.74659e-07 2.81115e-07 -1.40605e-07
-3.7306e-07 2.92654e-07 -1.36959e-07
-3.5414e-07 3.41629e-07 -1.26247e-07
-3.34467e-07 3.70695e-07 -1.18756e-07
-3.24936e-07 3.9749e-07 -1.17208e-07
-3.24885e-07 4.28293e-07 -1.21427e-07
-3.18296e-07 4.77965e-07 -1.27328e-07
-3.11564e-07 4.90957e-07 -1.27631e-07
-2.62129e-07 4.99933e-07 -1.2053e-07
-2.26924e-07 5.00403e-07 -1.14849e-07
-1.99478e-07 5.07267e-07 -1.14607e-07
-1.72374e-07 5.2401e-07 -1.20668e-07
-1.2348e-07 5.42937e-07 -1.26927e-07
-8.05641e-08 5.08208e-07 -1.20448e-07
-6.13703e-08 4.78784e-07 -1.15207e-07
-4.23084e-08 4.5887e-07 -1.15202e-07
-1.67361e-08 4.46057e-07 -1.21118e-07
1.93841e-08 4.16398e-07 -1.28355e-07
-1.60679e-09 2.15963e-07 -1.282e-07
-1.54721e-07 3.50462e-07 -5.26049e-08
-1.71285e-07 3.40461e-07 -5.33163e-08
-1.6125e-07 3.24699e-07 -5.24327e-08
5.31497e-08 -5.1278e-08 8.66383e-08
5.36626e-08 5.41759e-08 8.78507e-08
-5.1561e-08 5.99549e-08 9.03511e-08
-5.18922e-08 -6.00864e-08 9.05306e-08
-1.19375e-07 -9.18762e-08 1.21664e-07
-1.19175e-07 9.17453e-08 1.21619e-07
4.96879e-10 6.57244e-08 8.18897e-08
-6.03944e-08 1.70116e-09 8.35919e-08
5.90008e-08 -1.86849e-09 7.79725e-08
-1.76087e-10 -6.56409e-08 8.18737e-08
-1.42612e-07 9.85378e-08 1.29546e-07
-1.42806e-07 -9.86583e-08 1.29575e-07
1.1015e-07 5.96932e-08 1.10443e-07
1.1554e-07 -6.18151e-08 1.12402e-07
2.38342e-10 -1.32663e-07 1.12329e-07
6.25992e-09 1.32419e-07 1.12268e-07
4.25729e-08 1.03374e-07 1.02246e-07
-3.82205e-08 -1.08323e-07 1.03381e-07
-1.10746e-07 3.12472e-08 1.12194e-07
-1.12781e-07 -3.07524e-08 1.1297e-07
4.2318e-08 -1.07348e-07 1.03182e-07
-3.77077e-08 1.13111e-07 1.0458e-07
1.92928e-08 -1.9362e-08 5.08388e-08
2.1963e-08 2.44176e-08 5.65946e-08
-2.15309e-08 2.11157e-08 5.48102e-08
-2.28367e-08 -2.253e-08 5.68277e-08
-1.48793e-07 1.17308e-07 1.31052e-07
-1.48984e-07 -1.17419e-07 1.31079e-07
-8.20422e-08 1.02692e-07 1.09889e-07
-8.22462e-08 -1.02438e-07 1.09886e-07
1.1643e-07 -1.72689e-08 1.0455e-07
1.10252e-07 2.01154e-08 1.02869e-07
-8.74056e-08 -5.64244e-08 1.05508e-07
-8.71485e-08 5.6274e-08 1.05402e-07
1.90639e-08 -1.61569e-07 1.20658e-07
-9.85301e-09 1.63415e-07 1.20957e-07
8.43618e-08 -9.22031e-08 1.0702e-07
8.42717e-08 9.0375e-08 1.06781e-07
6.15163e-09 3.41737e-08 5.84138e-08
4.71049e-09 -3.31457e-08 5.70835e-08
-3.22408e-08 -6.06616e-09 5.98122e-08
3.11885e-08 -3.74446e-09 5.5456e-08
-1.47438e-07 6.63087e-08 1.28121e-07
-1.47613e-07 -6.64223e-08 1.28147e-07
7.72833e-08 -2.90119e-08 9.1667e-08
1.25776e-07 9.11107e-08 1.19187e-07
1.26429e-07 -9.15468e-08 1.19365e-07
7.22908e-08 2.95136e-08 8.93664e-08
-2.40511e-08 5.82021e-08 8.01852e-08
-2.30615e-08 -5.68596e-08 7.91315e-08
-5.10243e-08 2.59878e-08 8.01597e-08
2.72658e-08 -5.05312e-08 7.6763e-08
2.82508e-08 5.1228e-08 7.73223e-08
-4.74316e-08 -2.38775e-08 7.70294e-08
-3.53978e-08 -1.42141e-07 1.12995e-07
4.19344e-08 1.37403e-07 1.12088e-07
2.15633e-08 1.67302e-07 1.22066e-07
-1.18356e-08 -1.6919e-07 1.22393e-07
-1.58872e-07 8.66081e-08 1.33163e-07
-1.59047e-07 -8.67245e-08 1.33175e-07
-1.3938e-07 7.78239e-10 1.20918e-07
1.53799e-07 -6.92627e-08 1.23087e-07
1.54525e-07 6.86881e-08 1.23153e-07
3.01548e-08 -1.34818e-07 1.12282e-07
-2.33832e-08 1.38819e-07 1.13147e-07
1.21875e-08 -9.97406e-08 9.97433e-08
-8.19243e-09 1.01035e-07 1.00051e-07
4.33118e-08 1.56104e-08 6.92894e-08
1.69871e-08 1.01755e-07 1.0068e-07
-1.29242e-08 -1.03397e-07 1.01089e-07
7.40592e-08 1.18398e-07 1.07994e-07
4.53856e-08 -2.27531e-08 7.27746e-08
-6.95133e-08 -1.28462e-07 1.10165e-07
1.37567e-07 3.57621e-08 1.12472e-07
1.39927e-07 -3.98227e-08 1.13615e-07
-1.24843e-07 1.15411e-07 1.23889e-07
-1.25033e-07 -1.15522e-07 1.23922e-07
-8.01086e-08 -2.6752e-08 9.77379e-08
-1.17138e-07 -6.2747e-08 1.18215e-07
-1.16789e-07 6.26518e-08 1.18095e-07
-1.65013e-07 1.15795e-07 1.34697e-07
-1.6335e-07 1.03888e-07 1.34954e-07
-1.65202e-07 -1.15909e-07 1.34718e-07
-1.63537e-07 -1.04002e-07 1.34971e-07
7.57186e-08 -1.19009e-07 1.08393e-07
-9.34169e-08 8.34665e-08 1.1158e-07
-9.36456e-08 -8.35855e-08 1.11649e-07
-8.60305e-09 1.84045e-07 1.25318e-07
1.98209e-08 -1.82258e-07 1.25059e-07
-7.10902e-08 1.29669e-07 1.10695e-07
-8.00454e-08 2.78384e-08 9.77832e-08
-9.7133e-08 1.82718e-09 1.04729e-07
1.35112e-07 6.21226e-09 1.07331e-07
5.75255e-08 8.1738e-08 9.78462e-08
1.48984e-07 9.77479e-08 1.25197e-07
1.48841e-07 -9.78427e-08 1.25061e-07
5.52789e-08 -8.05696e-08 9.69192e-08
8.14035e-08 5.95834e-08 1.00265e-07
-5.15515e-08 -8.74738e-08 9.91847e-08
-3.67282e-09 1.74767e-08 3.85517e-08
-5.84852e-09 -1.80845e-08 4.05469e-08
-1.66454e-08 4.35231e-09 3.97984e-08
1.74156e-08 6.62319e-09 4.10057e-08
-5.19775e-08 8.89555e-08 9.96171e-08
8.33631e-08 -6.13231e-08 1.01314e-07
-1.47403e-07 3.91982e-08 1.25267e-07
-1.48435e-07 -3.88137e-08 1.2551e-07
6.73938e-09 -6.98353e-09 2.39884e-08
2.37015e-08 7.76322e-08 9.00909e-08
7.60135e-09 1.55824e-08 3.70367e-08
-1.36664e-08 -7.82614e-09 3.59151e-08
5.6131e-08 -1.39817e-07 1.11274e-07
2.53443e-08 -7.95042e-08 9.12001e-08
9.31802e-08 1.27207e-09 9.52897e-08
-2.48714e-08 -8.3375e-08 9.26662e-08
4.23755e-08 3.31454e-08 7.45308e-08
-1.36404e-07 8.1773e-08 1.26562e-07
-1.3662e-07 -8.18929e-08 1.26604e-07
-1.02734e-07 -1.27259e-07 1.16758e-07
-1.02164e-07 1.25987e-07 1.1666e-07
-2.39172e-08 8.44169e-08 9.30434e-08
9.99311e-08 3.83894e-08 1.02543e-07
-4.99351e-08 1.44552e-07 1.12153e-07
1.02389e-07 8.24046e-08 1.11242e-07
1.02941e-07 -8.32338e-08 1.1145e-07
1.05128e-07 -3.99433e-08 1.04658e-07
-7.60026e-09 8.0157e-09 2.62985e-08
-9.4056e-09 3.9588e-08 6.37726e-08
-9.682e-09 -3.96339e-08 6.37935e-08
-3.47019e-08 9.26299e-09 6.28382e-08
-3.49904e-08 4.18845e-08 7.5681e-08
-3.42662e-08 -4.31022e-08 7.59517e-08
-7.0881e-08 -7.56686e-08 1.01949e-07
3.53472e-08 -3.51294e-08 7.15683e-08
-7.06577e-08 7.57189e-08 1.01876e-07
-1.03879e-07 1.03849e-07 1.16832e-07
-1.04153e-07 -1.04126e-07 1.16896e-07
-6.24742e-08 4.71328e-08 9.20985e-08
-6.36043e-08 -4.68156e-08 9.25725e-08
3.69543e-09 -1.38399e-08 3.30017e-08
1.32483e-08 -3.4988e-09 3.25065e-08
1.0763e-07 1.10936e-07 1.14155e-07
1.07579e-07 -1.10968e-07 1.14112e-07
7.49564e-09 1.80143e-07 1.25244e-07
3.47372e-09 -1.80284e-07 1.253e-07
2.36673e-07 2.47257e-07 9.0871e-08
2.45642e-07 3.50397e-07 9.14889e-08
1.44588e-07 3.57099e-07 9.14233e-08
1.33367e-07 2.5082e-07 9.06936e-08
8.16677e-08 3.87952e-07 1.1688e-07
6.74112e-08 2.29973e-07 1.16394e-07
1.93838e-07 3.64043e-07 8.59503e-08
1.29823e-07 3.06877e-07 8.3779e-08
2.47405e-07 2.98593e-07 8.45745e-08
1.84388e-07 2.39042e-07 8.53977e-08
5.96386e-08 3.96304e-07 1.23052e-07
4.46991e-08 2.27374e-07 1.22885e-07
3.07375e-07 3.60566e-07 1.1317e-07
2.92704e-07 2.39641e-07 1.11726e-07
1.78323e-07 1.7596e-07 1.12417e-07
1.95885e-07 4.31522e-07 1.12622e-07
1.6107e-07 4.02898e-07 1.04084e-07
1.42839e-07 2.03288e-07 1.03074e-07
8.44295e-08 3.34755e-07 1.05178e-07
7.73184e-08 2.83457e-07 1.05478e-07
2.33587e-07 4.03081e-07 1.0495e-07
2.22306e-07 1.96771e-07 1.0407e-07
2.07745e-07 2.76525e-07 6.77564e-08
2.13129e-07 3.24532e-07 6.84979e-08
1.6954e-07 3.22434e-07 6.65042e-08
1.65685e-07 2.81581e-07 6.58114e-08
5.4633e-08 4.1498e-07 1.2523e-07
3.78461e-08 2.10536e-07 1.25176e-07
1.18903e-07 3.94798e-07 1.08638e-07
1.01713e-07 2.14614e-07 1.07476e-07
3.00583e-07 3.16752e-07 1.06703e-07
2.9182e-07 2.78403e-07 1.05139e-07
9.99611e-08 2.58277e-07 1.01803e-07
1.09561e-07 3.54928e-07 1.02262e-07
1.94812e-07 1.46819e-07 1.20669e-07
2.13359e-07 4.62491e-07 1.20268e-07
2.76005e-07 3.87138e-07 1.0854e-07
2.62599e-07 2.14782e-07 1.0634e-07
1.98076e-07 3.3451e-07 6.9331e-08
1.80615e-07 2.68368e-07 6.83845e-08
1.55712e-07 2.98999e-07 6.82944e-08
2.22152e-07 2.9798e-07 6.95725e-08
5.25614e-08 3.66453e-07 1.18503e-07
4.15626e-08 2.57082e-07 1.18343e-07
2.65392e-07 3.30591e-07 9.50906e-08
3.21255e-07 3.89654e-07 1.19297e-07
3.08691e-07 2.09675e-07 1.19622e-07
2.58398e-07 2.72232e-07 9.34533e-08
1.71839e-07 3.55039e-07 8.32667e-08
2.07948e-07 2.47851e-07 8.24766e-08
1.41459e-07 3.27436e-07 8.21833e-08
2.19977e-07 3.4954e-07 8.26734e-08
1.59757e-07 2.51788e-07 8.21007e-08
1.40574e-07 2.83477e-07 7.93198e-08
1.42688e-07 1.70055e-07 1.12382e-07
1.64303e-07 4.36633e-07 1.13166e-07
1.84354e-07 4.694e-07 1.21582e-07
1.63464e-07 1.41729e-07 1.22036e-07
4.38186e-08 3.85277e-07 1.23926e-07
2.96656e-08 2.40826e-07 1.23809e-07
5.41906e-08 3.11484e-07 1.09102e-07
3.48295e-07 3.6875e-07 1.22574e-07
3.38631e-07 2.31274e-07 1.23696e-07
2.22573e-07 4.32522e-07 1.13006e-07
2.08045e-07 1.7163e-07 1.12584e-07
2.34541e-07 3.15731e-07 7.81759e-08
1.92638e-07 2.06291e-07 1.00762e-07
2.06128e-07 3.97478e-07 1.01393e-07
1.83777e-07 4.00422e-07 1.02275e-07
1.67573e-07 2.05013e-07 1.01645e-07
1.11479e-07 1.87594e-07 1.0858e-07
1.33312e-07 4.17802e-07 1.10203e-07
3.18107e-07 2.62642e-07 1.14198e-07
3.27492e-07 3.38984e-07 1.14647e-07
7.82361e-08 4.09948e-07 1.1992e-07
6.06527e-08 2.08439e-07 1.19338e-07
1.08922e-07 2.8376e-07 9.43677e-08
7.11137e-08 2.56331e-07 1.11695e-07
8.14106e-08 3.61939e-07 1.11953e-07
3.88654e-08 4.15232e-07 1.27364e-07
4.05344e-08 4.02585e-07 1.26648e-07
2.197e-08 2.14306e-07 1.27511e-07
2.42841e-08 2.25425e-07 1.26622e-07
2.27475e-07 2.7902e-07 7.70851e-08
2.65604e-07 4.11047e-07 1.10236e-07
2.53715e-07 1.83138e-07 1.08908e-07
1.05984e-07 3.78828e-07 1.08837e-07
9.2299e-08 2.34104e-07 1.08104e-07
2.14871e-07 4.84861e-07 1.24095e-07
1.9396e-07 1.26788e-07 1.24996e-07
1.13696e-07 3.3027e-07 9.47637e-08
9.4731e-08 3.09427e-07 9.88802e-08
3.14464e-07 2.92173e-07 1.09652e-07
3.4571e-07 3.97906e-07 1.24159e-07
3.32947e-07 2.03752e-07 1.25275e-07
2.46025e-07 3.75293e-07 9.89561e-08
2.30907e-07 2.19871e-07 9.79883e-08
2.66033e-07 2.43699e-07 1.02215e-07
1.31612e-07 2.25096e-07 9.84574e-08
1.47369e-07 3.81902e-07 9.95711e-08
1.8633e-07 3.21521e-07 5.96049e-08
1.93706e-07 2.80098e-07 6.02077e-08
2.09761e-07 3.0759e-07 6.05026e-08
1.69742e-07 3.09002e-07 6.00514e-08
2.7481e-07 3.59287e-07 1.03356e-07
5.01264e-08 3.43005e-07 1.13605e-07
4.25408e-08 2.80511e-07 1.13575e-07
1.78379e-07 2.92933e-07 5.42659e-08
1.59345e-07 2.26951e-07 9.30338e-08
1.98958e-07 3.18183e-07 5.86994e-08
2.03276e-07 2.92283e-07 5.74917e-08
2.33548e-07 1.6497e-07 1.11697e-07
2.46781e-07 4.3332e-07 1.12632e-07
2.17745e-07 3.76832e-07 9.40891e-08
2.77785e-07 2.98183e-07 9.85476e-08
1.72016e-07 3.79998e-07 9.46083e-08
6.43842e-08 3.80135e-07 1.19492e-07
5.1472e-08 2.41858e-07 1.19262e-07
8.06141e-08 1.93617e-07 1.13723e-07
1.01436e-07 4.17223e-07 1.15031e-07
2.32414e-07 3.31913e-07 8.07201e-08
2.07304e-07 2.22789e-07 9.39238e-08
2.8156e-07 2.6183e-07 1.04225e-07
2.95759e-07 3.80041e-07 1.12384e-07
2.84519e-07 2.19076e-07 1.11963e-07
2.93749e-07 3.39565e-07 1.06422e-07
1.81007e-07 3.11475e-07 5.51694e-08
1.95403e-07 2.62727e-07 7.21782e-08
1.8335e-07 3.39949e-07 7.26477e-08
1.54599e-07 3.12735e-07 7.08934e-08
1.59525e-07 3.415e-07 8.01001e-08
2.16281e-07 2.61736e-07 7.83552e-08
1.14333e-07 2.38564e-07 1.00091e-07
1.27598e-07 3.71033e-07 1.00914e-07
1.49687e-07 2.64881e-07 8.01103e-08
9.75723e-08 3.97453e-07 1.1408e-07
8.10387e-08 2.16144e-07 1.13198e-07
1.32767e-07 3.46118e-07 9.181e-08
1.24436e-07 2.64059e-07 9.10685e-08
1.81614e-07 2.83842e-07 5.76877e-08
1.70502e-07 2.97464e-07 5.79383e-08
2.99151e-07 4.05123e-07 1.15048e-07
2.86754e-07 1.916e-07 1.14149e-07
1.7779e-07 1.29796e-07 1.2509e-07
1.98378e-07 4.83067e-07 1.24169e-07
4.06596e-07 -4.78733e-08 9.06636e-08
4.06892e-07 5.01401e-08 9.15073e-08
3.02606e-07 5.30739e-08 9.07452e-08
3.02464e-07 -5.30051e-08 9.08425e-08
2.37915e-07 7.74943e-08 1.16335e-07
2.37754e-07 -7.74795e-08 1.16372e-07
3.53188e-07 6.04389e-08 8.5755e-08
2.9282e-07 -5.04606e-10 8.35663e-08
4.12417e-07 -1.96777e-09 8.36199e-08
3.52516e-07 -6.05927e-08 8.5901e-08
2.154e-07 8.14522e-08 1.22763e-07
2.15198e-07 -8.14665e-08 1.22801e-07
4.70571e-07 -6.17952e-08 1.13223e-07
4.64843e-07 5.91117e-08 1.11412e-07
3.53263e-07 -1.24833e-07 1.12882e-07
3.59023e-07 1.24444e-07 1.12964e-07
3.93485e-07 9.50361e-08 1.04328e-07
3.16018e-07 -9.93426e-08 1.0334e-07
2.44575e-07 2.53105e-08 1.04761e-07
2.41445e-07 -2.53137e-08 1.05616e-07
3.92968e-07 -9.88837e-08 1.05338e-07
3.16592e-07 1.03959e-07 1.04421e-07
3.73795e-07 -1.87197e-08 6.52947e-08
3.75748e-07 2.29606e-08 6.84119e-08
3.29508e-07 2.03991e-08 6.72499e-08
3.30512e-07 -1.92139e-08 6.63276e-08
2.09981e-07 9.82763e-08 1.25038e-07
2.09749e-07 -9.83037e-08 1.25135e-07
2.73879e-07 9.06706e-08 1.07572e-07
2.73717e-07 -9.03088e-08 1.07594e-07
4.67008e-07 -1.80836e-08 1.06535e-07
4.61527e-07 2.0499e-08 1.04893e-07
2.67909e-07 -4.78121e-08 1.01756e-07
2.6804e-07 4.78644e-08 1.01713e-07
3.72633e-07 -1.54177e-07 1.2111e-07
3.44862e-07 1.54849e-07 1.20869e-07
4.37085e-07 -8.6203e-08 1.08779e-07
4.37063e-07 8.42652e-08 1.08415e-07
3.59169e-07 3.20544e-08 6.92464e-08
3.57974e-07 -3.16266e-08 6.87575e-08
3.19693e-07 5.39662e-09 6.85699e-08
3.86437e-07 -3.84777e-09 6.82549e-08
2.09367e-07 5.27156e-08 1.1811e-07
2.09256e-07 -5.27111e-08 1.18097e-07
4.30376e-07 -2.8388e-08 9.4864e-08
4.82896e-07 -9.12184e-08 1.19396e-07
4.82132e-07 9.04115e-08 1.19182e-07
4.25589e-07 2.84771e-08 9.28024e-08
3.29105e-07 5.3006e-08 8.35933e-08
3.30085e-07 -5.17126e-08 8.29187e-08
3.02088e-07 -2.26407e-08 8.18564e-08
3.80228e-07 -4.65821e-08 8.23563e-08
3.81091e-07 4.69726e-08 8.26472e-08
3.05925e-07 2.08732e-08 7.95541e-08
3.1909e-07 -1.32216e-07 1.12571e-07
3.9236e-07 1.27581e-07 1.13661e-07
3.753e-07 1.59537e-07 1.22516e-07
3.43076e-07 -1.60507e-07 1.22149e-07
1.99047e-07 6.93151e-08 1.23599e-07
1.98898e-07 -6.93202e-08 1.23586e-07
2.16581e-07 4.0351e-10 1.08615e-07
5.1118e-07 -7.16856e-08 1.22575e-07
5.11695e-07 7.07257e-08 1.22656e-07
3.81329e-07 -1.26333e-07 1.1358e-07
3.30813e-07 1.29714e-07 1.13024e-07
3.64293e-07 -9.26348e-08 1.01553e-07
3.44783e-07 9.36365e-08 1.01182e-07
3.97691e-07 1.48208e-08 7.7024e-08
3.68847e-07 9.41441e-08 1.02403e-07
3.40268e-07 -9.59019e-08 1.0205e-07
4.23715e-07 1.07782e-07 1.10096e-07
3.99172e-07 -2.15521e-08 7.95704e-08
2.85974e-07 -1.1613e-07 1.08753e-07
4.89271e-07 3.69369e-08 1.13563e-07
4.92246e-07 -4.12759e-08 1.14572e-07
2.32992e-07 9.89143e-08 1.19339e-07
2.32804e-07 -9.88626e-08 1.19371e-07
2.74011e-07 2.31297e-08 9.44397e-08
2.38991e-07 -5.16004e-08 1.1161e-07
2.39333e-07 5.15915e-08 1.11509e-07
1.93711e-07 9.55005e-08 1.27262e-07
1.95045e-07 8.46783e-08 1.26418e-07
1.9348e-07 -9.56053e-08 1.27389e-07
1.94824e-07 -8.47097e-08 1.26442e-07
4.25338e-07 -1.08775e-07 1.10587e-07
2.62634e-07 7.19166e-08 1.08085e-07
2.6248e-07 -7.18711e-08 1.08138e-07
3.75233e-07 -1.75884e-07 1.25131e-07
3.47199e-07 1.75074e-07 1.251e-07
2.8445e-07 1.17174e-07 1.09122e-07
2.74768e-07 -2.22796e-08 9.39779e-08
2.56269e-07 1.94508e-09 9.89292e-08
4.83043e-07 6.31794e-09 1.09312e-07
4.09554e-07 7.48756e-08 1.00295e-07
5.07113e-07 -1.0057e-07 1.24223e-07
5.07162e-07 1.00073e-07 1.24259e-07
4.07354e-07 -7.40774e-08 9.9598e-08
4.35222e-07 5.66506e-08 1.02299e-07
3.0306e-07 -7.85778e-08 9.87383e-08
3.4622e-07 1.96344e-08 6.01555e-08
3.47872e-07 -1.86899e-08 5.94538e-08
3.74501e-07 6.96522e-09 6.07107e-08
3.32339e-07 -4.90784e-09 5.95578e-08
3.02628e-07 8.00168e-08 9.90878e-08
4.37346e-07 -5.86287e-08 1.03356e-07
2.08773e-07 3.03668e-08 1.13141e-07
2.07223e-07 -2.97721e-08 1.13262e-07
3.62351e-07 -8.35342e-09 5.44529e-08
3.75759e-07 7.12942e-08 9.31235e-08
3.61456e-07 1.64053e-08 5.85643e-08
3.36608e-07 7.6133e-09 5.7707e-08
4.05649e-07 -1.28774e-07 1.13208e-07
3.77348e-07 -7.31974e-08 9.42485e-08
4.44813e-07 1.12999e-09 9.81814e-08
3.287e-07 -7.63756e-08 9.41675e-08
3.95872e-07 3.08021e-08 8.08032e-08
2.20885e-07 6.69088e-08 1.19114e-07
2.20696e-07 -6.69166e-08 1.19141e-07
2.54718e-07 1.10927e-07 1.13661e-07
2.54179e-07 -1.11979e-07 1.13839e-07
3.29613e-07 7.73514e-08 9.4406e-08
4.53029e-07 3.80568e-08 1.04434e-07
3.04876e-07 1.33215e-07 1.1135e-07
4.57586e-07 -8.03087e-08 1.1251e-07
4.56977e-07 7.92156e-08 1.12226e-07
4.58323e-07 -4.00856e-08 1.06385e-07
3.43011e-07 -8.45146e-09 5.50073e-08
3.43204e-07 3.70004e-08 7.23747e-08
3.43114e-07 -3.69955e-08 7.25026e-08
3.16763e-07 -8.21298e-09 7.06316e-08
3.19163e-07 3.84671e-08 7.97207e-08
3.1872e-07 -3.78209e-08 7.97333e-08
2.84344e-07 -6.61487e-08 1.00182e-07
3.89097e-07 -3.29094e-08 7.89162e-08
2.84449e-07 6.64093e-08 1.00168e-07
2.52928e-07 8.99557e-08 1.13175e-07
2.52699e-07 -9.00663e-08 1.13257e-07
2.91818e-07 -4.08631e-08 9.12545e-08
2.90896e-07 4.05215e-08 9.15004e-08
3.58475e-07 -1.65787e-08 5.80864e-08
3.70849e-07 -4.65557e-09 5.76785e-08
4.59662e-07 -1.05334e-07 1.15252e-07
4.59656e-07 1.04956e-07 1.15189e-07
3.6333e-07 1.72898e-07 1.25268e-07
3.59143e-07 -1.72746e-07 1.25133e-07
2.4422e-07 -3.51229e-07 9.12754e-08
2.38101e-07 -2.48247e-07 9.11865e-08
1.33337e-07 -2.50555e-07 9.06755e-08
1.44415e-07 -3.56955e-07 9.13909e-08
6.73591e-08 -2.29874e-07 1.16372e-07
8.15368e-08 -3.87885e-07 1.16871e-07
1.83078e-07 -2.39176e-07 8.53326e-08
1.29368e-07 -3.03769e-07 8.37564e-08
2.47426e-07 -3.00196e-07 8.45908e-08
1.95296e-07 -3.64061e-07 8.59951e-08
4.47054e-08 -2.27321e-07 1.22856e-07
5.94893e-08 -3.96238e-07 1.23027e-07
2.98217e-07 -2.37498e-07 1.13583e-07
3.01414e-07 -3.58314e-07 1.11456e-07
1.95754e-07 -4.31509e-07 1.12607e-07
1.84077e-07 -1.75783e-07 1.12418e-07
2.22582e-07 -2.00914e-07 1.03178e-07
1.60973e-07 -4.02644e-07 1.04071e-07
7.89941e-08 -2.82712e-07 1.05004e-07
8.24486e-08 -3.343e-07 1.05635e-07
2.33479e-07 -4.03202e-07 1.04879e-07
1.42598e-07 -1.98268e-07 1.04215e-07
2.12506e-07 -3.23991e-07 6.80535e-08
2.07944e-07 -2.75902e-07 6.82144e-08
1.64196e-07 -2.82985e-07 6.61985e-08
1.71116e-07 -3.23598e-07 6.6126e-08
3.78712e-08 -2.10487e-07 1.25088e-07
5.44786e-08 -4.14901e-07 1.25204e-07
1.01565e-07 -2.14083e-07 1.07501e-07
1.18799e-07 -3.94697e-07 1.08625e-07
2.97482e-07 -2.81112e-07 1.0691e-07
2.95214e-07 -3.194e-07 1.04992e-07
1.09451e-07 -3.54857e-07 1.02272e-07
9.98695e-08 -2.58178e-07 1.01762e-07
2.1322e-07 -4.62464e-07 1.20241e-07
1.65674e-07 -1.47173e-07 1.20655e-07
2.65898e-07 -2.0949e-07 1.08003e-07
2.72281e-07 -3.81745e-07 1.06902e-07
1.90918e-07 -2.67596e-07 6.89191e-08
1.87988e-07 -3.34819e-07 6.88282e-08
1.56861e-07 -3.08102e-07 6.83603e-08
2.22384e-07 -3.01675e-07 6.96078e-08
4.15156e-08 -2.57038e-07 1.18354e-07
5.2444e-08 -3.66397e-07 1.18479e-07
2.60144e-07 -2.67691e-07 9.51006e-08
3.09462e-07 -2.09176e-07 1.19862e-07
3.20243e-07 -3.89128e-07 1.19162e-07
2.62789e-07 -3.2616e-07 9.34878e-08
1.59444e-07 -2.48679e-07 8.34472e-08
2.16203e-07 -3.52706e-07 8.3019e-08
1.36094e-07 -2.8156e-07 8.18829e-08
2.11923e-07 -2.51041e-07 8.20318e-08
1.70429e-07 -3.5334e-07 8.27268e-08
1.4531e-07 -3.25046e-07 7.95899e-08
1.64151e-07 -4.36621e-07 1.1319e-07
2.19477e-07 -1.68531e-07 1.12408e-07
1.84209e-07 -4.69382e-07 1.21577e-07
1.96663e-07 -1.41235e-07 1.22055e-07
2.96455e-08 -2.40788e-07 1.23826e-07
4.36774e-08 -3.85213e-07 1.23881e-07
5.39517e-08 -3.10134e-07 1.091e-07
3.38109e-07 -2.30551e-07 1.23651e-07
3.48604e-07 -3.6805e-07 1.22719e-07
2.2243e-07 -4.32514e-07 1.12962e-07
1.54405e-07 -1.72098e-07 1.12759e-07
2.31407e-07 -2.83475e-07 7.80924e-08
2.06016e-07 -3.97455e-07 1.01321e-07
1.7212e-07 -2.06849e-07 1.00766e-07
1.97044e-07 -2.04148e-07 1.01654e-07
1.83647e-07 -4.00444e-07 1.02299e-07
2.53534e-07 -1.84543e-07 1.08632e-07
1.33187e-07 -4.17678e-07 1.10212e-07
3.24103e-07 -3.3498e-07 1.13702e-07
3.20771e-07 -2.58604e-07 1.15254e-07
6.06155e-08 -2.08287e-07 1.19323e-07
7.80986e-08 -4.09868e-07 1.19907e-07
1.1362e-07 -3.29151e-07 9.45982e-08
8.11484e-08 -3.61863e-07 1.11994e-07
7.11901e-08 -2.56223e-07 1.11631e-07
2.2006e-08 -2.14352e-07 1.27389e-07
2.43209e-08 -2.25406e-07 1.26603e-07
3.86955e-08 -4.15152e-07 1.27328e-07
4.03625e-08 -4.02508e-07 1.26605e-07
2.31213e-07 -3.20275e-07 7.7263e-08
2.63786e-07 -4.11966e-07 1.10152e-07
9.22063e-08 -2.33954e-07 1.08079e-07
1.05867e-07 -3.78745e-07 1.08832e-07
2.14731e-07 -4.84832e-07 1.24073e-07
1.65296e-07 -1.27049e-07 1.24962e-07
1.09612e-07 -1.86408e-07 1.08972e-07
1.08555e-07 -2.82642e-07 9.45084e-08
9.42963e-08 -3.06216e-07 9.88644e-08
3.1547e-07 -3.04718e-07 1.09576e-07
2.36199e-07 -2.2366e-07 9.7924e-08
3.32976e-07 -2.0348e-07 1.2532e-07
3.45521e-07 -3.97685e-07 1.24269e-07
2.40361e-07 -3.78561e-07 9.87244e-08
2.73956e-07 -3.53992e-07 1.02338e-07
1.47129e-07 -3.81467e-07 9.94712e-08
1.8099e-07 -2.81638e-07 5.92974e-08
1.98525e-07 -3.21712e-07 6.05303e-08
2.07821e-07 -2.92928e-07 6.04107e-08
1.67851e-07 -2.96434e-07 5.99538e-08
1.30839e-07 -2.23154e-07 9.89723e-08
2.66186e-07 -2.38477e-07 1.03197e-07
4.33074e-08 -2.79953e-07 1.135e-07
4.90942e-08 -3.42563e-07 1.13674e-07
1.81197e-07 -3.10879e-07 5.44267e-08
1.7349e-07 -3.78218e-07 9.37786e-08
2.05344e-07 -2.26452e-07 9.24602e-08
1.94361e-07 -2.83547e-07 5.84153e-08
2.05327e-07 -3.08558e-07 5.76402e-08
2.46316e-07 -4.33587e-07 1.12645e-07
2.77789e-07 -3.00019e-07 9.85734e-08
5.1466e-08 -2.41798e-07 1.19245e-07
6.42266e-08 -3.80074e-07 1.19478e-07
8.09801e-08 -1.94518e-07 1.13575e-07
1.0131e-07 -4.17122e-07 1.15027e-07
2.26749e-07 -2.67351e-07 8.04888e-08
2.1787e-07 -3.78371e-07 9.4573e-08
1.57987e-07 -2.2409e-07 9.41636e-08
2.87425e-07 -3.36159e-07 1.04093e-07
1.283e-07 -1.6929e-07 1.11131e-07
2.85305e-07 -2.17214e-07 1.12374e-07
2.94645e-07 -3.78072e-07 1.12022e-07
2.8723e-07 -2.58508e-07 1.06666e-07
1.77837e-07 -2.92428e-07 5.50017e-08
2.02669e-07 -3.38961e-07 7.26378e-08
1.74712e-07 -2.63733e-07 7.21729e-08
1.5216e-07 -2.94698e-07 7.07609e-08
2.22693e-07 -3.38169e-07 7.87457e-08
1.50256e-07 -2.65437e-07 7.95206e-08
1.27463e-07 -3.70925e-07 1.00905e-07
1.58277e-07 -3.417e-07 8.062e-08
1.14189e-07 -2.38175e-07 1.00112e-07
8.10332e-08 -2.16134e-07 1.13143e-07
9.74504e-08 -3.97367e-07 1.14071e-07
1.23892e-07 -2.63607e-07 9.12832e-08
1.32973e-07 -3.45648e-07 9.157e-08
1.86234e-07 -3.19364e-07 5.79745e-08
1.71917e-07 -3.07579e-07 5.80154e-08
2.89992e-07 -1.9029e-07 1.14954e-07
2.96978e-07 -4.03948e-07 1.14685e-07
1.81622e-07 -1.29688e-07 1.25083e-07
1.98238e-07 -4.83043e-07 1.24155e-07
-9.76288e-08 -3.75615e-07 9.10709e-08
-1.12956e-07 -2.69794e-07 9.31345e-08
-2.26493e-07 -2.97292e-07 9.70823e-08
-1.97551e-07 -4.06926e-07 9.26025e-08
-2.62878e-07 -4.49003e-07 1.17445e-07
-3.06281e-07 -2.90842e-07 1.25308e-07
-1.73173e-07 -2.72498e-07 8.96143e-08
-2.18965e-07 -3.56456e-07 8.70179e-08
-9.87263e-08 -3.25407e-07 8.37784e-08
-1.45631e-07 -4.02072e-07 8.66528e-08
-2.87238e-07 -4.59946e-07 1.23152e-07
-3.34326e-07 -2.94056e-07 1.31675e-07
-5.76213e-08 -2.57527e-07 1.1206e-07
-3.61147e-08 -3.80518e-07 1.13998e-07
-1.36498e-07 -4.70487e-07 1.13266e-07
-1.81454e-07 -2.05228e-07 1.19181e-07
-2.20551e-07 -2.42867e-07 1.12289e-07
-1.75136e-07 -4.48614e-07 1.04784e-07
-2.60795e-07 -3.95716e-07 1.07948e-07
-2.78456e-07 -3.43175e-07 1.11256e-07
-1.33736e-07 -2.20544e-07 1.07281e-07
-1.02535e-07 -4.34395e-07 1.05731e-07
-1.33352e-07 -3.50827e-07 6.55549e-08
-1.41716e-07 -3.05157e-07 6.9609e-08
-1.87489e-07 -3.25396e-07 6.93973e-08
-1.76201e-07 -3.6773e-07 6.89263e-08
-2.90857e-07 -4.7836e-07 1.25008e-07
-3.48147e-07 -2.7947e-07 1.36067e-07
-2.21039e-07 -4.4921e-07 1.09323e-07
-2.68767e-07 -2.66236e-07 1.18098e-07
-4.0651e-08 -3.35541e-07 1.06232e-07
-5.21916e-08 -2.97713e-07 1.04734e-07
-2.3455e-07 -4.11918e-07 1.03829e-07
-2.6138e-07 -3.12578e-07 1.08299e-07
-1.64517e-07 -1.70947e-07 1.26473e-07
-1.15552e-07 -4.99239e-07 1.20892e-07
-6.41471e-08 -4.11388e-07 1.09582e-07
-9.03717e-08 -2.34089e-07 1.07843e-07
-1.61323e-07 -3.006e-07 7.15218e-08
-1.45411e-07 -3.69881e-07 6.93475e-08
-1.90305e-07 -3.55356e-07 7.09732e-08
-1.24508e-07 -3.31683e-07 6.85312e-08
-2.9393e-07 -4.31566e-07 1.19777e-07
-3.24872e-07 -3.24201e-07 1.25039e-07
-7.7107e-08 -3.50517e-07 9.50424e-08
-4.52729e-08 -2.24061e-07 1.20274e-07
-2.26198e-08 -4.10297e-07 1.20733e-07
-9.1567e-08 -2.94144e-07 9.25273e-08
-1.96101e-07 -2.89674e-07 8.7741e-08
-1.69108e-07 -3.98498e-07 8.41622e-08
-2.17072e-07 -3.30289e-07 8.613e-08
-1.22102e-07 -3.80117e-07 8.27806e-08
-1.40306e-07 -2.78047e-07 8.44924e-08
-2.00343e-07 -3.74938e-07 8.18934e-08
-1.67651e-07 -4.81274e-07 1.13797e-07
-2.21088e-07 -2.06552e-07 1.23741e-07
-1.43691e-07 -5.10384e-07 1.22162e-07
-1.97672e-07 -1.70611e-07 1.31628e-07
-3.04993e-07 -4.50886e-07 1.24169e-07
-3.46051e-07 -3.11541e-07 1.31178e-07
-2.9197e-07 -3.7622e-07 1.1366e-07
1.46602e-09 -3.87838e-07 1.23817e-07
-1.44352e-08 -2.44369e-07 1.23794e-07
-1.4997e-07 -1.95726e-07 1.17029e-07
-1.09913e-07 -4.66927e-07 1.1372e-07
-1.64755e-07 -2.35228e-07 1.05573e-07
-1.30016e-07 -4.33757e-07 1.02076e-07
-1.17311e-07 -3.09899e-07 7.74845e-08
-1.9218e-07 -2.39238e-07 1.08403e-07
-1.5212e-07 -4.41372e-07 1.0296e-07
-1.08608e-07 -3.48439e-07 7.97877e-08
-2.0235e-07 -4.68905e-07 1.10818e-07
-2.58947e-07 -2.34532e-07 1.22e-07
-2.74329e-08 -2.79421e-07 1.13573e-07
-1.49028e-08 -3.57363e-07 1.14715e-07
-2.64645e-07 -4.70795e-07 1.20083e-07
-3.20392e-07 -2.70954e-07 1.30904e-07
-2.32123e-07 -3.85776e-07 9.73546e-08
-2.63727e-07 -4.23748e-07 1.13404e-07
-2.93391e-07 -3.16444e-07 1.18514e-07
-3.09286e-07 -4.80198e-07 1.26936e-07
-3.0966e-07 -4.67722e-07 1.26323e-07
-3.65474e-07 -2.8773e-07 1.37589e-07
-3.59073e-07 -2.9838e-07 1.35043e-07
-1.01617e-07 -2.01996e-07 1.1105e-07
-7.10287e-08 -4.377e-07 1.11241e-07
-2.368e-07 -4.36124e-07 1.0973e-07
-2.76263e-07 -2.89e-07 1.16721e-07
-1.11543e-07 -5.21845e-07 1.24685e-07
-1.65741e-07 -1.49509e-07 1.31212e-07
-2.44308e-07 -3.37962e-07 9.8901e-08
-2.54153e-07 -3.68366e-07 1.03102e-07
-2.57858e-08 -3.09969e-07 1.08604e-07
-2.25916e-08 -2.15219e-07 1.25839e-07
-1.18522e-10 -4.18193e-07 1.25853e-07
-9.30522e-08 -4.04089e-07 1.00128e-07
-1.19906e-07 -2.42636e-07 1.0087e-07
-8.15116e-08 -2.62563e-07 1.04101e-07
-1.91965e-07 -4.30804e-07 1.00408e-07
-2.31835e-07 -2.69511e-07 1.06917e-07
-1.69982e-07 -3.18812e-07 6.17331e-08
-1.59574e-07 -3.61254e-07 6.11099e-08
-1.39302e-07 -3.22552e-07 6.13677e-08
-1.80627e-07 -3.40336e-07 6.18005e-08
-6.7535e-08 -3.81704e-07 1.03955e-07
-2.94579e-07 -4.08748e-07 1.164e-07
-3.13774e-07 -3.47659e-07 1.19502e-07
-1.46786e-07 -3.42702e-07 5.47739e-08
-1.55255e-07 -3.15934e-07 6.02006e-08
-1.72524e-07 -3.52494e-07 5.93988e-08
-8.59397e-08 -4.63917e-07 1.13472e-07
-1.23406e-07 -1.8538e-07 1.14875e-07
-1.20718e-07 -4.09904e-07 9.47402e-08
-1.46634e-07 -2.50653e-07 9.7226e-08
-6.59919e-08 -3.18801e-07 9.79859e-08
-2.02338e-07 -2.63557e-07 1.00503e-07
-1.6636e-07 -4.23401e-07 9.53658e-08
-1.22187e-07 -2.93187e-07 8.16474e-08
-2.82039e-07 -4.43776e-07 1.20154e-07
-3.20775e-07 -3.06522e-07 1.2693e-07
-2.37272e-07 -4.74373e-07 1.15435e-07
-2.97842e-07 -2.49887e-07 1.27718e-07
-6.42402e-08 -2.7991e-07 1.04982e-07
-6.84976e-08 -2.37002e-07 1.12612e-07
-4.64596e-08 -4.01746e-07 1.1348e-07
-4.86868e-08 -3.59214e-07 1.06654e-07
-1.71308e-07 -3.32652e-07 5.70094e-08
-1.79187e-07 -3.01016e-07 7.58062e-08
-1.58758e-07 -3.8018e-07 7.34562e-08
-1.97517e-07 -3.41606e-07 7.36773e-08
-2.05003e-07 -3.08679e-07 8.43316e-08
-1.83267e-07 -3.87984e-07 8.12689e-08
-2.14219e-07 -4.24259e-07 1.01955e-07
-2.49993e-07 -2.88575e-07 1.07969e-07
-1.16346e-07 -3.62866e-07 7.92289e-08
-2.44276e-07 -4.55667e-07 1.146e-07
-2.93581e-07 -2.73297e-07 1.23871e-07
-2.33872e-07 -3.13495e-07 9.69123e-08
-2.12018e-07 -3.98215e-07 9.36429e-08
-1.48378e-07 -3.53127e-07 5.8234e-08
-1.39755e-07 -3.36121e-07 5.80241e-08
-6.6628e-08 -2.06733e-07 1.15518e-07
-4.09214e-08 -4.27632e-07 1.16369e-07
-1.82545e-07 -1.55432e-07 1.33102e-07
-1.28264e-07 -5.22145e-07 1.24738e-07
-3.27773e-07 -8.71655e-08 1.43208e-07
-5.16644e-07 1.02118e-07 1.49872e-07
-3.27941e-07 9.06212e-08 1.43132e-07
-5.16814e-07 -1.02139e-07 1.49874e-07
-6.0838e-07 1.28893e-07 1.52727e-07
-6.08408e-07 -1.28977e-07 1.52725e-07
-4.20785e-07 1.20745e-07 1.46416e-07
-5.42124e-07 3.06026e-09 1.50536e-07
-3.12657e-07 -3.51574e-09 1.43104e-07
-4.21971e-07 -1.20937e-07 1.46444e-07
-6.37935e-07 1.34036e-07 1.53576e-07
-6.37963e-07 -1.34111e-07 1.53574e-07
-2.53952e-07 8.54849e-08 1.41519e-07
-2.47704e-07 -8.76585e-08 1.41351e-07
-4.13302e-07 -2.03355e-07 1.45868e-07
-4.04502e-07 2.02044e-07 1.45332e-07
-3.51753e-07 1.58902e-07 1.42102e-07
-4.78553e-07 -1.71058e-07 1.48614e-07
-6.0429e-07 4.76437e-08 1.52135e-07
-6.06596e-07 -4.66723e-08 1.52177e-07
-3.52344e-07 -1.64342e-07 1.41843e-07
-4.76354e-07 1.77133e-07 1.48545e-07
-3.75697e-07 -4.72636e-08 1.45087e-07
-4.78009e-07 4.86718e-08 1.48648e-07
-3.73543e-07 5.48315e-08 1.4499e-07
-4.79592e-07 -5.06604e-08 1.48702e-07
-6.4343e-07 1.55084e-07 1.53738e-07
-6.43467e-07 -1.55156e-07 1.53736e-07
-5.52371e-07 1.51692e-07 1.50972e-07
-5.52533e-07 -1.51301e-07 1.50975e-07
-2.44646e-07 -2.60733e-08 1.39929e-07
-2.51857e-07 3.04855e-08 1.40351e-07
-5.70932e-07 8.75095e-08 1.51495e-07
-5.70949e-07 -8.76064e-08 1.51495e-07
-3.82924e-07 -2.33739e-07 1.43337e-07
-4.21243e-07 2.40021e-07 1.46526e-07
-2.89613e-07 -1.32502e-07 1.40334e-07
-2.89685e-07 1.29942e-07 1.40498e-07
-4.09828e-07 7.64211e-08 1.46197e-07
-4.1221e-07 -7.55985e-08 1.46275e-07
-5.01197e-07 -1.30592e-08 1.49391e-07
-3.50993e-07 -9.04963e-09 1.44343e-07
-6.45386e-07 9.31219e-08 1.53288e-07
-6.45401e-07 -9.3197e-08 1.53285e-07
-2.91432e-07 -4.76502e-08 1.42468e-07
-2.36691e-07 -1.21855e-07 1.40553e-07
-2.37594e-07 1.21292e-07 1.40591e-07
-2.97782e-07 4.90958e-08 1.42657e-07
-4.69007e-07 1.07597e-07 1.48277e-07
-4.67308e-07 -1.05923e-07 1.48212e-07
-5.26062e-07 4.77469e-08 1.50119e-07
-3.69911e-07 -9.48647e-08 1.44539e-07
-3.68434e-07 9.49611e-08 1.44504e-07
-5.2063e-07 -4.47511e-08 1.49954e-07
-4.6417e-07 -2.13907e-07 1.48211e-07
-3.53509e-07 1.9979e-07 1.40687e-07
-4.2256e-07 -2.47134e-07 1.46612e-07
-3.78992e-07 2.39181e-07 1.42935e-07
-6.57936e-07 1.1784e-07 1.53825e-07
-6.57959e-07 -1.17911e-07 1.53823e-07
-6.38738e-07 1.15522e-09 1.52534e-07
-2.05356e-07 -9.21806e-08 1.40196e-07
-2.04609e-07 9.11107e-08 1.40114e-07
-3.70224e-07 -2.00387e-07 1.42439e-07
-4.46976e-07 2.10656e-07 1.47574e-07
-3.98561e-07 -1.62264e-07 1.45065e-07
-4.31468e-07 1.6517e-07 1.4678e-07
-3.34939e-07 3.0714e-08 1.43839e-07
-3.90988e-07 1.63413e-07 1.44636e-07
-4.38674e-07 -1.68003e-07 1.47077e-07
-3.06768e-07 1.67391e-07 1.3813e-07
-3.33533e-07 -4.32639e-08 1.43777e-07
-5.2393e-07 -1.88501e-07 1.49951e-07
-2.21979e-07 5.10359e-08 1.38977e-07
-2.19622e-07 -5.65976e-08 1.38953e-07
-6.1235e-07 1.56527e-07 1.52846e-07
-6.12389e-07 -1.5661e-07 1.52845e-07
-5.6575e-07 -4.37719e-08 1.51206e-07
-6.08923e-07 9.1703e-08 1.52547e-07
-6.09108e-07 -9.17094e-08 1.52549e-07
-6.62724e-07 1.51494e-07 1.54121e-07
-6.62456e-07 1.37594e-07 1.54081e-07
-6.62758e-07 -1.51561e-07 1.5412e-07
-6.62485e-07 -1.37662e-07 1.54079e-07
-3.0431e-07 -1.67975e-07 1.38013e-07
-5.74329e-07 1.23549e-07 1.51693e-07
-5.74373e-07 -1.23611e-07 1.51691e-07
-3.78368e-07 -2.56076e-07 1.42405e-07
-4.14778e-07 2.63713e-07 1.46123e-07
-5.26276e-07 1.89482e-07 1.50009e-07
-5.65811e-07 4.56765e-08 1.51212e-07
-5.89105e-07 2.90082e-09 1.51695e-07
-2.23874e-07 9.04916e-09 1.37484e-07
-3.26446e-07 1.27335e-07 1.41947e-07
-2.11652e-07 1.24859e-07 1.40149e-07
-2.11693e-07 -1.25279e-07 1.40135e-07
-3.2951e-07 -1.26967e-07 1.42108e-07
-2.89979e-07 9.09694e-08 1.42148e-07
-5.07619e-07 -1.40534e-07 1.49576e-07
-4.37348e-07 5.18907e-08 1.47253e-07
-4.41928e-07 -5.23227e-08 1.47411e-07
-3.72868e-07 1.83973e-08 1.44981e-07
-4.77083e-07 1.30585e-08 1.48699e-07
-5.08078e-07 1.42399e-07 1.49595e-07
-2.87334e-07 -9.30905e-08 1.42048e-07
-6.46807e-07 5.63418e-08 1.529e-07
-6.47853e-07 -5.56921e-08 1.52903e-07
-3.98275e-07 -2.62008e-08 1.4583e-07
-3.80167e-07 1.31605e-07 1.44454e-07
-4.02067e-07 4.61866e-08 1.45994e-07
-4.69123e-07 -2.2507e-08 1.48466e-07
-3.3321e-07 -1.98478e-07 1.38253e-07
-3.77379e-07 -1.34048e-07 1.44235e-07
-2.70683e-07 1.91318e-09 1.41277e-07
-4.6285e-07 -1.4135e-07 1.48044e-07
-3.40823e-07 6.17049e-08 1.43885e-07
-6.31485e-07 1.14315e-07 1.5326e-07
-6.31531e-07 -1.14381e-07 1.53258e-07
-5.77106e-07 1.75126e-07 1.51614e-07
-5.77471e-07 -1.76552e-07 1.51613e-07
-4.6118e-07 1.42675e-07 1.47984e-07
-2.64653e-07 5.8225e-08 1.41471e-07
-4.86603e-07 2.13719e-07 1.48789e-07
-2.64487e-07 -1.16727e-07 1.40826e-07
-2.65211e-07 1.15451e-07 1.409e-07
-2.58579e-07 -5.99611e-08 1.4131e-07
-4.53307e-07 2.76144e-08 1.4791e-07
-4.44621e-07 -8.47282e-08 1.47429e-07
-4.44626e-07 8.46077e-08 1.47436e-07
-5.04951e-07 1.99457e-08 1.49494e-07
-4.9459e-07 7.97801e-08 1.49155e-07
-4.92653e-07 -8.16985e-08 1.49089e-07
-5.42419e-07 -1.18784e-07 1.50692e-07
-3.51808e-07 -6.8088e-08 1.44186e-07
-5.42353e-07 1.18967e-07 1.50694e-07
-5.84892e-07 1.472e-07 1.52005e-07
-5.85022e-07 -1.47453e-07 1.52005e-07
-5.37536e-07 7.94981e-08 1.50495e-07
-5.38915e-07 -7.86649e-08 1.50534e-07
-4.10572e-07 -4.52021e-08 1.46296e-07
-3.79872e-07 -1.27946e-08 1.45185e-07
-2.61026e-07 1.48309e-07 1.3797e-07
-2.60957e-07 -1.4866e-07 1.37961e-07
-4.00337e-07 -2.57798e-07 1.44968e-07
-3.94611e-07 2.56364e-07 1.44418e-07
-1.1417e-07 2.73324e-07 9.13827e-08
-9.68748e-08 3.78336e-07 9.2077e-08
-1.97187e-07 4.06628e-07 9.25085e-08
-2.26563e-07 2.9703e-07 9.7196e-08
-3.06361e-07 2.9069e-07 1.25375e-07
-2.62671e-07 4.48842e-07 1.17451e-07
-1.44976e-07 4.01672e-07 8.66535e-08
-2.18568e-07 3.57484e-07 8.6992e-08
-9.93027e-08 3.2151e-07 8.37427e-08
-1.73029e-07 2.7229e-07 8.95766e-08
-3.34447e-07 2.93892e-07 1.31753e-07
-2.87036e-07 4.59801e-07 1.23161e-07
-4.15457e-08 3.78568e-07 1.12164e-07
-5.23243e-08 2.54779e-07 1.13816e-07
-1.8127e-07 2.05101e-07 1.1914e-07
-1.3126e-07 4.69204e-07 1.13298e-07
-1.02626e-07 4.30282e-07 1.04855e-07
-2.20435e-07 2.42654e-07 1.12324e-07
-2.75475e-07 3.42314e-07 1.10434e-07
-2.63586e-07 3.96389e-07 1.08816e-07
-1.3357e-07 2.20538e-07 1.07164e-07
-1.73689e-07 4.52661e-07 1.05951e-07
-1.42951e-07 3.10128e-07 6.61016e-08
-1.30342e-07 3.55333e-07 6.89732e-08
-1.7488e-07 3.65985e-07 6.77846e-08
-1.89135e-07 3.24218e-07 7.06479e-08
-3.48313e-07 2.79296e-07 1.3617e-07
-2.9066e-07 4.78204e-07 1.25022e-07
-2.6875e-07 2.66051e-07 1.18184e-07
-2.20742e-07 4.49297e-07 1.09375e-07
-4.55914e-08 3.00102e-07 1.06202e-07
-4.61743e-08 3.38803e-07 1.04754e-07
-2.61421e-07 3.12399e-07 1.08391e-07
-2.34343e-07 4.11731e-07 1.03784e-07
-1.64329e-07 1.70844e-07 1.26431e-07
-1.42644e-07 5.04218e-07 1.20927e-07
-8.75528e-08 2.28026e-07 1.09271e-07
-6.43967e-08 4.09632e-07 1.09287e-07
-1.44162e-07 3.69943e-07 7.00256e-08
-1.62121e-07 3.01315e-07 7.08726e-08
-1.93748e-07 3.43905e-07 7.1481e-08
-1.26171e-07 3.23453e-07 6.85834e-08
-3.24971e-07 3.24088e-07 1.25109e-07
-2.93711e-07 4.31447e-07 1.19772e-07
-8.613e-08 2.9204e-07 9.50418e-08
-2.33187e-08 4.0987e-07 1.20537e-07
-4.45186e-08 2.23513e-07 1.20411e-07
-8.16935e-08 3.51505e-07 9.30644e-08
-1.69817e-07 3.99661e-07 8.49898e-08
-1.96038e-07 2.89353e-07 8.77927e-08
-2.03538e-07 3.7757e-07 8.41183e-08
-1.41122e-07 2.79232e-07 8.38441e-08
-1.21201e-07 3.80472e-07 8.326e-08
-2.12836e-07 3.31009e-07 8.37915e-08
-2.20939e-07 2.06365e-07 1.23751e-07
-9.91973e-08 4.66088e-07 1.13857e-07
-1.12745e-07 5.04649e-07 1.22207e-07
-1.97499e-07 1.70468e-07 1.31611e-07
-3.46157e-07 3.11402e-07 1.31258e-07
-3.04796e-07 4.50747e-07 1.24171e-07
-2.92124e-07 3.75293e-07 1.13726e-07
-1.5078e-08 2.43824e-07 1.23725e-07
2.08714e-09 3.87124e-07 1.2385e-07
-1.49784e-07 1.95658e-07 1.16952e-07
-1.57049e-07 4.7802e-07 1.13919e-07
-1.64568e-07 2.35141e-07 1.05477e-07
-1.48202e-07 4.38285e-07 1.02095e-07
-1.1116e-07 3.41544e-07 7.73266e-08
-1.25654e-07 4.34545e-07 1.02978e-07
-1.92022e-07 2.39055e-07 1.08385e-07
-7.26793e-08 4.37306e-07 1.10799e-07
-1.16974e-07 3.02543e-07 8.00005e-08
-2.58853e-07 2.34327e-07 1.22076e-07
-1.76155e-08 3.53272e-07 1.13604e-07
-2.55248e-08 2.7507e-07 1.14649e-07
-3.20456e-07 2.70804e-07 1.30965e-07
-2.64443e-07 4.70635e-07 1.20098e-07
-2.454e-07 3.37125e-07 9.95366e-08
-2.93225e-07 3.16253e-07 1.18506e-07
-2.63748e-07 4.23683e-07 1.13469e-07
-3.65672e-07 2.87584e-07 1.3773e-07
-3.59219e-07 2.98241e-07 1.35145e-07
-3.09086e-07 4.80053e-07 1.26945e-07
-3.09459e-07 4.67579e-07 1.2633e-07
-9.97166e-08 2.02594e-07 1.10909e-07
-2.76301e-07 2.88818e-07 1.16802e-07
-2.36574e-07 4.35943e-07 1.09718e-07
-1.65557e-07 1.49399e-07 1.31182e-07
-1.40213e-07 5.26449e-07 1.24713e-07
-2.03719e-07 4.7007e-07 1.11294e-07
-2.31293e-07 3.84572e-07 9.68421e-08
-2.55182e-07 3.64201e-07 1.03315e-07
-2.39401e-08 3.22804e-07 1.08598e-07
-9.08452e-08 4.04749e-07 1.00953e-07
-6.70354e-11 4.1799e-07 1.25893e-07
-2.25937e-08 2.15114e-07 1.25689e-07
-1.16291e-07 2.44218e-07 1.00528e-07
-6.95782e-08 3.80196e-07 1.02954e-07
-2.31796e-07 2.69282e-07 1.06991e-07
-1.57701e-07 3.59824e-07 6.04559e-08
-1.7183e-07 3.18831e-07 6.2464e-08
-1.35408e-07 3.37808e-07 6.11403e-08
-1.77259e-07 3.50874e-07 6.1402e-08
-1.92063e-07 4.31993e-07 1.0084e-07
-8.46756e-08 2.58933e-07 1.03852e-07
-3.12666e-07 3.46576e-07 1.19484e-07
-2.95842e-07 4.0833e-07 1.16527e-07
-1.52183e-07 3.24345e-07 5.52344e-08
-1.22469e-07 4.08356e-07 9.37645e-08
-1.45166e-07 3.52252e-07 5.936e-08
-1.77911e-07 3.36178e-07 6.00792e-08
-1.22854e-07 1.85459e-07 1.14685e-07
-1.47777e-07 2.51877e-07 9.66182e-08
-6.55122e-08 3.21041e-07 9.79934e-08
-2.02227e-07 2.63306e-07 1.00529e-07
-1.10022e-07 3.59369e-07 8.12522e-08
-3.20835e-07 3.06371e-07 1.26989e-07
-2.81871e-07 4.43652e-07 1.20166e-07
-2.97791e-07 2.49718e-07 1.27805e-07
-2.36967e-07 4.7309e-07 1.15373e-07
-1.65244e-07 4.23889e-07 9.57111e-08
-5.38323e-08 3.57945e-07 1.04724e-07
-1.81243e-07 4.82648e-07 1.13062e-07
-6.74375e-08 2.34502e-07 1.13125e-07
-4.70845e-08 4.00946e-07 1.13236e-07
-5.99601e-08 2.78058e-07 1.06567e-07
-1.64661e-07 3.51029e-07 5.62741e-08
-1.58615e-07 3.79807e-07 7.34759e-08
-1.79091e-07 3.0067e-07 7.58175e-08
-1.92155e-07 3.5899e-07 7.2953e-08
-1.83781e-07 3.87279e-07 8.12174e-08
-2.04861e-07 3.08268e-07 8.43754e-08
-2.50042e-07 2.88346e-07 1.08082e-07
-1.29659e-07 2.92158e-07 7.97554e-08
-2.13946e-07 4.24198e-07 1.01946e-07
-2.93611e-07 2.73128e-07 1.23948e-07
-2.44015e-07 4.55315e-07 1.14587e-07
-2.10749e-07 3.98057e-07 9.32607e-08
-2.34868e-07 3.13987e-07 9.73241e-08
-1.58228e-07 3.17525e-07 5.91321e-08
-1.42257e-07 3.26041e-07 5.81895e-08
-4.09267e-08 4.27571e-07 1.16355e-07
-6.56625e-08 2.0602e-07 1.15605e-07
-1.24347e-07 5.21374e-07 1.24775e-07
-1.82367e-07 1.55306e-07 1.33078e-07
5.31497e-08 -5.1278e-08 -8.66383e-08
5.36626e-08 5.41759e-08 -8.78507e-08
-5.1561e-08 5.99549e-08 -9.03511e-08
-5.18922e-08 -6.00864e-08 -9.05306e-08
-1.19375e-07 -9.18762e-08 -1.21664e-07
-1.19175e-07 9.17453e-08 -1.21619e-07
4.96879e-10 6.57244e-08 -8.18897e-08
-6.03944e-08 1.70116e-09 -8.35919e-08
5.90008e-08 -1.86849e-09 -7.79725e-08
-1.76087e-10 -6.56409e-08 -8.18737e-08
-1.42612e-07 9.85378e-08 -1.29546e-07
-1.42806e-07 -9.86583e-08 -1.29575e-07
1.1015e-07 5.96932e-08 -1.10443e-07
1.1554e-07 -6.18151e-08 -1.12402e-07
2.38342e-10 -1.32663e-07 -1.12329e-07
6.25992e-09 1.32419e-07 -1.12268e-07
4.25729e-08 1.03374e-07 -1.02246e-07
-3.82205e-08 -1.08323e-07 -1.03381e-07
-1.10746e-07 3.12472e-08 -1.12194e-07
-1.12781e-07 -3.07524e-08 -1.1297e-07
4.2318e-08 -1.07348e-07 -1.03182e-07
-3.77077e-08 1.13111e-07 -1.0458e-07
1.92928e-08 -1.9362e-08 -5.08388e-08
2.1963e-08 2.44176e-08 -5.65946e-08
-2.15309e-08 2.11157e-08 -5.48102e-08
-2.28367e-08 -2.253e-08 -5.68277e-08
-1.48793e-07 1.17308e-07 -1.31052e-07
-1.48984e-07 -1.17419e-07 -1.31079e-07
-8.20422e-08 1.02692e-07 -1.09889e-07
-8.22462e-08 -1.02438e-07 -1.09886e-07
1.1643e-07 -1.72689e-08 -1.0455e-07
1.10252e-07 2.01154e-08 -1.02869e-07
-8.74056e-08 -5.64244e-08 -1.05508e-07
-8.71485e-08 5.6274e-08 -1.05402e-07
1.90639e-08 -1.61569e-07 -1.20658e-07
-9.85301e-09 1.63415e-07 -1.20957e-07
8.43618e-08 -9.22031e-08 -1.0702e-07
8.42717e-08 9.0375e-08 -1.06781e-07
6.15163e-09 3.41737e-08 -5.84138e-08
4.71049e-09 -3.31457e-08 -5.70835e-08
-3.22408e-08 -6.06616e-09 -5.98122e-08
3.11885e-08 -3.74446e-09 -5.5456e-08
-1.47438e-07 6.63087e-08 -1.28121e-07
-1.47613e-07 -6.64223e-08 -1.28147e-07
7.72833e-08 -2.90119e-08 -9.1667e-08
1.25776e-07 9.11107e-08 -1.19187e-07
1.26429e-07 -9.15468e-08 -1.19365e-07
7.22908e-08 2.95136e-08 -8.93664e-08
-2.40511e-08 5.82021e-08 -8.01852e-08
-2.30615e-08 -5.68596e-08 -7.91315e-08
-5.10243e-08 2.59878e-08 -8.01597e-08
2.72658e-08 -5.05312e-08 -7.6763e-08
2.82508e-08 5.1228e-08 -7.73223e-08
-4.74316e-08 -2.38775e-08 -7.70294e-08
-3.53978e-08 -1.42141e-07 -1.12995e-07
4.19344e-08 1.37403e-07 -1.12088e-07
2.15633e-08 1.67302e-07 -1.22066e-07
-1.18356e-08 -1.6919e-07 -1.22393e-07
-1.58872e-07 8.66081e-08 -1.33163e-07
-1.59047e-07 -8.67245e-08 -1.33175e-07
-1.3938e-07 7.78239e-10 -1.20918e-07
1.53799e-07 -6.92627e-08 -1.23087e-07
1.54525e-07 6.86881e-08 -1.23153e-07
3.01548e-08 -1.34818e-07 -1.12282e-07
-2.33832e-08 1.38819e-07 -1.13147e-07
1.21875e-08 -9.97406e-08 -9.97433e-08
-8.19243e-09 1.01035e-07 -1.00051e-07
4.33118e-08 1.56104e-08 -6.92894e-08
1.69871e-08 1.01755e-07 -1.0068e-07
-1.29242e-08 -1.03397e-07 -1.01089e-07
7.40592e-08 1.18398e-07 -1.07994e-07
4.53856e-08 -2.27531e-08 -7.27746e-08
-6.95133e-08 -1.28462e-07 -1.10165e-07
1.37567e-07 3.57621e-08 -1.12472e-07
1.39927e-07 -3.98227e-08 -1.13615e-07
-1.24843e-07 1.15411e-07 -1.23889e-07
-1.25033e-07 -1.15522e-07 -1.23922e-07
-8.01086e-08 -2.6752e-08 -9.77379e-08
-1.17138e-07 -6.2747e-08 -1.18215e-07
-1.16789e-07 6.26518e-08 -1.18095e-07
-1.65013e-07 1.15795e-07 -1.34697e-07
-1.6335e-07 1.03888e-07 -1.34954e-07
-1.65202e-07 -1.15909e-07 -1.34718e-07
-1.63537e-07 -1.04002e-07 -1.34971e-07
7.57186e-08 -1.19009e-07 -1.08393e-07
-9.34169e-08 8.34665e-08 -1.1158e-07
-9.36456e-08 -8.35855e-08 -1.11649e-07
-8.60305e-09 1.84045e-07 -1.25318e-07
1.98209e-08 -1.82258e-07 -1.25059e-07
-7.10902e-08 1.29669e-07 -1.10695e-07
-8.00454e-08 2.78384e-08 -9.77832e-08
-9.7133e-08 1.82718e-09 -1.04729e-07
1.35112e-07 6.21226e-09 -1.07331e-07
5.75255e-08 8.1738e-08 -9.78462e-08
1.48984e-07 9.77479e-08 -1.25197e-07
1.48841e-07 -9.78427e-08 -1.25061e-07
5.52789e-08 -8.05696e-08 -9.69192e-08
8.14035e-08 5.95834e-08 -1.00265e-07
-5.15515e-08 -8.74738e-08 -9.91847e-08
-3.67282e-09 1.74767e-08 -3.85517e-08
-5.84852e-09 -1.80845e-08 -4.05469e-08
-1.66454e-08 4.35231e-09 -3.97984e-08
1.74156e-08 6.62319e-09 -4.10057e-08
-5.19775e-08 8.89555e-08 -9.96171e-08
8.33631e-08 -6.13231e-08 -1.01314e-07
-1.47403e-07 3.91982e-08 -1.25267e-07
-1.48435e-07 -3.88137e-08 -1.2551e-07
6.73938e-09 -6.98353e-09 -2.39884e-08
2.37015e-08 7.76322e-08 -9.00909e-08
7.60135e-09 1.55824e-08 -3.70367e-08
-1.36664e-08 -7.82614e-09 -3.59151e-08
5.6131e-08 -1.39817e-07 -1.11274e-07
2.53443e-08 -7.95042e-08 -9.12001e-08
9.31802e-08 1.27207e-09 -9.52897e-08
-2.48714e-08 -8.3375e-08 -9.26662e-08
4.23755e-08 3.31454e-08 -7.45308e-08
-1.36404e-07 8.1773e-08 -1.26562e-07
-1.3662e-07 -8.18929e-08 -1.26604e-07
-1.02734e-07 -1.27259e-07 -1.16758e-07
-1.02164e-07 1.25987e-07 -1.1666e-07
-2.39172e-08 8.44169e-08 -9.30434e-08
9.99311e-08 3.83894e-08 -1.02543e-07
-4.99351e-08 1.44552e-07 -1.12153e-07
1.02389e-07 8.24046e-08 -1.11242e-07
1.02941e-07 -8.32338e-08 -1.1145e-07
1.05128e-07 -3.99433e-08 -1.04658e-07
-7.60026e-09 8.0157e-09 -2.62985e-08
-9.4056e-09 3.9588e-08 -6.37726e-08
-9.682e-09 -3.96339e-08 -6.37935e-08
-3.47019e-08 9.26299e-09 -6.28382e-08
-3.49904e-08 4.18845e-08 -7.5681e-08
-3.42662e-08 -4.31022e-08 -7.59517e-08
-7.0881e-08 -7.56686e-08 -1.01949e-07
3.53472e-08 -3.51294e-08 -7.15683e-08
-7.06577e-08 7.57189e-08 -1.01876e-07
-1.03879e-07 1.03849e-07 -1.16832e-07
-1.04153e-07 -1.04126e-07 -1.16896e-07
-6.24742e-08 4.71328e-08 -9.20985e-08
-6.36043e-08 -4.68156e-08 -9.25725e-08
3.69543e-09 -1.38399e-08 -3.30017e-08
1.32483e-08 -3.4988e-09 -3.25065e-08
1.0763e-07 1.10936e-07 -1.14155e-07
1.07579e-07 -1.10968e-07 -1.14112e-07
7.49564e-09 1.80143e-07 -1.25244e-07
3.47372e-09 -1.80284e-07 -1.253e-07
2.36673e-07 2.47257e-07 -9.0871e-08
2.45642e-07 3.50397e-07 -9.14889e-08
1.44588e-07 3.57099e-07 -9.14233e-08
1.33367e-07 2.5082e-07 -9.06936e-08
8.16677e-08 3.87952e-07 -1.1688e-07
6.74112e-08 2.29973e-07 -1.16394e-07
1.93838e-07 3.64043e-07 -8.59503e-08
1.29823e-07 3.06877e-07 -8.3779e-08
2.47405e-07 2.98593e-07 -8.45745e-08
1.84388e-07 2.39042e-07 -8.53977e-08
5.96386e-08 3.96304e-07 -1.23052e-07
4.46991e-08 2.27374e-07 -1.22885e-07
3.07375e-07 3.60566e-07 -1.1317e-07
2.92704e-07 2.39641e-07 -1.11726e-07
1.78323e-07 1.7596e-07 -1.12417e-07
1.95885e-07 4.31522e-07 -1.12622e-07
1.6107e-07 4.02898e-07 -1.04084e-07
1.42839e-07 2.03288e-07 -1.03074e-07
8.44295e-08 3.34755e-07 -1.05178e-07
7.73184e-08 2.83457e-07 -1.05478e-07
2.33587e-07 4.03081e-07 -1.0495e-07
2.22306e-07 1.96771e-07 -1.0407e-07
2.07745e-07 2.76525e-07 -6.77564e-08
2.13129e-07 3.24532e-07 -6.84979e-08
1.6954e-07 3.22434e-07 -6.65042e-08
1.65685e-07 2.81581e-07 -6.58114e-08
5.4633e-08 4.1498e-07 -1.2523e-07
3.78461e-08 2.10536e-07 -1.25176e-07
1.18903e-07 3.94798e-07 -1.08638e-07
1.01713e-07 2.14614e-07 -1.07476e-07
3.00583e-07 3.16752e-07 -1.06703e-07
2.9182e-07 2.78403e-07 -1.05139e-07
9.99611e-08 2.58277e-07 -1.01803e-07
1.09561e-07 3.54928e-07 -1.02262e-07
1.94812e-07 1.46819e-07 -1.20669e-07
2.13359e-07 4.62491e-07 -1.20268e-07
2.76005e-07 3.87138e-07 -1.0854e-07
2.62599e-07 2.14782e-07 -1.0634e-07
1.98076e-07 3.3451e-07 -6.9331e-08
1.80615e-07 2.68368e-07 -6.83845e-08
1.55712e-07 2.98999e-07 -6.82944e-08
2.22152e-07 2.9798e-07 -6.95725e-08
5.25614e-08 3.66453e-07 -1.18503e-07
4.15626e-08 2.57082e-07 -1.18343e-07
2.65392e-07 3.30591e-07 -9.50906e-08
3.21255e-07 3.89654e-07 -1.19297e-07
3.08691e-07 2.09675e-07 -1.19622e-07
2.58398e-07 2.72232e-07 -9.34533e-08
1.71839e-07 3.55039e-07 -8.32667e-08
2.07948e-07 2.47851e-07 -8.24766e-08
1.41459e-07 3.27436e-07 -8.21833e-08
2.19977e-07 3.4954e-07 -8.26734e-08
1.59757e-07 2.51788e-07 -8.21007e-08
1.40574e-07 2.83477e-07 -7.93198e-08
1.42688e-07 1.70055e-07 -1.12382e-07
1.64303e-07 4.36633e-07 -1.13166e-07
1.84354e-07 4.694e-07 -1.21582e-07
1.63464e-07 1.41729e-07 -1.22036e-07
4.38186e-08 3.85277e-07 -1.23926e-07
2.96656e-08 2.40826e-07 -1.23809e-07
5.41906e-08 3.11484e-07 -1.09102e-07
3.48295e-07 3.6875e-07 -1.22574e-07
3.38631e-07 2.31274e-07 -1.23696e-07
2.22573e-07 4.32522e-07 -1.13006e-07
2.08045e-07 1.7163e-07 -1.12584e-07
2.34541e-07 3.15731e-07 -7.81759e-08
1.92638e-07 2.06291e-07 -1.00762e-07
2.06128e-07 3.97478e-07 -1.01393e-07
1.83777e-07 4.00422e-07 -1.02275e-07
1.67573e-07 2.05013e-07 -1.01645e-07
1.11479e-07 1.87594e-07 -1.0858e-07
1.33312e-07 4.17802e-07 -1.10203e-07
3.18107e-07 2.62642e-07 -1.14198e-07
3.27492e-07 3.38984e-07 -1.14647e-07
7.82361e-08 4.09948e-07 -1.1992e-07
6.06527e-08 2.08439e-07 -1.19338e-07
1.08922e-07 2.8376e-07 -9.43677e-08
7.11137e-08 2.56331e-07 -1.11695e-07
8.14106e-08 3.61939e-07 -1.11953e-07
3.88654e-08 4.15232e-07 -1.27364e-07
4.05344e-08 4.02585e-07 -1.26648e-07
2.197e-08 2.14306e-07 -1.27511e-07
2.42841e-08 2.25425e-07 -1.26622e-07
2.27475e-07 2.7902e-07 -7.70851e-08
2.65604e-07 4.11047e-07 -1.10236e-07
2.53715e-07 1.83138e-07 -1.08908e-07
1.05984e-07 3.78828e-07 -1.08837e-07
9.2299e-08 2.34104e-07 -1.08104e-07
2.14871e-07 4.84861e-07 -1.24095e-07
1.9396e-07 1.26788e-07 -1.24996e-07
1.13696e-07 3.3027e-07 -9.47637e-08
9.4731e-08 3.09427e-07 -9.88802e-08
3.14464e-07 2.92173e-07 -1.09652e-07
3.4571e-07 3.97906e-07 -1.24159e-07
3.32947e-07 2.03752e-07 -1.25275e-07
2.46025e-07 3.75293e-07 -9.89561e-08
2.30907e-07 2.19871e-07 -9.79883e-08
2.66033e-07 2.43699e-07 -1.02215e-07
1.31612e-07 2.25096e-07 -9.84574e-08
1.47369e-07 3.81902e-07 -9.95711e-08
1.8633e-07 3.21521e-07 -5.96049e-08
1.93706e-07 2.80098e-07 -6.02077e-08
2.09761e-07 3.0759e-07 -6.05026e-08
1.69742e-07 3.09002e-07 -6.00514e-08
2.7481e-07 3.59287e-07 -1.03356e-07
5.01264e-08 3.43005e-07 -1.13605e-07
4.25408e-08 2.80511e-07 -1.13575e-07
1.78379e-07 2.92933e-07 -5.42659e-08
1.59345e-07 2.26951e-07 -9.30338e-08
1.98958e-07 3.18183e-07 -5.86994e-08
2.03276e-07 2.92283e-07 -5.74917e-08
2.33548e-07 1.6497e-07 -1.11697e-07
2.46781e-07 4.3332e-07 -1.12632e-07
2.17745e-07 3.76832e-07 -9.40891e-08
2.77785e-07 2.98183e-07 -9.85476e-08
1.72016e-07 3.79998e-07 -9.46083e-08
6.43842e-08 3.80135e-07 -1.19492e-07
5.1472e-08 2.41858e-07 -1.19262e-07
8.06141e-08 1.93617e-07 -1.13723e-07
1.01436e-07 4.17223e-07 -1.15031e-07
2.32414e-07 3.31913e-07 -8.07201e-08
2.07304e-07 2.22789e-07 -9.39238e-08
2.8156e-07 2.6183e-07 -1.04225e-07
2.95759e-07 3.80041e-07 -1.12384e-07
2.84519e-07 2.19076e-07 -1.11963e-07
2.93749e-07 3.39565e-07 -1.06422e-07
1.81007e-07 3.11475e-07 -5.51694e-08
1.95403e-07 2.62727e-07 -7.21782e-08
1.8335e-07 3.39949e-07 -7.26477e-08
1.54599e-07 3.12735e-07 -7.08934e-08
1.59525e-07 3.415e-07 -8.01001e-08
2.16281e-07 2.61736e-07 -7.83552e-08
1.14333e-07 2.38564e-07 -1.00091e-07
1.27598e-07 3.71033e-07 -1.00914e-07
1.49687e-07 2.64881e-07 -8.01103e-08
9.75723e-08 3.97453e-07 -1.1408e-07
8.10387e-08 2.16144e-07 -1.13198e-07
1.32767e-07 3.46118e-07 -9.181e-08
1.24436e-07 2.64059e-07 -9.10685e-08
1.81614e-07 2.83842e-07 -5.76877e-08
1.70502e-07 2.97464e-07 -5.79383e-08
2.99151e-07 4.05123e-07 -1.15048e-07
2.86754e-07 1.916e-07 -1.14149e-07
1.7779e-07 1.29796e-07 -1.2509e-07
1.98378e-07 4.83067e-07 -1.24169e-07
4.06596e-07 -4.78733e-08 -9.06636e-08
4.06892e-07 5.01401e-08 -9.15073e-08
3.02606e-07 5.30739e-08 -9.07452e-08
3.02464e-07 -5.30051e-08 -9.08425e-08
2.37915e-07 7.74943e-08 -1.16335e-07
2.37754e-07 -7.74795e-08 -1.16372e-07
3.53188e-07 6.04389e-08 -8.5755e-08
2.9282e-07 -5.04606e-10 -8.35663e-08
4.12417e-07 -1.96777e-09 -8.36199e-08
3.52516e-07 -6.05927e-08 -8.5901e-08
2.154e-07 8.14522e-08 -1.22763e-07
2.15198e-07 -8.14665e-08 -1.22801e-07
4.70571e-07 -6.17952e-08 -1.13223e-07
4.64843e-07 5.91117e-08 -1.11412e-07
3.53263e-07 -1.24833e-07 -1.12882e-07
3.59023e-07 1.24444e-07 -1.12964e-07
3.93485e-07 9.50361e-08 -1.04328e-07
3.16018e-07 -9.93426e-08 -1.0334e-07
2.44575e-07 2.53105e-08 -1.04761e-07
2.41445e-07 -2.53137e-08 -1.05616e-07
3.92968e-07 -9.88837e-08 -1.05338e-07
3.16592e-07 1.03959e-07 -1.04421e-07
3.73795e-07 -1.87197e-08 -6.52947e-08
3.75748e-07 2.29606e-08 -6.84119e-08
3.29508e-07 2.03991e-08 -6.72499e-08
3.30512e-07 -1.92139e-08 -6.63276e-08
2.09981e-07 9.82763e-08 -1.25038e-07
2.09749e-07 -9.83037e-08 -1.25135e-07
2.73879e-07 9.06706e-08 -1.07572e-07
2.73717e-07 -9.03088e-08 -1.07594e-07
4.67008e-07 -1.80836e-08 -1.06535e-07
4.61527e-07 2.0499e-08 -1.04893e-07
2.67909e-07 -4.78121e-08 -1.01756e-07
2.6804e-07 4.78644e-08 -1.01713e-07
3.72633e-07 -1.54177e-07 -1.2111e-07
3.44862e-07 1.54849e-07 -1.20869e-07
4.37085e-07 -8.6203e-08 -1.08779e-07
4.37063e-07 8.42652e-08 -1.08415e-07
3.59169e-07 3.20544e-08 -6.92464e-08
3.57974e-07 -3.16266e-08 -6.87575e-08
3.19693e-07 5.39662e-09 -6.85699e-08
3.86437e-07 -3.84777e-09 -6.82549e-08
2.09367e-07 5.27156e-08 -1.1811e-07
2.09256e-07 -5.27111e-08 -1.18097e-07
4.30376e-07 -2.8388e-08 -9.4864e-08
4.82896e-07 -9.12184e-08 -1.19396e-07
4.82132e-07 9.04115e-08 -1.19182e-07
4.25589e-07 2.84771e-08 -9.28024e-08
3.29105e-07 5.3006e-08 -8.35933e-08
3.30085e-07 -5.17126e-08 -8.29187e-08
3.02088e-07 -2.26407e-08 -8.18564e-08
3.80228e-07 -4.65821e-08 -8.23563e-08
3.81091e-07 4.69726e-08 -8.26472e-08
3.05925e-07 2.08732e-08 -7.95541e-08
3.1909e-07 -1.32216e-07 -1.12571e-07
3.9236e-07 1.27581e-07 -1.13661e-07
3.753e-07 1.59537e-07 -1.22516e-07
3.43076e-07 -1.60507e-07 -1.22149e-07
1.99047e-07 6.93151e-08 -1.23599e-07
1.98898e-07 -6.93202e-08 -1.23586e-07
2.16581e-07 4.0351e-10 -1.08615e-07
5.1118e-07 -7.16856e-08 -1.22575e-07
5.11695e-07 7.07257e-08 -1.22656e-07
3.81329e-07 -1.26333e-07 -1.1358e-07
3.30813e-07 1.29714e-07 -1.13024e-07
3.64293e-07 -9.26348e-08 -1.01553e-07
3.44783e-07 9.36365e-08 -1.01182e-07
3.97691e-07 1.48208e-08 -7.7024e-08
3.68847e-07 9.41441e-08 -1.02403e-07
3.40268e-07 -9.59019e-08 -1.0205e-07
4.23715e-07 1.07782e-07 -1.10096e-07
3.99172e-07 -2.15521e-08 -7.95704e-08
2.85974e-07 -1.1613e-07 -1.08753e-07
4.89271e-07 3.69369e-08 -1.13563e-07
4.92246e-07 -4.12759e-08 -1.14572e-07
2.32992e-07 9.89143e-08 -1.19339e-07
2.32804e-07 -9.88626e-08 -1.19371e-07
2.74011e-07 2.31297e-08 -9.44397e-08
2.38991e-07 -5.16004e-08 -1.1161e-07
2.39333e-07 5.15915e-08 -1.11509e-07
1.93711e-07 9.55005e-08 -1.27262e-07
1.95045e-07 8.46783e-08 -1.26418e-07
1.9348e-07 -9.56053e-08 -1.27389e-07
1.94824e-07 -8.47097e-08 -1.26442e-07
4.25338e-07 -1.08775e-07 -1.10587e-07
2.62634e-07 7.19166e-08 -1.08085e-07
2.6248e-07 -7.18711e-08 -1.08138e-07
3.75233e-07 -1.75884e-07 -1.25131e-07
3.47199e-07 1.75074e-07 -1.251e-07
2.8445e-07 1.17174e-07 -1.09122e-07
2.74768e-07 -2.22796e-08 -9.39779e-08
2.56269e-07 1.94508e-09 -9.89292e-08
4.83043e-07 6.31794e-09 -1.09312e-07
4.09554e-07 7.48756e-08 -1.00295e-07
5.07113e-07 -1.0057e-07 -1.24223e-07
5.07162e-07 1.00073e-07 -1.24259e-07
4.07354e-07 -7.40774e-08 -9.9598e-08
4.35222e-07 5.66506e-08 -1.02299e-07
3.0306e-07 -7.85778e-08 -9.87383e-08
3.4622e-07 1.96344e-08 -6.01555e-08
3.47872e-07 -1.86899e-08 -5.94538e-08
3.74501e-07 6.96522e-09 -6.07107e-08
3.32339e-07 -4.90784e-09 -5.95578e-08
3.02628e-07 8.00168e-08 -9.90878e-08
4.37346e-07 -5.86287e-08 -1.03356e-07
2.08773e-07 3.03668e-08 -1.13141e-07
2.07223e-07 -2.97721e-08 -1.13262e-07
3.62351e-07 -8.35342e-09 -5.44529e-08
3.75759e-07 7.12942e-08 -9.31235e-08
3.61456e-07 1.64053e-08 -5.85643e-08
3.36608e-07 7.6133e-09 -5.7707e-08
4.05649e-07 -1.28774e-07 -1.13208e-07
3.77348e-07 -7.31974e-08 -9.42485e-08
4.44813e-07 1.12999e-09 -9.81814e-08
3.287e-07 -7.63756e-08 -9.41675e-08
3.95872e-07 3.08021e-08 -8.08032e-08
2.20885e-07 6.69088e-08 -1.19114e-07
2.20696e-07 -6.69166e-08 -1.19141e-07
2.54718e-07 1.10927e-07 -1.13661e-07
2.54179e-07 -1.11979e-07 -1.13839e-07
3.29613e-07 7.73514e-08 -9.4406e-08
4.53029e-07 3.80568e-08 -1.04434e-07
3.04876e-07 1.33215e-07 -1.1135e-07
4.57586e-07 -8.03087e-08 -1.1251e-07
4.56977e-07 7.92156e-08 -1.12226e-07
4.58323e-07 -4.00856e-08 -1.06385e-07
3.43011e-07 -8.45146e-09 -5.50073e-08
3.43204e-07 3.70004e-08 -7.23747e-08
3.43114e-07 -3.69955e-08 -7.25026e-08
3.16763e-07 -8.21298e-09 -7.06316e-08
3.19163e-07 3.84671e-08 -7.97207e-08
3.1872e-07 -3.78209e-08 -7.97333e-08
2.84344e-07 -6.61487e-08 -1.00182e-07
3.89097e-07 -3.29094e-08 -7.89162e-08
2.84449e-07 6.64093e-08 -1.00168e-07
2.52928e-07 8.99557e-08 -1.13175e-07
2.52699e-07 -9.00663e-08 -1.13257e-07
2.91818e-07 -4.08631e-08 -9.12545e-08
2.90896e-07 4.05215e-08 -9.15004e-08
3.58475e-07 -1.65787e-08 -5.80864e-08
3.70849e-07 -4.65557e-09 -5.76785e-08
4.59662e-07 -1.05334e-07 -1.15252e-07
4.59656e-07 1.04956e-07 -1.15189e-07
3.6333e-07 1.72898e-07 -1.25268e-07
3.59143e-07 -1.72746e-07 -1.25133e-07
2.4422e-07 -3.51229e-07 -9.12754e-08
2.38101e-07 -2.48247e-07 -9.11865e-08
1.33337e-07 -2.50555e-07 -9.06755e-08
1.44415e-07 -3.56955e-07 -9.13909e-08
6.73591e-08 -2.29874e-07 -1.16372e-07
8.15368e-08 -3.87885e-07 -1.16871e-07
1.83078e-07 -2.39176e-07 -8.53326e-08
1.29368e-07 -3.03769e-07 -8.37564e-08
2.47426e-07 -3.00196e-07 -8.45908e-08
1.95296e-07 -3.64061e-07 -8.59951e-08
4.47054e-08 -2.27321e-07 -1.22856e-07
5.94893e-08 -3.96238e-07 -1.23027e-07
2.98217e-07 -2.37498e-07 -1.13583e-07
3.01414e-07 -3.58314e-07 -1.11456e-07
1.95754e-07 -4.31509e-07 -1.12607e-07
1.84077e-07 -1.75783e-07 -1.12418e-07
2.22582e-07 -2.00914e-07 -1.03178e-07
1.60973e-07 -4.02644e-07 -1.04071e-07
7.89941e-08 -2.82712e-07 -1.05004e-07
8.24486e-08 -3.343e-07 -1.05635e-07
2.33479e-07 -4.03202e-07 -1.04879e-07
1.42598e-07 -1.98268e-07 -1.04215e-07
2.12506e-07 -3.23991e-07 -6.80535e-08
2.07944e-07 -2.75902e-07 -6.82144e-08
1.64196e-07 -2.82985e-07 -6.61985e-08
1.71116e-07 -3.23598e-07 -6.6126e-08
3.78712e-08 -2.10487e-07 -1.25088e-07
5.44786e-08 -4.14901e-07 -1.25204e-07
1.01565e-07 -2.14083e-07 -1.07501e-07
1.18799e-07 -3.94697e-07 -1.08625e-07
2.97482e-07 -2.81112e-07 -1.0691e-07
2.95214e-07 -3.194e-07 -1.04992e-07
1.09451e-07 -3.54857e-07 -1.02272e-07
9.98695e-08 -2.58178e-07 -1.01762e-07
2.1322e-07 -4.62464e-07 -1.20241e-07
1.65674e-07 -1.47173e-07 -1.20655e-07
2.65898e-07 -2.0949e-07 -1.08003e-07
2.72281e-07 -3.81745e-07 -1.06902e-07
1.90918e-07 -2.67596e-07 -6.89191e-08
1.87988e-07 -3.34819e-07 -6.88282e-08
1.56861e-07 -3.08102e-07 -6.83603e-08
2.22384e-07 -3.01675e-07 -6.96078e-08
4.15156e-08 -2.57038e-07 -1.18354e-07
5.2444e-08 -3.66397e-07 -1.18479e-07
2.60144e-07 -2.67691e-07 -9.51006e-08
3.09462e-07 -2.09176e-07 -1.19862e-07
3.20243e-07 -3.89128e-07 -1.19162e-07
2.62789e-07 -3.2616e-07 -9.34878e-08
1.59444e-07 -2.48679e-07 -8.34472e-08
2.16203e-07 -3.52706e-07 -8.3019e-08
1.36094e-07 -2.8156e-07 -8.18829e-08
2.11923e-07 -2.51041e-07 -8.20318e-08
1.70429e-07 -3.5334e-07 -8.27268e-08
1.4531e-07 -3.25046e-07 -7.95899e-08
1.64151e-07 -4.36621e-07 -1.1319e-07
2.19477e-07 -1.68531e-07 -1.12408e-07
1.84209e-07 -4.69382e-07 -1.21577e-07
1.96663e-07 -1.41235e-07 -1.22055e-07
2.96455e-08 -2.40788e-07 -1.23826e-07
4.36774e-08 -3.85213e-07 -1.23881e-07
5.39517e-08 -3.10134e-07 -1.091e-07
3.38109e-07 -2.30551e-07 -1.23651e-07
3.48604e-07 -3.6805e-07 -1.22719e-07
2.2243e-07 -4.32514e-07 -1.12962e-07
1.54405e-07 -1.72098e-07 -1.12759e-07
2.31407e-07 -2.83475e-07 -7.80924e-08
2.06016e-07 -3.97455e-07 -1.01321e-07
1.7212e-07 -2.06849e-07 -1.00766e-07
1.97044e-07 -2.04148e-07 -1.01654e-07
1.83647e-07 -4.00444e-07 -1.02299e-07
2.53534e-07 -1.84543e-07 -1.08632e-07
1.33187e-07 -4.17678e-07 -1.10212e-07
3.24103e-07 -3.3498e-07 -1.13702e-07
3.20771e-07 -2.58604e-07 -1.15254e-07
6.06155e-08 -2.08287e-07 -1.19323e-07
7.80986e-08 -4.09868e-07 -1.19907e-07
1.1362e-07 -3.29151e-07 -9.45982e-08
8.11484e-08 -3.61863e-07 -1.11994e-07
7.11901e-08 -2.56223e-07 -1.11631e-07
2.2006e-08 -2.14352e-07 -1.27389e-07
2.43209e-08 -2.25406e-07 -1.26603e-07
3.86955e-08 -4.15152e-07 -1.27328e-07
4.03625e-08 -4.02508e-07 -1.26605e-07
2.31213e-07 -3.20275e-07 -7.7263e-08
2.63786e-07 -4.11966e-07 -1.10152e-07
9.22063e-08 -2.33954e-07 -1.08079e-07
1.05867e-07 -3.78745e-07 -1.08832e-07
2.14731e-07 -4.84832e-07 -1.24073e-07
1.65296e-07 -1.27049e-07 -1.24962e-07
1.09612e-07 -1.86408e-07 -1.08972e-07
1.08555e-07 -2.82642e-07 -9.45084e-08
9.42963e-08 -3.06216e-07 -9.88644e-08
3.1547e-07 -3.04718e-07 -1.09576e-07
2.36199e-07 -2.2366e-07 -9.7924e-08
3.32976e-07 -2.0348e-07 -1.2532e-07
3.45521e-07 -3.97685e-07 -1.24269e-07
2.40361e-07 -3.78561e-07 -9.87244e-08
2.73956e-07 -3.53992e-07 -1.02338e-07
1.47129e-07 -3.81467e-07 -9.94712e-08
1.8099e-07 -2.81638e-07 -5.92974e-08
1.98525e-07 -3.21712e-07 -6.05303e-08
2.07821e-07 -2.92928e-07 -6.04107e-08
1.67851e-07 -2.96434e-07 -5.99538e-08
1.30839e-07 -2.23154e-07 -9.89723e-08
2.66186e-07 -2.38477e-07 -1.03197e-07
4.33074e-08 -2.79953e-07 -1.135e-07
4.90942e-08 -3.42563e-07 -1.13674e-07
1.81197e-07 -3.10879e-07 -5.44267e-08
1.7349e-07 -3.78218e-07 -9.37786e-08
2.05344e-07 -2.26452e-07 -9.24602e-08
1.94361e-07 -2.83547e-07 -5.84153e-08
2.05327e-07 -3.08558e-07 -5.76402e-08
2.46316e-07 -4.33587e-07 -1.12645e-07
2.77789e-07 -3.00019e-07 -9.85734e-08
5.1466e-08 -2.41798e-07 -1.19245e-07
6.42266e-08 -3.80074e-07 -1.19478e-07
8.09801e-08 -1.94518e-07 -1.13575e-07
1.0131e-07 -4.17122e-07 -1.15027e-07
2.26749e-07 -2.67351e-07 -8.04888e-08
2.1787e-07 -3.78371e-07 -9.4573e-08
1.57987e-07 -2.2409e-07 -9.41636e-08
2.87425e-07 -3.36159e-07 -1.04093e-07
1.283e-07 -1.6929e-07 -1.11131e-07
2.85305e-07 -2.17214e-07 -1.12374e-07
2.94645e-07 -3.78072e-07 -1.12022e-07
2.8723e-07 -2.58508e-07 -1.06666e-07
1.77837e-07 -2.92428e-07 -5.50017e-08
2.02669e-07 -3.38961e-07 -7.26378e-08
1.74712e-07 -2.63733e-07 -7.21729e-08
1.5216e-07 -2.94698e-07 -7.07609e-08
2.22693e-07 -3.38169e-07 -7.87457e-08
1.50256e-07 -2.65437e-07 -7.95206e-08
1.27463e-07 -3.70925e-07 -1.00905e-07
1.58277e-07 -3.417e-07 -8.062e-08
1.14189e-07 -2.38175e-07 -1.00112e-07
8.10332e-08 -2.16134e-07 -1.13143e-07
9.74504e-08 -3.97367e-07 -1.14071e-07
1.23892e-07 -2.63607e-07 -9.12832e-08
1.32973e-07 -3.45648e-07 -9.157e-08
1.86234e-07 -3.19364e-07 -5.79745e-08
1.71917e-07 -3.07579e-07 -5.80154e-08
2.89992e-07 -1.9029e-07 -1.14954e-07
2.96978e-07 -4.03948e-07 -1.14685e-07
1.81622e-07 -1.29688e-07 -1.25083e-07
1.98238e-07 -4.83043e-07 -1.24155e-07
-9.76288e-08 -3.75615e-07 -9.10709e-08
-1.12956e-07 -2.69794e-07 -9.31345e-08
-2.26493e-07 -2.97292e-07 -9.70823e-08
-1.97551e-07 -4.06926e-07 -9.26025e-08
-2.62878e-07 -4.49003e-07 -1.17445e-07
-3.06281e-07 -2.90842e-07 -1.25308e-07
-1.73173e-07 -2.72498e-07 -8.96143e-08
-2.18965e-07 -3.56456e-07 -8.70179e-08
-9.87263e-08 -3.25407e-07 -8.37784e-08
-1.45631e-07 -4.02072e-07 -8.66528e-08
-2.87238e-07 -4.59946e-07 -1.23152e-07
-3.34326e-07 -2.94056e-07 -1.31675e-07
-5.76213e-08 -2.57527e-07 -1.1206e-07
-3.61147e-08 -3.80518e-07 -1.13998e-07
-1.36498e-07 -4.70487e-07 -1.13266e-07
-1.81454e-07 -2.05228e-07 -1.19181e-07
-2.20551e-07 -2.42867e-07 -1.12289e-07
-1.75136e-07 -4.48614e-07 -1.04784e-07
-2.60795e-07 -3.95716e-07 -1.07948e-07
-2.78456e-07 -3.43175e-07 -1.11256e-07
-1.33736e-07 -2.20544e-07 -1.07281e-07
-1.02535e-07 -4.34395e-07 -1.05731e-07
-1.33352e-07 -3.50827e-07 -6.55549e-08
-1.41716e-07 -3.05157e-07 -6.9609e-08
-1.87489e-07 -3.25396e-07 -6.93973e-08
-1.76201e-07 -3.6773e-07 -6.89263e-08
-2.90857e-07 -4.7836e-07 -1.25008e-07
-3.48147e-07 -2.7947e-07 -1.36067e-07
-2.21039e-07 -4.4921e-07 -1.09323e-07
-2.68767e-07 -2.66236e-07 -1.18098e-07
-4.0651e-08 -3.35541e-07 -1.06232e-07
-5.21916e-08 -2.97713e-07 -1.04734e-07
-2.3455e-07 -4.11918e-07 -1.03829e-07
-2.6138e-07 -3.12578e-07 -1.08299e-07
-1.64517e-07 -1.70947e-07 -1.26473e-07
-1.15552e-07 -4.99239e-07 -1.20892e-07
-6.41471e-08 -4.11388e-07 -1.09582e-07
-9.03717e-08 -2.34089e-07 -1.07843e-07
-1.61323e-07 -3.006e-07 -7.15218e-08
-1.45411e-07 -3.69881e-07 -6.93475e-08
-1.90305e-07 -3.55356e-07 -7.09732e-08
-1.24508e-07 -3.31683e-07 -6.85312e-08
-2.9393e-07 -4.31566e-07 -1.19777e-07
-3.24872e-07 -3.24201e-07 -1.25039e-07
-7.7107e-08 -3.50517e-07 -9.50424e-08
-4.52729e-08 -2.24061e-07 -1.20274e-07
-2.26198e-08 -4.10297e-07 -1.20733e-07
-9.1567e-08 -2.94144e-07 -9.25273e-08
-1.96101e-07 -2.89674e-07 -8.7741e-08
-1.69108e-07 -3.98498e-07 -8.41622e-08
-2.17072e-07 -3.30289e-07 -8.613e-08
-1.22102e-07 -3.80117e-07 -8.27806e-08
-1.40306e-07 -2.78047e-07 -8.44924e-08
-2.00343e-07 -3.74938e-07 -8.18934e-08
-1.67651e-07 -4.81274e-07 -1.13797e-07
-2.21088e-07 -2.06552e-07 -1.23741e-07
-1.43691e-07 -5.10384e-07 -1.22162e-07
-1.97672e-07 -1.70611e-07 -1.31628e-07
-3.04993e-07 -4.50886e-07 -1.24169e-07
-3.46051e-07 -3.11541e-07 -1.31178e-07
-2.9197e-07 -3.7622e-07 -1.1366e-07
1.46602e-09 -3.87838e-07 -1.23817e-07
-1.44352e-08 -2.44369e-07 -1.23794e-07
-1.4997e-07 -1.95726e-07 -1.17029e-07
-1.09913e-07 -4.66927e-07 -1.1372e-07
-1.64755e-07 -2.35228e-07 -1.05573e-07
-1.30016e-07 -4.33757e-07 -1.02076e-07
-1.17311e-07 -3.09899e-07 -7.74845e-08
-1.9218e-07 -2.39238e-07 -1.08403e-07
-1.5212e-07 -4.41372e-07 -1.0296e-07
-1.08608e-07 -3.48439e-07 -7.97877e-08
-2.0235e-07 -4.68905e-07 -1.10818e-07
-2.58947e-07 -2.34532e-07 -1.22e-07
-2.74329e-08 -2.79421e-07 -1.13573e-07
-1.49028e-08 -3.57363e-07 -1.14715e-07
-2.64645e-07 -4.70795e-07 -1.20083e-07
-3.20392e-07 -2.70954e-07 -1.30904e-07
-2.32123e-07 -3.85776e-07 -9.73546e-08
-2.63727e-07 -4.23748e-07 -1.13404e-07
-2.93391e-07 -3.16444e-07 -1.18514e-07
-3.09286e-07 -4.80198e-07 -1.26936e-07
-3.0966e-07 -4.67722e-07 -1.26323e-07
-3.65474e-07 -2.8773e-07 -1.37589e-07
-3.59073e-07 -2.9838e-07 -1.35043e-07
-1.01617e-07 -2.01996e-07 -1.1105e-07
-7.10287e-08 -4.377e-07 -1.11241e-07
-2.368e-07 -4.36124e-07 -1.0973e-07
-2.76263e-07 -2.89e-07 -1.16721e-07
-1.11543e-07 -5.21845e-07 -1.24685e-07
-1.65741e-07 -1.49509e-07 -1.31212e-07
-2.44308e-07 -3.37962e-07 -9.8901e-08
-2.54153e-07 -3.68366e-07 -1.03102e-07
-2.57858e-08 -3.09969e-07 -1.08604e-07
-2.25916e-08 -2.15219e-07 -1.25839e-07
-1.18522e-10 -4.18193e-07 -1.25853e-07
-9.30522e-08 -4.04089e-07 -1.00128e-07
-1.19906e-07 -2.42636e-07 -1.0087e-07
-8.15116e-08 -2.62563e-07 -1.04101e-07
-1.91965e-07 -4.30804e-07 -1.00408e-07
-2.31835e-07 -2.69511e-07 -1.06917e-07
-1.69982e-07 -3.18812e-07 -6.17331e-08
-1.59574e-07 -3.61254e-07 -6.11099e-08
-1.39302e-07 -3.22552e-07 -6.13677e-08
-1.80627e-07 -3.40336e-07 -6.18005e-08
-6.7535e-08 -3.81704e-07 -1.03955e-07
-2.94579e-07 -4.08748e-07 -1.164e-07
-3.13774e-07 -3.47659e-07 -1.19502e-07
-1.46786e-07 -3.42702e-07 -5.47739e-08
-1.55255e-07 -3.15934e-07 -6.02006e-08
-1.72524e-07 -3.52494e-07 -5.93988e-08
-8.59397e-08 -4.63917e-07 -1.13472e-07
-1.23406e-07 -1.8538e-07 -1.14875e-07
-1.20718e-07 -4.09904e-07 -9.47402e-08
-1.46634e-07 -2.50653e-07 -9.7226e-08
-6.59919e-08 -3.18801e-07 -9.79859e-08
-2.02338e-07 -2.63557e-07 -1.00503e-07
-1.6636e-07 -4.23401e-07 -9.53658e-08
-1.22187e-07 -2.93187e-07 -8.16474e-08
-2.82039e-07 -4.43776e-07 -1.20154e-07
-3.20775e-07 -3.06522e-07 -1.2693e-07
-2.37272e-07 -4.74373e-07 -1.15435e-07
-2.97842e-07 -2.49887e-07 -1.27718e-07
-6.42402e-08 -2.7991e-07 -1.04982e-07
-6.84976e-08 -2.37002e-07 -1.12612e-07
-4.64596e-08 -4.01746e-07 -1.1348e-07
-4.86868e-08 -3.59214e-07 -1.06654e-07
-1.71308e-07 -3.32652e-07 -5.70094e-08
-1.79187e-07 -3.01016e-07 -7.58062e-08
-1.58758e-07 -3.8018e-07 -7.34562e-08
-1.97517e-07 -3.41606e-07 -7.36773e-08
-2.05003e-07 -3.08679e-07 -8.43316e-08
-1.83267e-07 -3.87984e-07 -8.12689e-08
-2.14219e-07 -4.24259e-07 -1.01955e-07
-2.49993e-07 -2.88575e-07 -1.07969e-07
-1.16346e-07 -3.62866e-07 -7.92289e-08
-2.44276e-07 -4.55667e-07 -1.146e-07
-2.93581e-07 -2.73297e-07 -1.23871e-07
-2.33872e-07 -3.13495e-07 -9.69123e-08
-2.12018e-07 -3.98215e-07 -9.36429e-08
-1.48378e-07 -3.53127e-07 -5.8234e-08
-1.39755e-07 -3.36121e-07 -5.80241e-08
-6.6628e-08 -2.06733e-07 -1.15518e-07
-4.09214e-08 -4.27632e-07 -1.16369e-07
-1.82545e-07 -1.55432e-07 -1.33102e-07
-1.28264e-07 -5.22145e-07 -1.24738e-07
-3.27773e-07 -8.71655e-08 -1.43208e-07
-5.16644e-07 1.02118e-07 -1.49872e-07
-3.27941e-07 9.06212e-08 -1.43132e-07
-5.16814e-07 -1.02139e-07 -1.49874e-07
-6.0838e-07 1.28893e-07 -1.52727e-07
-6.08408e-07 -1.28977e-07 -1.52725e-07
-4.20785e-07 1.20745e-07 -1.46416e-07
-5.42124e-07 3.06026e-09 -1.50536e-07
-3.12657e-07 -3.51574e-09 -1.43104e-07
-4.21971e-07 -1.20937e-07 -1.46444e-07
-6.37935e-07 1.34036e-07 -1.53576e-07
-6.37963e-07 -1.34111e-07 -1.53574e-07
-2.53952e-07 8.54849e-08 -1.41519e-07
-2.47704e-07 -8.76585e-08 -1.41351e-07
-4.13302e-07 -2.03355e-07 -1.45868e-07
-4.04502e-07 2.02044e-07 -1.45332e-07
-3.51753e-07 1.58902e-07 -1.42102e-07
-4.78553e-07 -1.71058e-07 -1.48614e-07
-6.0429e-07 4.76437e-08 -1.52135e-07
-6.06596e-07 -4.66723e-08 -1.52177e-07
-3.52344e-07 -1.64342e-07 -1.41843e-07
-4.76354e-07 1.77133e-07 -1.48545e-07
-3.75697e-07 -4.72636e-08 -1.45087e-07
-4.78009e-07 4.86718e-08 -1.48648e-07
-3.73543e-07 5.48315e-08 -1.4499e-07
-4.79592e-07 -5.06604e-08 -1.48702e-07
-6.4343e-07 1.55084e-07 -1.53738e-07
-6.43467e-07 -1.55156e-07 -1.53736e-07
-5.52371e-07 1.51692e-07 -1.50972e-07
-5.52533e-07 -1.51301e-07 -1.50975e-07
-2.44646e-07 -2.60733e-08 -1.39929e-07
-2.51857e-07 3.04855e-08 -1.40351e-07
-5.70932e-07 8.75095e-08 -1.51495e-07
-5.70949e-07 -8.76064e-08 -1.51495e-07
-3.82924e-07 -2.33739e-07 -1.43337e-07
-4.21243e-07 2.40021e-07 -1.46526e-07
-2.89613e-07 -1.32502e-07 -1.40334e-07
-2.89685e-07 1.29942e-07 -1.40498e-07
-4.09828e-07 7.64211e-08 -1.46197e-07
-4.1221e-07 -7.55985e-08 -1.46275e-07
-5.01197e-07 -1.30592e-08 -1.49391e-07
-3.50993e-07 -9.04963e-09 -1.44343e-07
-6.45386e-07 9.31219e-08 -1.53288e-07
-6.45401e-07 -9.3197e-08 -1.53285e-07
-2.91432e-07 -4.76502e-08 -1.42468e-07
-2.36691e-07 -1.21855e-07 -1.40553e-07
-2.37594e-07 1.21292e-07 -1.40591e-07
-2.97782e-07 4.90958e-08 -1.42657e-07
-4.69007e-07 1.07597e-07 -1.48277e-07
-4.67308e-07 -1.05923e-07 -1.48212e-07
-5.26062e-07 4.77469e-08 -1.50119e-07
-3.69911e-07 -9.48647e-08 -1.44539e-07
-3.68434e-07 9.49611e-08 -1.44504e-07
-5.2063e-07 -4.47511e-08 -1.49954e-07
-4.6417e-07 -2.13907e-07 -1.48211e-07
-3.53509e-07 1.9979e-07 -1.40687e-07
-4.2256e-07 -2.47134e-07 -1.46612e-07
-3.78992e-07 2.39181e-07 -1.42935e-07
-6.57936e-07 1.1784e-07 -1.53825e-07
-6.57959e-07 -1.17911e-07 -1.53823e-07
-6.38738e-07 1.15522e-09 -1.52534e-07
-2.05356e-07 -9.21806e-08 -1.40196e-07
-2.04609e-07 9.11107e-08 -1.40114e-07
-3.70224e-07 -2.00387e-07 -1.42439e-07
-4.46976e-07 2.10656e-07 -1.47574e-07
-3.98561e-07 -1.62264e-07 -1.45065e-07
-4.31468e-07 1.6517e-07 -1.4678e-07
-3.34939e-07 3.0714e-08 -1.43839e-07
-3.90988e-07 1.63413e-07 -1.44636e-07
-4.38674e-07 -1.68003e-07 -1.47077e-07
-3.06768e-07 1.67391e-07 -1.3813e-07
-3.33533e-07 -4.32639e-08 -1.43777e-07
-5.2393e-07 -1.88501e-07 -1.49951e-07
-2.21979e-07 5.10359e-08 -1.38977e-07
-2.19622e-07 -5.65976e-08 -1.38953e-07
-6.1235e-07 1.56527e-07 -1.52846e-07
-6.12389e-07 -1.5661e-07 -1.52845e-07
-5.6575e-07 -4.37719e-08 -1.51206e-07
-6.08923e-07 9.1703e-08 -1.52547e-07
-6.09108e-07 -9.17094e-08 -1.52549e-07
-6.62724e-07 1.51494e-07 -1.54121e-07
-6.62456e-07 1.37594e-07 -1.54081e-07
-6.62758e-07 -1.51561e-07 -1.5412e-07
-6.62485e-07 -1.37662e-07 -1.54079e-07
-3.0431e-07 -1.67975e-07 -1.38013e-07
-5.74329e-07 1.23549e-07 -1.51693e-07
-5.74373e-07 -1.23611e-07 -1.51691e-07
-3.78368e-07 -2.56076e-07 -1.42405e-07
-4.14778e-07 2.63713e-07 -1.46123e-07
-5.26276e-07 1.89482e-07 -1.50009e-07
-5.65811e-07 4.56765e-08 -1.51212e-07
-5.89105e-07 2.90082e-09 -1.51695e-07
-2.23874e-07 9.04916e-09 -1.37484e-07
-3.26446e-07 1.27335e-07 -1.41947e-07
-2.11652e-07 1.24859e-07 -1.40149e-07
-2.11693e-07 -1.25279e-07 -1.40135e-07
-3.2951e-07 -1.26967e-07 -1.42108e-07
-2.89979e-07 9.09694e-08 -1.42148e-07
-5.07619e-07 -1.40534e-07 -1.49576e-07
-4.37348e-07 5.18907e-08 -1.47253e-07
-4.41928e-07 -5.23227e-08 -1.47411e-07
-3.72868e-07 1.83973e-08 -1.44981e-07
-4.77083e-07 1.30585e-08 -1.48699e-07
-5.08078e-07 1.42399e-07 -1.49595e-07
-2.87334e-07 -9.30905e-08 -1.42048e-07
-6.46807e-07 5.63418e-08 -1.529e-07
-6.47853e-07 -5.56921e-08 -1.52903e-07
-3.98275e-07 -2.62008e-08 -1.4583e-07
-3.80167e-07 1.31605e-07 -1.44454e-07
-4.02067e-07 4.61866e-08 -1.45994e-07
-4.69123e-07 -2.2507e-08 -1.48466e-07
-3.3321e-07 -1.98478e-07 -1.38253e-07
-3.77379e-07 -1.34048e-07 -1.44235e-07
-2.70683e-07 1.91318e-09 -1.41277e-07
-4.6285e-07 -1.4135e-07 -1.48044e-07
-3.40823e-07 6.17049e-08 -1.43885e-07
-6.31485e-07 1.14315e-07 -1.5326e-07
-6.31531e-07 -1.14381e-07 -1.53258e-07
-5.77106e-07 1.75126e-07 -1.51614e-07
-5.77471e-07 -1.76552e-07 -1.51613e-07
-4.6118e-07 1.42675e-07 -1.47984e-07
-2.64653e-07 5.8225e-08 -1.41471e-07
-4.86603e-07 2.13719e-07 -1.48789e-07
-2.64487e-07 -1.16727e-07 -1.40826e-07
-2.65211e-07 1.15451e-07 -1.409e-07
-2.58579e-07 -5.99611e-08 -1.4131e-07
-4.53307e-07 2.76144e-08 -1.4791e-07
-4.44621e-07 -8.47282e-08 -1.47429e-07
-4.44626e-07 8.46077e-08 -1.47436e-07
-5.04951e-07 1.99457e-08 -1.49494e-07
-4.9459e-07 7.97801e-08 -1.49155e-07
-4.92653e-07 -8.16985e-08 -1.49089e-07
-5.42419e-07 -1.18784e-07 -1.50692e-07
-3.51808e-07 -6.8088e-08 -1.44186e-07
-5.42353e-07 1.18967e-07 -1.50694e-07
-5.84892e-07 1.472e-07 -1.52005e-07
-5.85022e-07 -1.47453e-07 -1.52005e-07
-5.37536e-07 7.94981e-08 -1.50495e-07
-5.38915e-07 -7.86649e-08 -1.50534e-07
-4.10572e-07 -4.52021e-08 -1.46296e-07
-3.79872e-07 -1.27946e-08 -1.45185e-07
-2.61026e-07 1.48309e-07 -1.3797e-07
-2.60957e-07 -1.4866e-07 -1.37961e-07
-4.00337e-07 -2.57798e-07 -1.44968e-07
-3.94611e-07 2.56364e-07 -1.44418e-07
-1.1417e-07 2.73324e-07 -9.13827e-08
-9.68748e-08 3.78336e-07 -9.2077e-08
-1.97187e-07 4.06628e-07 -9.25085e-08
-2.26563e-07 2.9703e-07 -9.7196e-08
-3.06361e-07 2.9069e-07 -1.25375e-07
-2.62671e-07 4.48842e-07 -1.17451e-07
-1.44976e-07 4.01672e-07 -8.66535e-08
-2.18568e-07 3.57484e-07 -8.6992e-08
-9.93027e-08 3.2151e-07 -8.37427e-08
-1.73029e-07 2.7229e-07 -8.95766e-08
-3.34447e-07 2.93892e-07 -1.31753e-07
-2.87036e-07 4.59801e-07 -1.23161e-07
-4.15457e-08 3.78568e-07 -1.12164e-07
-5.23243e-08 2.54779e-07 -1.13816e-07
-1.8127e-07 2.05101e-07 -1.1914e-07
-1.3126e-07 4.69204e-07 -1.13298e-07
-1.02626e-07 4.30282e-07 -1.04855e-07
-2.20435e-07 2.42654e-07 -1.12324e-07
-2.75475e-07 3.42314e-07 -1.10434e-07
-2.63586e-07 3.96389e-07 -1.08816e-07
-1.3357e-07 2.20538e-07 -1.07164e-07
-1.73689e-07 4.52661e-07 -1.05951e-07
-1.42951e-07 3.10128e-07 -6.61016e-08
-1.30342e-07 3.55333e-07 -6.89732e-08
-1.7488e-07 3.65985e-07 -6.77846e-08
-1.89135e-07 3.24218e-07 -7.06479e-08
-3.48313e-07 2.79296e-07 -1.3617e-07
-2.9066e-07 4.78204e-07 -1.25022e-07
-2.6875e-07 2.66051e-07 -1.18184e-07
-2.20742e-07 4.49297e-07 -1.09375e-07
-4.55914e-08 3.00102e-07 -1.06202e-07
-4.61743e-08 3.38803e-07 -1.04754e-07
-2.61421e-07 3.12399e-07 -1.08391e-07
-2.34343e-07 4.11731e-07 -1.03784e-07
-1.64329e-07 1.70844e-07 -1.26431e-07
-1.42644e-07 5.04218e-07 -1.20927e-07
-8.75528e-08 2.28026e-07 -1.09271e-07
-6.43967e-08 4.09632e-07 -1.09287e-07
-1.44162e-07 3.69943e-07 -7.00256e-08
-1.62121e-07 3.01315e-07 -7.08726e-08
-1.93748e-07 3.43905e-07 -7.1481e-08
-1.26171e-07 3.23453e-07 -6.85834e-08
-3.24971e-07 3.24088e-07 -1.25109e-07
-2.93711e-07 4.31447e-07 -1.19772e-07
-8.613e-08 2.9204e-07 -9.50418e-08
-2.33187e-08 4.0987e-07 -1.20537e-07
-4.45186e-08 2.23513e-07 -1.20411e-07
-8.16935e-08 3.51505e-07 -9.30644e-08
-1.69817e-07 3.99661e-07 -8.49898e-08
-1.96038e-07 2.89353e-07 -8.77927e-08
-2.03538e-07 3.7757e-07 -8.41183e-08
-1.41122e-07 2.79232e-07 -8.38441e-08
-1.21201e-07 3.80472e-07 -8.326e-08
-2.12836e-07 3.31009e-07 -8.37915e-08
-2.20939e-07 2.06365e-07 -1.23751e-07
-9.91973e-08 4.66088e-07 -1.13857e-07
-1.12745e-07 5.04649e-07 -1.22207e-07
-1.97499e-07 1.70468e-07 -1.31611e-07
-3.46157e-07 3.11402e-07 -1.31258e-07
-3.04796e-07 4.50747e-07 -1.24171e-07
-2.92124e-07 3.75293e-07 -1.13726e-07
-1.5078e-08 2.43824e-07 -1.23725e-07
2.08714e-09 3.87124e-07 -1.2385e-07
-1.49784e-07 1.95658e-07 -1.16952e-07
-1.57049e-07 4.7802e-07 -1.13919e-07
-1.64568e-07 2.35141e-07 -1.05477e-07
-1.48202e-07 4.38285e-07 -1.02095e-07
-1.1116e-07 3.41544e-07 -7.73266e-08
-1.25654e-07 4.34545e-07 -1.02978e-07
-1.92022e-07 2.39055e-07 -1.08385e-07
-7.26793e-08 4.37306e-07 -1.10799e-07
-1.16974e-07 3.02543e-07 -8.00005e-08
-2.58853e-07 2.34327e-07 -1.22076e-07
-1.76155e-08 3.53272e-07 -1.13604e-07
-2.55248e-08 2.7507e-07 -1.14649e-07
-3.20456e-07 2.70804e-07 -1.30965e-07
-2.64443e-07 4.70635e-07 -1.20098e-07
-2.454e-07 3.37125e-07 -9.95366e-08
-2.93225e-07 3.16253e-07 -1.18506e-07
-2.63748e-07 4.23683e-07 -1.13469e-07
-3.65672e-07 2.87584e-07 -1.3773e-07
-3.59219e-07 2.98241e-07 -1.35145e-07
-3.09086e-07 4.80053e-07 -1.26945e-07
-3.09459e-07 4.67579e-07 -1.2633e-07
-9.97166e-08 2.02594e-07 -1.10909e-07
-2.76301e-07 2.88818e-07 -1.16802e-07
-2.36574e-07 4.35943e-07 -1.09718e-07
-1.65557e-07 1.49399e-07 -1.31182e-07
-1.40213e-07 5.26449e-07 -1.24713e-07
-2.03719e-07 4.7007e-07 -1.11294e-07
-2.31293e-07 3.84572e-07 -9.68421e-08
-2.55182e-07 3.64201e-07 -1.03315e-07
-2.39401e-08 3.22804e-07 -1.08598e-07
-9.08452e-08 4.04749e-07 -1.00953e-07
-6.70354e-11 4.1799e-07 -1.25893e-07
-2.25937e-08 2.15114e-07 -1.25689e-07
-1.16291e-07 2.44218e-07 -1.00528e-07
-6.95782e-08 3.80196e-07 -1.02954e-07
-2.31796e-07 2.69282e-07 -1.06991e-07
-1.57701e-07 3.59824e-07 -6.04559e-08
-1.7183e-07 3.18831e-07 -6.2464e-08
-1.35408e-07 3.37808e-07 -6.11403e-08
-1.77259e-07 3.50874e-07 -6.1402e-08
-1.92063e-07 4.31993e-07 -1.0084e-07
-8.46756e-08 2.58933e-07 -1.03852e-07
-3.12666e-07 3.46576e-07 -1.19484e-07
-2.95842e-07 4.0833e-07 -1.16527e-07
-1.52183e-07 3.24345e-07 -5.52344e-08
-1.22469e-07 4.08356e-07 -9.37645e-08
-1.45166e-07 3.52252e-07 -5.936e-08
-1.77911e-07 3.36178e-07 -6.00792e-08
-1.22854e-07 1.85459e-07 -1.14685e-07
-1.47777e-07 2.51877e-07 -9.66182e-08
-6.55122e-08 3.21041e-07 -9.79934e-08
-2.02227e-07 2.63306e-07 -1.00529e-07
-1.10022e-07 3.59369e-07 -8.12522e-08
-3.20835e-07 3.06371e-07 -1.26989e-07
-2.81871e-07 4.43652e-07 -1.20166e-07
-2.97791e-07 2.49718e-07 -1.27805e-07
-2.36967e-07 4.7309e-07 -1.15373e-07
-1.65244e-07 4.23889e-07 -9.57111e-08
-5.38323e-08 3.57945e-07 -1.04724e-07
-1.81243e-07 4.82648e-07 -1.13062e-07
-6.74375e-08 2.34502e-07 -1.13125e-07
-4.70845e-08 4.00946e-07 -1.13236e-07
-5.99601e-08 2.78058e-07 -1.06567e-07
-1.64661e-07 3.51029e-07 -5.62741e-08
-1.58615e-07 3.79807e-07 -7.34759e-08
-1.79091e-07 3.0067e-07 -7.58175e-08
-1.92155e-07 3.5899e-07 -7.2953e-08
-1.83781e-07 3.87279e-07 -8.12174e-08
-2.04861e-07 3.08268e-07 -8.43754e-08
-2.50042e-07 2.88346e-07 -1.08082e-07
-1.29659e-07 2.92158e-07 -7.97554e-08
-2.13946e-07 4.24198e-07 -1.01946e-07
-2.93611e-07 2.73128e-07 -1.23948e-07
-2.44015e-07 4.55315e-07 -1.14587e-07
-2.10749e-07 3.98057e-07 -9.32607e-08
-2.34868e-07 3.13987e-07 -9.73241e-08
-1.58228e-07 3.17525e-07 -5.91321e-08
-1.42257e-07 3.26041e-07 -5.81895e-08
-4.09267e-08 4.27571e-07 -1.16355e-07
-6.56625e-08 2.0602e-07 -1.15605e-07
-1.24347e-07 5.21374e-07 -1.24775e-07
-1.82367e-07 1.55306e-07 -1.33078e-07
SCALARS effective_fluid_pressure_TPM float
LOOKUP_TABLE default
106.4
106.4
106.4
106.4
106.4
106.4
106.4
106.4
106.4
106.4
106.4
106.4
106.4
106.4
0.8
106.4
106.4
106.4
106.4
106.4
106.4
106.4
106.4
106.4
106.4
106.4
106.4
0.8
106.4
106.4
106.4
106.4
106.4
106.4
106.4
106.4
106.4
106.4
0.8
106.4
106.4
106.4
106.4
106.4
106.4
106.4
106.4
106.4
106.4
0.8
106.4
106.4
106.4
106.4
106.4
106.4
106.4
106.4
106.4
106.4
0.8
106.4
106.4
106.4
106.4
106.4
106.4
106.4
106.4
106.4
106.4
96.1937
106.4
106.4
106.4
106.4
106.4
106.4
106.4
106.4
0.8
106.4
106.4
106.4
106.4
106.4
106.4
106.4
106.4
106.4
106.4
106.4
106.4
106.4
106.4
0.8
106.4
106.4
106.4
106.4
106.4
106.4
106.4
106.4
106.4
106.4
106.4
106.4
0.8
106.4
106.4
106.4
106.4
106.4
106.4
106.4
106.4
106.4
106.4
0.8
106.4
106.4
106.4
106.4
106.4
106.4
106.4
106.4
106.4
106.4
0.8
106.4
106.4
106.4
106.4
106.4
106.4
106.4
106.4
106.4
106.4
0.8
106.4
106.4
106.4
106.4
106.4
106.4
106.4
106.4
106.4
106.4
96.1937
106.4
106.4
106.4
106.4
106.4
106.4
106.4
106.4
0.8
106.4
84.541
77.2697
76.6982
83.1246
106.4
106.4
91.2401
87.4167
87.3401
91.2945
106.4
106.4
83.1976
76.9352
77.2884
84.5464
106.4
82.3173
75.3116
75.3313
82.3162
106.4
82.1568
75.2949
75.4426
82.0606
106.4
82.3338
75.5536
75.546
82.3801
0.8
0.8
0.8
106.4
106.4
82.2737
75.633
75.4107
82.2054
106.4
106.4
81.7275
75.0668
75.3769
82.339
106.4
82.3341
75.0944
75.2245
82.1315
106.4
82.172
75.484
75.2102
82.3595
106.4
82.0446
75.0454
75.1348
82.2632
106.4
0.8
0.8
0.8
106.4
106.4
106.4
82.3864
75.5024
75.3041
82.2054
106.4
82.3756
75.247
75.5256
82.2099
106.4
82.1808
75.2783
75.1432
82.3643
106.4
82.0689
75.2925
75.3604
82.2287
106.4
106.4
0.8
0.8
0.8
106.4
106.4
82.1886
75.4991
75.2225
82.3674
106.4
82.2363
75.258
75.0392
82.3127
106.4
82.3495
75.3946
75.0772
81.727
106.4
106.4
82.3687
75.4791
75.5711
82.1128
106.4
106.4
0.8
0.8
0.8
106.4
106.4
82.3111
75.4657
75.3541
82.5544
106.4
82.6433
75.8339
75.616
82.2447
106.4
106.4
82.7713
76.8702
77.532
84.4829
106.4
106.4
91.641
87.9529
88.1791
92.3754
106.4
0.8
0.8
0.8
106.4
106.4
100.734
100.33
101.036
102.538
106.4
106.4
103.023
102.227
102.223
103.024
106.4
106.4
102.541
101.034
100.272
100.712
106.4
91.6569
87.9778
88.2973
92.4217
106.4
97.1579
98.1829
97.2041
106.4
106.4
106.4
84.5131
77.5409
76.8903
82.7661
106.4
106.4
82.2563
75.5873
75.465
82.5942
106.4
82.6066
75.7594
75.5388
82.3644
106.4
106.4
0.8
0.8
0.8
106.4
84.541
77.2697
76.6982
83.1246
106.4
106.4
91.2401
87.4167
87.3401
91.2945
106.4
106.4
83.1976
76.9352
77.2884
84.5464
106.4
82.3173
75.3116
75.3313
82.3162
106.4
82.1568
75.2949
75.4426
82.0606
106.4
82.3338
75.5536
75.546
82.3801
0.8
0.8
0.8
106.4
106.4
82.2737
75.633
75.4107
82.2054
106.4
106.4
81.7275
75.0668
75.3769
82.339
106.4
82.3341
75.0944
75.2245
82.1315
106.4
82.172
75.484
75.2102
82.3595
106.4
82.0446
75.0454
75.1348
82.2632
106.4
0.8
0.8
0.8
106.4
106.4
106.4
82.3864
75.5024
75.3041
82.2054
106.4
82.3756
75.247
75.5256
82.2099
106.4
82.1808
75.2783
75.1432
82.3643
106.4
82.0689
75.2925
75.3604
82.2287
106.4
106.4
0.8
0.8
0.8
106.4
106.4
82.1886
75.4991
75.2225
82.3674
106.4
82.2363
75.258
75.0392
82.3127
106.4
82.3495
75.3946
75.0772
81.727
106.4
106.4
82.3687
75.4791
75.5711
82.1128
106.4
106.4
0.8
0.8
0.8
106.4
106.4
82.3111
75.4657
75.3541
82.5544
106.4
82.6433
75.8339
75.616
82.2447
106.4
106.4
82.7713
76.8702
77.532
84.4829
106.4
106.4
91.641
87.9529
88.1791
92.3754
106.4
0.8
0.8
0.8
106.4
106.4
100.734
100.33
101.036
102.538
106.4
106.4
103.023
102.227
102.223
103.024
106.4
106.4
102.541
101.034
100.272
100.712
106.4
91.6569
87.9778
88.2973
92.4217
106.4
97.1579
98.1829
97.2041
106.4
106.4
106.4
84.5131
77.5409
76.8903
82.7661
106.4
106.4
82.2563
75.5873
75.465
82.5942
106.4
82.6066
75.7594
75.5388
82.3644
106.4
106.4
0.8
0.8
0.8
59.8527
60.5617
62.4229
62.5049
83.5467
83.5419
57.1293
58.3192
54.4802
57.1231
91.7606
91.7589
75.5788
77.2108
77.3049
77.2438
69.3911
70.3453
75.9223
76.3645
70.0174
71.1327
37.3476
41.0655
40.0641
41.3374
95.8318
95.8317
74.5297
74.5055
70.7012
69.6942
71.9455
71.9063
86.0247
86.2912
72.548
72.4117
42.3374
41.4592
43.3048
40.2873
87.7117
87.6998
62.9157
84.0317
84.293
61.4909
56.1519
55.4784
56.1982
53.8564
54.1689
54.2359
76.9083
76.1064
87.3357
87.6284
94.45
94.4369
80.9282
89.3294
89.0915
76.8556
77.5975
68.2407
68.4999
49.1013
68.7767
69.1337
72.6174
51.3291
74.2898
76.4083
77.4762
85.797
85.7965
66.9754
80.4381
80.3868
103.226
100.099
103.225
100.095
72.9056
75.9807
75.9993
94.7196
94.5237
74.6611
67.0339
71.1722
72.1662
66.5925
94.6883
94.7441
66.0513
68.3703
67.7072
29.0875
30.4133
29.9226
30.6554
67.9898
69.0721
84.2494
84.3611
18.7092
62.0355
27.948
27.1832
75.1454
62.7167
64.9442
63.7693
52.3876
87.6094
87.6139
79.0534
79.0273
64.0174
69.8254
75.9303
76.1528
76.3218
71.2649
20.3802
45.8305
45.8115
45.2479
53.3633
53.5065
69.5901
50.5602
69.5713
79.6573
79.679
63.565
63.8261
25.1306
24.7383
77.6076
77.5718
94.6874
94.7185
60.0941
60.1972
60.043
60.1298
80.0942
80.2997
56.1446
54.7848
54.9906
56.2044
88.7971
88.9491
77.0661
75.4407
76.57
76.571
68.8055
68.9246
70.2159
70.5874
69.5459
69.4799
39.9518
40.5453
38.5898
38.2975
94.1242
94.2996
71.9271
72.1605
70.5983
69.5214
68.2763
68.1435
85.6213
85.6971
72.2747
71.0991
41.5273
40.8436
40.5468
41.6569
81.8142
81.9096
62.8737
84.1647
83.8882
61.7306
53.9185
53.7545
53.3221
53.5961
53.7329
51.3054
75.8304
75.7319
87.0652
87.0719
90.3954
90.4764
72.6639
89.3103
89.104
76.4068
76.3376
49.8115
67.4383
67.4865
68.0264
68.1055
72.5573
72.3161
76.3633
77.4321
83.0718
83.3833
62.7907
75.8748
75.7141
102.56
98.331
102.603
98.3874
49.325
72.6508
72.5366
72.7863
72.9821
94.3807
94.3086
62.8395
65.7833
72.0554
94.6807
94.6337
65.3832
65.1886
68.1873
65.7178
65.627
28.3173
30.1571
29.7635
29.7369
68.9114
76.3988
76.5022
18.9146
61.8797
27.3653
26.2384
74.8201
74.8353
62.0906
64.9241
62.3243
83.4309
83.5738
76.8472
76.4714
51.9072
62.3904
69.3394
76.1398
75.8069
71.137
20.0138
44.6837
44.6479
43.1188
51.412
50.2009
66.9598
66.8014
51.8553
76.7647
77.0323
60.5476
60.4686
25.4007
25.595
77.3869
76.9919
94.4254
94.4476
59.5826
60.183
60.0386
60.106
80.1541
80.1706
56.1306
54.7534
54.2671
56.2446
88.8426
88.843
77.1264
75.4404
76.6005
76.5898
68.9282
68.8673
70.1525
70.7347
69.6185
69.6564
37.1235
40.5388
39.5302
38.626
94.2003
94.207
72.0208
72.0358
70.6239
69.5815
68.1755
68.1487
85.7158
85.7076
72.3572
72.1479
41.5843
40.8653
41.0939
40.0573
81.7988
81.7656
62.7468
84.2094
83.9097
61.2526
54.5341
54.0244
53.3051
53.4212
53.6028
51.4684
75.7391
75.7852
87.0889
87.0444
90.3952
90.3699
72.501
89.3403
89.1126
76.4501
76.5891
67.5506
67.4577
48.8
68.0815
68.0855
72.3389
51.0958
72.408
76.3822
77.4763
83.2025
83.2246
62.8616
75.7861
75.7161
102.576
98.3418
102.575
98.3342
72.7004
72.8334
72.8679
94.3899
94.3736
72.6905
62.5219
65.948
72.107
66.2092
94.7038
94.6336
65.7393
68.1199
65.7056
29.2672
28.6402
30.3434
28.6013
65.9491
68.8959
76.3286
76.3762
18.5926
61.3716
27.2084
25.9056
74.8854
62.1674
64.8038
62.4052
51.994
83.4518
83.4582
76.5386
76.6553
62.5863
69.6697
74.5155
76.1899
75.9611
71.1632
19.7669
44.5697
44.8252
42.9498
51.4649
51.4712
66.8746
50.2702
66.8671
76.8261
76.8873
60.5265
60.7208
25.5603
24.5744
77.447
77.3991
94.4558
94.4442
60.1058
60.2389
60.1246
60.0211
80.2907
80.0909
56.1531
54.7861
55.0039
56.1766
88.9516
88.7874
77.086
75.4526
76.5653
76.5557
68.822
68.8143
70.28
70.519
69.5076
69.7444
39.9522
40.5565
38.6115
38.261
94.296
94.1207
72.172
71.9265
70.6145
69.5342
68.1534
68.2499
85.6849
85.7055
72.2933
71.1229
41.555
40.8161
40.5348
41.6661
81.937
81.7833
62.8947
84.2033
83.8944
61.7426
54.6446
53.7534
53.375
53.4749
53.6675
51.2581
75.7536
75.65
87.0676
86.9795
90.5011
90.368
72.6658
89.3262
89.109
76.3829
76.6303
49.8284
67.4324
67.4824
68.0496
68.0567
72.3129
72.3319
76.3739
77.4492
83.3695
83.0698
62.7325
75.7424
75.8374
102.604
98.3954
102.557
98.3209
49.3328
72.583
72.9641
72.7879
94.3734
94.3734
72.8558
62.8933
65.7849
72.069
65.1308
94.7062
94.6328
65.2068
68.2016
65.5793
28.3366
30.1501
29.7707
29.7445
66.0597
68.8984
76.487
76.4137
18.9025
61.8077
61.371
27.3701
26.2405
74.874
64.9385
83.5753
83.4223
76.7448
76.4746
51.9327
62.393
62.6609
69.3518
74.627
76.1493
75.8236
71.1517
20.0229
44.672
44.7057
43.1351
50.2042
51.4279
66.8024
51.7851
66.9709
76.9858
76.7648
60.6338
60.3743
25.3845
25.5852
77.7152
77.0227
94.4162
94.4454
59.8296
62.1327
64.3254
60.8415
80.7367
85.0045
59.3098
56.6036
54.7913
56.5673
89.243
92.2027
76.1979
77.2749
76.8839
80.8251
75.0791
69.3023
71.5201
73.4311
72.0424
69.8592
37.2968
41.8063
40.5365
40.4104
94.4083
97.5943
72.5753
78.963
70.8852
70.0635
69.1205
72.0803
88.3755
85.9012
72.5527
72.6321
43.4776
41.0985
42.3764
40.4982
82.5553
84.5581
63.0539
84.6236
84.3208
61.6198
57.5324
54.5112
55.9362
53.6687
55.5931
52.6621
76.1244
83.0607
87.2886
91.7421
90.8226
92.5038
74.4046
89.3679
89.3573
79.3181
76.6824
70.9125
67.8402
49.5817
72.7281
68.4445
51.4235
72.8586
81.3308
76.7483
77.5746
83.5885
89.561
64.2353
76.6074
79.3349
102.654
98.5406
103.45
99.6558
74.5078
72.9082
73.537
78.1812
94.4989
95.9569
65.2655
67.8782
72.4174
94.9975
94.7564
65.9704
67.6319
70.0684
66.259
71.3604
29.7439
29.9478
31.0036
29.7143
69.1106
77.5318
78.8529
18.6755
28.5306
26.6566
75.1047
77.3094
62.4344
65.0329
65.2266
67.0074
62.8387
53.1874
84.0575
86.8607
77.0507
85.6317
70.5646
76.6764
76.3554
71.376
20.5649
47.2307
45.1446
44.7121
54.6148
52.1531
67.5803
72.0058
50.5183
77.3961
83.4113
64.1417
61.7142
24.9534
24.825
78.4694
77.6102
96.7767
94.5771
94.5192
99.8606
94.4858
99.8652
102.542
102.54
97.203
100.221
94.2081
97.2349
103.835
103.834
94.3076
94.5115
98.3384
97.8967
94.3289
99.3816
101.613
101.646
94.2285
99.4011
95.7857
98.7085
95.7323
98.7577
104.55
104.548
100.967
100.966
92.3806
92.6464
101.161
101.161
98.6149
100.778
93.0976
93.2023
96.7803
96.8451
99.2807
95.1432
102.982
102.978
93.903
96.0094
95.9485
94.0098
98.6175
98.5631
99.9132
95.5497
95.5159
99.7763
99.7929
94.0986
101.138
98.5491
104.139
104.138
101.911
97.6725
97.474
95.6538
99.5509
96.664
97.9984
94.7757
96.3348
98.2642
91.576
94.7541
100.379
92.5228
92.7683
102.842
102.839
100.809
102.147
102.149
105.833
105.242
105.833
105.242
91.516
101.47
101.469
101.199
103.071
100.445
100.817
101.189
90.8063
93.8852
100.363
100.391
93.9838
94.0026
99.8199
97.5726
97.706
95.6655
98.7082
99.8421
93.9829
102.336
102.335
96.3592
95.7681
96.5242
98.5172
92.1939
95.6383
93.0423
98.6715
94.8942
103.131
103.13
101.584
101.581
98.6308
93.5586
99.9743
94.047
94.0701
93.5744
98.0673
97.8293
97.8291
99.3707
99.2047
99.1618
100.593
95.1517
100.594
101.869
101.869
100.296
100.326
96.7734
95.8291
92.1735
92.1656
102.478
102.21
60.8333
60.5222
60.7653
64.4114
85.0468
80.7332
56.5834
56.5823
54.8007
59.2664
92.231
89.2399
75.6314
77.7662
80.8106
76.8913
69.2411
75.1037
72.9166
72.082
71.984
70.1106
37.9925
40.989
39.185
41.845
97.6158
94.4095
79.0226
72.5973
71.0371
69.8625
72.142
69.0873
88.3638
85.9444
73.6709
72.3974
41.9886
42.6009
42.7871
40.6044
84.6033
82.5318
63.4639
84.0441
84.8788
61.5993
55.1501
57.5753
54.4061
55.1463
53.9865
54.1212
83.0741
76.0571
87.2789
91.7437
92.5287
90.8153
74.4381
89.5915
89.1246
79.2851
76.9333
70.8622
67.8659
49.232
68.4324
72.72
72.6065
51.9377
81.3839
76.5096
77.8139
89.6035
83.5923
65.7103
79.3226
76.6542
103.457
99.6686
102.653
98.538
74.4462
78.2355
73.5243
95.9525
94.5182
73.1785
63.8673
68.0042
72.365
66.5159
94.6943
95.0508
67.4345
68.3932
71.4111
28.6832
31.0665
30.7355
29.3888
66.534
69.8899
78.8751
77.5679
19.0137
61.7447
27.8087
27.2313
77.193
64.6256
65.2185
67.0244
52.3891
86.8873
84.0596
85.7004
77.017
63.0938
69.9258
74.903
77.1327
76.1662
71.7666
20.0133
45.1634
47.2432
44.1359
52.0684
54.6819
72.0832
51.4399
67.5655
83.4655
77.3728
61.4273
64.4328
25.6836
24.9952
77.6023
78.5686
94.5829
96.775
59.8527
60.5617
62.4229
62.5049
83.5467
83.5419
57.1293
58.3192
54.4802
57.1231
91.7606
91.7589
75.5788
77.2108
77.3049
77.2438
69.3911
70.3453
75.9223
76.3645
70.0174
71.1327
37.3476
41.0655
40.0641
41.3374
95.8318
95.8317
74.5297
74.5055
70.7012
69.6942
71.9455
71.9063
86.0247
86.2912
72.548
72.4117
42.3374
41.4592
43.3048
40.2873
87.7117
87.6998
62.9157
84.0317
84.293
61.4909
56.1519
55.4784
56.1982
53.8564
54.1689
54.2359
76.9083
76.1064
87.3357
87.6284
94.45
94.4369
80.9282
89.3294
89.0915
76.8556
77.5975
68.2407
68.4999
49.1013
68.7767
69.1337
72.6174
51.3291
74.2898
76.4083
77.4762
85.797
85.7965
66.9754
80.4381
80.3868
103.226
100.099
103.225
100.095
72.9056
75.9807
75.9993
94.7196
94.5237
74.6611
67.0339
71.1722
72.1662
66.5925
94.6883
94.7441
66.0513
68.3703
67.7072
29.0875
30.4133
29.9226
30.6554
67.9898
69.0721
84.2494
84.3611
18.7092
62.0355
27.948
27.1832
75.1454
62.7167
64.9442
63.7693
52.3876
87.6094
87.6139
79.0534
79.0273
64.0174
69.8254
75.9303
76.1528
76.3218
71.2649
20.3802
45.8305
45.8115
45.2479
53.3633
53.5065
69.5901
50.5602
69.5713
79.6573
79.679
63.565
63.8261
25.1306
24.7383
77.6076
77.5718
94.6874
94.7185
60.0941
60.1972
60.043
60.1298
80.0942
80.2997
56.1446
54.7848
54.9906
56.2044
88.7971
88.9491
77.0661
75.4407
76.57
76.571
68.8055
68.9246
70.2159
70.5874
69.5459
69.4799
39.9518
40.5453
38.5898
38.2975
94.1242
94.2996
71.9271
72.1605
70.5983
69.5214
68.2763
68.1435
85.6213
85.6971
72.2747
71.0991
41.5273
40.8436
40.5468
41.6569
81.8142
81.9096
62.8737
84.1647
83.8882
61.7306
53.9185
53.7545
53.3221
53.5961
53.7329
51.3054
75.8304
75.7319
87.0652
87.0719
90.3954
90.4764
72.6639
89.3103
89.104
76.4068
76.3376
49.8115
67.4383
67.4865
68.0264
68.1055
72.5573
72.3161
76.3633
77.4321
83.0718
83.3833
62.7907
75.8748
75.7141
102.56
98.331
102.603
98.3874
49.325
72.6508
72.5366
72.7863
72.9821
94.3807
94.3086
62.8395
65.7833
72.0554
94.6807
94.6337
65.3832
65.1886
68.1873
65.7178
65.627
28.3173
30.1571
29.7635
29.7369
68.9114
76.3988
76.5022
18.9146
61.8797
27.3653
26.2384
74.8201
74.8353
62.0906
64.9241
62.3243
83.4309
83.5738
76.8472
76.4714
51.9072
62.3904
69.3394
76.1398
75.8069
71.137
20.0138
44.6837
44.6479
43.1188
51.412
50.2009
66.9598
66.8014
51.8553
76.7647
77.0323
60.5476
60.4686
25.4007
25.595
77.3869
76.9919
94.4254
94.4476
59.5826
60.183
60.0386
60.106
80.1541
80.1706
56.1306
54.7534
54.2671
56.2446
88.8426
88.843
77.1264
75.4404
76.6005
76.5898
68.9282
68.8673
70.1525
70.7347
69.6185
69.6564
37.1235
40.5388
39.5302
38.626
94.2003
94.207
72.0208
72.0358
70.6239
69.5815
68.1755
68.1487
85.7158
85.7076
72.3572
72.1479
41.5843
40.8653
41.0939
40.0573
81.7988
81.7656
62.7468
84.2094
83.9097
61.2526
54.5341
54.0244
53.3051
53.4212
53.6028
51.4684
75.7391
75.7852
87.0889
87.0444
90.3952
90.3699
72.501
89.3403
89.1126
76.4501
76.5891
67.5506
67.4577
48.8
68.0815
68.0855
72.3389
51.0958
72.408
76.3822
77.4763
83.2025
83.2246
62.8616
75.7861
75.7161
102.576
98.3418
102.575
98.3342
72.7004
72.8334
72.8679
94.3899
94.3736
72.6905
62.5219
65.948
72.107
66.2092
94.7038
94.6336
65.7393
68.1199
65.7056
29.2672
28.6402
30.3434
28.6013
65.9491
68.8959
76.3286
76.3762
18.5926
61.3716
27.2084
25.9056
74.8854
62.1674
64.8038
62.4052
51.994
83.4518
83.4582
76.5386
76.6553
62.5863
69.6697
74.5155
76.1899
75.9611
71.1632
19.7669
44.5697
44.8252
42.9498
51.4649
51.4712
66.8746
50.2702
66.8671
76.8261
76.8873
60.5265
60.7208
25.5603
24.5744
77.447
77.3991
94.4558
94.4442
60.1058
60.2389
60.1246
60.0211
80.2907
80.0909
56.1531
54.7861
55.0039
56.1766
88.9516
88.7874
77.086
75.4526
76.5653
76.5557
68.822
68.8143
70.28
70.519
69.5076
69.7444
39.9522
40.5565
38.6115
38.261
94.296
94.1207
72.172
71.9265
70.6145
69.5342
68.1534
68.2499
85.6849
85.7055
72.2933
71.1229
41.555
40.8161
40.5348
41.6661
81.937
81.7833
62.8947
84.2033
83.8944
61.7426
54.6446
53.7534
53.375
53.4749
53.6675
51.2581
75.7536
75.65
87.0676
86.9795
90.5011
90.368
72.6658
89.3262
89.109
76.3829
76.6303
49.8284
67.4324
67.4824
68.0496
68.0567
72.3129
72.3319
76.3739
77.4492
83.3695
83.0698
62.7325
75.7424
75.8374
102.604
98.3954
102.557
98.3209
49.3328
72.583
72.9641
72.7879
94.3734
94.3734
72.8558
62.8933
65.7849
72.069
65.1308
94.7062
94.6328
65.2068
68.2016
65.5793
28.3366
30.1501
29.7707
29.7445
66.0597
68.8984
76.487
76.4137
18.9025
61.8077
61.371
27.3701
26.2405
74.874
64.9385
83.5753
83.4223
76.7448
76.4746
51.9327
62.393
62.6609
69.3518
74.627
76.1493
75.8236
71.1517
20.0229
44.672
44.7057
43.1351
50.2042
51.4279
66.8024
51.7851
66.9709
76.9858
76.7648
60.6338
60.3743
25.3845
25.5852
77.7152
77.0227
94.4162
94.4454
59.8296
62.1327
64.3254
60.8415
80.7367
85.0045
59.3098
56.6036
54.7913
56.5673
89.243
92.2027
76.1979
77.2749
76.8839
80.8251
75.0791
69.3023
71.5201
73.4311
72.0424
69.8592
37.2968
41.8063
40.5365
40.4104
94.4083
97.5943
72.5753
78.963
70.8852
70.0635
69.1205
72.0803
88.3755
85.9012
72.5527
72.6321
43.4776
41.0985
42.3764
40.4982
82.5553
84.5581
63.0539
84.6236
84.3208
61.6198
57.5324
54.5112
55.9362
53.6687
55.5931
52.6621
76.1244
83.0607
87.2886
91.7421
90.8226
92.5038
74.4046
89.3679
89.3573
79.3181
76.6824
70.9125
67.8402
49.5817
72.7281
68.4445
51.4235
72.8586
81.3308
76.7483
77.5746
83.5885
89.561
64.2353
76.6074
79.3349
102.654
98.5406
103.45
99.6558
74.5078
72.9082
73.537
78.1812
94.4989
95.9569
65.2655
67.8782
72.4174
94.9975
94.7564
65.9704
67.6319
70.0684
66.259
71.3604
29.7439
29.9478
31.0036
29.7143
69.1106
77.5318
78.8529
18.6755
28.5306
26.6566
75.1047
77.3094
62.4344
65.0329
65.2266
67.0074
62.8387
53.1874
84.0575
86.8607
77.0507
85.6317
70.5646
76.6764
76.3554
71.376
20.5649
47.2307
45.1446
44.7121
54.6148
52.1531
67.5803
72.0058
50.5183
77.3961
83.4113
64.1417
61.7142
24.9534
24.825
78.4694
77.6102
96.7767
94.5771
94.5192
99.8606
94.4858
99.8652
102.542
102.54
97.203
100.221
94.2081
97.2349
103.835
103.834
94.3076
94.5115
98.3384
97.8967
94.3289
99.3816
101.613
101.646
94.2285
99.4011
95.7857
98.7085
95.7323
98.7577
104.55
104.548
100.967
100.966
92.3806
92.6464
101.161
101.161
98.6149
100.778
93.0976
93.2023
96.7803
96.8451
99.2807
95.1432
102.982
102.978
93.903
96.0094
95.9485
94.0098
98.6175
98.5631
99.9132
95.5497
95.5159
99.7763
99.7929
94.0986
101.138
98.5491
104.139
104.138
101.911
97.6725
97.474
95.6538
99.5509
96.664
97.9984
94.7757
96.3348
98.2642
91.576
94.7541
100.379
92.5228
92.7683
102.842
102.839
100.809
102.147
102.149
105.833
105.242
105.833
105.242
91.516
101.47
101.469
101.199
103.071
100.445
100.817
101.189
90.8063
93.8852
100.363
100.391
93.9838
94.0026
99.8199
97.5726
97.706
95.6655
98.7082
99.8421
93.9829
102.336
102.335
96.3592
95.7681
96.5242
98.5172
92.1939
95.6383
93.0423
98.6715
94.8942
103.131
103.13
101.584
101.581
98.6308
93.5586
99.9743
94.047
94.0701
93.5744
98.0673
97.8293
97.8291
99.3707
99.2047
99.1618
100.593
95.1517
100.594
101.869
101.869
100.296
100.326
96.7734
95.8291
92.1735
92.1656
102.478
102.21
60.8333
60.5222
60.7653
64.4114
85.0468
80.7332
56.5834
56.5823
54.8007
59.2664
92.231
89.2399
75.6314
77.7662
80.8106
76.8913
69.2411
75.1037
72.9166
72.082
71.984
70.1106
37.9925
40.989
39.185
41.845
97.6158
94.4095
79.0226
72.5973
71.0371
69.8625
72.142
69.0873
88.3638
85.9444
73.6709
72.3974
41.9886
42.6009
42.7871
40.6044
84.6033
82.5318
63.4639
84.0441
84.8788
61.5993
55.1501
57.5753
54.4061
55.1463
53.9865
54.1212
83.0741
76.0571
87.2789
91.7437
92.5287
90.8153
74.4381
89.5915
89.1246
79.2851
76.9333
70.8622
67.8659
49.232
68.4324
72.72
72.6065
51.9377
81.3839
76.5096
77.8139
89.6035
83.5923
65.7103
79.3226
76.6542
103.457
99.6686
102.653
98.538
74.4462
78.2355
73.5243
95.9525
94.5182
73.1785
63.8673
68.0042
72.365
66.5159
94.6943
95.0508
67.4345
68.3932
71.4111
28.6832
31.0665
30.7355
29.3888
66.534
69.8899
78.8751
77.5679
19.0137
61.7447
27.8087
27.2313
77.193
64.6256
65.2185
67.0244
52.3891
86.8873
84.0596
85.7004
77.017
63.0938
69.9258
74.903
77.1327
76.1662
71.7666
20.0133
45.1634
47.2432
44.1359
52.0684
54.6819
72.0832
51.4399
67.5655
83.4655
77.3728
61.4273
64.4328
25.6836
24.9952
77.6023
78.5686
94.5829
96.775
VECTORS nodal_fluid_flux_TPM float
-0.000595352 1.41422e-05 -1.32203e-19
0.000489957 -0.000202976 1.66476e-19
0.000281373 0.000467816 -1.31333e-19
0.00107047 0.000140915 4.53233e-19
-0.000153293 -0.000265454 -5.51758e-21
-0.000152343 0.000263807 -2.05235e-19
0.00107078 -0.000140956 -5.44699e-19
0.000281368 -0.000467589 -9.89157e-20
-0.000594568 -1.59759e-05 -4.17699e-20
0.000490313 0.000203128 2.30809e-20
-0.000291814 -0.000546874 7.58518e-20
0.000406237 0.000409382 -2.94844e-19
0.000406097 -0.00040827 -4.57157e-20
-0.000385251 0.00066736 1.26325e-19
-0.000870538 0.000709175 -4.28784e-21
0.00128049 -0.000168532 3.47853e-19
-0.000293348 0.000508109 2.55389e-19
-0.000296704 -0.000513733 -4.72533e-20
0.00129498 0.000170449 8.59184e-20
0.000502333 0.000208023 1.81122e-19
-0.000384522 -0.000666079 -2.17043e-19
0.00029151 -0.000546556 -8.54536e-19
-0.000617116 -8.51726e-06 1.27654e-19
-0.000298292 -0.000516558 -2.85644e-20
-0.000296981 0.000514419 2.19383e-20
-0.000293424 -0.000546431 -1.75256e-19
0.000495848 0.000205402 2.54009e-19
-0.00128058 0.00015021 -6.22024e-20
0.00128962 0.000169679 2.43959e-19
0.000384322 -0.000665668 -2.61128e-19
-0.000616113 -1.00271e-05 2.86791e-19
-0.000296861 -0.000514112 1.20361e-19
-0.000297756 0.000515661 -2.00524e-19
-0.000615885 8.55397e-06 1.78412e-19
0.000290964 0.000546231 1.592e-19
-0.000615346 -9.64081e-06 -2.79434e-19
0.000385554 -0.000667861 -1.36642e-20
0.00128974 -0.000169689 -9.91365e-20
-0.00086447 0.000704754 5.55739e-19
-0.000297975 -0.000516138 1.45804e-19
-0.000296935 0.000514212 -2.88583e-19
-0.000615819 1.08523e-05 5.31366e-19
0.000291891 0.00054683 -1.02578e-20
-0.000384591 0.000666198 -1.13659e-19
0.000502343 -0.000208026 -1.56015e-19
0.00129589 -0.000170568 -3.83107e-19
-0.000297322 0.000514801 -8.1399e-20
-0.000292638 -0.000506873 1.19015e-19
0.00128016 0.000168494 -3.72454e-19
-0.00128081 0.000150046 -3.32594e-19
-0.000612922 9.01482e-06 -1.38562e-19
0.000289097 0.000541071 3.7759e-19
-0.000380398 0.000658836 -8.71862e-19
0.000491803 -0.000203609 3.24024e-19
0.00126342 -0.000166097 2.28456e-19
0.000396807 0.00039588 -1.52621e-19
0.000328067 -0.000377151 -9.29861e-20
0.000994662 0.000131211 -5.15119e-19
0.000233244 0.000208756 -6.92087e-20
-0.00034 -5.59863e-05 2.66319e-20
-0.000876609 0.000707329 3.71193e-19
-0.000126224 0.000218565 8.35398e-20
7.86225e-05 -3.25645e-05 -7.63105e-20
0.000191317 -2.51809e-05 2.47162e-19
5.92768e-05 5.59574e-05 1.24944e-19
5.92364e-05 -5.59246e-05 1.41875e-19
0.000191179 2.51627e-05 -1.18667e-19
7.85507e-05 3.25348e-05 -1.08872e-19
-5.17619e-05 -0.000158878 5.72562e-20
0.000284517 -0.000117949 7.74657e-20
-0.000309622 0.000536403 3.91625e-21
2.57125e-05 9.24564e-06 1.31252e-19
0.000992483 -0.000130931 4.4981e-19
0.000327406 0.000376543 1.84231e-19
0.000396889 -0.00039616 4.72317e-21
0.00126353 0.000166111 -5.95805e-19
0.000491567 0.000203511 -2.38412e-19
-0.000288684 -0.000540154 -7.83876e-20
0.000380104 -0.000658575 5.05877e-19
-0.000612607 -1.08035e-05 -3.38907e-20
-0.000876698 0.000722126 -2.84206e-19
-0.000595352 1.41422e-05 -1.95215e-19
0.000489957 -0.000202976 -1.55467e-21
0.000281373 0.000467816 -2.63132e-20
0.00107047 0.000140915 5.12044e-19
-0.000153293 -0.000265454 1.58313e-19
-0.000152343 0.000263807 8.88195e-20
0.00107078 -0.000140956 -4.69085e-19
0.000281368 -0.000467589 1.90293e-21
-0.000594568 -1.59759e-05 2.96433e-20
0.000490313 0.000203128 -8.61392e-20
-0.000291814 -0.000546874 -8.79784e-20
0.000406237 0.000409382 -9.32069e-20
0.000406097 -0.00040827 -1.50735e-19
-0.000385251 0.00066736 -1.84533e-19
-0.000870538 0.000709175 -1.26894e-20
0.00128049 -0.000168532 7.90033e-20
-0.000293348 0.000508109 4.53504e-20
-0.000296704 -0.000513733 -1.56473e-19
0.00129498 0.000170449 -1.82931e-19
0.000502333 0.000208023 2.65137e-19
-0.000384522 -0.000666079 -1.54031e-19
0.00029151 -0.000546556 -8.96544e-19
-0.000617116 -8.51726e-06 1.31855e-19
-0.000298292 -0.000516558 -9.99776e-20
-0.000296981 0.000514419 1.01753e-19
-0.000293424 -0.000546431 -3.55889e-19
0.000495848 0.000205402 2.45607e-19
-0.00128058 0.00015021 -4.32989e-20
0.00128962 0.000169679 1.68345e-19
0.000384322 -0.000665668 -4.6888e-20
-0.000616113 -1.00271e-05 1.69169e-19
-0.000296861 -0.000514112 2.96794e-19
-0.000297756 0.000515661 -2.8454e-19
-0.000615885 8.55397e-06 1.49006e-19
0.000290964 0.000546231 -8.83063e-21
-0.000615346 -9.64081e-06 -3.80253e-19
0.000385554 -0.000667861 -1.7865e-20
0.00128974 -0.000169689 -1.57947e-19
-0.00086447 0.000704754 5.48388e-19
-0.000297975 -0.000516138 2.59225e-19
-0.000296935 0.000514212 9.6717e-21
-0.000615819 1.08523e-05 6.90995e-19
0.000291891 0.00054683 2.33387e-19
-0.000384591 0.000666198 1.25785e-19
0.000502343 -0.000208026 1.00232e-19
0.00129589 -0.000170568 -1.31061e-19
-0.000297322 0.000514801 -5.19936e-20
-0.000292638 -0.000506873 1.52621e-19
0.00128016 0.000168494 -1.70817e-19
-0.00128081 0.000150046 -3.36794e-19
-0.000612922 9.01482e-06 9.24808e-20
0.000289097 0.000541071 2.89373e-19
-0.000380398 0.000658836 -9.81082e-19
0.000491803 -0.000203609 5.46665e-19
0.00126342 -0.000166097 2.03251e-19
0.000396807 0.00039588 -1.19015e-19
0.000328067 -0.000377151 -1.34994e-19
0.000994662 0.000131211 -4.6471e-19
0.000233244 0.000208756 -8.60118e-20
-0.00034 -5.59863e-05 -9.93914e-20
-0.000876609 0.000707329 3.64892e-19
-0.000126224 0.000218565 -5.92866e-20
7.86225e-05 -3.25645e-05 -5.95074e-20
0.000191317 -2.51809e-05 8.75323e-20
5.92768e-05 5.59574e-05 1.57242e-20
5.92364e-05 -5.59246e-05 -9.33685e-20
0.000191179 2.51627e-05 -8.50603e-20
7.85507e-05 3.25348e-05 1.76781e-19
-5.17619e-05 -0.000158878 1.07666e-19
0.000284517 -0.000117949 3.42115e-19
-0.000309622 0.000536403 -1.17906e-19
2.57125e-05 9.24564e-06 2.44673e-19
0.000992483 -0.000130931 4.33007e-19
0.000327406 0.000376543 -6.78156e-20
0.000396889 -0.00039616 9.71402e-20
0.00126353 0.000166111 -5.53797e-19
0.000491567 0.000203511 -2.83732e-20
-0.000288684 -0.000540154 5.62797e-21
0.000380104 -0.000658575 6.02494e-19
-0.000612607 -1.08035e-05 -8.00993e-20
-0.000876698 0.000722126 -2.82106e-19
-0.000113704 -0.000718767 1.86639e-19
0.000281373 0.000467816 8.44742e-20
4.00244e-05 5.63555e-05 1.89906e-19
-0.000163226 1.87966e-06 2.09227e-19
-0.000595352 1.41422e-05 -1.04615e-20
0.000524152 -0.000147454 1.2542e-19
0.000234775 -0.00056684 -1.4343e-19
9.37308e-05 0.000171837 -3.43198e-20
8.80022e-05 1.673e-06 -1.64637e-19
8.80022e-05 1.673e-06 -3.13892e-21
0.00010176 -0.000162411 8.14661e-21
0.000234939 0.000567236 3.0531e-20
0.000524131 0.000147589 -4.28318e-20
-0.000594568 -1.59759e-05 2.85177e-20
-0.000161097 -5.35698e-06 -8.07025e-20
4.43217e-05 -5.87206e-05 8.52515e-20
0.000281368 -0.000467589 -1.14512e-19
0.000127446 0.000718759 -2.95329e-20
-0.000291814 -0.000546874 -2.88328e-19
-1.91703e-05 -5.38681e-05 -1.75035e-19
0.000172535 6.41218e-06 -1.69314e-19
0.000431776 0.000119462 1.13663e-20
-0.000617101 -4.81965e-09 1.11327e-19
0.000274921 -0.000529663 1.22757e-19
7.88931e-05 -0.000149935 1.98243e-19
7.82847e-05 0.000144605 7.89737e-20
0.000273993 0.000531764 -4.89184e-20
-0.000617269 3.09454e-09 -1.4704e-19
0.000431377 -0.00011925 -9.63162e-20
0.000170004 -1.85486e-06 -1.27765e-20
4.13605e-05 7.13047e-05 -1.59154e-20
-0.000206591 0.000167822 1.38545e-19
0.000705285 -0.000857771 -1.80869e-20
0.000897057 -0.000690568 -1.85308e-20
-0.000709238 0.000877828 -1.94344e-20
0.000594869 0.000193384 1.67649e-19
0.000298649 0.000720772 3.29147e-19
-3.48096e-05 0.00031816 -1.14767e-20
-7.94966e-05 4.85934e-06 -1.25339e-19
-7.94966e-05 4.85934e-06 -4.47813e-20
-2.46873e-05 -0.000303235 -2.32767e-19
0.000300741 -0.000725817 1.65125e-19
0.000603864 -0.000194306 -9.79642e-20
0.000435951 0.000130763 -1.00419e-19
0.000164356 6.40464e-06 -3.41448e-19
3.39321e-05 -7.23242e-05 -3.75576e-19
-0.000208172 -0.00016928 -3.15164e-19
0.000122171 -0.000734283 -8.47214e-19
0.00029151 -0.000546556 7.92582e-21
2.77212e-05 -4.99389e-05 1.44092e-19
-0.000172477 3.0982e-06 9.37635e-20
-0.000617116 -8.51726e-06 -2.67719e-19
-0.000620431 -2.42473e-08 5.92729e-19
-4.28809e-05 -0.000318053 5.14168e-19
-8.26722e-05 -5.98149e-06 2.52993e-19
-8.26722e-05 -5.98149e-06 -1.1413e-20
-3.27716e-05 0.000303213 1.17936e-19
-0.000620122 6.31623e-08 -1.7058e-20
0.000434312 0.000123721 3.521e-19
0.000171424 8.95465e-06 -2.22131e-19
-2.13701e-05 -5.32933e-05 5.1709e-20
-0.000293424 -0.000546431 -3.28956e-19
0.000125523 0.000736102 6.42476e-20
0.000674264 -0.000839978 3.04514e-20
0.000864077 0.000699934 1.21266e-21
0.00069926 0.000860237 3.33125e-19
0.000300318 -0.000724898 1.87811e-19
0.000599874 -0.000194388 1.97449e-19
-0.000123051 -0.000733925 -1.12151e-19
0.000207356 -0.000169097 -4.83178e-19
-3.78382e-05 -7.42022e-05 -1.1475e-19
-0.000173078 1.80892e-06 -1.19601e-19
-0.000616113 -1.00271e-05 1.27765e-19
-0.000620125 -3.8904e-08 9.50266e-19
-3.28171e-05 -0.00030293 -1.17715e-19
-8.23301e-05 6.08826e-06 -6.74192e-19
-8.23301e-05 6.08826e-06 -4.82163e-19
-4.28009e-05 0.000317679 -3.95374e-19
-0.000619208 3.9431e-08 -4.6146e-19
-0.000615885 8.55397e-06 1.55679e-19
-0.000172212 -3.35683e-06 1.58423e-19
2.77568e-05 4.99157e-05 -1.92662e-19
0.000290964 0.000546231 -1.38591e-19
0.000121455 0.000734414 -2.79066e-21
0.000212627 -0.000165131 1.61069e-19
-4.27981e-05 -7.11605e-05 2.18279e-20
-0.000173149 2.42881e-07 -1.1605e-19
-0.000615346 -9.64081e-06 4.85064e-20
0.000599466 0.00019465 -1.32174e-19
0.000300605 0.000725576 -1.99084e-19
-0.00011138 -0.00125721 -9.59742e-20
0.00085051 0.000674228 4.65366e-20
-0.000704542 0.000875271 4.93622e-20
-0.000121011 -0.000736052 -1.52383e-19
-0.000619083 -6.18872e-08 -2.30516e-19
-4.28665e-05 -0.000318035 3.52988e-19
-8.26588e-05 -6.04858e-06 4.00369e-19
-8.26588e-05 -6.04858e-06 2.58366e-19
-3.27654e-05 0.000303068 1.72151e-19
-0.000620167 2.45088e-08 -2.02265e-20
-0.000615819 1.08523e-05 1.25722e-19
-0.000174907 -2.0082e-06 5.35949e-20
3.23548e-05 5.26907e-05 7.31886e-20
0.000291891 0.00054683 4.94115e-19
0.000122506 0.000734458 1.46628e-19
-0.000207814 0.000168993 -1.46488e-19
3.37298e-05 7.22909e-05 -2.2939e-19
0.000164184 -6.2268e-06 -3.29733e-19
0.000435893 -0.000130697 -2.44592e-19
0.000603986 0.000194602 -4.10563e-20
0.000301119 0.000726729 -6.38823e-20
-2.23116e-05 -0.00030401 3.46791e-19
-7.89285e-05 2.00874e-06 6.34236e-20
-7.89285e-05 2.00874e-06 1.23058e-19
-3.71963e-05 0.000317735 -9.46512e-20
0.000298349 -0.00072006 3.40496e-19
0.000595113 -0.000193125 -4.2356e-20
0.000674622 -0.000841194 1.80464e-19
0.000863849 0.000699487 -3.58297e-19
0.000698771 0.000859709 5.48627e-20
-0.000600974 -2.53192e-08 6.68004e-20
-0.000616462 -5.81151e-08 6.05863e-20
-0.000612922 9.01482e-06 -1.81835e-19
-0.000170915 -3.13121e-06 1.87684e-19
2.81048e-05 4.99264e-05 -1.21504e-19
0.000289097 0.000541071 -1.72911e-19
0.000121546 0.000726434 1.91345e-19
-0.000204827 0.000166968 -1.83802e-19
3.52029e-05 7.05093e-05 -2.38981e-19
0.000162834 -7.6275e-06 -1.21219e-19
0.000426682 -0.000128968 -3.59882e-19
0.000590004 0.000189202 6.09057e-19
0.000292863 0.000707016 -5.52021e-19
0.000266784 0.000516209 -4.35954e-19
7.56273e-05 0.000128941 -5.43399e-19
7.00075e-05 -0.00015187 -3.68062e-19
0.000218314 -0.000478781 2.92142e-20
0.000251462 -0.000606664 -1.07802e-20
0.000426815 -0.000168721 -1.7475e-19
-0.00034 -5.59863e-05 -1.21742e-19
-3.26331e-05 -0.00010462 -4.37832e-20
9.34208e-05 -9.02452e-05 -1.31808e-19
0.000233244 0.000208756 1.55824e-19
0.000145999 -0.000597614 -1.81708e-19
0.000710722 -0.000882623 -7.22562e-20
0.000884947 -0.000700445 7.30497e-19
-0.000708709 0.000868575 -3.34337e-19
-0.000318153 1.24621e-08 -9.51464e-22
0.000118102 0.000251495 1.9225e-19
-2.08969e-05 2.35235e-05 -4.05678e-19
1.81151e-05 5.34554e-07 -9.048e-20
3.25117e-05 -9.29868e-06 -2.2595e-19
6.71299e-05 -2.35665e-05 -2.52964e-19
9.14731e-05 2.75149e-05 -1.52307e-19
4.31597e-05 0.000104199 1.84511e-20
4.00239e-05 7.37734e-05 6.49612e-20
9.49921e-06 1.73906e-05 4.85446e-19
9.52849e-06 -1.74802e-05 2.52709e-19
3.99701e-05 -7.3753e-05 9.85674e-20
4.31313e-05 -0.000104131 1.77698e-19
9.14019e-05 -2.74977e-05 -4.54312e-20
6.70804e-05 2.3528e-05 -1.48849e-19
3.25583e-05 9.47444e-06 3.18308e-20
1.40905e-05 2.00516e-06 1.49452e-19
-5.17619e-05 -0.000158878 -2.22569e-20
1.2076e-05 -0.00025004 2.24684e-19
-7.35741e-05 0.000207004 -1.34434e-20
9.94017e-05 0.000158178 -4.17528e-20
0.000170604 0.000115246 1.11153e-19
0.000327066 4.07856e-05 6.41031e-20
-0.000318185 -1.21443e-08 2.63396e-19
3.65246e-05 4.7152e-07 1.20569e-19
2.60592e-05 8.94658e-06 -2.13318e-19
3.65981e-05 2.19076e-07 4.83493e-20
0.000146181 0.000597744 1.38022e-19
0.000425747 0.000168418 2.16062e-19
0.000250984 0.000605508 -8.08129e-20
0.000217709 0.000478121 3.60247e-19
7.04678e-05 0.000152336 -1.40065e-19
7.49397e-05 -0.00012839 -9.60613e-20
0.000267044 -0.000516323 -2.77612e-19
0.000292959 -0.00070725 -2.32958e-19
0.000589921 -0.000189287 -3.40462e-19
0.000426602 0.00012867 -5.66573e-19
0.000163208 8.73989e-06 -3.46171e-19
-2.06286e-05 -4.97637e-05 -8.01957e-19
-0.000288684 -0.000540154 -3.91776e-19
-0.000120769 -0.000725946 1.00841e-18
0.000205929 -0.000167796 -8.16445e-19
-3.70982e-05 -7.38789e-05 -3.58106e-19
-0.000171348 1.51806e-06 -1.16177e-19
-0.000612607 -1.08035e-05 -2.32291e-19
-0.00061697 5.88423e-08 2.69801e-20
-0.000600862 2.32845e-08 4.58319e-21
0.000691857 -0.000847335 -8.04475e-21
0.000881709 -0.000677817 -2.14272e-19
-0.00072077 0.000900964 -2.46733e-19
-0.000113704 -0.000718767 1.06824e-19
0.000281373 0.000467816 6.34703e-20
4.00244e-05 5.63555e-05 -2.01332e-20
-0.000163226 1.87966e-06 2.17629e-19
-0.000595352 1.41422e-05 -9.86778e-20
0.000524152 -0.000147454 -9.00476e-21
0.000234775 -0.00056684 2.59845e-19
9.37308e-05 0.000171837 7.06996e-20
8.80022e-05 1.673e-06 -5.12162e-20
8.80022e-05 1.673e-06 3.46681e-20
0.00010176 -0.000162411 1.76178e-19
0.000234939 0.000567236 -4.50829e-20
0.000524131 0.000147589 -8.23992e-22
-0.000594568 -1.59759e-05 -2.60924e-20
-0.000161097 -5.35698e-06 8.31278e-20
4.43217e-05 -5.87206e-05 -1.97679e-20
0.000281368 -0.000467589 -2.15331e-19
0.000127446 0.000718759 1.21695e-19
-0.000291814 -0.000546874 -1.74908e-19
-1.91703e-05 -5.38681e-05 -1.96039e-19
0.000172535 6.41218e-06 -2.22865e-20
0.000431776 0.000119462 -7.685e-20
-0.000617101 -4.81965e-09 1.23929e-19
0.000274921 -0.000529663 9.34386e-22
7.88931e-05 -0.000149935 1.761e-20
7.82847e-05 0.000144605 4.95682e-20
0.000273993 0.000531764 -6.99223e-20
-0.000617269 3.09454e-09 -3.23472e-19
0.000431377 -0.00011925 3.81086e-20
0.000170004 -1.85486e-06 -2.1178e-20
4.13605e-05 7.13047e-05 1.34901e-20
-0.000206591 0.000167822 7.97339e-20
0.000705285 -0.000857771 -1.28359e-20
0.000897057 -0.000690568 -1.11794e-20
-0.000709238 0.000877828 3.66985e-21
0.000594869 0.000193384 1.08838e-19
0.000298649 0.000720772 1.94722e-19
-3.48096e-05 0.00031816 -3.07518e-21
-7.94966e-05 4.85934e-06 -2.09355e-19
-7.94966e-05 4.85934e-06 -2.79782e-20
-2.46873e-05 -0.000303235 -2.78975e-19
0.000300741 -0.000725817 4.96987e-19
0.000603864 -0.000194306 -4.75549e-20
0.000435951 0.000130763 -3.48265e-19
0.000164356 6.40464e-06 -2.40629e-19
3.39321e-05 -7.23242e-05 -3.08364e-19
-0.000208172 -0.00016928 -4.07581e-19
0.000122171 -0.000734283 -7.63198e-19
0.00029151 -0.000546556 1.63274e-20
2.77212e-05 -4.99389e-05 2.19706e-19
-0.000172477 3.0982e-06 5.17557e-20
-0.000617116 -8.51726e-06 -3.89542e-19
-0.000620431 -2.42473e-08 5.4232e-19
-4.28809e-05 -0.000318053 5.14168e-19
-8.26722e-05 -5.98149e-06 3.4121e-19
-8.26722e-05 -5.98149e-06 -4.922e-20
-3.27716e-05 0.000303213 2.94368e-19
-0.000620122 6.31623e-08 2.01382e-19
0.000434312 0.000123721 2.00872e-19
0.000171424 8.95465e-06 -1.46517e-19
-2.13701e-05 -5.32933e-05 -3.23065e-20
-0.000293424 -0.000546431 -3.33156e-19
0.000125523 0.000736102 1.23599e-21
0.000674264 -0.000839978 1.25981e-20
0.000864077 0.000699934 1.21266e-21
0.00069926 0.000860237 3.52028e-19
0.000300318 -0.000724898 2.17217e-19
0.000599874 -0.000194388 2.73063e-19
-0.000123051 -0.000733925 -1.66761e-19
0.000207356 -0.000169097 -4.11765e-19
-3.78382e-05 -7.42022e-05 -2.02967e-19
-0.000173078 1.80892e-06 -2.07817e-19
-0.000616113 -1.00271e-05 2.1178e-19
-0.000620125 -3.8904e-08 8.03239e-19
-3.28171e-05 -0.00030293 -1.34518e-19
-8.23301e-05 6.08826e-06 -5.48169e-19
-8.23301e-05 6.08826e-06 -5.07367e-19
-4.28009e-05 0.000317679 -5.21397e-19
-0.000619208 3.9431e-08 -4.69862e-19
-0.000615885 8.55397e-06 3.02706e-19
-0.000172212 -3.35683e-06 7.44076e-20
2.77568e-05 4.99157e-05 -2.22068e-19
0.000290964 0.000546231 -2.05804e-19
0.000121455 0.000734414 1.02229e-19
0.000212627 -0.000165131 2.36683e-19
-4.27981e-05 -7.11605e-05 2.18279e-20
-0.000173149 2.42881e-07 -2.21069e-19
-0.000615346 -9.64081e-06 4.85064e-20
0.000599466 0.00019465 1.0307e-19
0.000300605 0.000725576 1.11773e-19
-0.00011138 -0.00125721 -1.2958e-19
0.00085051 0.000674228 7.5942e-20
-0.000704542 0.000875271 6.82657e-20
-0.000121011 -0.000736052 -1.31379e-19
-0.000619083 -6.18872e-08 -3.1033e-19
-4.28665e-05 -0.000318035 1.97559e-19
-8.26588e-05 -6.04858e-06 2.61743e-19
-8.26588e-05 -6.04858e-06 4.47401e-19
-3.27654e-05 0.000303068 4.61277e-20
-0.000620167 2.45088e-08 -6.22343e-20
-0.000615819 1.08523e-05 -6.7514e-20
-0.000174907 -2.0082e-06 4.09926e-20
3.23548e-05 5.26907e-05 -7.80393e-20
0.000291891 0.00054683 4.85714e-19
0.000122506 0.000734458 3.02056e-19
-0.000207814 0.000168993 7.61534e-20
3.37298e-05 7.22909e-05 -3.26008e-19
0.000164184 -6.2268e-06 -2.49918e-19
0.000435893 -0.000130697 -3.49611e-19
0.000603986 0.000194602 -7.45009e-21
0.000301119 0.000726729 -1.0589e-19
-2.23116e-05 -0.00030401 4.8536e-20
-7.89285e-05 2.00874e-06 -4.15958e-20
-7.89285e-05 2.00874e-06 -5.75749e-20
-3.71963e-05 0.000317735 -4.84426e-20
0.000298349 -0.00072006 2.90087e-19
0.000595113 -0.000193125 -2.55529e-20
0.000674622 -0.000841194 1.81515e-19
0.000863849 0.000699487 -3.49896e-19
0.000698771 0.000859709 8.21678e-20
-0.000600974 -2.53192e-08 -8.86283e-20
-0.000616462 -5.81151e-08 -6.5437e-20
-0.000612922 9.01482e-06 -2.28044e-19
-0.000170915 -3.13121e-06 3.09506e-19
2.81048e-05 4.99264e-05 -1.08901e-19
0.000289097 0.000541071 -1.35104e-19
0.000121546 0.000726434 3.76179e-19
-0.000204827 0.000166968 -8.29832e-20
3.52029e-05 7.05093e-05 -2.55784e-19
0.000162834 -7.6275e-06 4.80398e-21
0.000426682 -0.000128968 -4.81704e-19
0.000590004 0.000189202 5.50246e-19
0.000292863 0.000707016 -6.02431e-19
0.000266784 0.000516209 -5.53576e-19
7.56273e-05 0.000128941 -4.50982e-19
7.00075e-05 -0.00015187 -3.13452e-19
0.000218314 -0.000478781 1.09029e-19
0.000251462 -0.000606664 1.32046e-19
0.000426815 -0.000168721 -8.23334e-20
-0.00034 -5.59863e-05 -9.6537e-20
-3.26331e-05 -0.00010462 4.86339e-20
9.34208e-05 -9.02452e-05 -1.58425e-21
0.000233244 0.000208756 3.82019e-20
0.000145999 -0.000597614 -3.20333e-19
0.000710722 -0.000882623 -7.75072e-20
0.000884947 -0.000700445 7.05292e-19
-0.000708709 0.000868575 -3.53241e-19
-0.000318153 1.24621e-08 4.94578e-20
0.000118102 0.000251495 2.00652e-19
-2.08969e-05 2.35235e-05 -4.1408e-19
1.81151e-05 5.34554e-07 -3.50928e-19
3.25117e-05 -9.29868e-06 -4.19185e-19
6.71299e-05 -2.35665e-05 -4.29251e-20
9.14731e-05 2.75149e-05 2.92975e-19
4.31597e-05 0.000104199 6.88604e-20
4.00239e-05 7.37734e-05 -3.58574e-20
9.49921e-06 1.73906e-05 2.08195e-19
9.52849e-06 -1.74802e-05 2.27504e-19
3.99701e-05 -7.3753e-05 -6.94636e-20
4.31313e-05 -0.000104131 1.861e-19
9.14019e-05 -2.74977e-05 -3.70297e-20
6.70804e-05 2.3528e-05 2.75833e-20
3.25583e-05 9.47444e-06 -2.69801e-20
1.40905e-05 2.00516e-06 -1.44602e-19
-5.17619e-05 -0.000158878 1.28971e-19
1.2076e-05 -0.00025004 5.6653e-20
-7.35741e-05 0.000207004 1.41985e-19
9.94017e-05 0.000158178 -1.42571e-19
0.000170604 0.000115246 9.01488e-20
0.000327066 4.07856e-05 2.6574e-19
-0.000318185 -1.21443e-08 -1.56682e-19
3.65246e-05 4.7152e-07 -1.38554e-20
2.60592e-05 8.94658e-06 -1.33503e-19
3.65981e-05 2.19076e-07 -1.57489e-19
0.000146181 0.000597744 -2.16071e-20
0.000425747 0.000168418 -9.47957e-20
0.000250984 0.000605508 3.20265e-21
0.000217709 0.000478121 3.7705e-19
7.04678e-05 0.000152336 -2.57687e-19
7.49397e-05 -0.00012839 -1.46471e-19
0.000267044 -0.000516323 -2.60809e-19
0.000292959 -0.00070725 -1.40541e-19
0.000589921 -0.000189287 -6.34516e-19
0.000426602 0.00012867 -6.16983e-19
0.000163208 8.73989e-06 -3.37769e-19
-2.06286e-05 -4.97637e-05 -7.59949e-19
-0.000288684 -0.000540154 -4.08579e-19
-0.000120769 -0.000725946 9.07592e-19
0.000205929 -0.000167796 -8.20646e-19
-3.70982e-05 -7.38789e-05 -4.8833e-19
-0.000171348 1.51806e-06 -1.2878e-19
-0.000612607 -1.08035e-05 -3.03704e-19
-0.00061697 5.88423e-08 -3.18308e-20
-0.000600862 2.32845e-08 -2.8107e-19
0.000691857 -0.000847335 -1.01451e-20
0.000881709 -0.000677817 -2.0167e-19
-0.00072077 0.000900964 -2.38331e-19
-0.000192644 0.000290149 6.38994e-20
-0.000215947 -0.000144757 8.45379e-20
0.000206318 -0.00019667 -3.12913e-20
0.00020483 0.00019856 8.93248e-20
0.000255587 5.10378e-05 5.84455e-20
0.000255246 -5.13464e-05 -3.39715e-20
6.40129e-05 -0.000281968 -9.98122e-22
0.000327804 -5.96898e-05 5.8021e-21
-0.00034939 -5.11357e-05 -2.8129e-20
-4.3794e-05 0.000279104 1.17494e-19
0.000412476 -0.000118068 -6.20135e-20
0.000412324 0.000118213 2.25763e-19
-0.000227685 -0.000137111 1.02101e-19
-0.000229847 0.00011719 2.52599e-19
1.3084e-05 0.000259453 9.54752e-20
4.85029e-06 -0.000259368 1.22541e-20
-2.28063e-05 -0.000260341 -1.11756e-19
3.86103e-05 0.000251247 4.05339e-20
0.00027721 -3.2169e-05 2.28914e-19
0.000216298 9.41412e-05 -1.02874e-20
-4.50018e-05 0.000142742 2.42532e-20
5.98516e-05 -0.000139239 6.44218e-20
-0.000391958 0.000271573 -6.61335e-20
-0.000345241 -0.000194105 9.69024e-20
0.000662149 -0.000310277 -4.10517e-21
0.000374093 0.000511041 -6.68237e-20
0.000412476 -0.000118068 -6.20135e-20
0.000412324 0.000118213 2.69801e-20
0.0002297 -0.000100965 6.3736e-23
0.000229136 9.97135e-05 7.84501e-21
-0.000178471 8.5789e-05 7.38852e-20
-0.000181155 -8.57107e-05 -2.91676e-20
0.000277058 9.765e-05 1.15005e-19
0.000276174 -0.000100261 8.76131e-20
7.97081e-05 0.000421975 -9.64266e-20
-6.55088e-05 -0.000419251 7.00327e-20
-0.000171856 4.07467e-05 -8.66616e-20
-0.000175434 -4.34651e-05 -2.87556e-20
1.3966e-06 -0.000604284 -1.10796e-19
7.10922e-05 0.00061292 -3.79726e-20
0.000645197 5.34283e-06 -2.52917e-20
-0.000599046 -8.08222e-05 -6.39779e-20
0.000300294 -0.000181487 1.62925e-19
0.000299634 0.000181786 2.39516e-20
-0.000224667 0.000133027 3.35425e-20
-0.000296661 -3.97537e-05 -2.365e-20
-0.000298055 3.8871e-05 -1.04004e-19
-0.000233865 -0.000142195 -6.3736e-23
0.000217659 -0.000298916 6.56236e-21
0.00021899 0.000303709 -1.35406e-19
0.000335257 -0.000148167 -2.42532e-21
-0.000192644 0.000290149 -1.7041e-20
-4.90427e-05 -0.000269149 3.26081e-20
0.000341599 0.000145799 7.45009e-21
-0.00019596 0.000160982 -2.57908e-20
0.000214012 -0.000160717 7.17615e-20
6.17639e-05 -0.000549088 -4.922e-20
-4.46932e-05 0.000548869 9.87416e-20
0.000330901 -0.000279176 3.5752e-19
0.000331021 0.000279706 5.1709e-20
0.000146384 5.00897e-05 -9.52715e-21
-3.81139e-05 0.000319089 -5.63685e-20
-2.55142e-05 -0.000304609 -1.35597e-19
6.66239e-05 0.000178418 1.56775e-20
-4.69309e-05 -0.000182291 -2.42532e-20
-9.26829e-06 0.000247247 1.18933e-21
2.70473e-05 -0.000241803 1.10932e-19
-0.000345241 -0.000194105 -7.13495e-20
-2.28063e-05 -0.000260341 6.03951e-20
3.86103e-05 0.000251247 -9.61421e-20
-0.00015824 -0.000107881 -4.46072e-20
-0.000391958 0.000271573 3.96291e-20
4.58629e-05 6.40067e-05 -3.65338e-22
-2.55142e-05 -0.000304609 7.09841e-20
-0.000178471 8.5789e-05 -1.36595e-19
0.000415044 -0.000117268 1.83976e-19
0.000415065 0.000117359 7.54228e-20
0.000341599 0.000145799 -2.16537e-20
0.000241855 0.000145761 9.47149e-20
0.000243171 -0.000145823 2.14617e-19
0.000524152 -0.000147454 1.30364e-19
0.000412476 -0.000118068 3.01504e-19
0.000524131 0.000147589 2.60286e-20
0.000412324 0.000118213 -3.89037e-19
-4.50018e-05 0.000142742 -4.17528e-20
0.0002297 -0.000100965 -1.59154e-20
0.000229136 9.97135e-05 1.33868e-19
-0.000280051 -0.000531994 -1.66697e-19
0.000297124 0.000537706 3.22723e-20
-8.53626e-06 -4.57166e-05 1.09806e-19
0.000335257 -0.000148167 4.90288e-20
0.00027721 -3.2169e-05 -5.67975e-20
-0.000185446 5.40954e-05 1.91647e-20
-0.00015824 -0.000107881 4.75732e-22
-0.00061264 -1.15248e-05 9.9264e-20
-0.000613256 9.85021e-06 1.68031e-20
-4.26242e-05 0.000157693 8.31278e-20
-0.000233865 -0.000142195 -6.35978e-20
0.000156107 0.000127943 1.53759e-21
1.3966e-06 -0.000604284 -2.80972e-20
7.10922e-05 0.00061292 -2.94606e-20
0.000645197 5.34283e-06 5.75982e-20
-0.000599046 -8.08222e-05 -1.37598e-20
0.000155537 -0.000129284 1.0152e-21
-0.000216003 0.000129 3.60782e-20
0.000145163 -0.000119953 2.12884e-20
0.000143217 0.00011743 1.06969e-19
-0.000870538 0.000709175 -6.58723e-20
-2.28063e-05 -0.000260341 1.28402e-20
-3.77449e-05 -0.000563279 -6.68129e-21
0.000604172 4.38689e-05 -8.97368e-20
-4.50018e-05 0.000142742 -5.52599e-20
-9.26829e-06 0.000247247 -2.79145e-20
-0.000185446 5.40954e-05 9.33515e-20
3.86103e-05 0.000251247 5.75578e-20
-0.000345241 -0.000194105 3.72675e-20
0.000300294 -0.000181487 -3.82416e-22
0.000299634 0.000181786 -1.03116e-19
0.000195965 -8.22492e-05 5.42618e-20
0.000197458 8.27444e-05 -4.85701e-20
2.70473e-05 -0.000241803 -3.49697e-20
-0.000233865 -0.000142195 5.95711e-20
-8.53626e-06 -4.57166e-05 7.56048e-21
-0.000175434 -4.34651e-05 -7.91649e-20
-0.000171856 4.07467e-05 -1.10477e-20
-0.000178471 8.5789e-05 1.74321e-19
0.000897057 -0.000690568 2.54818e-20
1.3966e-06 -0.000604284 2.88745e-20
2.35748e-05 0.000556261 -1.0486e-19
0.000645197 5.34283e-06 4.94174e-20
0.000217659 -0.000298916 -1.35058e-19
0.00021899 0.000303709 -1.50914e-20
0.000229136 9.97135e-05 6.78623e-20
-0.000391958 0.000271573 6.6261e-21
0.0002297 -0.000100965 -3.96928e-20
0.000255246 -5.13464e-05 3.09897e-20
0.000255587 5.10378e-05 1.32632e-19
0.000335257 -0.000148167 -7.12857e-20
0.000341599 0.000145799 6.31858e-20
-0.000709238 0.000877828 -2.866e-20
-0.000870538 0.000709175 3.70171e-21
-0.000175434 -4.34651e-05 9.83125e-20
-0.000171856 4.07467e-05 -1.66175e-19
-6.55088e-05 -0.000419251 -2.1178e-19
7.97081e-05 0.000421975 2.7787e-20
-0.00019177 0.000309773 -5.0456e-20
-0.000209549 -0.000198956 -2.53571e-21
0.000185426 -0.000206924 -2.33179e-19
0.00018749 0.000208605 -1.82787e-19
0.000254309 -8.44716e-05 -1.1529e-19
0.000254907 8.91597e-05 -7.62001e-20
-5.2353e-05 -0.000281458 7.10183e-21
0.000280611 -6.8239e-05 -1.22043e-19
-0.000394396 -8.90965e-05 -1.20854e-19
-4.76144e-05 0.000284093 -1.52145e-19
0.000466721 -0.00017724 -1.82833e-19
0.000461489 0.000180272 4.78099e-20
-0.000232405 -0.000116789 4.03427e-19
-0.000230191 0.000134627 -1.88631e-20
6.27186e-06 0.000264985 -4.01686e-20
2.4984e-06 -0.000265544 -1.95325e-19
2.57459e-05 -0.000255658 -1.89413e-19
2.87525e-05 0.000258353 -5.9809e-20
0.000229527 -4.04532e-05 -7.77843e-20
0.000146917 0.000133508 -1.79665e-19
-4.95338e-05 -0.000146248 -2.31913e-20
-4.68226e-05 0.000148823 -5.92695e-20
-0.000315369 0.000515648 -3.07279e-19
-0.000353895 -0.000191367 -2.55436e-19
0.000628609 -0.000298658 -8.36226e-20
0.000617425 0.000335298 -2.69164e-20
0.000466721 -0.00017724 -2.01667e-19
0.000461489 0.000180272 5.1989e-21
0.000211329 -0.000114401 -2.59144e-19
0.000212727 0.000117051 -1.005e-19
-0.000181938 -8.51873e-05 9.8597e-20
-0.000185559 8.62227e-05 -4.95853e-20
0.000248607 0.000116191 -8.19385e-20
0.000245434 -0.000117835 -1.15464e-19
7.65365e-05 0.000431613 1.34638e-21
7.3483e-05 -0.000431581 -2.35795e-19
-0.000175286 -4.0817e-05 -1.31885e-20
-0.000187036 4.56893e-05 -2.95256e-19
-7.98736e-06 -0.000592038 3.85991e-20
-5.926e-05 0.000604025 -3.3345e-19
0.000596777 -4.35334e-05 1.44219e-19
-0.000526265 4.81354e-06 7.19037e-20
0.000295384 -0.00027919 -2.5908e-19
0.000292568 0.000279996 -2.07364e-20
-0.000276246 -0.000166278 -6.30583e-20
-0.000300389 -3.90057e-05 1.35121e-19
-0.000298723 4.96924e-05 -7.96235e-20
-0.000231806 0.000135881 -1.12389e-20
0.000198356 -0.000305331 -3.97357e-19
-0.000187548 0.000306625 -8.50603e-20
0.000296347 -0.000159194 -1.0039e-19
-5.58118e-05 -0.000272364 -4.73651e-19
0.000183908 0.00028657 -1.31205e-19
0.000303596 0.000159403 -1.76938e-19
-0.000206591 0.000167822 -4.67309e-20
-0.000208172 -0.00016928 -1.00784e-19
-5.4063e-05 -0.000561673 -8.68137e-19
-5.1646e-05 0.000562376 -2.60924e-20
0.000407178 -0.000407263 -7.34903e-20
0.000403592 0.000406606 1.45043e-19
2.73967e-05 -8.01055e-05 -1.30683e-19
-4.28809e-05 -0.000318053 4.98571e-19
-3.27716e-05 0.000303213 1.712e-19
6.24745e-05 -0.000182046 -6.22343e-20
6.33085e-05 0.000182294 -3.81382e-20
-0.000353895 -0.000191367 -9.09807e-21
-1.43424e-05 0.000250713 -1.05763e-19
-1.63247e-05 -0.000248216 7.4947e-20
2.57459e-05 -0.000255658 -6.37719e-20
2.87525e-05 0.000258353 -3.46043e-20
4.13605e-05 7.13047e-05 6.3736e-23
3.39321e-05 -7.23242e-05 -4.37683e-19
-3.27716e-05 0.000303213 2.49285e-19
-0.000181938 -8.51873e-05 3.90018e-19
0.000461184 -0.000178964 -2.02839e-19
0.000455964 0.000181993 -4.66672e-20
0.000303596 0.000159403 -1.31855e-19
0.000198535 0.000221368 -4.63189e-20
0.000200306 -0.000219825 -2.2389e-19
0.000603864 -0.000194306 2.40741e-35
0.000466721 -0.00017724 -2.691e-19
0.000594869 0.000193384 6.96844e-20
0.000461489 0.000180272 -1.32522e-20
-0.000383215 0.000286795 -1.92284e-20
-4.95338e-05 -0.000146248 -6.43751e-20
-4.68226e-05 0.000148823 -1.48008e-19
0.000211329 -0.000114401 -3.43983e-19
0.000212727 0.000117051 -5.82714e-20
0.00029151 -0.000546556 -1.09917e-19
0.000297635 0.00054871 7.92115e-20
0.000296347 -0.000159194 -1.44045e-19
0.000229527 -4.04532e-05 -1.10787e-19
-0.000188035 -5.56317e-05 5.31192e-20
-0.000617116 -8.51726e-06 1.22328e-19
-0.000615538 1.14811e-05 -6.79026e-19
-4.72583e-05 -0.00016056 -8.39814e-20
-4.22436e-05 0.000172225 3.29393e-20
-0.000231806 0.000135881 1.57013e-19
0.000143233 0.000143783 -4.21182e-20
0.000140394 -0.000141808 -3.3517e-19
-7.98736e-06 -0.000592038 -5.31589e-19
-5.926e-05 0.000604025 -2.85729e-20
-0.000526265 4.81354e-06 5.85878e-20
0.000596777 -4.35334e-05 -4.10563e-20
-0.000218787 -0.000128598 6.64817e-20
5.03998e-05 -0.000184864 -2.38934e-19
4.89789e-05 0.000182292 -1.87765e-19
0.000864077 0.000699934 4.0139e-19
2.87525e-05 0.000258353 -6.37082e-20
-4.28529e-05 -0.000555699 -9.74566e-20
-0.000526265 4.81354e-06 1.4999e-19
-4.68226e-05 0.000148823 -1.38783e-19
-4.95338e-05 -0.000146248 2.99805e-19
-1.63247e-05 -0.000248216 -1.10329e-19
-0.000188035 -5.56317e-05 1.33626e-20
2.57459e-05 -0.000255658 -3.29606e-19
0.000295384 -0.00027919 -3.12344e-19
0.000292568 0.000279996 1.94026e-20
0.000193274 -7.44663e-05 -1.08252e-19
0.000189358 8.44132e-05 -2.79672e-19
-0.000353895 -0.000191367 -2.99092e-19
-1.43424e-05 0.000250713 -1.12516e-19
-0.000231806 0.000135881 -1.8339e-19
-0.000175286 -4.0817e-05 1.66761e-19
-0.000187036 4.56893e-05 -5.42448e-20
-0.000181938 -8.51873e-05 2.54769e-19
0.000820484 -0.00067121 -6.92343e-21
-1.43164e-05 0.00054606 2.29301e-20
-7.98736e-06 -0.000592038 -1.82343e-19
0.000566643 -1.76402e-05 8.20489e-20
0.000198356 -0.000305331 -5.69546e-20
-0.000187548 0.000306625 -3.02294e-19
0.000212727 0.000117051 1.20162e-20
0.000211329 -0.000114401 -4.00764e-19
0.000262756 0.00019964 -6.16948e-20
0.000254309 -8.44716e-05 -3.17589e-19
0.000254907 8.91597e-05 -6.55474e-20
0.000296347 -0.000159194 4.94112e-20
0.000303596 0.000159403 -3.77899e-20
0.00069926 0.000860237 -3.7797e-19
0.000864077 0.000699934 2.18778e-19
-0.000175286 -4.0817e-05 1.20251e-19
-0.000187036 4.56893e-05 -1.14924e-19
7.65365e-05 0.000431613 1.15672e-19
7.3483e-05 -0.000431581 -5.04483e-19
-0.000196568 0.000286827 -3.22427e-20
-0.000219731 -0.000143905 -2.98837e-19
0.000187312 -0.000204275 -3.87414e-20
0.000185587 0.000207431 2.5431e-19
0.000255068 -8.75336e-05 3.53353e-19
0.000254693 8.78656e-05 2.45259e-19
5.03926e-05 -0.000285609 -1.44869e-19
0.000271522 -6.763e-05 8.05329e-21
-0.000351966 -4.99662e-05 -1.24912e-19
-5.20429e-05 0.000280632 -9.37635e-20
0.000464656 -0.000179744 6.82401e-20
0.000464187 0.00018027 1.01817e-19
-0.000232346 0.000116971 2.42834e-19
-0.000231019 -0.000136586 3.61419e-20
2.39801e-06 0.000264591 -1.75702e-19
-4.94216e-06 -0.000265685 -1.28542e-19
-2.96186e-05 -0.000262422 -1.87829e-19
2.58169e-05 0.000254808 -6.86863e-20
0.00022907 -4.27219e-05 7.66588e-20
0.000144755 0.000133463 7.78481e-20
-4.90759e-05 0.000145704 -1.72911e-19
4.68491e-05 -0.000146581 6.32495e-20
-0.00039152 0.000268653 -1.33218e-19
-0.000350424 -0.000191969 -2.18691e-19
0.000360664 -0.000517065 2.84306e-20
0.000624958 0.000307684 -3.87449e-19
0.000464656 -0.000179744 1.22931e-19
0.000464187 0.00018027 2.80339e-19
0.000211822 -0.000115499 -7.42972e-20
0.00021143 0.000115718 2.98812e-20
-0.00018139 8.61497e-05 -3.6074e-19
-0.000184544 -8.55727e-05 -2.42404e-19
0.000245821 0.000117502 -4.37491e-21
0.000247348 -0.000116671 -1.35011e-19
7.26666e-05 0.000431164 -2.99916e-20
-7.4271e-05 -0.000430672 -1.50106e-20
-0.000174319 4.09657e-05 1.94263e-19
-0.000178115 -4.28283e-05 2.91676e-20
-8.1723e-06 -0.000566542 -1.433e-19
2.41755e-05 0.000593616 -1.55006e-19
0.000603729 -3.65391e-06 -1.78728e-19
-0.000597093 -7.59385e-05 -5.73057e-19
0.000294207 -0.000280629 -4.62985e-21
0.000293047 0.000281674 2.00495e-19
-0.000227103 0.000132722 -8.31107e-20
-0.000299849 3.91054e-05 3.2707e-19
-0.000299568 -3.9115e-05 -1.93439e-19
-0.000236927 -0.000141447 -2.46083e-19
0.000198111 -0.000302945 -2.10892e-19
0.000195494 0.000304584 1.28002e-19
0.000300817 0.000158825 -3.48251e-20
-0.000196568 0.000286827 -1.93741e-19
-5.8552e-05 -0.000270114 -1.46279e-19
0.000301045 -0.000158587 1.13595e-19
-0.000210124 0.000166629 -1.01626e-19
0.000207356 -0.000169097 -2.30469e-19
5.35329e-05 -0.00056105 -6.64839e-19
-5.52563e-05 0.000561642 5.30088e-20
0.000406097 -0.00040827 -1.51861e-19
0.000406237 0.000409382 -3.80586e-21
2.86691e-05 8.04691e-05 7.93219e-20
-4.28009e-05 0.000317679 2.20751e-19
-3.28171e-05 -0.00030293 -4.00955e-19
6.22092e-05 0.00018127 -1.97814e-19
-5.92874e-05 -0.000189373 -1.62636e-20
-1.6585e-05 0.000247915 -3.51438e-20
1.48706e-05 -0.000247012 2.49201e-20
-0.000350424 -0.000191969 -3.40432e-19
-2.96186e-05 -0.000262422 5.46101e-20
2.58169e-05 0.000254808 -3.28289e-20
-0.000161557 -0.000109581 -1.20489e-19
-0.00039152 0.000268653 3.16846e-19
3.88861e-05 7.03202e-05 5.47205e-20
-3.28171e-05 -0.00030293 -2.47255e-19
-0.00018139 8.61497e-05 -3.88416e-19
0.000459209 -0.000181441 1.31617e-19
0.000458628 0.000182001 7.03172e-20
0.000301045 -0.000158587 -8.51878e-20
0.000197526 0.0002222 1.01736e-19
0.000199536 -0.000221506 6.27738e-20
0.000599874 -0.000194388 -2.0715e-19
0.000464656 -0.000179744 -3.18137e-20
0.000599466 0.00019465 2.25636e-19
0.000464187 0.00018027 -8.22742e-21
-4.90759e-05 0.000145704 -1.09377e-19
0.000211822 -0.000115499 -1.15481e-19
0.00021143 0.000115718 1.10439e-19
0.000290964 0.000546231 5.0201e-20
-0.000293424 -0.000546431 2.27623e-20
-2.13701e-05 -5.32933e-05 -1.94629e-19
0.000300817 0.000158825 -1.42397e-19
0.00022907 -4.27219e-05 2.32831e-19
-0.000187528 5.46492e-05 -4.89723e-19
-0.000161557 -0.000109581 3.28289e-20
-0.000615885 8.55397e-06 -7.66036e-19
-0.000616113 -1.00271e-05 3.32919e-19
-4.70451e-05 0.000158475 6.74036e-20
-0.000236927 -0.000141447 -1.87875e-19
0.000140983 0.000142937 7.17444e-20
-8.1723e-06 -0.000566542 -2.14823e-19
2.41755e-05 0.000593616 1.1135e-19
-0.000597093 -7.59385e-05 -3.90445e-19
0.000603729 -3.65391e-06 -1.95943e-19
0.000140926 -0.000142582 -6.49862e-22
-0.000218318 0.000128937 7.87187e-20
4.95818e-05 -0.000186339 -2.00524e-20
4.6407e-05 0.000181135 -7.70503e-21
-0.00086447 0.000704754 -3.14095e-19
-2.96186e-05 -0.000262422 -1.41318e-19
-1.6316e-05 -0.000556285 -2.17391e-19
0.000567583 -3.72191e-05 -7.66673e-20
-4.90759e-05 0.000145704 -2.94653e-19
-1.6585e-05 0.000247915 -1.05049e-19
-0.000187528 5.46492e-05 -3.49913e-19
2.58169e-05 0.000254808 1.1269e-19
-0.000350424 -0.000191969 -3.56412e-19
0.000294207 -0.000280629 -1.65746e-19
0.000293047 0.000281674 -1.25356e-19
0.000195871 7.88838e-05 9.16397e-20
0.000192189 -7.81116e-05 1.9008e-19
1.48706e-05 -0.000247012 -1.20981e-19
-0.000236927 -0.000141447 -6.61335e-20
-2.13701e-05 -5.32933e-05 1.23041e-19
-0.000174319 4.09657e-05 -1.35104e-19
-0.000178115 -4.28283e-05 3.44939e-20
-0.00018139 8.61497e-05 1.75592e-19
0.00085051 0.000674228 4.33233e-19
-8.1723e-06 -0.000566542 -4.72852e-20
5.40697e-06 0.000575237 8.49716e-21
0.000603729 -3.65391e-06 5.00121e-20
0.000198111 -0.000302945 5.92229e-20
0.000195494 0.000304584 5.66701e-20
0.00021143 0.000115718 9.58872e-20
-0.00039152 0.000268653 -6.1886e-20
0.000211822 -0.000115499 -6.75436e-20
0.000255068 -8.75336e-05 6.86863e-20
0.000254693 8.78656e-05 5.60839e-20
0.000300817 0.000158825 1.59294e-19
0.000301045 -0.000158587 -6.67367e-20
-0.000704542 0.000875271 -4.50729e-19
-0.00086447 0.000704754 6.16253e-19
-0.000174319 4.09657e-05 1.18933e-21
-0.000178115 -4.28283e-05 -1.62862e-19
-7.4271e-05 -0.000430672 -3.64639e-19
7.26666e-05 0.000431164 1.35406e-19
-0.000192075 0.000309777 7.09204e-20
-0.000209503 -0.000199889 -3.21459e-19
0.000187922 -0.000204927 -1.37279e-20
0.000185976 0.000207421 -1.37593e-19
0.000254984 -8.89247e-05 1.17146e-20
0.000254204 8.45487e-05 -7.16977e-20
5.2091e-05 -0.00028507 -1.33694e-19
0.000280629 -6.97219e-05 8.9087e-20
-0.000394507 -8.9308e-05 -6.41839e-20
-4.83504e-05 0.000284416 -1.81666e-20
0.000461822 -0.0001798 -5.60839e-20
0.000466652 0.000177635 7.27596e-20
-0.000232581 -0.000116714 2.01476e-19
-0.000230108 0.000134627 3.11027e-19
4.97918e-06 0.000265677 6.87967e-20
-3.33239e-06 -0.000264798 -1.89111e-19
-2.74003e-05 -0.000260213 -1.40257e-19
2.69096e-05 0.00025815 -4.2099e-19
0.000229789 -4.20732e-05 1.87115e-19
0.000146673 0.000131769 -2.22399e-20
-4.71608e-05 0.000149525 -3.22695e-19
4.86771e-05 -0.000146643 -5.79527e-20
-0.000315674 0.00051543 -2.14142e-19
-0.000354285 -0.000191826 -2.58384e-19
0.000628679 -0.000299132 -1.13004e-19
0.000617014 0.000334545 -1.6623e-19
0.000461822 -0.0001798 4.97811e-21
0.000466652 0.000177635 -5.14541e-20
0.000212426 -0.000116799 -6.28204e-20
0.000211625 0.000114561 -3.15767e-19
-0.000181929 -8.52288e-05 7.93857e-20
-0.00018551 8.6172e-05 -2.82161e-20
0.000247972 0.000114483 -2.81524e-20
0.000246395 -0.00011922 -1.57123e-19
7.38277e-05 0.000431813 -1.0589e-20
-7.19228e-05 -0.000430912 -9.70594e-20
-0.000175722 -4.15263e-05 1.20616e-19
-0.000186928 4.61488e-05 9.09261e-20
-7.19096e-06 -0.000593222 -3.03997e-19
-5.96936e-05 0.00060355 -7.81093e-20
0.000596619 -4.42085e-05 -3.10705e-21
-0.000526447 4.68157e-06 -5.48946e-20
0.000293579 -0.000279303 -9.33515e-20
0.000294593 0.000279812 -2.22694e-20
-0.000276193 -0.000166589 -2.2183e-19
-0.000303427 -3.2463e-05 1.85671e-19
-0.00029815 5.01352e-05 6.35807e-20
-0.000231792 0.000135934 3.45406e-20
0.000198829 -0.000300725 -2.17867e-19
-0.000187981 0.000306724 8.38881e-20
0.000296422 -0.000159781 -7.5359e-20
-5.71934e-05 -0.000272021 -2.46193e-19
0.00018273 0.000285594 -9.38272e-20
0.000303258 0.000157935 1.00495e-20
-0.000207814 0.000168993 -1.20901e-19
0.000212627 -0.000165131 -5.43551e-20
-5.36441e-05 0.00056183 -6.72289e-19
5.70617e-05 -0.000562487 -1.34454e-19
0.000403402 -0.00040557 1.06527e-20
0.000407518 0.000408286 -1.03134e-19
2.81263e-05 -8.19402e-05 8.81355e-21
-4.28665e-05 -0.000318035 -2.28897e-20
-3.27654e-05 0.000303068 -9.26379e-20
6.30771e-05 0.000183031 -1.25182e-19
-5.7118e-05 -0.000189302 -1.5384e-19
-0.000354285 -0.000191826 -1.26372e-19
-1.51474e-05 0.000251109 1.58708e-19
1.66083e-05 -0.000246519 -2.25032e-19
-2.74003e-05 -0.000260213 -9.8028e-20
2.69096e-05 0.00025815 5.77957e-20
-0.000164291 -0.000111783 -7.19356e-20
3.37298e-05 7.22909e-05 -2.65248e-19
-3.27654e-05 0.000303068 -5.18365e-20
-0.000181929 -8.52288e-05 2.06454e-19
0.000456341 -0.000181507 -4.37491e-21
0.000461153 0.000179347 -1.43332e-19
0.000303258 0.000157935 3.91534e-20
0.000198757 0.000220052 -2.15934e-19
0.000200278 -0.000221056 -7.51382e-20
0.000595113 -0.000193125 -1.58771e-19
0.000461822 -0.0001798 -7.4535e-20
0.000603986 0.000194602 -5.95074e-20
0.000466652 0.000177635 -9.26379e-20
-0.000383455 0.000286786 1.85624e-19
-4.71608e-05 0.000149525 -4.33541e-20
0.000212426 -0.000116799 -1.30254e-19
0.000211625 0.000114561 -9.35893e-20
0.000291891 0.00054683 -4.9632e-20
-0.000291814 -0.000546874 -1.6516e-19
-1.91703e-05 -5.38681e-05 -1.51258e-19
0.000296422 -0.000159781 1.19525e-20
0.000229789 -4.20732e-05 5.86197e-20
-0.000188029 -5.57143e-05 1.65682e-19
-0.000164291 -0.000111783 -8.50603e-20
-0.000615346 -9.64081e-06 -2.95796e-20
-0.000615819 1.08523e-05 2.00953e-19
-4.26171e-05 0.000172753 -1.42096e-19
-0.000231792 0.000135934 4.61873e-19
0.0001411 0.000141684 -8.67891e-20
-7.19096e-06 -0.000593222 -6.51268e-20
-5.96936e-05 0.00060355 -1.40529e-20
-0.000526447 4.68157e-06 -2.96951e-19
0.000596619 -4.42085e-05 -1.11533e-19
0.000141825 -0.000143761 -1.01927e-19
-0.000218566 -0.000128807 4.53208e-20
5.20214e-05 -0.000186062 1.49002e-20
4.75331e-05 0.000180971 4.99336e-20
0.000863849 0.000699487 5.00266e-19
2.69096e-05 0.00025815 7.48196e-20
-2.74003e-05 -0.000260213 -8.73752e-20
-4.24663e-05 -0.000556213 1.30373e-19
-0.000526447 4.68157e-06 -2.39457e-19
-4.71608e-05 0.000149525 -7.14132e-20
-0.000188029 -5.57143e-05 -5.25968e-20
0.000293579 -0.000279303 1.92743e-19
0.000294593 0.000279812 -1.52574e-19
0.000196591 7.52277e-05 -1.66476e-19
0.000189226 -8.43332e-05 -3.67332e-19
-0.000354285 -0.000191826 -6.24551e-20
-1.51474e-05 0.000251109 -3.59835e-19
1.66083e-05 -0.000246519 -1.01863e-19
-0.000231792 0.000135934 2.84778e-19
-1.91703e-05 -5.38681e-05 -1.52685e-19
-0.000175722 -4.15263e-05 1.32314e-19
-0.000186928 4.61488e-05 1.33155e-19
-0.000181929 -8.52288e-05 1.03163e-19
0.000820532 -0.000671677 2.16e-19
-1.49315e-05 0.000545824 3.69659e-20
-7.19096e-06 -0.000593222 3.4787e-20
0.000566849 -1.86307e-05 3.85354e-20
-0.000187981 0.000306724 -1.65482e-20
0.000198829 -0.000300725 -1.26656e-19
0.000211625 0.000114561 -6.80023e-20
0.000261954 0.000198258 -2.34542e-19
0.000212426 -0.000116799 -2.30639e-20
0.000254984 -8.89247e-05 -9.54752e-20
0.000254204 8.45487e-05 -7.41697e-20
0.000296422 -0.000159781 4.35283e-20
0.000303258 0.000157935 -5.59565e-20
0.000698771 0.000859709 1.87257e-19
0.000863849 0.000699487 -3.11265e-19
-0.000175722 -4.15263e-05 -1.95767e-20
-0.000186928 4.61488e-05 -8.79784e-20
-7.19228e-05 -0.000430912 -9.99138e-20
7.38277e-05 0.000431813 1.16479e-19
-0.000196574 0.00028677 -1.02989e-19
-0.00021123 -0.000152911 -4.54949e-20
0.000199408 -0.000254655 1.68031e-20
0.000187078 0.000202191 -1.74385e-19
0.000250672 7.94795e-05 -2.99945e-19
0.000224919 -0.00016228 9.25912e-20
-3.17906e-05 -0.000297213 2.969e-20
0.000274889 5.30963e-05 1.57123e-19
-0.000346766 -5.48642e-05 -1.67347e-19
-5.06828e-05 0.000280326 -3.15703e-19
0.000455322 0.000171008 -4.63886e-19
0.000355906 -0.000215589 3.57299e-20
-0.000221304 -0.000142217 9.59338e-20
-0.000230509 0.00011641 -2.89692e-19
4.46609e-06 0.000263313 3.52542e-20
3.94269e-05 -0.000270696 1.73039e-19
7.30671e-05 -0.000291667 -6.73649e-21
2.80595e-05 0.000253408 -2.71984e-19
0.00022977 2.66186e-05 -1.90254e-19
0.000133714 -0.00015801 -5.74303e-20
-3.10887e-05 -0.000150734 2.64406e-20
-4.83855e-05 0.000145269 1.22281e-19
-0.000395637 0.000268199 -1.31681e-19
-0.000344442 -0.000205371 -1.02751e-19
0.00065732 -0.000332853 3.52603e-19
0.000359416 0.000505674 -5.64798e-19
0.000455322 0.000171008 -4.00734e-19
0.000355906 -0.000215589 -6.22343e-20
0.000211051 0.000109773 -3.93807e-19
0.000210326 -0.000184814 7.03809e-21
-0.000178104 8.33831e-05 -4.40584e-19
-0.000175245 -9.13823e-05 -1.92441e-19
0.000249419 0.000104753 -1.04701e-19
0.000249262 -0.0001494 1.49639e-20
0.000110026 -0.000374137 5.45384e-21
7.34476e-05 0.000427276 7.73894e-20
-0.000173092 4.08923e-05 -2.87556e-20
-0.000171414 -5.49248e-05 -3.14654e-20
5.1901e-06 -0.000630174 1.6057e-19
6.1747e-05 0.000606882 -3.69211e-19
0.0006278 -1.10008e-05 3.06922e-19
-0.000602863 -8.94032e-05 -2.06184e-19
0.000287264 0.000267474 -5.76767e-19
0.000233742 -0.000280434 3.45538e-19
-0.000224823 0.000130657 -1.63337e-19
-0.000285862 -5.31058e-05 -8.62667e-20
-0.000297785 3.9037e-05 4.83493e-20
-0.000228474 -0.000147455 -8.22867e-20
0.000217718 -0.000342545 7.59622e-20
0.000205282 0.000302605 -2.74363e-19
0.000308423 -0.000193841 4.60811e-20
-0.000196574 0.00028677 -6.71316e-20
-3.57463e-05 -0.000286957 9.90898e-20
0.000305572 0.000148649 -1.79754e-20
-0.000204827 0.000166968 -2.93464e-19
-7.4017e-05 -0.000206974 1.42037e-20
-5.24933e-05 0.000555714 -4.73999e-19
2.39868e-05 -0.000461915 2.47875e-19
0.000396807 0.00039588 -2.84633e-19
0.000328067 -0.000377151 4.33737e-19
2.51454e-05 -9.39e-05 -1.85102e-19
-3.71963e-05 0.000317735 -3.10458e-19
-2.23116e-05 -0.00030401 -1.76416e-19
7.91699e-05 -0.000184079 4.07547e-20
6.25675e-05 0.000180736 -2.27568e-19
8.39999e-06 -0.000255427 -1.0177e-20
-1.53792e-05 0.000247757 -2.4762e-19
-0.000344442 -0.000205371 -1.26529e-19
7.30671e-05 -0.000291667 2.48906e-21
2.80595e-05 0.000253408 -2.85491e-19
-0.000395637 0.000268199 -3.95043e-19
3.52029e-05 7.05093e-05 -1.74402e-19
9.73069e-05 -0.000158629 -4.83789e-20
-2.23116e-05 -0.00030401 2.87385e-20
-0.000178104 8.33831e-05 -8.84837e-20
0.000451208 0.000172289 -2.50305e-20
0.000342545 -0.000219754 4.16917e-19
0.000305572 0.000148649 -2.08298e-20
0.000195241 0.000209999 -3.46409e-19
0.000171475 -0.000241682 2.30643e-19
0.000590004 0.000189202 7.14819e-19
0.000455322 0.000171008 9.68853e-20
0.000426815 -0.000168721 -4.87094e-19
0.000355906 -0.000215589 -1.44602e-19
-3.10887e-05 -0.000150734 -7.39956e-20
-4.83855e-05 0.000145269 1.32818e-20
0.000211051 0.000109773 -1.00959e-19
0.000210326 -0.000184814 1.0253e-19
0.000289097 0.000541071 -9.79638e-19
0.000281368 -0.000467589 5.3357e-20
0.000308423 -0.000193841 -3.44769e-20
0.00022977 2.66186e-05 -8.02097e-20
-0.000184396 5.16629e-05 -1.37054e-19
-0.000594568 -1.59759e-05 -5.63218e-20
-0.000612922 9.01482e-06 9.60784e-20
-4.63317e-05 0.000158192 6.19964e-20
-2.70675e-05 -0.000170829 1.9818e-19
-0.000228474 -0.000147455 1.72894e-19
0.000141791 0.000136542 -4.96103e-21
0.000163594 -0.000202879 -1.55998e-19
5.1901e-06 -0.000630174 1.33416e-19
6.1747e-05 0.000606882 -9.61017e-20
-0.000602863 -8.94032e-05 -9.6331e-20
0.0006278 -1.10008e-05 -2.75879e-21
-0.000216744 0.000128152 -1.63749e-19
4.17049e-05 0.00017107 -4.27268e-19
3.59173e-05 -0.000190953 2.91722e-19
-0.000876609 0.000707329 -6.91811e-19
-3.81717e-05 -0.000585053 7.4329e-20
0.000584727 2.89899e-05 4.31971e-21
-4.83855e-05 0.000145269 -1.93251e-21
-3.10887e-05 -0.000150734 -1.78713e-19
-1.53792e-05 0.000247757 -3.52338e-19
8.39999e-06 -0.000255427 -1.2649e-20
-0.000184396 5.16629e-05 -3.46489e-19
7.30671e-05 -0.000291667 -8.62496e-20
2.80595e-05 0.000253408 1.55348e-19
-0.000344442 -0.000205371 -1.60959e-19
0.000287264 0.000267474 -3.54207e-19
0.000233742 -0.000280434 4.16549e-20
0.000187314 -8.39945e-05 -2.7514e-19
0.000186724 -6.70654e-05 1.68235e-19
-0.000228474 -0.000147455 9.66178e-20
-0.000171414 -5.49248e-05 4.00957e-21
-0.000173092 4.08923e-05 -9.47616e-20
-0.000178104 8.33831e-05 -3.2027e-19
0.000884947 -0.000700445 6.11775e-19
5.1901e-06 -0.000630174 -1.50678e-19
1.42058e-05 0.000550183 1.38787e-20
0.0006278 -1.10008e-05 -4.70838e-21
0.000217718 -0.000342545 -3.55091e-21
0.000205282 0.000302605 -2.59811e-19
0.000211051 0.000109773 -2.80908e-19
0.000210326 -0.000184814 -5.50687e-20
-0.000395637 0.000268199 2.83902e-20
0.000250672 7.94795e-05 -1.05826e-19
0.000224919 -0.00016228 3.09443e-19
0.000308423 -0.000193841 4.07547e-20
0.000305572 0.000148649 2.56804e-20
-0.000708709 0.000868575 -2.20585e-19
-0.000876609 0.000707329 -4.21887e-19
-0.000171414 -5.49248e-05 6.64988e-20
-0.000173092 4.08923e-05 5.85559e-20
0.000110026 -0.000374137 2.39049e-20
7.34476e-05 0.000427276 -4.97811e-21
2.74623e-05 -3.5979e-06 -4.57965e-20
3.0619e-05 -3.9916e-06 -7.79835e-21
1.41729e-05 -1.83937e-06 -1.02874e-20
3.05558e-05 3.95785e-06 -5.6653e-20
4.12518e-05 -5.33978e-06 -2.95796e-20
4.13226e-05 5.30613e-06 -2.8917e-19
3.56267e-05 -8.75382e-06 2.33561e-19
2.46971e-05 -2.75352e-06 -3.07518e-20
2.46539e-05 -2.36104e-06 7.02705e-20
4.41512e-05 3.57692e-06 -5.90317e-20
6.94038e-05 -2.16442e-05 -7.12391e-20
6.94526e-05 2.16473e-05 -7.99889e-20
-1.10155e-05 -2.43817e-05 1.1204e-19
-1.39864e-05 -9.16035e-06 -2.33655e-20
4.53228e-05 2.56285e-05 1.23407e-19
4.95821e-05 -2.27845e-05 1.9905e-19
5.85337e-05 6.81972e-06 9.33173e-20
3.34425e-05 8.03991e-06 2.93588e-20
2.4825e-05 -2.82308e-06 -9.19413e-20
1.77666e-05 1.23878e-05 -5.56082e-20
5.65388e-05 -4.42667e-05 -8.03621e-21
2.30359e-05 -1.02292e-05 2.70812e-19
2.78027e-05 -3.61978e-06 -8.94523e-20
3.07726e-05 1.31665e-06 -1.87875e-19
2.86427e-05 2.12397e-06 2.20437e-19
3.2565e-05 2.77075e-07 -2.88027e-19
6.94038e-05 -2.16442e-05 -4.70792e-20
6.94526e-05 2.16473e-05 8.18918e-20
3.26764e-05 -1.73923e-06 5.02818e-20
3.26759e-05 1.65912e-06 -3.61326e-19
2.30612e-05 2.80998e-05 -8.20489e-20
2.48585e-05 -2.38159e-05 8.05329e-21
2.96667e-05 -5.48818e-06 -1.82455e-19
2.96331e-05 5.4039e-06 -6.9652e-22
9.76154e-05 0.00012402 -3.26547e-20
3.34837e-05 -0.000117068 1.64701e-19
-5.45977e-06 -6.5249e-05 1.19618e-19
-5.91987e-06 6.38439e-05 -9.20688e-20
3.43562e-05 3.99896e-08 -4.08355e-20
3.40432e-05 -5.53322e-07 -1.09598e-19
2.78335e-05 4.91017e-09 -2.52964e-19
2.687e-05 -3.06999e-08 9.93744e-20
4.32516e-05 -3.57814e-05 4.97811e-21
4.32657e-05 3.58678e-05 -1.1334e-19
1.23982e-05 2.56577e-06 1.59154e-20
-9.3562e-05 -6.65568e-05 -5.60839e-20
-9.32245e-05 6.6515e-05 7.41697e-20
1.60571e-05 -2.10863e-06 2.02903e-20
3.28516e-05 -3.43038e-06 2.32831e-19
3.29246e-05 3.40498e-06 -4.57795e-20
2.7388e-05 -3.64062e-06 -8.10337e-20
2.74623e-05 -3.5979e-06 -3.08622e-20
3.91158e-05 8.66966e-06 1.34263e-20
2.74091e-05 3.74479e-06 -2.02809e-19
-2.08969e-05 2.35235e-05 -1.40889e-19
0.000185416 2.73478e-05 2.8454e-19
4.70041e-05 0.000175641 -1.4755e-19
9.94156e-05 -0.000184346 2.31183e-19
5.92364e-05 -5.59246e-05 -3.06585e-20
5.92768e-05 5.59574e-05 -7.38385e-20
2.92123e-06 8.81647e-06 2.92686e-19
9.37308e-05 0.000171837 1.07683e-19
0.00010176 -0.000162411 1.01167e-19
0.000107575 -2.79518e-05 -8.74981e-21
1.34029e-05 -1.41123e-05 2.05409e-19
6.03045e-05 -1.13279e-05 -2.47927e-20
3.5075e-05 -8.15428e-06 3.96359e-19
2.86427e-05 2.12397e-06 4.79032e-20
5.85337e-05 6.81972e-06 1.66459e-19
3.34425e-05 8.03991e-06 -5.01544e-20
1.21576e-05 5.74758e-05 1.93312e-19
2.78027e-05 -3.61978e-06 1.27935e-20
1.81151e-05 5.34554e-07 -3.60978e-19
0.00010176 -0.000162411 7.59622e-20
2.30612e-05 2.80998e-05 6.09983e-20
7.07322e-05 -2.12306e-05 -9.92206e-21
7.0785e-05 2.12324e-05 -1.91205e-19
2.74091e-05 3.74479e-06 -2.53321e-20
2.74793e-05 -2.59347e-05 1.55034e-20
2.73702e-05 2.59572e-05 -6.42305e-20
9.14019e-05 -2.74977e-05 1.39845e-19
6.94038e-05 -2.16442e-05 2.95796e-20
9.14731e-05 2.75149e-05 -3.51267e-20
6.94526e-05 2.16473e-05 -5.5829e-20
5.65388e-05 -4.42667e-05 -2.79145e-20
3.26764e-05 -1.73923e-06 -1.34994e-19
3.26759e-05 1.65912e-06 -2.48222e-20
0.000233244 0.000208756 -5.3612e-20
-5.17619e-05 -0.000158878 2.2979e-19
1.40905e-05 2.00516e-06 1.66756e-20
2.7388e-05 -3.64062e-06 2.47289e-20
2.4825e-05 -2.82308e-06 8.5536e-20
5.1066e-05 1.78834e-05 -1.34773e-19
1.21576e-05 5.74758e-05 -1.35011e-19
-0.00034023 5.48956e-05 -3.58507e-21
-0.00034 -5.59863e-05 5.57357e-20
5.75571e-05 -3.78587e-05 2.3098e-20
1.60571e-05 -2.10863e-06 1.52685e-19
2.975e-05 2.78994e-06 -1.42444e-19
3.43562e-05 3.99896e-08 1.50149e-19
3.40432e-05 -5.53322e-07 -1.97292e-19
2.687e-05 -3.06999e-08 7.94961e-20
2.78335e-05 4.91017e-09 -1.12389e-19
2.97606e-05 -2.85241e-06 6.72124e-20
-2.76781e-05 -2.08398e-05 -9.39376e-20
5.85816e-06 -2.20372e-05 2.4474e-20
5.8625e-06 2.16683e-05 9.27312e-20
2.57125e-05 9.24564e-06 -1.06905e-19
5.85337e-05 6.81972e-06 3.04563e-19
3.39255e-05 4.91282e-07 -1.7882e-20
2.79512e-05 -1.05583e-07 -2.62665e-19
5.65388e-05 -4.42667e-05 -3.46681e-20
6.03045e-05 -1.13279e-05 -1.49006e-19
5.1066e-05 1.78834e-05 1.92505e-19
3.34425e-05 8.03991e-06 -1.69424e-19
2.86427e-05 2.12397e-06 3.62057e-20
4.32516e-05 -3.57814e-05 1.58296e-19
4.32657e-05 3.58678e-05 -5.51325e-20
3.5388e-05 1.75703e-05 2.01332e-20
3.51567e-05 -1.7556e-05 -2.9944e-19
3.5075e-05 -8.15428e-06 2.16028e-19
1.60571e-05 -2.10863e-06 8.77235e-20
1.40905e-05 2.00516e-06 4.57795e-20
-5.45977e-06 -6.5249e-05 -4.72067e-20
-5.91987e-06 6.38439e-05 8.8263e-20
2.30612e-05 2.80998e-05 1.24532e-19
2.60592e-05 8.94658e-06 -1.06357e-20
3.45273e-05 2.4011e-08 -1.23929e-19
3.43562e-05 3.99896e-08 8.76598e-20
2.78335e-05 4.91017e-09 -8.32848e-20
3.28516e-05 -3.43038e-06 -1.20371e-35
3.29246e-05 3.40498e-06 -1.62195e-19
3.26759e-05 1.65912e-06 -1.65397e-19
2.78027e-05 -3.61978e-06 -2.6303e-19
3.26764e-05 -1.73923e-06 -6.61335e-20
4.12518e-05 -5.33978e-06 -1.77953e-19
4.13226e-05 5.30613e-06 -1.64191e-19
2.7388e-05 -3.64062e-06 -1.92505e-19
2.74091e-05 3.74479e-06 -1.17588e-19
3.65981e-05 2.19076e-07 -5.92229e-20
2.57125e-05 9.24564e-06 2.00495e-19
-5.91987e-06 6.38439e-05 -4.27043e-20
-5.45977e-06 -6.5249e-05 -5.00611e-20
9.76154e-05 0.00012402 1.05066e-19
3.34837e-05 -0.000117068 8.23334e-20
-0.000186077 0.000303024 -8.33782e-21
-0.000217954 -0.000142279 -2.69274e-19
0.000188658 -0.000200099 -1.08901e-19
0.000199324 0.000253741 -2.63362e-19
0.000224347 0.000162411 1.71008e-19
0.000250417 -7.9863e-05 -2.51282e-19
5.28216e-05 -0.000283547 9.66645e-20
0.000274761 9.30328e-05 3.89792e-20
-0.000351367 -4.63415e-05 3.15291e-20
-3.04482e-05 0.000297602 -1.40779e-19
0.000355133 0.000215414 1.85845e-19
0.000455318 -0.000171273 -4.96286e-19
-0.000228435 -0.000135038 -2.46559e-19
-0.000222951 0.000122778 -6.20602e-20
4.06347e-05 0.000271121 7.287e-20
-3.40972e-06 -0.00026335 -4.35844e-19
-2.85024e-05 -0.000261054 -1.25118e-19
7.40396e-05 0.000291357 -1.09806e-19
0.000225209 6.39668e-05 1.73863e-19
0.000142511 -0.000120139 -8.48224e-20
-3.40536e-05 0.00014872 1.33694e-19
4.81256e-05 -0.000143794 -1.2003e-19
-0.000391805 0.000283859 1.75634e-20
-0.00034894 -0.000190295 -7.6595e-20
0.00064735 -0.000299131 1.28221e-19
0.000371677 0.000539642 7.53676e-20
0.000355133 0.000215414 1.80901e-19
0.000455318 -0.000171273 -4.91342e-19
0.000209911 0.000184657 2.98187e-21
0.000211702 -0.00011066 -9.94381e-20
-0.000173769 8.91277e-05 -7.13598e-22
-0.000180918 -8.29997e-05 4.45572e-21
0.000249691 0.000149398 -2.89297e-20
0.000249484 -0.000104772 -2.95129e-19
0.000110244 0.000374491 -5.35016e-20
-7.25137e-05 -0.000426124 -4.24843e-19
-0.00016262 4.7328e-05 5.57186e-20
-0.000176278 -4.28093e-05 -3.02213e-19
-7.77208e-06 -0.000597296 -2.67e-19
7.03601e-05 0.000635363 -2.83081e-19
0.00062508 2.46849e-05 -5.86982e-20
-0.000602318 -7.37242e-05 1.71484e-19
0.000233412 0.00027957 9.8852e-20
0.000287159 -0.000268368 -2.17913e-19
-0.000220054 0.000139656 1.62148e-19
-0.000296808 -3.91173e-05 -1.67394e-19
-0.000287591 4.54767e-05 -1.06255e-19
-0.000234382 -0.00013993 -7.18718e-20
0.000202882 -0.000298459 1.92922e-20
0.000220304 0.000341216 -3.64686e-19
0.000306986 -0.000147899 -1.8006e-19
-0.000186077 0.000303024 -1.69836e-19
-5.66372e-05 -0.000268948 -5.06472e-20
0.000306798 0.000194022 -1.92836e-19
-7.35741e-05 0.000207004 -8.19214e-20
0.000205929 -0.000167796 -2.8335e-19
5.39087e-05 -0.000555095 -8.16271e-19
2.43601e-05 0.00046211 8.16835e-20
0.000327406 0.000376543 3.08445e-19
0.000396889 -0.00039616 1.23993e-19
2.55335e-05 -6.45196e-05 -7.77206e-20
-3.48096e-05 0.00031816 -8.23992e-22
-2.46873e-05 -0.000303235 -5.02882e-19
7.91831e-05 0.000184903 1.09963e-19
-5.8026e-05 -0.000186584 -6.97732e-19
9.3905e-06 0.000260837 1.31158e-19
1.65512e-05 -0.000244135 -2.39283e-19
-0.00034894 -0.000190295 2.38412e-20
-2.85024e-05 -0.000261054 -2.74537e-19
7.40396e-05 0.000291357 8.75494e-20
-0.000159935 -0.000109069 -3.57822e-19
-0.000391805 0.000283859 1.02403e-19
9.94017e-05 0.000158178 -3.53817e-20
-2.46873e-05 -0.000303235 -1.21678e-19
-0.000173769 8.91277e-05 -1.34153e-19
0.000341682 0.000219607 -4.18803e-20
0.000451128 -0.000172578 -5.08302e-19
0.000306798 0.000194022 3.85672e-20
0.000172142 0.000241324 8.81355e-20
0.00019432 -0.000210559 -9.25741e-20
0.000425747 0.000168418 -2.53219e-19
0.000355133 0.000215414 2.75833e-20
0.000589921 -0.000189287 -4.44135e-19
0.000455318 -0.000171273 -6.26208e-19
-3.40536e-05 0.00014872 1.36549e-19
0.000209911 0.000184657 -1.33797e-20
0.000211702 -0.00011066 -2.01301e-19
0.000281373 0.000467816 3.33284e-19
-0.000288684 -0.000540154 -1.60373e-19
-2.06286e-05 -4.97637e-05 -3.77097e-19
0.000306986 -0.000147899 -2.53151e-20
0.000225209 6.39668e-05 2.30172e-20
-0.000184197 5.73028e-05 -4.72317e-21
-0.000159935 -0.000109069 -1.5305e-19
-0.000612607 -1.08035e-05 -2.827e-19
-0.000595352 1.41422e-05 -1.1128e-19
-3.11642e-05 0.00016688 5.01077e-20
-0.000234382 -0.00013993 -1.6451e-19
0.000163922 0.000202443 -2.06152e-19
-7.77208e-06 -0.000597296 -1.36555e-19
7.03601e-05 0.000635363 1.74591e-19
-0.000602318 -7.37242e-05 -1.80234e-19
0.00062508 2.46849e-05 1.67188e-19
0.000141472 -0.00013747 -2.43636e-20
-0.000207114 0.000136286 -2.78041e-20
3.6207e-05 0.000194906 -1.06684e-19
4.14552e-05 -0.000166759 -8.58035e-20
-0.000876698 0.000722126 3.15086e-19
-2.85024e-05 -0.000261054 -3.80299e-19
-4.56111e-05 -0.000557647 2.5389e-19
0.000587563 5.95288e-05 -3.96627e-19
-3.40536e-05 0.00014872 -1.15498e-19
9.3905e-06 0.000260837 -1.93265e-19
-0.000184197 5.73028e-05 -8.42363e-20
7.40396e-05 0.000291357 -7.74657e-20
-0.00034894 -0.000190295 -7.4123e-20
0.000233412 0.00027957 1.34709e-19
0.000287159 -0.000268368 -5.8742e-19
0.000185939 6.73508e-05 -7.23476e-20
0.000189579 8.41372e-05 -3.28433e-19
1.65512e-05 -0.000244135 2.01799e-20
-0.000234382 -0.00013993 -1.75162e-19
-2.06286e-05 -4.97637e-05 -7.25298e-19
-0.00016262 4.7328e-05 6.73649e-21
-0.000176278 -4.28093e-05 -1.92552e-19
-0.000173769 8.91277e-05 -4.18974e-20
0.000881709 -0.000677817 -3.91558e-19
-7.77208e-06 -0.000597296 -1.2538e-19
2.73537e-05 0.000584088 -4.12757e-19
0.00062508 2.46849e-05 4.63508e-20
0.000202882 -0.000298459 -3.16829e-19
0.000220304 0.000341216 -8.28728e-20
0.000209911 0.000184657 -1.88003e-19
-0.000391805 0.000283859 1.28652e-19
0.000211702 -0.00011066 -2.62364e-19
0.000224347 0.000162411 3.22427e-20
0.000250417 -7.9863e-05 -1.62543e-19
0.000306986 -0.000147899 7.68795e-21
0.000306798 0.000194022 -1.95691e-19
-0.00072077 0.000900964 -3.63862e-19
-0.000876698 0.000722126 2.10559e-19
-0.000176278 -4.28093e-05 -1.22264e-19
-0.00016262 4.7328e-05 1.47312e-19
-7.25137e-05 -0.000426124 2.73649e-19
0.000110244 0.000374491 8.46016e-20
-0.000192644 0.000290149 -6.63247e-20
-0.000215947 -0.000144757 1.73255e-20
0.000206318 -0.00019667 -4.38936e-20
0.00020483 0.00019856 6.83209e-20
0.000255587 5.10378e-05 4.58432e-20
0.000255246 -5.13464e-05 1.3826e-19
6.40129e-05 -0.000281968 -7.66121e-20
0.000327804 -5.96898e-05 -4.46072e-20
-0.00034939 -5.11357e-05 -1.55267e-20
-4.3794e-05 0.000279104 -2.53321e-20
0.000412476 -0.000118068 1.39624e-19
0.000412324 0.000118213 -8.50945e-20
-0.000227685 -0.000137111 8.94989e-20
-0.000229847 0.00011719 1.47579e-19
1.3084e-05 0.000259453 9.12744e-20
4.85029e-06 -0.000259368 -8.0163e-20
-2.28063e-05 -0.000260341 2.68697e-20
3.86103e-05 0.000251247 -9.38909e-20
0.00027721 -3.2169e-05 3.50737e-19
0.000216298 9.41412e-05 -6.48975e-20
-4.50018e-05 0.000142742 2.42532e-20
5.98516e-05 -0.000139239 3.50163e-20
-0.000391958 0.000271573 -7.4535e-20
-0.000345241 -0.000194105 1.70876e-20
0.000662149 -0.000310277 -6.50164e-20
0.000374093 0.000511041 2.55933e-20
0.000412476 -0.000118068 1.39624e-19
0.000412324 0.000118213 -3.18308e-20
0.0002297 -0.000100965 -4.61448e-20
0.000229136 9.97135e-05 2.34687e-19
-0.000178471 8.5789e-05 5.70821e-20
-0.000181155 -8.57107e-05 1.7041e-20
0.000277058 9.765e-05 1.83874e-20
0.000276174 -0.000100261 2.88022e-20
7.97081e-05 0.000421975 -4.18166e-20
-6.55088e-05 -0.000419251 1.28844e-19
-0.000171856 4.07467e-05 -7.82601e-20
-0.000175434 -4.34651e-05 3.84568e-20
1.3966e-06 -0.000604284 -1.08696e-19
7.10922e-05 0.00061292 -8.20807e-20
0.000645197 5.34283e-06 8.31449e-21
-0.000599046 -8.08222e-05 -3.66729e-20
0.000300294 -0.000181487 1.16975e-20
0.000299634 0.000181786 8.27625e-20
-0.000224667 0.000133027 1.25386e-20
-0.000296661 -3.97537e-05 -1.41272e-19
-0.000298055 3.8871e-05 9.41675e-21
-0.000233865 -0.000142195 4.61448e-20
0.000217659 -0.000298916 4.43693e-20
0.00021899 0.000303709 -1.14402e-19
0.000335257 -0.000148167 -2.42532e-21
-0.000192644 0.000290149 2.91676e-20
-4.90427e-05 -0.000269149 -1.10218e-19
0.000341599 0.000145799 4.10563e-20
-0.00019596 0.000160982 -2.99916e-20
0.000214012 -0.000160717 -3.85252e-21
6.17639e-05 -0.000549088 -1.1413e-20
-4.46932e-05 0.000548869 -3.56833e-20
0.000330901 -0.000279176 4.33134e-19
0.000331021 0.000279706 -3.23065e-20
0.000146384 5.00897e-05 2.40791e-20
-3.81139e-05 0.000319089 -1.10979e-19
-2.55142e-05 -0.000304609 2.40324e-20
6.66239e-05 0.000178418 -1.12559e-21
-4.69309e-05 -0.000182291 -2.42532e-20
-9.26829e-06 0.000247247 -6.18223e-20
2.70473e-05 -0.000241803 -6.97015e-20
-0.000345241 -0.000194105 2.52684e-20
-2.28063e-05 -0.000260341 7.29974e-20
3.86103e-05 0.000251247 7.18889e-20
-0.00015824 -0.000107881 5.8021e-21
-0.000391958 0.000271573 8.16369e-20
4.58629e-05 6.40067e-05 1.04654e-19
-2.55142e-05 -0.000304609 7.93857e-20
-0.000178471 8.5789e-05 -5.25797e-20
0.000415044 -0.000117268 1.16764e-19
0.000415065 0.000117359 6.28204e-20
0.000341599 0.000145799 1.19525e-20
0.000241855 0.000145761 2.29785e-21
0.000243171 -0.000145823 1.51606e-19
0.000524152 -0.000147454 2.47986e-19
0.000412476 -0.000118068 -2.52998e-19
0.000524131 0.000147589 1.76271e-20
0.000412324 0.000118213 5.83626e-21
-4.50018e-05 0.000142742 -1.42571e-19
0.0002297 -0.000100965 1.34901e-20
0.000229136 9.97135e-05 1.08664e-19
-0.000280051 -0.000531994 -1.58296e-19
0.000297124 0.000537706 2.9272e-19
-8.53626e-06 -4.57166e-05 -5.4024e-20
0.000335257 -0.000148167 1.49847e-19
0.00027721 -3.2169e-05 3.98203e-20
-0.000185446 5.40954e-05 3.1767e-20
-0.00015824 -0.000107881 -2.47289e-20
-0.00061264 -1.15248e-05 6.56577e-20
-0.000613256 9.85021e-06 -1.68031e-20
-4.26242e-05 0.000157693 -8.07025e-20
-0.000233865 -0.000142195 7.81543e-21
0.000156107 0.000127943 5.73837e-21
1.3966e-06 -0.000604284 -3.85991e-20
7.10922e-05 0.00061292 -1.05571e-20
0.000645197 5.34283e-06 -6.00235e-20
-0.000599046 -8.08222e-05 5.13522e-20
0.000155537 -0.000129284 -9.56026e-20
-0.000216003 0.000129 9.4889e-20
0.000145163 -0.000119953 9.27016e-20
0.000143217 0.00011743 -7.78652e-20
-0.000870538 0.000709175 -2.38645e-20
-2.28063e-05 -0.000260341 -2.49668e-20
-3.77449e-05 -0.000563279 -3.81871e-20
0.000604172 4.38689e-05 -8.97368e-20
-4.50018e-05 0.000142742 4.55587e-20
-9.26829e-06 0.000247247 -9.09261e-20
-0.000185446 5.40954e-05 3.03398e-20
3.86103e-05 0.000251247 4.91562e-20
-0.000345241 -0.000194105 3.30667e-20
0.000300294 -0.000181487 2.76869e-19
0.000299634 0.000181786 6.10371e-21
0.000195965 -8.22492e-05 -1.22171e-19
0.000197458 8.27444e-05 -2.36158e-21
2.70473e-05 -0.000241803 6.16482e-20
-0.000233865 -0.000142195 3.01657e-20
-8.53626e-06 -4.57166e-05 1.20981e-19
-0.000175434 -4.34651e-05 8.88662e-20
-0.000171856 4.07467e-05 -1.53874e-19
-0.000178471 8.5789e-05 2.33132e-19
0.000897057 -0.000690568 1.39297e-20
1.3966e-06 -0.000604284 -4.46391e-20
2.35748e-05 0.000556261 -1.03426e-20
0.000645197 5.34283e-06 1.08228e-19
0.000217659 -0.000298916 -4.68413e-20
0.00021899 0.000303709 5.63218e-20
0.000229136 9.97135e-05 -5.8161e-20
-0.000391958 0.000271573 -1.77546e-21
0.0002297 -0.000100965 -3.54921e-20
0.000255246 -5.13464e-05 1.02403e-19
0.000255587 5.10378e-05 4.4416e-20
0.000335257 -0.000148167 -2.08764e-20
0.000341599 0.000145799 -2.92313e-20
-0.000709238 0.000877828 -3.07604e-20
-0.000870538 0.000709175 -4.25068e-20
-0.000175434 -4.34651e-05 1.15116e-19
-0.000171856 4.07467e-05 -5.69546e-20
-6.55088e-05 -0.000419251 -1.27765e-19
7.97081e-05 0.000421975 1.83216e-19
-0.00019177 0.000309773 -7.56606e-20
-0.000209549 -0.000198956 -8.23505e-20
0.000185426 -0.000206924 -3.00391e-19
0.00018749 0.000208605 -1.78586e-19
0.000254309 -8.44716e-05 -1.32093e-19
0.000254907 8.91597e-05 2.04178e-20
-5.2353e-05 -0.000281458 -2.65044e-20
0.000280611 -6.8239e-05 -3.80278e-20
-0.000394396 -8.90965e-05 -9.98501e-20
-4.76144e-05 0.000284093 -1.43744e-19
0.000466721 -0.00017724 -3.04656e-19
0.000461489 0.000180272 -8.6615e-20
-0.000232405 -0.000116789 4.45435e-19
-0.000230191 0.000134627 -9.02763e-20
6.27186e-06 0.000264985 -1.07631e-20
2.4984e-06 -0.000265544 -2.12128e-19
2.57459e-05 -0.000255658 -1.7681e-19
2.87525e-05 0.000258353 -1.78012e-20
0.000229527 -4.04532e-05 -1.11391e-19
0.000146917 0.000133508 -4.10392e-20
-4.95338e-05 -0.000146248 6.2141e-21
-4.68226e-05 0.000148823 -8.8675e-20
-0.000315369 0.000515648 -2.82074e-19
-0.000353895 -0.000191367 -1.7142e-19
0.000628609 -0.000298658 -6.57257e-22
0.000617425 0.000335298 -1.4314e-20
0.000466721 -0.00017724 -9.66474e-20
0.000461489 0.000180272 7.24113e-20
0.000211329 -0.000114401 -3.64163e-19
0.000212727 0.000117051 -1.29905e-19
-0.000181938 -8.51873e-05 2.28821e-19
-0.000185559 8.62227e-05 9.32411e-20
0.000248607 0.000116191 1.88802e-20
0.000245434 -0.000117835 -1.65873e-19
7.65365e-05 0.000431613 1.44173e-19
7.3483e-05 -0.000431581 -1.64382e-19
-0.000175286 -4.0817e-05 -4.25939e-20
-0.000187036 4.56893e-05 -1.14623e-19
-7.98736e-06 -0.000592038 2.80972e-20
-5.926e-05 0.000604025 -3.56554e-19
0.000596777 -4.35334e-05 1.27416e-19
-0.000526265 4.81354e-06 5.30002e-20
0.000295384 -0.00027919 -4.10308e-19
0.000292568 0.000279996 3.06924e-19
-0.000276246 -0.000166278 -6.30583e-20
-0.000300389 -3.90057e-05 6.9652e-22
-0.000298723 4.96924e-05 -5.86197e-20
-0.000231806 0.000135881 -1.54396e-20
0.000198356 -0.000305331 -2.04122e-19
-0.000187548 0.000306625 -1.18667e-19
0.000296347 -0.000159194 -4.99802e-20
-5.58118e-05 -0.000272364 -4.35844e-19
0.000183908 0.00028657 -1.18603e-19
0.000303596 0.000159403 -9.71232e-20
-0.000206591 0.000167822 -5.51325e-20
-0.000208172 -0.00016928 -2.43611e-19
-5.4063e-05 -0.000561673 -9.60554e-19
-5.1646e-05 0.000562376 2.85177e-20
0.000407178 -0.000407263 1.36549e-19
0.000403592 0.000406606 1.70248e-19
2.73967e-05 -8.01055e-05 -1.72618e-20
-4.28809e-05 -0.000318053 2.96934e-19
-3.27716e-05 0.000303213 9.55856e-20
6.24745e-05 -0.000182046 -2.02265e-20
6.33085e-05 0.000182294 -2.01968e-19
-0.000353895 -0.000191367 -1.2672e-19
-1.43424e-05 0.000250713 -1.56172e-19
-1.63247e-05 -0.000248216 8.75494e-20
2.57459e-05 -0.000255658 -2.59649e-20
2.87525e-05 0.000258353 -4.30059e-20
4.13605e-05 7.13047e-05 -4.61448e-20
3.39321e-05 -7.23242e-05 -4.2088e-19
-3.27716e-05 0.000303213 1.48467e-19
-0.000181938 -8.51873e-05 2.42991e-19
0.000461184 -0.000178964 -2.0704e-19
0.000455964 0.000181993 -1.01277e-19
0.000303596 0.000159403 -1.27654e-19
0.000198535 0.000221368 -3.37166e-20
0.000200306 -0.000219825 -3.12106e-19
0.000603864 -0.000194306 -2.40741e-35
0.000466721 -0.00017724 -1.89285e-19
0.000594869 0.000193384 6.12828e-20
0.000461489 0.000180272 3.55091e-21
-0.000383215 0.000286795 1.43778e-20
-4.95338e-05 -0.000146248 9.10536e-20
-4.68226e-05 0.000148823 -1.018e-19
0.000211329 -0.000114401 -3.22979e-19
0.000212727 0.000117051 -1.20629e-20
0.00029151 -0.000546556 -2.59012e-20
0.000297635 0.00054871 3.72038e-20
0.000296347 -0.000159194 -9.3636e-20
0.000229527 -4.04532e-05 -1.94803e-19
-0.000188035 -5.56317e-05 6.57215e-20
-0.000617116 -8.51726e-06 1.51733e-19
-0.000615538 1.14811e-05 -7.25234e-19
-4.72583e-05 -0.00016056 -2.60414e-19
-4.22436e-05 0.000172225 1.29557e-19
-0.000231806 0.000135881 -2.36204e-20
0.000143233 0.000143783 -3.79174e-20
0.000140394 -0.000141808 -3.09965e-19
-7.98736e-06 -0.000592038 -5.29488e-19
-5.926e-05 0.000604025 -1.38702e-20
-0.000526265 4.81354e-06 1.02696e-19
0.000596777 -4.35334e-05 -7.45009e-21
-0.000218787 -0.000128598 1.42096e-19
5.03998e-05 -0.000184864 -1.29714e-19
4.89789e-05 0.000182292 -9.11469e-20
0.000864077 0.000699934 4.0139e-19
2.87525e-05 0.000258353 -7.21097e-20
-4.28529e-05 -0.000555699 -9.53562e-20
-0.000526265 4.81354e-06 1.05882e-19
-4.68226e-05 0.000148823 -6.73695e-20
-4.95338e-05 -0.000146248 1.77983e-19
-1.63247e-05 -0.000248216 -4.73171e-20
-0.000188035 -5.56317e-05 7.63742e-20
2.57459e-05 -0.000255658 -3.42208e-19
0.000295384 -0.00027919 -2.11525e-19
0.000292568 0.000279996 1.94026e-20
0.000193274 -7.44663e-05 -1.12452e-19
0.000189358 8.44132e-05 -3.67888e-19
-0.000353895 -0.000191367 -2.15076e-19
-1.43424e-05 0.000250713 -6.21068e-20
-0.000231806 0.000135881 -6.15674e-20
-0.000175286 -4.0817e-05 1.12151e-19
-0.000187036 4.56893e-05 -5.0044e-20
-0.000181938 -8.51873e-05 3.34584e-19
0.000820484 -0.00067121 1.7231e-20
-1.43164e-05 0.00054606 -5.68846e-20
-7.98736e-06 -0.000592038 -1.80242e-19
0.000566643 -1.76402e-05 6.1045e-20
0.000198356 -0.000305331 -1.66175e-19
-0.000187548 0.000306625 -1.34263e-19
0.000212727 0.000117051 -6.77985e-20
0.000211329 -0.000114401 -4.55374e-19
0.000262756 0.00019964 -9.11003e-20
0.000254309 -8.44716e-05 -4.10006e-19
0.000254907 8.91597e-05 -1.93388e-20
0.000296347 -0.000159194 -1.27021e-19
0.000303596 0.000159403 -1.34408e-19
0.00069926 0.000860237 -3.33862e-19
0.000864077 0.000699934 2.56585e-19
-0.000175286 -4.0817e-05 2.16869e-19
-0.000187036 4.56893e-05 -2.36747e-19
7.65365e-05 0.000431613 -1.44776e-19
7.3483e-05 -0.000431581 -3.32252e-19
-0.000196568 0.000286827 5.56424e-21
-0.000219731 -0.000143905 -3.99655e-19
0.000187312 -0.000204275 -8.49499e-20
0.000185587 0.000207431 1.87098e-19
0.000255068 -8.75336e-05 9.29053e-20
0.000254693 8.78656e-05 1.86448e-19
5.03926e-05 -0.000285609 -1.36468e-19
0.000271522 -6.763e-05 -7.59622e-20
-0.000351966 -4.99662e-05 -3.87966e-20
-5.20429e-05 0.000280632 -5.17557e-20
0.000464656 -0.000179744 3.07684e-19
0.000464187 0.00018027 -2.42065e-20
-0.000232346 0.000116971 1.84023e-19
-0.000231019 -0.000136586 4.87443e-20
2.39801e-06 0.000264591 -3.28755e-20
-4.94216e-06 -0.000265685 -1.28542e-19
-2.96186e-05 -0.000262422 -4.50021e-20
2.58169e-05 0.000254808 1.53292e-20
0.00022907 -4.27219e-05 1.27068e-19
0.000144755 0.000133463 6.52458e-20
-4.90759e-05 0.000145704 -1.35104e-19
4.68491e-05 -0.000146581 -7.53761e-20
-0.00039152 0.000268653 -9.96122e-20
-0.000350424 -0.000191969 -2.39695e-19
0.000360664 -0.000517065 -4.29826e-20
0.000624958 0.000307684 -3.44391e-19
0.000464656 -0.000179744 3.47147e-20
0.000464187 0.00018027 2.04725e-19
0.000211822 -0.000115499 -7.84979e-20
0.00021143 0.000115718 -5.41344e-20
-0.00018139 8.61497e-05 -1.80106e-19
-0.000184544 -8.55727e-05 -3.34822e-19
0.000245821 0.000117502 -2.95796e-20
0.000247348 -0.000116671 7.92286e-20
7.26666e-05 0.000431164 -2.57908e-20
-7.4271e-05 -0.000430672 -1.62038e-19
-0.000174319 4.09657e-05 1.81661e-19
-0.000178115 -4.28283e-05 -1.7041e-20
-8.1723e-06 -0.000566542 -1.53802e-19
2.41755e-05 0.000593616 -2.3062e-19
0.000603729 -3.65391e-06 -2.39639e-19
-0.000597093 -7.59385e-05 -5.58354e-19
0.000294207 -0.000280629 1.55e-19
0.000293047 0.000281674 -1.3745e-20
-0.000227103 0.000132722 -9.15123e-20
-0.000299849 3.91054e-05 2.59857e-19
-0.000299568 -3.9115e-05 -1.38829e-19
-0.000236927 -0.000141447 -2.2928e-19
0.000198111 -0.000302945 -1.31078e-19
0.000195494 0.000304584 1.99416e-19
0.000300817 0.000158825 -2.02856e-19
-0.000196568 0.000286827 -8.03201e-20
-5.8552e-05 -0.000270114 -2.34496e-19
0.000301045 -0.000158587 -7.96406e-20
-0.000210124 0.000166629 -1.14228e-19
0.000207356 -0.000169097 -1.84261e-19
5.35329e-05 -0.00056105 -6.06028e-19
-5.52563e-05 0.000561642 -1.42037e-20
0.000406097 -0.00040827 -3.00382e-20
0.000406237 0.000409382 1.97831e-19
2.86691e-05 8.04691e-05 1.17129e-19
-4.28009e-05 0.000317679 3.46774e-19
-3.28171e-05 -0.00030293 -3.16939e-19
6.22092e-05 0.00018127 -1.68409e-19
-5.92874e-05 -0.000189373 -5.40706e-20
-1.6585e-05 0.000247915 2.78678e-20
1.48706e-05 -0.000247012 -1.3891e-19
-0.000350424 -0.000191969 -3.36232e-19
-2.96186e-05 -0.000262422 -5.46101e-20
2.58169e-05 0.000254808 -4.9632e-20
-0.000161557 -0.000109581 -2.04504e-19
-0.00039152 0.000268653 1.48815e-19
3.88861e-05 7.03202e-05 2.53151e-20
-3.28171e-05 -0.00030293 -3.39672e-19
-0.00018139 8.61497e-05 -2.83397e-19
0.000459209 -0.000181441 1.40019e-19
0.000458628 0.000182001 2.42549e-19
0.000301045 -0.000158587 -2.63769e-20
0.000197526 0.0002222 1.94153e-19
0.000199536 -0.000221506 -5.06472e-20
0.000599874 -0.000194388 -2.82764e-19
0.000464656 -0.000179744 -1.45235e-19
0.000599466 0.00019465 7.19514e-21
0.000464187 0.00018027 4.21819e-20
-4.90759e-05 0.000145704 -9.67749e-20
0.000211822 -0.000115499 6.34157e-21
0.00021143 0.000115718 1.27242e-19
0.000290964 0.000546231 2.6024e-19
-0.000293424 -0.000546431 1.44585e-19
-2.13701e-05 -5.32933e-05 -7.7007e-20
0.000300817 0.000158825 -7.97248e-21
0.00022907 -4.27219e-05 2.32831e-19
-0.000187528 5.46492e-05 -6.28349e-19
-0.000161557 -0.000109581 4.9632e-20
-0.000615885 8.55397e-06 -8.71055e-19
-0.000616113 -1.00271e-05 3.4132e-19
-4.70451e-05 0.000158475 -2.05647e-19
-0.000236927 -0.000141447 -1.71072e-19
0.000140983 0.000142937 1.68362e-19
-8.1723e-06 -0.000566542 -1.62314e-19
2.41755e-05 0.000593616 1.86964e-19
-0.000597093 -7.59385e-05 -4.13549e-19
0.000603729 -3.65391e-06 -2.44252e-19
0.000140926 -0.000142582 -9.05141e-21
-0.000218318 0.000128937 2.34147e-19
4.95818e-05 -0.000186339 -2.8454e-20
4.6407e-05 0.000181135 1.43523e-19
-0.00086447 0.000704754 -3.02543e-19
-2.96186e-05 -0.000262422 -1.4972e-19
-1.6316e-05 -0.000556285 -2.21592e-19
0.000567583 -3.72191e-05 -4.09607e-20
-4.90759e-05 0.000145704 -2.31641e-19
-1.6585e-05 0.000247915 -1.93265e-19
-0.000187528 5.46492e-05 -1.86083e-19
2.58169e-05 0.000254808 9.58872e-20
-0.000350424 -0.000191969 -2.76597e-19
0.000294207 -0.000280629 -2.07753e-19
0.000293047 0.000281674 -3.714e-20
0.000195871 7.88838e-05 -9.17889e-21
0.000192189 -7.81116e-05 1.36471e-20
1.48706e-05 -0.000247012 -7.56048e-21
-0.000236927 -0.000141447 -7.4535e-20
-2.13701e-05 -5.32933e-05 1.1464e-19
-0.000174319 4.09657e-05 -1.72911e-19
-0.000178115 -4.28283e-05 -3.69193e-20
-0.00018139 8.61497e-05 -4.70496e-20
0.00085051 0.000674228 4.05928e-19
-8.1723e-06 -0.000566542 -1.33401e-19
5.40697e-06 0.000575237 -7.76188e-20
0.000603729 -3.65391e-06 7.73172e-20
0.000198111 -0.000302945 -3.7395e-20
0.000195494 0.000304584 5.24693e-20
0.00021143 0.000115718 1.1269e-19
-0.00039152 0.000268653 4.73341e-20
0.000211822 -0.000115499 -1.72563e-19
0.000255068 -8.75336e-05 -1.53292e-20
0.000254693 8.78656e-05 -2.72692e-21
0.000300817 0.000158825 2.43309e-19
0.000301045 -0.000158587 4.24835e-20
-0.000704542 0.000875271 -4.06621e-19
-0.00086447 0.000704754 6.15203e-19
-0.000174319 4.09657e-05 -6.18223e-20
-0.000178115 -4.28283e-05 -5.78423e-20
-7.4271e-05 -0.000430672 -2.34415e-19
7.26666e-05 0.000431164 1.14402e-19
-0.000192075 0.000309777 1.2553e-19
-0.000209503 -0.000199889 -1.6603e-19
0.000187922 -0.000204927 2.82798e-20
0.000185976 0.000207421 -1.29192e-19
0.000254984 -8.89247e-05 -9.28928e-21
0.000254204 8.45487e-05 -4.22923e-20
5.2091e-05 -0.00028507 -7.48833e-20
0.000280629 -6.97219e-05 8.06854e-20
-0.000394507 -8.9308e-05 -4.73808e-20
-4.83504e-05 0.000284416 4.48451e-20
0.000461822 -0.0001798 2.72692e-21
0.000466652 0.000177635 7.27596e-20
-0.000232581 -0.000116714 2.35082e-19
-0.000230108 0.000134627 3.65637e-19
4.97918e-06 0.000265677 6.45959e-20
-3.33239e-06 -0.000264798 -2.3532e-19
-2.74003e-05 -0.000260213 -1.19253e-19
2.69096e-05 0.00025815 -5.17608e-19
0.000229789 -4.20732e-05 8.20955e-20
0.000146673 0.000131769 -4.32437e-20
-4.71608e-05 0.000149525 -2.30278e-19
4.86771e-05 -0.000146643 -2.42787e-19
-0.000315674 0.00051543 -1.76335e-19
-0.000354285 -0.000191826 -2.75187e-19
0.000628679 -0.000299132 -6.88954e-20
0.000617014 0.000334545 -9.69172e-20
0.000461822 -0.0001798 -8.7439e-20
0.000466652 0.000177635 -1.52273e-19
0.000212426 -0.000116799 -7.54228e-20
0.000211625 0.000114561 -2.90563e-19
-0.000181929 -8.52288e-05 7.09841e-20
-0.00018551 8.6172e-05 -3.24169e-20
0.000247972 0.000114483 -7.85617e-20
0.000246395 -0.00011922 -5.63047e-20
7.38277e-05 0.000431813 -6.38823e-21
-7.19228e-05 -0.000430912 -2.23083e-19
-0.000175722 -4.15263e-05 1.12215e-19
-0.000186928 4.61488e-05 2.79145e-20
-7.19096e-06 -0.000593222 -2.59889e-19
-5.96936e-05 0.00060355 -1.15916e-19
0.000596619 -4.42085e-05 1.15957e-20
-0.000526447 4.68157e-06 -5.90954e-20
0.000293579 -0.000279303 -3.03398e-20
0.000294593 0.000279812 -3.41528e-19
-0.000276193 -0.000166589 -2.05027e-19
-0.000303427 -3.2463e-05 3.28497e-19
-0.00029815 5.01352e-05 1.64399e-19
-0.000231792 0.000135934 8.91507e-20
0.000198829 -0.000300725 -1.96863e-19
-0.000187981 0.000306724 8.27408e-21
0.000296422 -0.000159781 -1.08965e-19
-5.71934e-05 -0.000272021 -3.09205e-19
0.00018273 0.000285594 -5.61089e-21
0.000303258 0.000157935 7.7262e-20
-0.000207814 0.000168993 -2.2592e-19
0.000212627 -0.000165131 -1.29969e-19
-5.36441e-05 0.00056183 -6.47084e-19
5.70617e-05 -0.000562487 -1.6386e-19
0.000403402 -0.00040557 -3.97566e-20
0.000407518 0.000408286 1.78318e-19
2.81263e-05 -8.19402e-05 1.30143e-20
-4.28665e-05 -0.000318035 -5.22952e-20
-3.27654e-05 0.000303068 -6.74332e-20
6.30771e-05 0.000183031 -3.35971e-21
-5.7118e-05 -0.000189302 -3.55477e-19
-0.000354285 -0.000191826 5.84626e-20
-1.51474e-05 0.000251109 1.88113e-19
1.66083e-05 -0.000246519 -1.24214e-19
-2.74003e-05 -0.000260213 -1.41012e-21
2.69096e-05 0.00025815 3.67918e-20
-0.000164291 -0.000111783 -2.99278e-20
3.37298e-05 7.22909e-05 -2.61047e-19
-3.27654e-05 0.000303068 1.24596e-19
-0.000181929 -8.52288e-05 1.47643e-19
0.000456341 -0.000181507 -2.95796e-20
0.000461153 0.000179347 -1.30729e-19
0.000303258 0.000157935 1.06366e-19
0.000198757 0.000220052 2.50613e-21
0.000200278 -0.000221056 5.0885e-20
0.000595113 -0.000193125 -1.41968e-19
0.000461822 -0.0001798 -6.61335e-20
0.000603986 0.000194602 -7.63105e-20
0.000466652 0.000177635 -6.74332e-20
-0.000383455 0.000286786 2.02427e-19
-4.71608e-05 0.000149525 -1.02165e-19
0.000212426 -0.000116799 -1.68061e-19
0.000211625 0.000114561 -1.79754e-20
0.000291891 0.00054683 -3.28289e-20
-0.000291814 -0.000546874 -1.52557e-19
-1.91703e-05 -5.38681e-05 -1.47057e-19
0.000296422 -0.000159781 -2.16537e-20
0.000229789 -4.20732e-05 7.96235e-20
-0.000188029 -5.57143e-05 2.53898e-19
-0.000164291 -0.000111783 -1.18667e-19
-0.000615346 -9.64081e-06 -4.37491e-21
-0.000615819 1.08523e-05 1.33741e-19
-4.26171e-05 0.000172753 -6.64817e-20
-0.000231792 0.000135934 4.91278e-19
0.0001411 0.000141684 1.40295e-20
-7.19096e-06 -0.000593222 -8.40303e-20
-5.96936e-05 0.00060355 2.37541e-20
-0.000526447 4.68157e-06 -3.26356e-19
0.000596619 -4.42085e-05 -1.34637e-19
0.000141825 -0.000143761 -5.57186e-20
-0.000218566 -0.000128807 -4.28955e-20
5.20214e-05 -0.000186062 8.21126e-20
4.75331e-05 0.000180971 -2.56804e-20
0.000863849 0.000699487 5.08667e-19
2.69096e-05 0.00025815 1.79839e-19
-2.74003e-05 -0.000260213 -4.11667e-20
-4.24663e-05 -0.000556213 1.61878e-19
-0.000526447 4.68157e-06 -2.31055e-19
-4.71608e-05 0.000149525 7.14132e-20
-0.000188029 -5.57143e-05 3.56195e-20
0.000293579 -0.000279303 3.70797e-21
0.000294593 0.000279812 7.05517e-21
0.000196591 7.52277e-05 1.55467e-21
0.000189226 -8.43332e-05 -5.2276e-19
-0.000354285 -0.000191826 -1.80077e-19
-1.51474e-05 0.000251109 -3.55634e-19
1.66083e-05 -0.000246519 -1.01863e-19
-0.000231792 0.000135934 1.8816e-19
-1.91703e-05 -5.38681e-05 -7.287e-20
-0.000175722 -4.15263e-05 2.7514e-19
-0.000186928 4.61488e-05 1.45757e-19
-0.000181929 -8.52288e-05 1.19966e-19
0.000820532 -0.000671677 2.29652e-19
-1.49315e-05 0.000545824 9.1576e-20
-7.19096e-06 -0.000593222 -9.32115e-21
0.000566849 -1.86307e-05 7.4242e-20
-0.000187981 0.000306724 -1.67776e-19
0.000198829 -0.000300725 -5.52429e-20
0.000211625 0.000114561 -3.20049e-19
0.000261954 0.000198258 -2.72349e-19
0.000212426 -0.000116799 -8.60755e-20
0.000254984 -8.89247e-05 -9.12744e-20
0.000254204 8.45487e-05 -1.70788e-19
0.000296422 -0.000159781 1.35945e-19
0.000303258 0.000157935 -8.95627e-20
0.000698771 0.000859709 1.38948e-19
0.000863849 0.000699487 -3.53273e-19
-0.000175722 -4.15263e-05 -5.31829e-20
-0.000186928 4.61488e-05 7.58518e-20
-7.19228e-05 -0.000430912 -7.47092e-20
7.38277e-05 0.000431813 7.02705e-20
-0.000196574 0.00028677 -8.61859e-20
-0.00021123 -0.000152911 9.11515e-21
0.000199408 -0.000254655 -1.68031e-20
0.000187078 0.000202191 -1.86987e-19
0.000250672 7.94795e-05 -5.56193e-19
0.000224919 -0.00016228 -5.86367e-20
-3.17906e-05 -0.000297213 8.43e-20
0.000274889 5.30963e-05 5.63047e-20
-0.000346766 -5.48642e-05 -1.67347e-19
-5.06828e-05 0.000280326 -3.36707e-19
0.000455322 0.000171008 -4.72287e-19
0.000355906 -0.000215589 2.73284e-20
-0.000221304 -0.000142217 2.3876e-19
-0.000230509 0.00011641 -1.46866e-19
4.46609e-06 0.000263313 5.20573e-20
3.94269e-05 -0.000270696 4.28147e-20
7.30671e-05 -0.000291667 -7.81497e-20
2.80595e-05 0.000253408 -3.39196e-19
0.00022977 2.66186e-05 -4.74274e-20
0.000133714 -0.00015801 -1.41446e-19
-3.10887e-05 -0.000150734 3.9043e-20
-4.83855e-05 0.000145269 2.56633e-20
-0.000395637 0.000268199 -9.38739e-20
-0.000344442 -0.000205371 -9.85504e-20
0.00065732 -0.000332853 3.56803e-19
0.000359416 0.000505674 -6.23609e-19
0.000455322 0.000171008 -1.57089e-19
0.000355906 -0.000215589 -2.02265e-20
0.000211051 0.000109773 -2.17374e-19
0.000210326 -0.000184814 1.96404e-20
-0.000178104 8.33831e-05 -3.98576e-19
-0.000175245 -9.13823e-05 -6.22172e-20
0.000249419 0.000104753 -1.25705e-19
0.000249262 -0.0001494 3.59678e-20
0.000110026 -0.000374137 -1.12168e-19
7.34476e-05 0.000427276 -8.22401e-20
-0.000173092 4.08923e-05 3.84568e-20
-0.000171414 -5.49248e-05 -7.7674e-20
5.1901e-06 -0.000630174 1.98377e-19
6.1747e-05 0.000606882 -3.6081e-19
0.0006278 -1.10008e-05 3.00621e-19
-0.000602863 -8.94032e-05 -1.8308e-19
0.000287264 0.000267474 -4.2974e-19
0.000233742 -0.000280434 1.56503e-19
-0.000224823 0.000130657 -3.31134e-20
-0.000285862 -5.31058e-05 1.15371e-19
-0.000297785 3.9037e-05 -1.57489e-19
-0.000228474 -0.000147455 -4.86805e-20
0.000217718 -0.000342545 -8.05329e-21
0.000205282 0.000302605 -2.15552e-19
0.000308423 -0.000193841 4.60811e-20
-0.000196574 0.00028677 -1.51147e-19
-3.57463e-05 -0.000286957 3.18774e-20
0.000305572 0.000148649 -9.35893e-20
-0.000204827 0.000166968 -2.93464e-19
-7.4017e-05 -0.000206974 -5.30088e-20
-5.24933e-05 0.000555714 -5.03405e-19
2.39868e-05 -0.000461915 5.04389e-20
0.000396807 0.00039588 -4.52664e-19
0.000328067 -0.000377151 2.40502e-19
2.51454e-05 -9.39e-05 -1.01086e-19
-3.71963e-05 0.000317735 -1.38226e-19
-2.23116e-05 -0.00030401 4.21785e-21
7.91699e-05 -0.000184079 6.59593e-20
6.25675e-05 0.000180736 -2.06564e-19
8.39999e-06 -0.000255427 1.50276e-20
-1.53792e-05 0.000247757 -2.35018e-19
-0.000344442 -0.000205371 -1.47532e-19
7.30671e-05 -0.000291667 -4.37195e-20
2.80595e-05 0.000253408 -1.51066e-19
-0.000395637 0.000268199 -2.81622e-19
3.52029e-05 7.05093e-05 -1.47727e-20
9.73069e-05 -0.000158629 -1.40796e-19
-2.23116e-05 -0.00030401 1.33758e-19
-0.000178104 8.33831e-05 -1.97704e-19
0.000451208 0.000172289 5.8985e-20
0.000342545 -0.000219754 4.29519e-19
0.000305572 0.000148649 5.47842e-20
0.000195241 0.000209999 -3.25405e-19
0.000171475 -0.000241682 2.18041e-19
0.000590004 0.000189202 7.06418e-19
0.000455322 0.000171008 1.89302e-19
0.000426815 -0.000168721 -2.93859e-19
0.000355906 -0.000215589 1.49452e-19
-3.10887e-05 -0.000150734 -1.37007e-19
-4.83855e-05 0.000145269 2.94734e-19
0.000211051 0.000109773 -2.77391e-19
0.000210326 -0.000184814 -6.12999e-20
0.000289097 0.000541071 -1.11826e-18
0.000281368 -0.000467589 5.3357e-20
0.000308423 -0.000193841 -1.35295e-19
0.00022977 2.66186e-05 -1.13816e-19
-0.000184396 5.16629e-05 -2.00066e-19
-0.000594568 -1.59759e-05 1.50914e-20
-0.000612922 9.01482e-06 -2.57441e-20
-4.63317e-05 0.000158192 3.2591e-20
-2.70675e-05 -0.000170829 6.37548e-20
-0.000228474 -0.000147455 3.07319e-19
0.000141791 0.000136542 -8.47758e-20
0.000163594 -0.000202879 -7.19822e-20
5.1901e-06 -0.000630174 1.96428e-19
6.1747e-05 0.000606882 -3.72908e-20
-0.000602863 -8.94032e-05 -1.11034e-19
0.0006278 -1.10008e-05 7.91563e-20
-0.000216744 0.000128152 -5.45293e-20
4.17049e-05 0.00017107 -4.48272e-19
3.59173e-05 -0.000190953 -4.43398e-20
-0.000876609 0.000707329 -6.60305e-19
-3.81717e-05 -0.000585053 5.54255e-20
0.000584727 2.89899e-05 -1.0383e-20
-4.83855e-05 0.000145269 -1.99369e-19
-3.10887e-05 -0.000150734 -9.04971e-20
-1.53792e-05 0.000247757 -1.88508e-19
8.39999e-06 -0.000255427 -1.13468e-19
-0.000184396 5.16629e-05 -1.07045e-19
7.30671e-05 -0.000291667 -5.68442e-20
2.80595e-05 0.000253408 6.29308e-20
-0.000344442 -0.000205371 -1.56758e-19
0.000287264 0.000267474 -4.34022e-19
0.000233742 -0.000280434 5.33146e-19
0.000187314 -8.39945e-05 -1.32314e-19
0.000186724 -6.70654e-05 1.64034e-19
-0.000228474 -0.000147455 -9.66178e-20
-0.000171414 -5.49248e-05 1.34234e-19
-0.000173092 4.08923e-05 -1.28368e-19
-0.000178104 8.33831e-05 -2.27853e-19
0.000884947 -0.000700445 5.80269e-19
5.1901e-06 -0.000630174 -3.2711e-19
1.42058e-05 0.000550183 -5.75345e-20
0.0006278 -1.10008e-05 5.20021e-20
0.000217718 -0.000342545 1.32522e-20
0.000205282 0.000302605 -2.01e-19
0.000211051 0.000109773 -4.32136e-19
0.000210326 -0.000184814 -9.28757e-20
-0.000395637 0.000268199 6.61972e-20
0.000250672 7.94795e-05 -1.10027e-19
0.000224919 -0.00016228 2.33829e-19
0.000308423 -0.000193841 6.59593e-20
0.000305572 0.000148649 -4.99336e-20
-0.000708709 0.000868575 -2.26886e-19
-0.000876609 0.000707329 -4.28188e-19
-0.000171414 -5.49248e-05 -3.0119e-20
-0.000173092 4.08923e-05 1.25768e-19
0.000110026 -0.000374137 -4.33075e-20
7.34476e-05 0.000427276 8.7439e-20
2.74623e-05 -3.5979e-06 6.76244e-20
3.0619e-05 -3.9916e-06 -1.08617e-19
1.41729e-05 -1.83937e-06 -6.48975e-20
3.05558e-05 3.95785e-06 -2.24684e-19
4.12518e-05 -5.33978e-06 -4.37491e-21
4.13226e-05 5.30613e-06 -4.55245e-20
3.56267e-05 -8.75382e-06 2.35225e-20
2.46971e-05 -2.75352e-06 -1.14767e-19
2.46539e-05 -2.36104e-06 1.16479e-19
4.41512e-05 3.57692e-06 -1.01039e-19
6.94038e-05 -2.16442e-05 1.05194e-19
6.94526e-05 2.16473e-05 4.60344e-20
-1.10155e-05 -2.43817e-05 8.68358e-20
-1.39864e-05 -9.16035e-06 -2.75662e-20
4.53228e-05 2.56285e-05 9.9858e-21
4.95821e-05 -2.27845e-05 2.32657e-19
5.85337e-05 6.81972e-06 3.74769e-19
3.34425e-05 8.03991e-06 -1.55475e-19
2.4825e-05 -2.82308e-06 6.76882e-20
1.77666e-05 1.23878e-05 -2.2002e-20
5.65388e-05 -4.42667e-05 -9.62525e-20
2.30359e-05 -1.02292e-05 2.28804e-19
2.78027e-05 -3.61978e-06 2.39687e-20
3.07726e-05 1.31665e-06 -1.71072e-19
2.86427e-05 2.12397e-06 -6.52162e-20
3.2565e-05 2.77075e-07 -2.33417e-19
6.94038e-05 -2.16442e-05 -1.22693e-19
6.94526e-05 2.16473e-05 -1.4495e-19
3.26764e-05 -1.73923e-06 4.18803e-20
3.26759e-05 1.65912e-06 -2.35303e-19
2.30612e-05 2.80998e-05 -6.1045e-20
2.48585e-05 -2.38159e-05 -7.59622e-20
2.96667e-05 -5.48818e-06 6.11895e-20
2.96331e-05 5.4039e-06 -1.35121e-19
9.76154e-05 0.00012402 -1.58516e-20
3.34837e-05 -0.000117068 5.07143e-21
-5.45977e-06 -6.5249e-05 3.56025e-20
-5.91987e-06 6.38439e-05 1.59978e-19
3.43562e-05 3.99896e-08 1.524e-19
3.40432e-05 -5.53322e-07 -2.56625e-19
2.78335e-05 4.91017e-09 -4.29251e-20
2.687e-05 -3.06999e-08 1.45583e-19
4.32516e-05 -3.57814e-05 -8.7439e-20
4.32657e-05 3.58678e-05 -1.04939e-19
1.23982e-05 2.56577e-06 -1.34901e-20
-9.3562e-05 -6.65568e-05 2.72692e-21
-9.32245e-05 6.6515e-05 1.70788e-19
1.60571e-05 -2.10863e-06 1.60895e-20
3.28516e-05 -3.43038e-06 2.32831e-19
3.29246e-05 3.40498e-06 -1.0459e-19
2.7388e-05 -3.64062e-06 -1.56648e-19
2.74623e-05 -3.5979e-06 -1.94692e-19
3.91158e-05 8.66966e-06 3.02294e-20
2.74091e-05 3.74479e-06 9.12448e-20
-2.08969e-05 2.35235e-05 -3.00519e-19
0.000185416 2.73478e-05 2.00524e-19
4.70041e-05 0.000175641 4.56861e-20
9.94156e-05 -0.000184346 1.47167e-19
5.92364e-05 -5.59246e-05 1.37373e-19
5.92768e-05 5.59574e-05 6.89879e-20
2.92123e-06 8.81647e-06 3.76702e-19
9.37308e-05 0.000171837 -1.14959e-19
0.00010176 -0.000162411 -3.3258e-20
0.000107575 -2.79518e-05 -5.91591e-20
1.34029e-05 -1.41123e-05 -5.50392e-20
6.03045e-05 -1.13279e-05 4.66205e-20
3.5075e-05 -8.15428e-06 1.2751e-19
2.86427e-05 2.12397e-06 1.65525e-19
5.85337e-05 6.81972e-06 1.7066e-19
3.34425e-05 8.03991e-06 -1.3417e-19
1.21576e-05 5.74758e-05 2.31119e-19
2.78027e-05 -3.61978e-06 -1.51037e-19
1.81151e-05 5.34554e-07 -1.67742e-19
0.00010176 -0.000162411 -8.05329e-21
2.30612e-05 2.80998e-05 -4.40211e-20
7.07322e-05 -2.12306e-05 -1.69552e-19
7.0785e-05 2.12324e-05 2.0304e-21
2.74091e-05 3.74479e-06 1.17494e-19
2.74793e-05 -2.59347e-05 -3.49059e-20
2.73702e-05 2.59572e-05 -1.73451e-19
9.14019e-05 -2.74977e-05 9.78368e-20
6.94038e-05 -2.16442e-05 4.37491e-21
9.14731e-05 2.75149e-05 -1.44347e-19
6.94526e-05 2.16473e-05 -1.81852e-19
5.65388e-05 -4.42667e-05 -9.09261e-20
3.26764e-05 -1.73923e-06 -9.29861e-20
3.26759e-05 1.65912e-06 -2.51664e-19
0.000233244 0.000208756 1.31222e-19
-5.17619e-05 -0.000158878 -1.23076e-19
1.40905e-05 2.00516e-06 7.54865e-20
2.7388e-05 -3.64062e-06 -4.75732e-22
2.4825e-05 -2.82308e-06 9.39376e-20
5.1066e-05 1.78834e-05 6.68642e-20
1.21576e-05 5.74758e-05 7.92286e-20
-0.00034023 5.48956e-05 3.57682e-19
-0.00034 -5.59863e-05 -7.02876e-20
5.75571e-05 -3.78587e-05 -2.58354e-19
1.60571e-05 -2.10863e-06 7.287e-20
2.975e-05 2.78994e-06 -1.34042e-19
3.43562e-05 3.99896e-08 -9.48049e-21
3.40432e-05 -5.53322e-07 -6.70679e-20
2.687e-05 -3.06999e-08 1.50909e-19
2.78335e-05 4.91017e-09 -1.54396e-19
2.97606e-05 -2.85241e-06 -6.72124e-20
-2.76781e-05 -2.08398e-05 -8.5536e-20
5.85816e-06 -2.20372e-05 1.84103e-19
5.8625e-06 2.16683e-05 3.19573e-19
2.57125e-05 9.24564e-06 3.17204e-20
5.85337e-05 6.81972e-06 -6.93066e-20
3.39255e-05 4.91282e-07 1.58551e-19
2.79512e-05 -1.05583e-07 -5.26263e-20
5.65388e-05 -4.42667e-05 3.13892e-21
6.03045e-05 -1.13279e-05 -1.78412e-19
5.1066e-05 1.78834e-05 1.60724e-20
3.34425e-05 8.03991e-06 -1.02212e-19
2.86427e-05 2.12397e-06 2.59945e-21
4.32516e-05 -3.57814e-05 1.66697e-19
4.32657e-05 3.58678e-05 -4.67309e-20
3.5388e-05 1.75703e-05 -1.89906e-19
3.51567e-05 -1.7556e-05 -2.82637e-19
3.5075e-05 -8.15428e-06 2.49634e-19
1.60571e-05 -2.10863e-06 1.08727e-19
1.40905e-05 2.00516e-06 1.0459e-19
-5.45977e-06 -6.5249e-05 -3.04036e-20
-5.91987e-06 6.38439e-05 3.78536e-20
2.30612e-05 2.80998e-05 -5.69171e-21
2.60592e-05 8.94658e-06 -1.32458e-19
3.45273e-05 2.4011e-08 -1.11327e-19
3.43562e-05 3.99896e-08 1.54872e-19
2.78335e-05 4.91017e-09 -1.25293e-19
3.28516e-05 -3.43038e-06 0
3.29246e-05 3.40498e-06 -2.21006e-19
3.26759e-05 1.65912e-06 -1.40193e-19
2.78027e-05 -3.61978e-06 5.20277e-20
3.26764e-05 -1.73923e-06 -7.4535e-20
4.12518e-05 -5.33978e-06 -1.52051e-21
4.13226e-05 5.30613e-06 -3.7423e-19
2.7388e-05 -3.64062e-06 -1.60724e-20
2.74091e-05 3.74479e-06 -2.26808e-19
3.65981e-05 2.19076e-07 3.7395e-20
2.57125e-05 9.24564e-06 -1.3745e-20
-5.91987e-06 6.38439e-05 -9.31136e-20
-5.45977e-06 -6.5249e-05 1.1797e-19
9.76154e-05 0.00012402 2.10505e-20
3.34837e-05 -0.000117068 1.7475e-19
-0.000186077 0.000303024 -3.77432e-20
-0.000217954 -0.000142279 -2.23066e-19
0.000188658 -0.000200099 -1.21504e-19
0.000199324 0.000253741 -1.87748e-19
0.000224347 0.000162411 2.3402e-19
0.000250417 -7.9863e-05 -3.01691e-19
5.28216e-05 -0.000283547 2.94521e-20
0.000274761 9.30328e-05 7.25854e-20
-0.000351367 -4.63415e-05 3.15291e-20
-3.04482e-05 0.000297602 -2.20594e-19
0.000355133 0.000215414 3.62277e-19
0.000455318 -0.000171273 -6.72718e-19
-0.000228435 -0.000135038 -2.04551e-19
-0.000222951 0.000122778 1.35538e-20
4.06347e-05 0.000271121 1.52685e-19
-3.40972e-06 -0.00026335 -4.73651e-19
-2.85024e-05 -0.000261054 -4.95045e-20
7.40396e-05 0.000291357 5.4024e-20
0.000225209 6.39668e-05 8.56464e-20
0.000142511 -0.000120139 -1.31031e-19
-3.40536e-05 0.00014872 7.48833e-20
4.81256e-05 -0.000143794 -5.70183e-20
-0.000391805 0.000283859 7.21734e-20
-0.00034894 -0.000190295 -1.73213e-19
0.00064735 -0.000299131 8.09625e-20
0.000371677 0.000539642 2.28579e-20
0.000355133 0.000215414 1.05287e-19
0.000455318 -0.000171273 -4.15728e-19
0.000209911 0.000184657 -2.40663e-19
0.000211702 -0.00011066 -9.94381e-20
-0.000173769 8.91277e-05 3.70934e-20
-0.000180918 -8.29997e-05 -1.8878e-19
0.000249691 0.000149398 4.67651e-21
0.000249484 -0.000104772 -2.06912e-19
0.000110244 0.000374491 2.11147e-19
-7.25137e-05 -0.000426124 -4.45847e-19
-0.00016262 4.7328e-05 1.01927e-19
-0.000176278 -4.28093e-05 -3.52623e-19
-7.77208e-06 -0.000597296 -1.91386e-19
7.03601e-05 0.000635363 -2.97783e-19
0.00062508 2.46849e-05 -1.82621e-19
-0.000602318 -7.37242e-05 2.09291e-19
0.000233412 0.00027957 4.42419e-20
0.000287159 -0.000268368 -3.22933e-19
-0.000220054 0.000139656 9.49357e-20
-0.000296808 -3.91173e-05 -2.93417e-19
-0.000287591 4.54767e-05 4.07718e-20
-0.000234382 -0.00013993 -7.60726e-20
0.000202882 -0.000298459 -6.05226e-20
0.000220304 0.000341216 -3.60485e-19
0.000306986 -0.000147899 -2.3467e-19
-0.000186077 0.000303024 -1.23628e-19
-5.66372e-05 -0.000268948 6.27738e-20
0.000306798 0.000194022 -2.55848e-19
-7.35741e-05 0.000207004 -1.53335e-19
0.000205929 -0.000167796 -2.62346e-19
5.39087e-05 -0.000555095 -7.86865e-19
2.43601e-05 0.00046211 1.65699e-19
0.000327406 0.000376543 1.57217e-19
0.000396889 -0.00039616 6.5182e-20
2.55335e-05 -6.45196e-05 -1.57535e-19
-3.48096e-05 0.00031816 -4.28318e-20
-2.46873e-05 -0.000303235 -3.72658e-19
7.91831e-05 0.000184903 1.51971e-19
-5.8026e-05 -0.000186584 -6.09515e-19
9.3905e-06 0.000260837 -7.46717e-21
1.65512e-05 -0.000244135 -1.97275e-19
-0.00034894 -0.000190295 2.83732e-21
-2.85024e-05 -0.000261054 -2.49332e-19
7.40396e-05 0.000291357 7.4947e-20
-0.000159935 -0.000109069 -3.74625e-19
-0.000391805 0.000283859 3.09897e-20
9.94017e-05 0.000158178 4.02323e-20
-2.46873e-05 -0.000303235 -1.42682e-19
-0.000173769 8.91277e-05 -2.22369e-19
0.000341682 0.000219607 -5.02818e-20
0.000451128 -0.000172578 -6.0492e-19
0.000306798 0.000194022 5.11696e-20
0.000172142 0.000241324 1.30143e-19
0.00019432 -0.000210559 -1.13578e-19
0.000425747 0.000168418 1.41654e-19
0.000355133 0.000215414 -1.48849e-19
0.000589921 -0.000189287 -3.85324e-19
0.000455318 -0.000171273 -6.01003e-19
-3.40536e-05 0.00014872 -7.34903e-20
0.000209911 0.000184657 9.58405e-20
0.000211702 -0.00011066 -2.01301e-19
0.000281373 0.000467816 2.36666e-19
-0.000288684 -0.000540154 -1.01562e-19
-2.06286e-05 -4.97637e-05 -4.86317e-19
0.000306986 -0.000147899 -5.47205e-20
0.000225209 6.39668e-05 -3.99944e-20
-0.000184197 5.73028e-05 -9.71402e-20
-0.000159935 -0.000109069 3.17841e-20
-0.000612607 -1.08035e-05 -2.53295e-19
-0.000595352 1.41422e-05 2.1408e-21
-3.11642e-05 0.00016688 8.09995e-21
-0.000234382 -0.00013993 -1.43506e-19
0.000163922 0.000202443 -2.06152e-19
-7.77208e-06 -0.000597296 -1.61759e-19
7.03601e-05 0.000635363 1.97695e-19
-0.000602318 -7.37242e-05 -2.6845e-19
0.00062508 2.46849e-05 2.82709e-19
0.000141472 -0.00013747 -1.04178e-19
-0.000207114 0.000136286 -1.1001e-20
3.6207e-05 0.000194906 1.91571e-19
4.14552e-05 -0.000166759 -3.79858e-19
-0.000876698 0.000722126 3.04584e-19
-2.85024e-05 -0.000261054 -4.05504e-19
-4.56111e-05 -0.000557647 2.51789e-19
0.000587563 5.95288e-05 -4.1343e-19
-3.40536e-05 0.00014872 1.78556e-19
9.3905e-06 0.000260837 -1.05049e-19
-0.000184197 5.73028e-05 -7.58348e-20
7.40396e-05 0.000291357 -3.42115e-19
-0.00034894 -0.000190295 -4.47176e-20
0.000233412 0.00027957 -2.07194e-20
0.000287159 -0.000268368 -3.89984e-19
0.000185939 6.73508e-05 -5.13437e-20
0.000189579 8.41372e-05 -2.31815e-19
1.65512e-05 -0.000244135 -6.38356e-20
-0.000234382 -0.00013993 -1.03749e-19
-2.06286e-05 -4.97637e-05 -6.32881e-19
-0.00016262 4.7328e-05 7.81497e-20
-0.000176278 -4.28093e-05 -1.42142e-19
-0.000173769 8.91277e-05 1.21933e-19
0.000881709 -0.000677817 -3.66354e-19
-7.77208e-06 -0.000597296 -1.00175e-19
2.73537e-05 0.000584088 -3.2454e-19
0.00062508 2.46849e-05 1.06442e-20
0.000202882 -0.000298459 -3.2103e-19
0.000220304 0.000341216 -1.03877e-19
0.000209911 0.000184657 -7.87825e-20
-0.000391805 0.000283859 2.08467e-19
0.000211702 -0.00011066 -1.11136e-19
0.000224347 0.000162411 -5.56424e-21
0.000250417 -7.9863e-05 -2.88566e-19
0.000306986 -0.000147899 2.86918e-20
0.000306798 0.000194022 -1.07474e-19
-0.00072077 0.000900964 -3.17653e-19
-0.000876698 0.000722126 2.12659e-19
-0.000176278 -4.28093e-05 -1.97878e-19
-0.00016262 4.7328e-05 -3.33217e-20
-7.25137e-05 -0.000426124 2.52645e-19
0.000110244 0.000374491 -2.88193e-20

CELL_DATA 2380
TENSORS stress float
0.0309576 5.12794 -1.05687e-11
5.12794 7.05443 -5.10436e-12
-1.05687e-11 -5.10436e-12 0.18494

-2.29715 3.41096 -2.33603e-11
3.41096 3.48301 3.15818e-11
-2.33603e-11 3.15818e-11 -0.969066

-2.3868 2.73531 -1.32758e-11
2.73531 3.16487 -1.5406e-11
-1.32758e-11 -1.5406e-11 -0.989542

6.61008 1.49874 4.81422e-12
1.49874 -5.71049 -1.32848e-11
4.81422e-12 -1.32848e-11 -0.754614

8.85509 0.594276 5.12356e-11
0.594276 -2.79316 -4.99774e-12
5.12356e-11 -4.99774e-12 0.00684951

-7.59736 3.225 -2.23252e-11
3.225 -1.73497 -3.52428e-11
-2.23252e-11 -3.52428e-11 -3.93569

-7.73507 2.9901 -1.57779e-11
2.9901 -1.80291 1.11687e-11
-1.57779e-11 1.11687e-11 -3.91761

9.11172 -0.751001 4.38207e-11
-0.751001 -2.42253 2.56843e-12
4.38207e-11 2.56843e-12 0.153315

5.99671 0.122867 4.38143e-11
0.122867 -8.85648 -2.25289e-11
4.38143e-11 -2.25289e-11 -1.24682

2.47294 4.98293 -1.89972e-11
4.98293 10.1643 1.18946e-11
-1.89972e-11 1.18946e-11 0.63374

3.13287 -5.32858 -7.48838e-12
-5.32858 10.6915 6.11718e-12
-7.48838e-12 6.11718e-12 0.834984

9.49126 5.15606 1.33413e-11
5.15606 4.0099 -1.86591e-11
1.33413e-11 -1.86591e-11 0.723457

-4.31084 -4.21861 -4.06058e-11
-4.21861 -0.655201 -1.77163e-11
-4.06058e-11 -1.77163e-11 -3.08145

-4.39639 -4.77408 -9.36418e-12
-4.77408 -0.250048 9.72511e-12
-9.36418e-12 9.72511e-12 -3.12245

-3.71164 4.84972 1.22613e-12
4.84972 4.56851 -1.8104e-11
1.22613e-12 -1.8104e-11 -0.787403

-5.31073 5.80674 -1.70432e-11
5.80674 2.87586 -7.12645e-12
-1.70432e-11 -7.12645e-12 -1.18808

-7.84261 -2.20693 -3.03167e-12
-2.20693 -1.96909 -3.12933e-11
-3.03167e-12 -3.12933e-11 -4.0255

-7.81305 -2.38282 -1.75483e-11
-2.38282 -1.92408 -6.93171e-12
-1.75483e-11 -6.93171e-12 -4.05336

4.50315 2.21253 4.00586e-11
2.21253 -2.7892 -5.77424e-12
4.00586e-11 -5.77424e-12 -0.555808

2.15034 1.92798 7.17463e-12
1.92798 12.4059 5.8753e-12
7.17463e-12 5.8753e-12 1.17137

2.37574 -1.84389 -3.20166e-12
-1.84389 12.7717 -1.72875e-11
-3.20166e-12 -1.72875e-11 1.27524

11.6285 1.58153 9.53637e-12
1.58153 4.50101 -3.26713e-11
9.53637e-12 -3.26713e-11 1.41471

0.0713279 5.72807 3.41964e-12
5.72807 5.59407 7.89665e-12
3.41964e-12 7.89665e-12 -0.102055

7.88933 -2.92958 -4.06923e-11
-2.92958 -1.52093 -8.52033e-12
-4.06923e-11 -8.52033e-12 -0.183596

1.08202 5.25679 4.06392e-11
5.25679 2.85404 1.30992e-11
4.06392e-11 1.30992e-11 -0.235128

0.105403 5.72619 1.86817e-11
5.72619 7.2649 -2.13788e-11
1.86817e-11 -2.13788e-11 0.171473

6.94932 -1.24022 -1.71429e-11
-1.24022 -6.12798 2.38829e-11
-1.71429e-11 2.38829e-11 -0.726861

8.92936 4.43463 -1.87946e-11
4.43463 17.3745 -2.52687e-12
-1.87946e-11 -2.52687e-12 3.24781

5.4038 0.551191 -4.61263e-11
0.551191 -8.88096 1.95397e-11
-4.61263e-11 1.95397e-11 -1.38127

15.9799 4.44492 -2.75969e-11
4.44492 10.4958 -1.80755e-11
-2.75969e-11 -1.80755e-11 3.25561

-3.90674 0.7008 1.07112e-11
0.7008 -1.28623 -9.82074e-12
1.07112e-11 -9.82074e-12 -3.91526

-3.90323 0.239233 -2.29386e-13
0.239233 -1.39068 -5.00614e-12
-2.29386e-13 -5.00614e-12 -3.92965

-7.49694 2.49681 -3.71613e-11
2.49681 -12.1115 1.09726e-11
-3.71613e-11 1.09726e-11 -11.8606

-7.53277 -2.39508 4.35167e-11
-2.39508 -12.0978 1.51155e-11
4.35167e-11 1.51155e-11 -11.9737

13.013 -1.85621 -3.09178e-11
-1.85621 3.20283 -1.39415e-11
-3.09178e-11 -1.39415e-11 1.49058

-2.42233 5.65093 -1.01149e-11
5.65093 1.83938 -5.35403e-11
-1.01149e-11 -5.35403e-11 -0.989462

-2.3795 1.03812 -2.50363e-12
1.03812 -4.79608 -4.91055e-12
-2.50363e-12 -4.91055e-12 -4.20469

-2.82111 -0.943621 2.773e-11
-0.943621 -5.09565 -2.89808e-11
2.773e-11 -2.89808e-11 -4.50379

6.66844 0.0127938 2.31185e-12
0.0127938 -9.64949 9.49452e-12
2.31185e-12 9.49452e-12 -1.13947

-0.418339 6.19833 -2.1956e-11
6.19833 7.16027 6.93216e-12
-2.1956e-11 6.93216e-12 0.01454

7.19516 -3.79311 -3.44299e-11
-3.79311 1.84499 -3.75181e-12
-3.44299e-11 -3.75181e-12 0.428723

7.03173 -0.365267 2.10904e-11
-0.365267 -9.65234 -5.2113e-12
2.10904e-11 -5.2113e-12 -0.972627

0.066469 -5.74 3.75556e-11
-5.74 5.8959 1.47321e-11
3.75556e-11 1.47321e-11 -0.0893157

0.076328 -4.91825 -2.3423e-11
-4.91825 7.1945 -2.49415e-11
-2.3423e-11 -2.49415e-11 0.206262

-4.78834 6.52945 -2.42159e-11
6.52945 3.44184 -1.40613e-11
-2.42159e-11 -1.40613e-11 -1.09642

5.86292 -6.12654 -6.8856e-12
-6.12654 3.5763 8.52348e-12
-6.8856e-12 8.52348e-12 0.304936

8.06837 12.5143 3.52311e-14
12.5143 16.686 -1.38514e-11
3.52311e-14 -1.38514e-11 3.98257

15.7045 12.3663 -4.31299e-12
12.3663 8.98278 2.27969e-11
-4.31299e-12 2.27969e-11 3.97317

-6.85719 -5.83587 3.72595e-11
-5.83587 0.398744 5.19866e-12
3.72595e-11 5.19866e-12 -2.45003

11.5843 5.25009 -1.35577e-11
5.25009 22.1426 -2.99411e-11
-1.35577e-11 -2.99411e-11 5.26046

20.0296 4.70506 3.75285e-11
4.70506 12.3559 2.68526e-13
3.75285e-11 2.68526e-13 5.00111

-4.93472 -4.10098 1.04943e-11
-4.10098 -1.39401 -2.99438e-11
1.04943e-11 -2.99438e-11 -3.55373

-4.9551 4.08564 4.50586e-11
4.08564 -1.44106 3.56697e-12
4.50586e-11 3.56697e-12 -3.55361

4.98463 0.118542 -9.72511e-12
0.118542 -4.08234 3.55851e-11
-9.72511e-12 3.55851e-11 -0.425586

-5.52773 -3.57452 2.87886e-11
-3.57452 -3.09517 6.23575e-13
2.87886e-11 6.23575e-13 -4.0186

-5.54339 3.56354 7.5288e-11
3.56354 -3.11048 6.04674e-11
7.5288e-11 6.04674e-11 -4.01095

-3.4644 5.72679 2.29628e-11
5.72679 5.22045 -4.56452e-11
2.29628e-11 -4.56452e-11 -0.697065

-4.51448 2.34038 5.31467e-11
2.34038 -11.6819 2.31171e-12
5.31467e-11 2.31171e-12 -9.37703

-4.49377 -2.32298 -1.91791e-13
-2.32298 -11.765 2.40881e-12
-1.91791e-13 2.40881e-12 -9.44868

-2.95862 -4.73228 7.02964e-12
-4.73228 -0.493819 1.03991e-11
7.02964e-12 1.03991e-11 -1.89882

-3.00714 4.70348 -9.24416e-12
4.70348 -0.521057 3.12939e-12
-9.24416e-12 3.12939e-12 -1.8978

10.3483 -5.08782 3.64579e-11
-5.08782 3.65937 2.63388e-11
3.64579e-11 2.63388e-11 0.864002

-10.603 2.28543 1.31407e-11
2.28543 -4.65478 2.52257e-11
1.31407e-11 2.52257e-11 -9.0366

-10.6258 1.80711 4.44089e-12
1.80711 -4.58811 4.04495e-12
4.44089e-12 4.04495e-12 -8.98714

-0.54203 -6.31578 2.98509e-12
-6.31578 7.18443 3.36982e-12
2.98509e-12 3.36982e-12 -0.00637157

8.70567 -4.1814 5.91941e-12
-4.1814 18.8249 1.06928e-11
5.91941e-12 1.06928e-11 3.49507

17.9773 -4.14437 2.79818e-11
-4.14437 9.22726 2.4554e-11
2.79818e-11 2.4554e-11 3.46024

-5.02058 4.98726 3.19904e-11
4.98726 3.66348 -9.82022e-12
3.19904e-11 -9.82022e-12 -1.27451

-5.14753 4.63682 -2.65195e-13
4.63682 3.02543 -8.08879e-12
-2.65195e-13 -8.08879e-12 -1.33049

-11.4023 -6.91615 6.62413e-11
-6.91615 -16.0209 -4.97714e-11
6.62413e-11 -4.97714e-11 -14.6542

-11.4045 6.91418 2.33357e-10
6.91418 -16.0086 2.68674e-14
2.33357e-10 2.68674e-14 -14.6438

-5.2051 7.06695 -1.44204e-12
7.06695 2.45266 1.89705e-11
-1.44204e-12 1.89705e-11 -1.10581

0.450298 3.47913 -1.02065e-11
3.47913 -2.34476 -1.25187e-11
-1.02065e-11 -1.25187e-11 -1.2965

0.598653 -3.54003 -1.23248e-11
-3.54003 -2.36378 5.96974e-12
-1.23248e-11 5.96974e-12 -1.29741

-5.21055 6.75564 3.7071e-11
6.75564 1.03909 1.67577e-11
3.7071e-11 1.67577e-11 -1.56124

-6.61048 -6.17349 1.80521e-11
-6.17349 0.922287 1.0878e-11
1.80521e-11 1.0878e-11 -2.42771

12.3032 -0.0701113 -2.00832e-11
-0.0701113 0.873877 -9.58252e-12
-2.00832e-11 -9.58252e-12 0.865024

9.81521 2.7604 -8.91095e-12
2.7604 -0.515507 1.12914e-11
-8.91095e-12 1.12914e-11 0.362609

-1.41984 1.12279 -5.58487e-12
1.12279 -8.91514 -3.27272e-12
-5.58487e-12 -3.27272e-12 -4.20243

-14.0864 -1.73063 -1.44433e-11
-1.73063 -14.9789 1.02068e-11
-1.44433e-11 1.02068e-11 -15.7608

-13.9893 1.48979 7.22046e-11
1.48979 -14.7629 -3.46578e-12
7.22046e-11 -3.46578e-12 -15.6111

6.44771 5.11236 4.06441e-11
5.11236 9.03544 2.48518e-11
4.06441e-11 2.48518e-11 1.33791

1.8333 -4.46235 -4.91192e-12
-4.46235 -0.372371 -4.04365e-12
-4.91192e-12 -4.04365e-12 -0.836375

4.7062 2.67788 4.33314e-11
2.67788 -0.983891 1.05441e-11
4.33314e-11 1.05441e-11 -0.205951

-12.6444 1.46084 -7.55035e-11
1.46084 -8.51231 -1.34832e-11
-7.55035e-11 -1.34832e-11 -11.874

-12.6081 1.24433 -4.04877e-11
1.24433 -8.47313 -2.69576e-11
-4.04877e-11 -2.69576e-11 -11.88

-1.89338 -0.823527 2.14727e-11
-0.823527 -8.9752 2.28185e-11
2.14727e-11 2.28185e-11 -4.49314

-2.62454 -1.74353 1.11449e-11
-1.74353 3.16169 7.80013e-12
1.11449e-11 7.80013e-12 -1.18331

-2.61876 -2.37306 -1.10001e-11
-2.37306 3.3705 3.659e-12
-1.10001e-11 3.659e-12 -1.18062

2.78743 -1.64427 3.85218e-12
-1.64427 -4.96386 -2.52738e-11
3.85218e-12 -2.52738e-11 -0.939185

2.74728 1.66278 -1.23248e-11
1.66278 -5.09673 4.69379e-12
-1.23248e-11 4.69379e-12 -0.948974

8.32358 -5.07383 -2.21039e-11
-5.07383 8.16909 -2.09447e-11
-2.21039e-11 -2.09447e-11 1.43215

7.44878 0.316486 -1.60806e-11
0.316486 -0.38625 -2.48593e-11
-1.60806e-11 -2.48593e-11 0.213469

-0.357372 -2.49315 6.21148e-12
-2.49315 -4.84708 3.94747e-12
6.21148e-12 3.94747e-12 -2.05165

-0.439422 2.46968 1.08799e-11
2.46968 -4.83256 1.60308e-11
1.08799e-11 1.60308e-11 -2.04361

4.7811 -2.77894 -1.60828e-11
-2.77894 -0.75284 9.19675e-12
-1.60828e-11 9.19675e-12 -0.171535

-0.0129034 -5.75144 8.28212e-12
-5.75144 7.53918 4.71771e-12
8.28212e-12 4.71771e-12 0.209617

2.99114 -1.8514 -7.7988e-12
-1.8514 -3.83132 5.87289e-12
-7.7988e-12 5.87289e-12 -0.939999

2.92542 1.8683 1.77155e-11
1.8683 -3.97973 -1.31888e-11
1.77155e-11 -1.31888e-11 -0.952262

5.32109 -1.21374 -2.87622e-13
-1.21374 -4.1232 -4.02011e-11
-2.87622e-13 -4.02011e-11 -0.669486

-4.56349 8.07003 -1.57899e-11
8.07003 2.88406 -1.83209e-12
-1.57899e-11 -1.83209e-12 -1.05868

5.78647 4.44864 -2.09012e-11
4.44864 3.79547 -5.73962e-11
-2.09012e-11 -5.73962e-11 0.557314

-5.61142 6.82819 3.56023e-12
6.82819 2.57795 -2.33022e-11
3.56023e-12 -2.33022e-11 -1.18629

-5.08076 7.62453 3.12915e-12
7.62453 3.3524 1.92631e-12
3.12915e-12 1.92631e-12 -1.04353

7.36858 3.3024 -1.38729e-11
3.3024 0.151086 -5.61199e-11
-1.38729e-11 -5.61199e-11 0.00688565

-0.539092 -2.73235 1.17442e-11
-2.73235 -4.56058 4.57862e-11
1.17442e-11 4.57862e-11 -2.13271

5.65421 1.49502 -1.3578e-11
1.49502 -3.09579 -4.60281e-11
-1.3578e-11 -4.60281e-11 -0.434605

2.59762 5.62801 -3.47709e-11
5.62801 4.06502 -6.13037e-11
-3.47709e-11 -6.13037e-11 -0.1642

1.48157 4.56909 3.91958e-11
4.56909 -0.333731 9.29471e-12
3.91958e-11 9.29471e-12 -0.899719

-6.36373 0.395164 1.43472e-11
0.395164 2.13517 -6.74127e-13
1.43472e-11 -6.74127e-13 -2.06846

-6.30418 0.625462 -4.99977e-11
0.625462 2.15448 3.12951e-11
-4.99977e-11 3.12951e-11 -2.06285

9.18826 -5.73851 -3.2028e-11
-5.73851 4.63681 3.48085e-11
-3.2028e-11 3.48085e-11 0.812618

-5.27105 -6.80868 -1.80069e-11
-6.80868 1.03906 1.33854e-11
-1.80069e-11 1.33854e-11 -1.57203

2.74615 -6.72585 2.46048e-11
-6.72585 7.32849 1.63204e-11
2.46048e-11 1.63204e-11 0.419879

2.77027 6.88899 -2.08507e-11
6.88899 7.24063 -1.61345e-11
-2.08507e-11 -1.61345e-11 0.416543

4.27433 -2.50472 3.80376e-11
-2.50472 -1.86754 -6.93194e-12
3.80376e-11 -6.93194e-12 -0.532887

3.71553 -0.374027 -7.31855e-12
-0.374027 -11.3926 -3.60937e-12
-7.31855e-12 -3.60937e-12 -2.50685

4.03419 0.418468 2.33033e-11
0.418468 -11.0101 -3.13038e-12
2.33033e-11 -3.13038e-12 -2.31711

-1.3251 3.65401 -1.80792e-11
3.65401 7.69805 2.52342e-11
-1.80792e-11 2.52342e-11 -0.188022

1.25957 -5.52934 1.21299e-11
-5.52934 2.90293 1.46363e-11
1.21299e-11 1.46363e-11 -0.225287

-0.929371 -0.123399 2.58225e-11
-0.123399 12.1839 2.05181e-11
2.58225e-11 2.05181e-11 0.375719

-0.788006 0.271589 -6.81615e-11
0.271589 12.5003 1.39172e-11
-6.81615e-11 1.39172e-11 0.471514

11.8439 -0.0445109 1.09814e-11
-0.0445109 0.952128 -1.02815e-11
1.09814e-11 -1.02815e-11 0.657348

8.43366 5.38761 3.95353e-11
5.38761 8.55427 3.37117e-11
3.95353e-11 3.37117e-11 1.5282

4.25104 -6.31752 8.95935e-12
-6.31752 3.51781 -4.91168e-11
8.95935e-12 -4.91168e-11 -0.0491599

-17.6335 -3.09855 2.08825e-12
-3.09855 -10.916 -3.87038e-11
2.08825e-12 -3.87038e-11 -16.4249

-17.562 -2.85801 1.22825e-10
-2.85801 -10.8858 -2.04154e-11
1.22825e-10 -2.04154e-11 -16.3653

7.41588 -3.23589 1.85874e-11
-3.23589 -0.157248 1.90183e-11
1.85874e-11 1.90183e-11 -0.0269306

-3.12387 7.49788 6.49873e-12
7.49788 5.09157 -1.95467e-11
6.49873e-12 -1.95467e-11 -0.431534

5.11416 -0.198444 -2.70588e-11
-0.198444 -4.03191 -1.65223e-11
-2.70588e-11 -1.65223e-11 -0.404386

-1.43755 -3.59579 1.62031e-11
-3.59579 7.97097 -2.53314e-11
1.62031e-11 -2.53314e-11 -0.157435

-6.53661 6.71184 1.35531e-11
6.71184 1.3869 4.50658e-11
1.35531e-11 4.50658e-11 -2.14243

-7.05625 6.31706 -7.68015e-13
6.31706 0.872211 1.9644e-11
-7.68015e-13 1.9644e-11 -2.192

-4.55596 -8.05452 8.95721e-12
-8.05452 2.84756 -1.45399e-11
8.95721e-12 -1.45399e-11 -1.08058

-5.2209 7.76661 -6.3561e-12
7.76661 3.84349 -2.27256e-11
-6.3561e-12 -2.27256e-11 -0.87771

-3.42189 6.55463 -2.72048e-11
6.55463 4.22236 -2.53269e-11
-2.72048e-11 -2.53269e-11 -0.533758

2.96077 0.0145678 4.39048e-11
0.0145678 -5.78315 8.8363e-13
4.39048e-11 8.8363e-13 -0.616179

4.68229 6.19974 4.82133e-13
6.19974 3.30393 3.33205e-11
4.82133e-13 3.33205e-11 -0.011556

-5.61829 -6.88668 1.03057e-11
-6.88668 2.5262 -4.56433e-11
1.03057e-11 -4.56433e-11 -1.20272

3.40214 5.41819 -4.08322e-11
5.41819 5.86795 -2.22015e-11
-4.08322e-11 -2.22015e-11 0.387474

6.4972 -4.67824 6.69848e-11
-4.67824 9.7384 1.09259e-11
6.69848e-11 1.09259e-11 1.42504

-2.47524 -5.72555 1.90662e-13
-5.72555 2.07946 3.09108e-11
1.90662e-13 3.09108e-11 -0.963555

2.15811 -3.26416 -1.3206e-11
-3.26416 12.6849 5.35053e-11
-1.3206e-11 5.35053e-11 1.22735

2.09374 3.18196 8.56063e-12
3.18196 12.567 4.89774e-11
8.56063e-12 4.89774e-11 1.1912

11.2568 -2.24182 7.21201e-13
-2.24182 4.63554 3.26339e-11
7.21201e-13 3.26339e-11 1.40539

3.52427 -5.56651 1.15848e-12
-5.56651 6.00656 -1.68561e-11
1.15848e-12 -1.68561e-11 0.413859

-0.690915 0.862921 -1.75737e-11
0.862921 7.91672 -2.00323e-11
-1.75737e-11 -2.00323e-11 0.193765

-0.706615 -0.0101718 1.45993e-11
-0.0101718 7.81087 -3.07214e-11
1.45993e-11 -3.07214e-11 0.176364

5.4102 -6.42578 -1.62294e-11
-6.42578 9.45801 1.98409e-11
-1.62294e-11 1.98409e-11 0.999736

4.7251 6.50514 2.8414e-11
6.50514 9.31079 5.67799e-11
2.8414e-11 5.67799e-11 0.861233

3.0572 -0.573948 1.94493e-11
-0.573948 -6.87678 -2.3418e-11
1.94493e-11 -2.3418e-11 -1.00553

3.05046 0.601589 2.46494e-11
0.601589 -6.90713 1.54766e-11
2.46494e-11 1.54766e-11 -1.00163

-3.11458 7.06778 -1.00133e-11
7.06778 4.50858 7.99131e-12
-1.00133e-11 7.99131e-12 -0.512856

-6.7072 -6.42816 -7.51262e-12
-6.42816 1.40727 1.36725e-11
-7.51262e-12 1.36725e-11 -1.9164

-2.98428 4.68106 3.52408e-11
4.68106 -0.515816 -3.29305e-11
3.52408e-11 -3.29305e-11 -1.70221

13.2234 5.18425 -1.10812e-11
5.18425 6.46633 -4.23926e-11
-1.10812e-11 -4.23926e-11 2.00697

-1.40657 4.43484 -1.4566e-11
4.43484 8.91406 -1.89753e-11
-1.4566e-11 -1.89753e-11 0.0123132

-2.40326 3.09856 -1.51166e-11
3.09856 -2.76608 -3.80296e-12
-1.51166e-11 -3.80296e-12 -2.56037

-2.35412 -3.12098 -1.77158e-11
-3.12098 -2.72326 2.44555e-11
-1.77158e-11 2.44555e-11 -2.55741

1.03929 -4.22608 -7.79998e-12
-4.22608 0.209465 3.67829e-11
-7.79998e-12 3.67829e-11 -0.78941

0.961221 4.1929 -1.59814e-11
4.1929 0.161761 1.95457e-11
-1.59814e-11 1.95457e-11 -0.797057

14.5886 1.38511 -2.75485e-11
1.38511 31.2275 1.54359e-11
-2.75485e-11 1.54359e-11 7.67568

29.357 1.43372 -2.88084e-11
1.43372 16.143 1.40773e-11
-2.88084e-11 1.40773e-11 7.61597

-1.84421 -4.20786 -3.92375e-12
-4.20786 8.84798 -2.11816e-12
-3.92375e-12 -2.11816e-12 -0.0813665

-7.01265 -3.35981 -6.95089e-11
-3.35981 -6.1251 4.70825e-11
-6.95089e-11 4.70825e-11 -6.95239

-7.02876 3.37073 -8.02885e-11
3.37073 -6.12492 -2.47474e-11
-8.02885e-11 -2.47474e-11 -6.94405

2.19809 5.15424 -3.83841e-13
5.15424 2.42461 1.55049e-11
-3.83841e-13 1.55049e-11 -0.194449

15.2474 2.82444 -4.26728e-11
2.82444 4.17702 -7.27437e-12
-4.26728e-11 -7.27437e-12 1.95797

7.45222 -0.537883 -2.19578e-11
-0.537883 -0.353905 -1.54088e-11
-2.19578e-11 -1.54088e-11 0.214948

-5.39878 -3.69934 -2.97347e-12
-3.69934 2.64967 1.31919e-11
-2.97347e-12 1.31919e-11 -1.59794

-5.21512 -4.04726 4.26067e-12
-4.04726 2.90316 1.99326e-11
4.26067e-12 1.99326e-11 -1.59218

3.34678 -6.12263 -7.7592e-12
-6.12263 5.60207 7.46881e-11
-7.7592e-12 7.46881e-11 0.232334

-5.26737 -7.79945 1.40586e-11
-7.79945 3.8691 -2.00302e-11
1.40586e-11 -2.00302e-11 -0.898724

2.29172 -5.20984 -1.79113e-11
-5.20984 2.59831 3.45699e-11
-1.79113e-11 3.45699e-11 -0.164044

-6.02213 7.46969 -2.90752e-11
7.46969 2.53443 1.73309e-11
-2.90752e-11 1.73309e-11 -1.07134

-4.77774 5.39976 9.52042e-12
5.39976 -0.431447 9.24335e-12
9.52042e-12 9.24335e-12 -3.21365

-4.66288 4.90434 -1.33074e-11
4.90434 -1.01083 3.31221e-11
-1.33074e-11 3.31221e-11 -3.1908

-3.27302 -7.09884 1.14101e-11
-7.09884 4.54442 -5.68397e-12
1.14101e-11 -5.68397e-12 -0.54465

-3.14378 6.40715 -2.85024e-11
6.40715 3.66814 6.64424e-12
-2.85024e-11 6.64424e-12 -0.589777

7.80682 4.43649 -2.11372e-11
4.43649 1.08293 3.61618e-11
-2.11372e-11 3.61618e-11 0.241141

-5.22744 8.22079 -2.12793e-11
8.22079 3.41204 -1.56019e-11
-2.12793e-11 -1.56019e-11 -0.872937

-3.84283 -5.02474 -2.82614e-11
-5.02474 4.71933 -3.753e-12
-2.82614e-11 -3.753e-12 -0.788129

-3.36777 1.95712 -1.19662e-11
1.95712 6.93603 -2.97589e-11
-1.19662e-11 -2.97589e-11 -0.561828

-1.30551 5.97022 9.24594e-12
5.97022 1.31837 2.2532e-11
9.24594e-12 2.2532e-11 -1.01232

-2.9387 2.51475 -2.63377e-11
2.51475 6.98715 -3.03375e-11
-2.63377e-11 -3.03375e-11 -0.487893

-6.07315 -6.97647 -2.67195e-11
-6.97647 2.0021 3.71695e-11
-2.67195e-11 3.71695e-11 -1.82704

11.5117 -5.99563 -1.7638e-11
-5.99563 12.1751 -3.04879e-11
-1.7638e-11 -3.04879e-11 2.86983

11.821 -6.06117 6.10051e-11
-6.06117 11.8534 2.95059e-11
6.10051e-11 2.95059e-11 2.87977

-1.2802 -6.0057 -2.02219e-11
-6.0057 1.34788 5.12296e-11
-2.02219e-11 5.12296e-11 -1.01897

4.5085 -2.27056 -6.73994e-12
-2.27056 -2.71779 9.32269e-12
-6.73994e-12 9.32269e-12 -0.560897

-8.93764 7.11955 1.40743e-10
7.11955 -12.1469 2.90394e-12
1.40743e-10 2.90394e-12 -12.1122

-8.93697 -7.12019 1.22069e-10
-7.12019 -12.1462 7.64159e-11
1.22069e-10 7.64159e-11 -12.1205

-3.36269 -7.45202 -4.0925e-12
-7.45202 5.01107 -4.04447e-12
-4.0925e-12 -4.04447e-12 -0.496244

-8.47925 1.56552 4.91001e-11
1.56552 -7.14076 3.17957e-12
4.91001e-11 3.17957e-12 -7.75312

-8.56279 -1.43917 -6.54696e-11
-1.43917 -7.22471 6.61446e-11
-6.54696e-11 6.61446e-11 -7.90076

8.06435 0.0983865 -2.07055e-11
0.0983865 -6.80607 -5.52521e-14
-2.07055e-11 -5.52521e-14 -0.428418

-6.00548 -7.50583 1.83909e-11
-7.50583 2.68698 -1.20386e-11
1.83909e-11 -1.20386e-11 -1.04582

9.52355 7.30603 -1.05517e-11
7.30603 10.1657 -9.166e-12
-1.05517e-11 -9.166e-12 1.91107

8.52789 6.91996 -8.38411e-12
6.91996 9.91595 -3.08521e-11
-8.38411e-12 -3.08521e-11 1.69428

6.72772 -5.19936 2.27428e-11
-5.19936 16.2878 -4.96589e-11
2.27428e-11 -4.96589e-11 2.54119

6.77503 5.45182 -2.86646e-11
5.45182 16.2448 -1.30524e-11
-2.86646e-11 -1.30524e-11 2.5631

15.5628 -4.32531 6.28579e-11
-4.32531 8.44201 -5.06072e-11
6.28579e-11 -5.06072e-11 2.73025

-5.23589 -8.25619 2.07964e-11
-8.25619 3.61763 4.61845e-12
2.07964e-11 4.61845e-12 -0.846019

2.52741 1.91573 -1.43544e-11
1.91573 17.1773 -2.57228e-11
-1.43544e-11 -2.57228e-11 1.92107

16.1261 2.44636 -1.00657e-11
2.44636 4.5011 1.38094e-11
-1.00657e-11 1.38094e-11 2.10117

-7.53238 -2.54956 -3.28289e-11
-2.54956 -3.33693 -2.94628e-11
-3.28289e-11 -2.94628e-11 -6.09718

-7.44063 -3.08638 -1.17965e-12
-3.08638 -3.3644 5.68061e-11
-1.17965e-12 5.68061e-11 -6.1605

4.24591 0.972515 1.92593e-11
0.972515 -3.71826 2.46022e-11
1.92593e-11 2.46022e-11 -0.920308

6.76304 0.0602411 7.31922e-12
0.0602411 -10.7306 -1.17958e-12
7.31922e-12 -1.17958e-12 -1.12071

1.55173 -4.71749 -1.97423e-11
-4.71749 9.95762 -2.54863e-12
-1.97423e-11 -2.54863e-12 0.488118

1.42984 4.61381 4.22304e-11
4.61381 9.90633 2.5143e-11
4.22304e-11 2.5143e-11 0.462029

7.79638 -0.000301425 -2.97581e-11
-0.000301425 -7.26303 1.56144e-11
-2.97581e-11 1.56144e-11 -0.550751

-3.67898 -5.69488 2.14008e-11
-5.69488 5.22983 -2.61964e-11
2.14008e-11 -2.61964e-11 -0.734585

-4.13916 -2.44316 -3.75566e-12
-2.44316 -4.69012 -6.34441e-11
-3.75566e-12 -6.34441e-11 -4.70796

-4.18764 2.43828 -9.91599e-12
2.43828 -4.71035 5.97386e-11
-9.91599e-12 5.97386e-11 -4.7086

-0.607988 3.35968 -1.89679e-11
3.35968 -0.0159641 8.76077e-12
-1.89679e-11 8.76077e-12 -1.27465

-3.30263 -6.37883 -4.12124e-11
-6.37883 3.68737 4.72133e-12
-4.12124e-11 4.72133e-12 -0.63286

4.57468 0.970985 3.37995e-11
0.970985 -7.6661 -3.9572e-11
3.37995e-11 -3.9572e-11 -1.47305

6.84021 5.32497 5.12859e-11
5.32497 5.84989 8.23859e-12
5.12859e-11 8.23859e-12 0.723976

-3.47964 -6.55181 -2.88854e-12
-6.55181 4.14061 -6.25877e-12
-2.88854e-12 -6.25877e-12 -0.582077

13.0993 -11.5127 -2.78879e-11
-11.5127 13.509 1.92436e-11
-2.78879e-11 1.92436e-11 4.4625

-3.09898 -1.57015 3.26204e-11
-1.57015 6.6766 4.23498e-12
3.26204e-11 4.23498e-12 -0.566841

-2.72851 -2.15092 -1.67315e-11
-2.15092 6.74119 -3.88101e-11
-1.67315e-11 -3.88101e-11 -0.504949

-8.68078 -0.507995 2.34435e-12
-0.507995 -5.65386 -2.50422e-12
2.34435e-12 -2.50422e-12 -7.49998

-8.6099 -0.292017 -2.07976e-11
-0.292017 -5.72415 5.87307e-11
-2.07976e-11 5.87307e-11 -7.50024

1.3665 -1.78728 -8.85751e-12
-1.78728 -6.08958 3.69204e-11
-8.85751e-12 3.69204e-11 -1.39582

1.31758 1.79027 4.62149e-12
1.79027 -6.10537 -2.10586e-11
4.62149e-12 -2.10586e-11 -1.39174

-4.87756 -3.51627 3.15832e-11
-3.51627 -4.08241 -4.03415e-11
3.15832e-11 -4.03415e-11 -3.65612

-4.39211 3.62816 -1.07857e-11
3.62816 -4.18514 -1.17474e-11
-1.07857e-11 -1.17474e-11 -3.47903

-7.09424 -3.11921 -5.62284e-11
-3.11921 -3.69153 4.88163e-11
-5.62284e-11 4.88163e-11 -5.96298

-7.09308 3.24678 3.21571e-11
3.24678 -3.64995 -9.33741e-12
3.21571e-11 -9.33741e-12 -5.91685

-8.91945 4.85272 -2.65684e-11
4.85272 -9.30147 2.98438e-12
-2.65684e-11 2.98438e-12 -10.1258

-8.91711 -4.84551 2.57975e-11
-4.84551 -9.29957 9.38633e-11
2.57975e-11 9.38633e-11 -10.1348

-5.3336 -8.00223 3.74551e-11
-8.00223 1.73896 -1.95512e-11
3.74551e-11 -1.95512e-11 -1.57742

-5.32125 8.02981 7.69991e-12
8.02981 1.64687 -4.2268e-11
7.69991e-12 -4.2268e-11 -1.57652

2.61817 4.78519 -1.90656e-11
4.78519 0.382609 3.29323e-11
-1.90656e-11 3.29323e-11 -0.555417

-1.664 -3.77045 4.28367e-12
-3.77045 5.82433 2.80232e-11
4.28367e-12 2.80232e-11 -0.19475

-1.77169 -4.70772 1.49248e-11
-4.70772 6.43083 -5.4411e-11
1.49248e-11 -5.4411e-11 -0.15838

9.17945 -4.76061 5.97651e-11
-4.76061 7.82928 -2.75024e-11
5.97651e-11 -2.75024e-11 1.5541

2.65232 -4.77764 -2.96597e-11
-4.77764 0.590742 7.46521e-12
-2.96597e-11 7.46521e-12 -0.529816

-1.60944 3.55807 -9.43912e-12
3.55807 5.74159 -2.43638e-11
-9.43912e-12 -2.43638e-11 -0.193411

1.06182 6.69894 6.12445e-11
6.69894 3.62039 2.3627e-12
6.12445e-11 2.3627e-12 -0.28696

-6.82352 -6.93118 -1.78111e-11
-6.93118 0.0633228 -2.53224e-11
-1.78111e-11 -2.53224e-11 -2.32779

-6.82302 6.80384 -1.74329e-11
6.80384 -0.0256983 -6.81737e-11
-1.74329e-11 -6.81737e-11 -2.36544

1.03837 -6.79924 -1.66639e-11
-6.79924 3.65444 5.73041e-11
-1.66639e-11 5.73041e-11 -0.309054

3.61269 -0.677534 3.17679e-12
-0.677534 -4.20167 4.65999e-11
3.17679e-12 4.65999e-11 -1.27757

-17.1853 1.92156 -1.70974e-13
1.92156 -13.8864 1.08407e-10
-1.70974e-13 1.08407e-10 -16.9622

-17.0479 1.68832 -1.1081e-10
1.68832 -14.0084 -4.23632e-11
-1.1081e-10 -4.23632e-11 -16.9375

-3.38563 -5.96911 1.80523e-11
-5.96911 3.63568 1.12632e-11
1.80523e-11 1.12632e-11 -0.957612

-0.344977 2.92504 1.19414e-11
2.92504 -4.14351 3.16807e-11
1.19414e-11 3.16807e-11 -1.93718

1.58752 -0.716657 1.61747e-11
-0.716657 -8.41974 -1.81971e-11
1.61747e-11 -1.81971e-11 -3.61516

11.558 -6.42863 2.11188e-11
-6.42863 12.5458 2.52622e-11
2.11188e-11 2.52622e-11 2.86032

11.6105 -6.27883 -2.16656e-12
-6.27883 12.4712 -4.58532e-11
-2.16656e-12 -4.58532e-11 2.85463

0.812175 -2.01789 -3.21575e-11
-2.01789 -6.83872 1.96161e-11
-3.21575e-11 1.96161e-11 -2.15849

0.721794 2.05154 -1.42489e-11
2.05154 -6.83711 -7.19676e-12
-1.42489e-11 -7.19676e-12 -2.15472

1.39629 0.589569 -3.8447e-13
0.589569 -8.44343 1.07367e-11
-3.8447e-13 1.07367e-11 -3.77113

-1.64679 4.67363 9.60354e-12
4.67363 6.29731 -1.72373e-11
9.60354e-12 -1.72373e-11 -0.15114

6.98517 3.68608 -2.06069e-11
3.68608 3.02896 4.18393e-11
-2.06069e-11 4.18393e-11 0.598592

-2.6233 -5.32574 3.04262e-11
-5.32574 1.08345 -1.21338e-11
3.04262e-11 -1.21338e-11 -1.53927

-2.663 5.28442 -3.42761e-11
5.28442 1.05996 -6.60545e-11
-3.42761e-11 -6.60545e-11 -1.53732

-14.0113 -0.964606 7.12345e-12
-0.964606 -19.1749 4.42009e-11
7.12345e-12 4.42009e-11 -17.4486

-13.8385 0.975258 -1.69441e-11
0.975258 -18.3813 1.07959e-11
-1.69441e-11 1.07959e-11 -17.1529

-5.16246 -6.84066 -1.04941e-11
-6.84066 3.36812 -1.5984e-11
-1.04941e-11 -1.5984e-11 -1.1043

4.95837 2.937 -3.75568e-11
2.937 -0.907741 -1.48299e-11
-3.75568e-11 -1.48299e-11 -0.218326

-0.82757 2.04021 2.31082e-11
2.04021 -3.34561 -4.42368e-11
2.31082e-11 -4.42368e-11 -2.33035

-0.760982 -2.05068 -2.22394e-11
-2.05068 -3.33102 2.09415e-11
-2.22394e-11 2.09415e-11 -2.33036

-3.50461 -5.30879 2.01222e-11
-5.30879 2.94939 1.28063e-11
2.01222e-11 1.28063e-11 -1.00749

-5.39466 -7.29914 -1.42487e-11
-7.29914 2.7508 -1.29024e-11
-1.42487e-11 -1.29024e-11 -1.00679

13.2222 -11.9371 2.76999e-11
-11.9371 13.8575 -5.57036e-12
2.76999e-11 -5.57036e-12 4.53034

-6.98796 4.9777 -3.49492e-11
4.9777 -0.00854974 -2.21685e-12
-3.49492e-11 -2.21685e-12 -3.21826

-7.07525 -5.05278 4.6307e-11
-5.05278 0.0127799 3.55293e-11
4.6307e-11 3.55293e-11 -3.2384

-5.63054 -6.32448 -1.52146e-11
-6.32448 2.79226 1.57937e-11
-1.52146e-11 1.57937e-11 -1.19014

7.18932 -3.97707 2.12802e-11
-3.97707 2.84191 -1.15081e-11
2.12802e-11 -1.15081e-11 0.609425

-0.512067 -3.16989 -1.59853e-11
-3.16989 -0.310408 1.47312e-11
-1.59853e-11 1.47312e-11 -1.38727

-4.89221 4.31028 1.41562e-11
4.31028 -1.36419 1.88729e-11
1.41562e-11 1.88729e-11 -2.92797

-5.06391 -4.47338 4.26501e-11
-4.47338 -1.30396 2.96562e-11
4.26501e-11 2.96562e-11 -2.98338

3.96684 -0.647106 1.08818e-11
-0.647106 -8.44277 -3.21109e-11
1.08818e-11 -3.21109e-11 -1.79534

-1.77116 1.58669 -1.96408e-11
1.58669 -6.02777 3.83144e-11
-1.96408e-11 3.83144e-11 -3.48858

-1.70103 -1.57123 -2.40669e-11
-1.57123 -6.04551 6.74757e-13
-2.40669e-11 6.74757e-13 -3.49376

-13.5029 0.698942 7.60775e-12
0.698942 -5.80463 -1.84848e-11
7.60775e-12 -1.84848e-11 -12.6459

-13.4464 0.465283 -4.95586e-11
0.465283 -5.83872 -2.92673e-11
-4.95586e-11 -2.92673e-11 -12.6504

13.6316 0.501614 7.84058e-13
0.501614 31.2337 -1.37052e-11
7.84058e-13 -1.37052e-11 7.51258

28.9533 0.446112 2.37754e-11
0.446112 13.7974 1.88818e-11
2.37754e-11 1.88818e-11 7.11477

-3.96231 -6.83588 -3.21547e-11
-6.83588 3.33841 -1.52111e-11
-3.21547e-11 -1.52111e-11 -1.04744

-3.96087 6.81645 -1.74251e-11
6.81645 3.29628 2.99431e-11
-1.74251e-11 2.99431e-11 -1.03916

-5.30382 -7.77846 -2.38791e-11
-7.77846 3.69863 1.27128e-11
-2.38791e-11 1.27128e-11 -0.942622

11.1004 -5.61024 1.84226e-11
-5.61024 24.0618 2.62537e-11
1.84226e-11 2.62537e-11 5.62684

22.7595 -5.36292 -3.72381e-11
-5.36292 12.2242 -9.77796e-12
-3.72381e-11 -9.77796e-12 5.59066

-14.9582 -7.14423 -1.11661e-10
-7.14423 -9.41224 -3.39729e-11
-1.11661e-10 -3.39729e-11 -12.8651

-14.9639 7.14303 4.79402e-11
7.14303 -9.4086 -5.42916e-11
4.79402e-11 -5.42916e-11 -12.858

-3.14576 -4.72239 -6.45225e-12
-4.72239 -0.665761 2.14734e-11
-6.45225e-12 2.14734e-11 -1.76683

0.00321244 -6.56372 -2.08957e-11
-6.56372 4.56822 2.01287e-11
-2.08957e-11 2.01287e-11 -0.217946

-3.68051 -6.90945 -9.62933e-13
-6.90945 1.53089 -7.02949e-12
-9.62933e-13 -7.02949e-12 -1.41809

-3.70005 6.88252 -3.77471e-11
6.88252 1.49534 -7.74209e-11
-3.77471e-11 -7.74209e-11 -1.41503

-2.46142 -7.41344 -1.10715e-11
-7.41344 3.98695 -1.87772e-11
-1.10715e-11 -1.87772e-11 -0.648891

0.0468639 6.56573 1.25152e-12
6.56573 4.41347 2.32073e-11
1.25152e-12 2.32073e-11 -0.227759

5.37806 -2.12881 3.63694e-12
-2.12881 17.65 -5.53892e-11
3.63694e-12 -5.53892e-11 2.56862

4.59042 2.57785 -4.51603e-11
2.57785 16.6401 -3.9518e-12
-4.51603e-11 -3.9518e-12 2.2147

16.2681 -1.62191 2.96714e-11
-1.62191 7.52433 -2.35505e-11
2.96714e-11 -2.35505e-11 2.70557

-2.38584 7.3751 -5.19873e-12
7.3751 3.96673 9.62045e-13
-5.19873e-12 9.62045e-13 -0.62854

2.75485 -1.3241 -3.11866e-11
-1.3241 18.1691 5.14433e-11
-3.11866e-11 5.14433e-11 2.19029

17.1642 -1.28237 -4.33431e-13
-1.28237 3.507 2.82755e-11
-4.33431e-13 2.82755e-11 2.18262

-4.77561 -6.75046 9.77263e-11
-6.75046 0.554206 -3.07241e-11
9.77263e-11 -3.07241e-11 -2.15793

-4.76127 6.71161 1.40581e-11
6.71161 0.522031 2.57092e-11
1.40581e-11 2.57092e-11 -2.14503

-5.23987 -5.87624 6.3639e-11
-5.87624 0.453755 -1.18497e-11
6.3639e-11 -1.18497e-11 -2.5145

-5.24216 5.85306 5.54552e-11
5.85306 0.409347 -2.56049e-11
5.54552e-11 -2.56049e-11 -2.51025

11.6462 -5.64115 1.75771e-12
-5.64115 24.3184 -8.21417e-12
1.75771e-12 -8.21417e-12 5.86598

23.3268 -5.21794 5.59538e-11
-5.21794 12.1336 4.79288e-11
5.59538e-11 4.79288e-11 5.77768

-1.47399 6.23054 5.5862e-12
6.23054 3.144 -2.93694e-11
5.5862e-12 -2.93694e-11 -0.611323

-1.44223 -6.28082 -1.70412e-11
-6.28082 3.23374 -1.82698e-12
-1.70412e-11 -1.82698e-12 -0.602835

-9.39661 -1.00481 6.36874e-11
-1.00481 -6.98169 -2.86882e-11
6.36874e-11 -2.86882e-11 -8.93448

-9.40746 -1.33431 -5.06829e-11
-1.33431 -6.87714 2.86921e-11
-5.06829e-11 2.86921e-11 -8.93531

-6.38501 -6.77737 3.94713e-11
-6.77737 1.95068 2.53174e-11
3.94713e-11 2.53174e-11 -2.25771

-6.41087 6.80847 1.13619e-11
6.80847 1.88951 2.9851e-11
1.13619e-11 2.9851e-11 -2.25891

-3.664 -2.66757 1.28075e-11
-2.66757 -6.5889 1.78094e-11
1.28075e-11 1.78094e-11 -4.37057

-3.7019 2.66828 -9.53023e-12
2.66828 -6.56873 7.22533e-13
-9.53023e-12 7.22533e-13 -4.35945

-4.26603 5.61 8.47507e-12
5.61 1.25959 3.29334e-11
8.47507e-12 3.29334e-11 -1.60418

-4.35867 -5.58677 -1.92616e-12
-5.58677 1.42865 2.4073e-12
-1.92616e-12 2.4073e-12 -1.58912

-12.894 -2.09756 2.17458e-11
-2.09756 -4.63867 -2.27237e-11
2.17458e-11 -2.27237e-11 -10.5527

-5.7094 -3.83015 -5.77608e-11
-3.83015 -7.65091 2.73855e-15
-5.77608e-11 2.73855e-15 -6.9353

-9.0537 -3.93894 1.23224e-11
-3.93894 -10.5883 -3.31174e-11
1.23224e-11 -3.31174e-11 -9.95006

-5.74829 3.8514 -3.56201e-11
3.8514 -7.63764 9.43183e-12
-3.56201e-11 9.43183e-12 -6.92863

-9.06535 3.94839 3.77386e-11
3.94839 -10.5873 -9.04884e-11
3.77386e-11 -9.04884e-11 -9.9429

-13.0007 -1.62782 -8.3793e-11
-1.62782 -4.4723 7.25967e-11
-8.3793e-11 7.25967e-11 -10.5075

-9.47467 -4.29232 4.23661e-12
-4.29232 -9.63655 -2.224e-11
4.23661e-12 -2.224e-11 -10.9078

-9.66038 4.43947 -2.67654e-11
4.43947 -9.56655 -9.62809e-12
-2.67654e-11 -9.62809e-12 -10.8711

-10.7563 -5.57398 -4.35054e-11
-5.57398 -7.66104 -1.46438e-10
-4.35054e-11 -1.46438e-10 -10.7682

0.243537 -4.15975 1.02742e-09
-4.15975 -14.4243 2.01513e-10
1.02742e-09 2.01513e-10 -12.2012

0.244533 4.15671 4.56901e-10
4.15671 -14.4106 1.20566e-10
4.56901e-10 1.20566e-10 -12.1891

-10.7717 5.57674 7.4905e-11
5.57674 -7.67054 7.24075e-11
7.4905e-11 7.24075e-11 -10.763

-6.28435 -5.91306 1.62739e-11
-5.91306 -6.49198 -6.39247e-11
1.62739e-11 -6.39247e-11 -8.03018

-5.64765 -4.7701 -7.48059e-11
-4.7701 -0.916172 -1.174e-11
-7.48059e-11 -1.174e-11 -4.13232

-11.1296 -4.55865 4.66042e-11
-4.55865 -11.1434 -1.42768e-10
4.66042e-11 -1.42768e-10 -12.2105

-6.29555 5.91597 -2.56053e-11
5.91597 -6.51963 2.84954e-11
-2.56053e-11 2.84954e-11 -8.02729

-11.1336 4.56254 -6.68093e-11
4.56254 -11.1391 7.75869e-11
-6.68093e-11 7.75869e-11 -12.2006

-5.65184 4.76881 8.76166e-12
4.76881 -0.952506 5.68245e-12
8.76166e-12 5.68245e-12 -4.12843

-7.82581 -4.92024 -7.49962e-11
-4.92024 -3.17456 9.25033e-12
-7.49962e-11 9.25033e-12 -5.69198

-7.60508 -4.00851 -3.06156e-11
-4.00851 -6.0929 1.15569e-11
-3.06156e-11 1.15569e-11 -7.6221

-7.82616 4.91682 1.07809e-11
4.91682 -3.19982 -3.177e-11
1.07809e-11 -3.177e-11 -5.68482

-7.62539 4.0028 -6.91211e-11
4.0028 -6.11884 -1.64136e-12
-6.91211e-11 -1.64136e-12 -7.62035

-2.35294 3.22047 -4.62172e-11
3.22047 1.68369 -1.81052e-11
-4.62172e-11 -1.81052e-11 -0.766272

-6.40913 -0.93017 -1.48296e-11
-0.93017 3.44406 -1.50212e-11
-1.48296e-11 -1.50212e-11 -0.973501

3.73098 -1.03752 2.31119e-12
-1.03752 -5.70236 3.08268e-12
2.31119e-12 3.08268e-12 -0.0564653

5.89247 0.0329688 -1.59872e-11
0.0329688 -3.0869 9.0538e-12
-1.59872e-11 9.0538e-12 1.06806

-7.69164 3.22938 -3.06197e-11
3.22938 -2.92362 -2.69651e-12
-3.06197e-11 -2.69651e-12 -3.83457

-11.0764 -1.40567 -1.96424e-11
-1.40567 2.22016 2.6957e-12
-1.96424e-11 2.6957e-12 -3.39151

5.59368 1.81443 -3.2756e-12
1.81443 -3.34513 4.2378e-12
-3.2756e-12 4.2378e-12 0.94604

0.978437 2.30958 -1.88684e-11
2.30958 -8.2641 3.92865e-11
-1.88684e-11 3.92865e-11 -1.41694

2.25841 4.60244 3.44835e-11
4.60244 8.74311 2.96641e-11
3.44835e-11 2.96641e-11 4.44041

3.50279 4.45969 3.2361e-11
4.45969 9.77435 -1.48333e-11
3.2361e-11 -1.48333e-11 4.89407

9.55576 4.01299 -3.25551e-11
4.01299 3.69744 -9.05357e-12
-3.25551e-11 -9.05357e-12 5.0522

-4.93817 2.02497 -5.58479e-12
2.02497 0.372446 8.47085e-12
-5.58479e-12 8.47085e-12 -2.76926

-4.19679 -3.90527 1.59818e-11
-3.90527 -1.99169 3.40832e-11
1.59818e-11 3.40832e-11 -3.03469

0.0217268 -4.97361 2.96585e-11
-4.97361 1.40835 1.07835e-11
2.96585e-11 1.07835e-11 0.285364

-11.0603 1.6873 -2.11668e-12
1.6873 2.48722 4.62218e-11
-2.11668e-12 4.62218e-11 -3.39253

-7.76004 -1.86833 2.83056e-11
-1.86833 -3.16818 2.86948e-11
2.83056e-11 2.86948e-11 -3.8632

5.24613 1.28582 2.65821e-11
1.28582 -5.85568 2.69582e-11
2.65821e-11 2.69582e-11 -0.17119

1.02845 2.12184 3.6793e-11
2.12184 10.007 1.6182e-11
3.6793e-11 1.6182e-11 3.64943

2.48182 1.61608 9.15312e-12
1.61608 9.41989 5.64384e-11
9.15312e-12 5.64384e-11 3.64397

10.4167 1.24041 -5.73039e-11
1.24041 2.7603 -1.29122e-11
-5.73039e-11 -1.29122e-11 4.13019

-0.0944626 4.96028 -1.41549e-11
4.96028 5.56016 1.77193e-11
-1.41549e-11 1.77193e-11 1.2648

-2.04254 -2.976 1.08786e-11
-2.976 5.32715 -2.1191e-11
1.08786e-11 -2.1191e-11 1.23477

3.63369 2.86083 -9.82755e-12
2.86083 -6.41289 5.58648e-12
-9.82755e-12 5.58648e-12 -0.235938

8.46307 3.36448 -2.65932e-11
3.36448 13.3396 -5.81767e-11
-2.65932e-11 -5.81767e-11 8.65512

2.15781 -1.28162 7.68126e-13
-1.28162 -9.46732 -1.82936e-11
7.68126e-13 -1.82936e-11 -1.2389

-3.85425 0.865574 -2.44561e-11
0.865574 -2.80275 -3.34138e-11
-2.44561e-11 -3.34138e-11 -3.90225

-5.9847 -0.229202 2.52218e-11
-0.229202 1.17898 1.30969e-11
2.52218e-11 1.30969e-11 -3.63347

-0.450837 5.01322 -8.08849e-12
5.01322 -9.15779 -3.38874e-11
-8.08849e-12 -3.38874e-11 -10.3265

-1.46345 -2.24694 1.20539e-10
-2.24694 -13.7024 1.28984e-11
1.20539e-10 1.28984e-11 -10.9004

-1.12665 -5.68276 3.66211e-12
-5.68276 1.52618 -2.73461e-11
3.66211e-12 -2.73461e-11 0.117178

-0.732155 -4.78827 -1.00167e-11
-4.78827 5.05537 -4.33391e-11
-1.00167e-11 -4.33391e-11 1.19528

9.57272 -0.0560546 2.45602e-11
-0.0560546 0.961321 -2.48352e-11
2.45602e-11 -2.48352e-11 3.71389

-0.21035 3.106 1.84869e-11
3.106 -5.78824 -2.34931e-11
1.84869e-11 -2.34931e-11 -4.03772

-0.783636 -0.85296 -4.62445e-12
-0.85296 -6.38309 -2.38783e-11
-4.62445e-12 -2.38783e-11 -3.84805

0.712794 -0.50387 -1.03992e-11
-0.50387 -10.908 9.05172e-12
-1.03992e-11 9.05172e-12 -1.71658

-2.06727 -3.6374 1.02077e-11
-3.6374 3.84461 -1.54096e-11
1.02077e-11 -1.54096e-11 0.966299

1.302 0.707844 -8.5704e-12
0.707844 -10.9255 1.44435e-11
-8.5704e-12 1.44435e-11 -1.472

5.5614 -3.5734 -1.88726e-11
-3.5734 1.67896 3.29389e-11
-1.88726e-11 3.29389e-11 2.03515

-0.646885 5.25701 3.65707e-12
5.25701 2.8912 -3.54428e-11
3.65707e-12 -3.54428e-11 0.989782

7.16484 3.9033 1.54058e-11
3.9033 -1.12018 -7.65369e-13
1.54058e-11 -7.65369e-13 2.01655

6.4116 -2.25754 -1.82987e-11
-2.25754 -1.17415 2.27319e-11
-1.82987e-11 2.27319e-11 1.81824

-1.07617 4.43266 1.13615e-11
4.43266 5.36325 5.39287e-12
1.13615e-11 5.39287e-12 1.36493

-8.18013 -3.29539 3.55921e-12
-3.29539 2.27742 3.96746e-11
3.55921e-12 3.96746e-11 -0.945001

-5.3352 5.88437 -1.85838e-11
5.88437 1.96304 -1.40596e-11
-1.85838e-11 -1.40596e-11 -0.987096

-0.0437452 -4.1472 4.81522e-12
-4.1472 5.1861 3.65293e-12
4.81522e-12 3.65293e-12 1.30578

-0.496525 5.44599 3.25477e-11
5.44599 5.43509 -1.23287e-11
3.25477e-11 -1.23287e-11 1.19811

25.401 -4.59852 1.15622e-12
-4.59852 26.1674 3.77636e-11
1.15622e-12 3.77636e-11 26.0594

25.3784 5.28404 -9.44378e-12
5.28404 27.2937 -4.54707e-11
-9.44378e-12 -4.54707e-11 26.1767

-9.7826 4.51671 -1.2903e-11
4.51671 0.368057 2.31086e-11
-1.2903e-11 2.31086e-11 -2.57831

-6.73962 -5.27501 2.30862e-12
-5.27501 -0.704166 2.54211e-11
2.30862e-12 2.54211e-11 -2.31672

-3.75679 4.97524 -8.28156e-12
4.97524 3.79629 2.88813e-12
-8.28156e-12 2.88813e-12 -0.0673562

15.7425 1.70077 7.51473e-12
1.70077 15.94 -1.07901e-11
7.51473e-12 -1.07901e-11 17.3219

15.5275 -0.0280933 1.04038e-11
-0.0280933 17.2506 2.61999e-11
1.04038e-11 2.61999e-11 17.6623

-6.23908 -3.79343 -1.70441e-11
-3.79343 -4.62874 -6.35504e-11
-1.70441e-11 -6.35504e-11 -4.65364

-5.72694 1.85089 1.24671e-11
1.85089 -3.24706 4.85283e-11
1.24671e-11 4.85283e-11 -4.57393

6.17738 -0.107789 2.40291e-11
-0.107789 -6.8401 1.30909e-11
2.40291e-11 1.30909e-11 -0.196846

-6.23943 -3.53443 -2.07658e-11
-3.53443 -4.57885 6.70067e-11
-2.07658e-11 6.70067e-11 -4.77264

-6.14943 1.2711 -1.49377e-12
1.2711 -5.75834 -7.45157e-11
-1.49377e-12 -7.45157e-11 -5.20764

-5.5869 -3.13191 -2.0413e-11
-3.13191 3.67351 2.96616e-11
-2.0413e-11 2.96616e-11 -0.0115264

-2.36667 4.73988 -6.93097e-12
4.73988 -7.76103 8.08957e-12
-6.93097e-12 8.08957e-12 -8.47467

-2.06213 -3.90677 -4.58278e-11
-3.90677 -12.1543 -3.81218e-11
-4.58278e-11 -3.81218e-11 -8.81388

-3.36817 -3.79442 -7.94587e-12
-3.79442 -3.57941 -2.01987e-12
-7.94587e-12 -2.01987e-12 -2.14434

-3.21023 2.88987 -4.33771e-11
2.88987 -2.93362 -3.35583e-13
-4.33771e-11 -3.35583e-13 -2.2932

-10.2144 0.301033 -1.35181e-12
0.301033 0.209691 7.72715e-13
-1.35181e-12 7.72715e-13 -8.10191

-10.7429 2.28865 2.36834e-11
2.28865 -5.82731 1.89667e-11
2.36834e-11 1.89667e-11 -9.23605

7.85625 1.57403 3.50597e-11
1.57403 12.8804 1.36784e-11
3.50597e-11 1.36784e-11 8.80329

12.6269 1.60971 3.13031e-11
1.60971 8.04673 3.75643e-11
3.13031e-11 3.75643e-11 8.83259

-5.2318 4.72354 -1.15567e-11
4.72354 2.34153 -4.58372e-11
-1.15567e-11 -4.58372e-11 -0.922855

-8.22215 -2.88142 3.19628e-11
-2.88142 2.94897 3.81336e-11
3.19628e-11 3.81336e-11 -1.01617

-12.6694 -6.21905 7.06764e-11
-6.21905 -5.58853 3.46659e-12
7.06764e-11 3.46659e-12 -15.7379

-11.9246 3.70588 6.83534e-11
3.70588 -18.2044 8.02914e-11
6.83534e-11 8.02914e-11 -18.0526

4.20944 5.01363 2.44655e-11
5.01363 1.23794 3.54448e-11
2.44655e-11 3.54448e-11 1.69509

0.947518 1.92779 -6.69413e-12
1.92779 -5.63374 -3.08161e-11
-6.69413e-12 -3.08161e-11 -1.40738

0.760765 -2.52255 4.67656e-12
-2.52255 -5.65382 3.82879e-13
4.67656e-12 3.82879e-13 -1.25996

-0.832962 -2.71045 -1.84868e-11
-2.71045 -10.5194 8.66411e-12
-1.84868e-11 8.66411e-12 -3.89848

9.23581 1.1463 7.79451e-12
1.1463 0.768036 -1.11677e-11
7.79451e-12 -1.11677e-11 3.65585

-1.42037 0.349555 -7.89491e-11
0.349555 -14.1974 -5.6796e-11
-7.89491e-11 -5.6796e-11 -12.9553

-2.07767 -0.70758 -1.34754e-11
-0.70758 -5.3534 -3.82916e-13
-1.34754e-11 -3.82916e-13 -11.8833

1.1 6.01693 -3.00392e-11
6.01693 -1.97585 3.84137e-13
-3.00392e-11 3.84137e-13 0.0425353

5.32164 1.59406 1.79165e-11
1.59406 -3.14806 -2.52293e-11
1.79165e-11 -2.52293e-11 0.274549

5.30395 4.89928 -8.47219e-12
4.89928 7.1522 -3.46671e-12
-8.47219e-12 -3.46671e-12 4.17039

-9.70453 -2.78364 -4.00474e-11
-2.78364 -0.917066 -3.65801e-11
-4.00474e-11 -3.65801e-11 -10.0679

-12.5769 1.74156 -5.91137e-11
1.74156 -9.59413 -7.31659e-12
-5.91137e-11 -7.31659e-12 -12.0275

-0.168048 5.05175 1.00157e-11
5.05175 -8.33402 2.58047e-11
1.00157e-11 2.58047e-11 -3.80807

-2.56314 -1.5837 4.40015e-11
-1.5837 1.45869 -1.92705e-12
4.40015e-11 -1.92705e-12 -0.911636

-6.66977 1.12098 8.18572e-12
1.12098 3.52998 2.69593e-11
8.18572e-12 2.69593e-11 -1.17413

3.82082 -0.77369 1.57478e-11
-0.77369 -8.53373 1.54036e-11
1.57478e-11 1.54036e-11 -1.13589

4.40039 0.570869 5.00873e-12
0.570869 -8.8712 2.30554e-12
5.00873e-12 2.30554e-12 -1.14668

7.83601 -3.22679 3.006e-11
-3.22679 5.81758 4.6611e-11
3.006e-11 4.6611e-11 4.54158

7.66618 0.167388 2.93274e-11
0.167388 -2.88025 -8.85891e-12
2.93274e-11 -8.85891e-12 1.1804

0.763095 0.647676 4.67981e-11
0.647676 -8.33156 1.92505e-12
4.67981e-11 1.92505e-12 -2.61704

-0.197227 -1.38439 9.9872e-12
-1.38439 -7.40714 3.38893e-11
9.9872e-12 3.38893e-11 -2.49243

4.90528 -1.89039 1.54832e-12
-1.89039 -3.77684 3.89045e-11
1.54832e-12 3.89045e-11 0.231026

3.54066 -0.890502 1.04016e-11
-0.890502 -6.24509 4.31331e-11
1.04016e-11 4.31331e-11 -0.966154

4.2764 0.38415 -7.39231e-12
0.38415 -6.24711 -3.9474e-11
-7.39231e-12 -3.9474e-11 -0.945409

3.32723 3.98474 -3.92912e-11
3.98474 -4.6078 -2.65754e-11
-3.92912e-11 -2.65754e-11 -0.132063

3.69035 -5.28702 9.63533e-12
-5.28702 3.12391 3.06276e-11
9.63533e-12 3.06276e-11 2.24722

-5.42264 6.88734 7.60414e-12
6.88734 1.30443 -2.58049e-11
7.60414e-12 -2.58049e-11 -1.22312

-6.90622 -5.86056 -1.28063e-11
-5.86056 -1.50508 -2.77291e-11
-1.28063e-11 -2.77291e-11 -1.36429

-8.36894 -4.37485 3.07149e-11
-4.37485 -1.82892 -2.04156e-11
3.07149e-11 -2.04156e-11 -1.73908

-5.28764 7.27009 4.24034e-12
7.27009 2.26997 3.46662e-11
4.24034e-12 3.46662e-11 -0.973316

7.475 2.52793 3.02405e-11
2.52793 -1.98674 1.86824e-11
3.02405e-11 1.86824e-11 1.61419

11.4122 -3.01821 3.10116e-11
-3.01821 7.87942 -1.46432e-11
3.10116e-11 -1.46432e-11 7.71029

0.594019 5.7467 2.23531e-11
5.7467 -5.41381 6.12418e-11
2.23531e-11 6.12418e-11 -1.38103

3.67651 -1.92453 1.07874e-11
-1.92453 -3.77709 -1.88997e-13
1.07874e-11 -1.88997e-13 0.189055

11.7521 -2.34732 1.69531e-11
-2.34732 6.94867 -2.63953e-11
1.69531e-11 -2.63953e-11 7.49291

1.23757 -4.66816 2.1375e-11
-4.66816 -1.5796 -1.61831e-11
2.1375e-11 -1.61831e-11 0.0912866

-9.14077 0.0312986 -5.46898e-11
0.0312986 4.51875 2.69629e-12
-5.46898e-11 2.69629e-12 -1.22084

-6.21005 0.724153 1.29042e-11
0.724153 0.719055 1.04012e-11
1.29042e-11 1.04012e-11 -1.59529

2.36807 5.98466 -3.8487e-12
5.98466 2.56393 3.85284e-11
-3.8487e-12 3.85284e-11 1.79564

9.01098 -3.46951 2.19575e-11
-3.46951 3.11293 1.11724e-11
2.19575e-11 1.11724e-11 4.66962

-4.64069 6.37481 2.8311e-11
6.37481 -2.69592 2.38817e-11
2.8311e-11 2.38817e-11 -1.47616

-4.32132 -6.10783 -1.63699e-11
-6.10783 -0.124062 8.66677e-12
-1.63699e-11 8.66677e-12 -1.15125

1.62458 -4.51413 1.43581e-11
-4.51413 5.34974 -4.08433e-11
1.43581e-11 -4.08433e-11 2.25682

2.69125 -4.97661 -5.76583e-12
-4.97661 5.3234 -2.04167e-11
-5.76583e-12 -2.04167e-11 2.31838

3.27331 4.64499 -4.00593e-11
4.64499 -3.52121 -3.06201e-11
-4.00593e-11 -3.06201e-11 -0.0338664

1.20033 2.85693 -2.34975e-11
2.85693 -13.2757 5.00944e-12
-2.34975e-11 5.00944e-12 -2.96961

1.41669 -1.94773 -2.61935e-11
-1.94773 -14.4743 3.65849e-11
-2.61935e-11 3.65849e-11 -2.88419

-1.12805 3.69309 -6.45023e-12
3.69309 6.8097 4.04536e-12
-6.45023e-12 4.04536e-12 1.47321

1.1549 5.67782 -3.04299e-11
5.67782 0.0603045 -4.12182e-11
-3.04299e-11 -4.12182e-11 0.47242

-0.818484 0.534099 -2.34994e-11
0.534099 10.6041 1.15617e-11
-2.34994e-11 1.15617e-11 3.85547

0.660771 0.29705 -2.38855e-11
0.29705 10.3543 2.71663e-11
-2.38855e-11 2.71663e-11 3.95656

11.3342 0.242855 -2.3981e-11
0.242855 0.614779 5.00801e-11
-2.3981e-11 5.00801e-11 4.40111

3.70745 -4.26727 -7.32199e-12
-4.26727 0.724729 2.04113e-11
-7.32199e-12 2.04113e-11 1.67468

-17.2134 -2.92747 -2.90739e-11
-2.92747 -11.7921 -2.78236e-11
-2.90739e-11 -2.78236e-11 -16.5191

-1.55164 1.50759 1.23023e-10
1.50759 -1.50196 1.15657e-11
1.23023e-10 1.15657e-11 -11.7973

6.20455 5.12125 1.25226e-11
5.12125 -0.365967 3.47307e-12
1.25226e-11 3.47307e-12 2.07923

7.26533 -2.13225 -9.82207e-12
-2.13225 -2.39198 -2.65792e-11
-9.82207e-12 -2.65792e-11 1.51198

10.8549 3.59618 -3.6624e-12
3.59618 5.53238 -3.69825e-11
-3.6624e-12 -3.69825e-11 6.85355

-6.26651 -3.73277 -3.36908e-12
-3.73277 1.34719 1.34795e-11
-3.36908e-12 1.34795e-11 -0.535608

-3.37497 6.75955 2.02164e-12
6.75955 3.49241 -1.13623e-11
2.02164e-12 -1.13623e-11 -0.119837

6.27091 -0.0991753 -2.45715e-12
-0.0991753 -6.80171 1.88687e-11
-2.45715e-12 1.88687e-11 -0.136132

-3.36739 3.40229 1.63719e-11
3.40229 6.38734 1.84942e-11
1.63719e-11 1.84942e-11 1.22932

-11.3315 -4.52019 4.43858e-11
-4.52019 0.384297 -1.61764e-11
4.43858e-11 -1.61764e-11 -2.61917

-6.99717 6.34268 2.4555e-11
6.34268 0.233274 2.966e-11
2.4555e-11 2.966e-11 -2.22872

5.37248 3.98519 -6.26952e-11
3.98519 7.76816 -1.54177e-11
-6.26952e-11 -1.54177e-11 4.22463

7.74203 4.20215 -3.25509e-11
4.20215 7.00973 -1.48337e-11
-3.25509e-11 -1.48337e-11 4.66198

10.9074 3.22797 -2.11896e-11
3.22797 5.56846 -1.53838e-12
-2.11896e-11 -1.53838e-12 6.79187

-5.85675 6.9781 5.48735e-12
6.9781 2.88734 5.97065e-12
5.48735e-12 5.97065e-12 -0.98974

-8.50845 -5.0444 -1.60787e-11
-5.0444 -3.41679 -7.70128e-12
-1.60787e-11 -7.70128e-12 -1.92806

5.55247 0.202931 -2.65787e-11
0.202931 -9.80281 8.08786e-12
-2.65787e-11 8.08786e-12 -0.930772

-6.81695 4.76655 -8.27912e-12
4.76655 -3.56305 1.27092e-11
-8.27912e-12 1.27092e-11 -1.95968

-5.28616 -5.94281 -1.42504e-11
-5.94281 1.58585 -7.12354e-12
-1.42504e-11 -7.12354e-12 -0.984407

-2.40594 5.77012 -2.23389e-11
5.77012 -1.30294 -3.65996e-11
-2.23389e-11 -3.65996e-11 -0.658399

0.33095 -1.25005 -1.02072e-11
-1.25005 9.36837 -1.69537e-11
-1.02072e-11 -1.69537e-11 3.21415

1.96947 -1.65564 2.88869e-12
-1.65564 9.17982 6.16248e-12
2.88869e-12 6.16248e-12 3.27599

9.29974 -1.01722 3.65633e-12
-1.01722 1.81372 -3.00469e-11
3.65633e-12 -3.00469e-11 3.52708

2.62421 -3.52527 3.26481e-11
-3.52527 2.56311 -1.93068e-12
3.26481e-11 -1.93068e-12 1.71067

-0.675314 0.614287 2.56155e-11
0.614287 5.41571 -7.31874e-12
2.56155e-11 -7.31874e-12 0.927116

-4.22526 0.202822 -4.06368e-11
0.202822 6.57822 1.50308e-11
-4.06368e-11 1.50308e-11 0.710046

4.9167 -3.94478 -3.15931e-11
-3.94478 8.89097 3.66078e-12
-3.15931e-11 3.66078e-12 4.87289

4.60558 -3.75457 -2.93784e-11
-3.75457 7.83705 2.38849e-11
-2.93784e-11 2.38849e-11 4.76581

5.81856 -0.222483 -5.75384e-12
-0.222483 -9.29887 -1.32871e-11
-5.75384e-12 -1.32871e-11 -0.923115

5.23848 0.24789 -3.86618e-11
0.24789 -8.92265 1.00135e-11
-3.86618e-11 1.00135e-11 -0.925563

-4.99297 -4.66222 -3.37995e-11
-4.66222 -0.461441 -1.53677e-12
-3.37995e-11 -1.53677e-12 -0.661037

-3.67954 6.12472 1.68481e-11
6.12472 3.32917 -4.37167e-11
1.68481e-11 -4.37167e-11 -0.27494

-10.964 3.95029 -1.40589e-11
3.95029 0.104969 1.81039e-11
-1.40589e-11 1.81039e-11 -2.49969

-6.56899 -5.80204 -5.19806e-12
-5.80204 0.160691 1.73391e-12
-5.19806e-12 1.73391e-12 -1.86887

-2.04598 -4.64754 -4.04284e-12
-4.64754 -2.78915 1.81029e-11
-4.04284e-12 1.81029e-11 -1.30292

-3.26186 -2.44136 -7.99646e-12
-2.44136 6.96348 -2.04204e-11
-7.99646e-12 -2.04204e-11 1.40234

-2.51738 0.736063 9.41196e-11
0.736063 -4.97085 -6.45121e-12
9.41196e-11 -6.45121e-12 -3.19707

-3.40961 -2.32609 8.84822e-11
-2.32609 -5.853 -1.6184e-11
8.84822e-11 -1.6184e-11 -3.31955

1.80095 -3.59021 -7.222e-12
-3.59021 -0.932549 -1.1551e-11
-7.222e-12 -1.1551e-11 0.360694

0.64524 -3.04842 7.60399e-12
-3.04842 -3.39527 -8.8578e-12
7.60399e-12 -8.8578e-12 -0.85961

1.23508 2.56937 -1.99808e-11
2.56937 -1.69354 2.31123e-11
-1.99808e-11 2.31123e-11 -0.693457

14.1257 -1.40458 1.57987e-11
-1.40458 9.08609 -2.15826e-11
1.57987e-11 -2.15826e-11 16.0206

2.45688 6.05413 1.7047e-11
6.05413 4.84885 7.51251e-12
1.7047e-11 7.51251e-12 2.00275

10.947 2.89956 1.59838e-11
2.89956 14.8399 -6.16667e-12
1.59838e-11 -6.16667e-12 16.3302

-1.26608 -3.25454 1.32881e-11
-3.25454 6.54118 6.9349e-12
1.32881e-11 6.9349e-12 1.45411

-9.38305 -3.1858 9.56204e-11
-3.1858 -5.74895 -3.81323e-11
9.56204e-11 -3.81323e-11 -8.79058

-7.49504 1.27836 -3.44066e-12
1.27836 -8.87697 -1.32872e-11
-3.44066e-12 -1.32872e-11 -9.13696

2.26845 3.93941 5.68035e-12
3.93941 0.646389 -1.44481e-11
5.68035e-12 -1.44481e-11 0.457175

7.57515 -0.213987 1.16972e-11
-0.213987 -3.25571 1.19421e-11
1.16972e-11 1.19421e-11 1.13023

4.9618 4.91135 7.12926e-12
4.91135 1.19505 3.81473e-13
7.12926e-12 3.81473e-13 1.87104

-8.02105 2.37757 2.69612e-11
2.37757 3.91662 2.08034e-11
2.69612e-11 2.08034e-11 -0.981568

-5.3045 -3.28069 -5.77427e-13
-3.28069 1.25663 -2.812e-11
-5.77427e-13 -2.812e-11 -1.19087

-4.65971 5.44062 2.5612e-11
5.44062 -1.68322 1.81007e-11
2.5612e-11 1.81007e-11 -3.19746

-4.84615 -3.01258 -2.40684e-11
-3.01258 -0.520249 -4.66041e-11
-2.40684e-11 -4.66041e-11 -2.89564

-6.04159 7.40872 -1.1166e-11
7.40872 2.19566 2.48436e-11
-1.1166e-11 2.48436e-11 -1.05271

-11.5646 -7.02198 -9.92023e-12
-7.02198 -1.79638 -1.00135e-11
-9.92023e-12 -1.00135e-11 -2.07399

-5.13473 3.8421 3.65959e-12
3.8421 3.32401 5.39198e-12
3.65959e-12 5.39198e-12 -0.0794576

-3.26256 1.948 1.02096e-11
1.948 5.23331 6.93371e-12
1.02096e-11 6.93371e-12 0.457765

-1.7272 -4.31149 -9.14772e-12
-4.31149 -2.42424 -9.628e-12
-9.14772e-12 -9.628e-12 -0.824621

-1.53246 4.56145 5.47917e-11
4.56145 -1.09467 2.44617e-11
5.47917e-11 2.44617e-11 -0.886355

3.72042 4.65055 8.47367e-12
4.65055 4.07757 5.37367e-11
8.47367e-12 5.37367e-11 1.94696

-3.79603 -4.55835 -2.6961e-11
-4.55835 3.34488 2.25362e-11
-2.6961e-11 2.25362e-11 -0.0840616

-5.1981 -0.8094 4.39138e-11
-0.8094 6.71638 6.35638e-11
4.39138e-11 6.35638e-11 0.673343

13.1734 3.28514 3.83307e-11
3.28514 15.455 6.16796e-12
3.83307e-11 6.16796e-12 12.8877

15.0464 3.39975 4.57507e-11
3.39975 13.2875 2.52427e-11
4.57507e-11 2.52427e-11 12.8234

5.94804 -3.94208 -7.51266e-12
-3.94208 7.26038 6.97316e-11
-7.51266e-12 6.97316e-11 4.47786

4.93114 -1.47738 -1.72385e-11
-1.47738 -5.84162 1.50286e-11
-1.72385e-11 1.50286e-11 -0.153927

-11.8948 -4.94572 -1.20872e-10
-4.94572 -9.07124 -5.50544e-11
-1.20872e-10 -5.50544e-11 -14.8189

-7.73175 5.13408 1.87888e-11
5.13408 -15.2406 5.98731e-11
1.87888e-11 5.98731e-11 -15.2192

-4.39062 5.02454 1.8103e-11
5.02454 -4.30525 3.38863e-11
1.8103e-11 3.38863e-11 -6.64121

-6.78318 -1.31642 -4.39083e-11
-1.31642 -9.54747 5.02559e-11
-4.39083e-11 5.02559e-11 -7.71697

2.7601 -0.0559136 -3.65678e-12
-0.0559136 -7.20034 1.05942e-11
-3.65678e-12 1.05942e-11 -0.459552

-5.66671 -6.58349 -1.17466e-11
-6.58349 1.47861 -4.8143e-12
-1.17466e-11 -4.8143e-12 -0.917967

-10.3634 6.87765 2.94604e-11
6.87765 -2.01498 -3.81328e-11
2.94604e-11 -3.81328e-11 -2.06748

10.5797 -3.20255 -2.09928e-11
-3.20255 12.1111 -5.96826e-12
-2.09928e-11 -5.96826e-12 9.97725

10.511 4.13145 -2.51073e-12
4.13145 10.5851 -3.56335e-11
-2.51073e-12 -3.56335e-11 9.69206

5.69338 -1.49206 -9.63126e-12
-1.49206 12.384 9.24742e-12
-9.63126e-12 9.24742e-12 7.78395

6.64718 -1.83578 5.0131e-12
-1.83578 12.2004 -1.21387e-11
5.0131e-12 -1.21387e-11 7.47439

12.8573 -1.28392 -4.29621e-11
-1.28392 6.15147 1.7916e-11
-4.29621e-11 1.7916e-11 7.81769

5.78828 4.86084 -9.63377e-13
4.86084 4.85447 -1.30988e-11
-9.63377e-13 -1.30988e-11 3.96659

6.46029 1.44857 9.24123e-12
1.44857 14.666 -6.20333e-11
9.24123e-12 -6.20333e-11 9.78242

14.0478 0.31913 -3.27812e-12
0.31913 6.59837 5.395e-12
-3.27812e-12 5.395e-12 9.58755

-7.07998 -0.575056 -1.61683e-11
-0.575056 0.682086 2.46511e-11
-1.61683e-11 2.46511e-11 -5.25869

-7.3709 -2.11318 -1.1939e-11
-2.11318 -4.61205 6.25877e-12
-1.1939e-11 6.25877e-12 -6.13792

1.80701 -1.64485 2.54227e-11
-1.64485 -5.18139 -2.02208e-11
2.54227e-11 -2.02208e-11 -0.940561

1.50349 0.72757 8.47537e-12
0.72757 -15.0417 -1.36712e-11
8.47537e-12 -1.36712e-11 -2.14766

1.38681 -3.20536 -1.61722e-11
-3.20536 7.98562 -2.87027e-11
-1.61722e-11 -2.87027e-11 3.1847

0.699274 -2.30798 -7.13563e-12
-2.30798 7.6071 -6.0101e-11
-7.13563e-12 -6.0101e-11 3.10397

3.39785 1.53616 -9.43875e-12
1.53616 -6.85191 -7.51071e-12
-9.43875e-12 -7.51071e-12 -0.269995

-6.4317 -1.52682 -6.12841e-11
-1.52682 -5.46487 9.16662e-11
-6.12841e-11 9.16662e-11 -6.11299

-4.52864 -0.0192711 -1.97856e-11
-0.0192711 -7.0906 -3.54315e-11
-1.97856e-11 -3.54315e-11 -6.20124

-0.718294 -3.24308 1.153e-12
-3.24308 -1.96613 -1.94495e-11
1.153e-12 -1.94495e-11 -1.02588

-2.8523 5.37123 -4.91088e-11
5.37123 -0.744699 4.61712e-12
-4.91088e-11 4.61712e-12 -0.468674

-3.48677 -5.64854 1.73347e-11
-5.64854 2.5689 6.74316e-12
1.73347e-11 6.74316e-12 -0.235486

2.26084 -1.46282 -1.32909e-11
-1.46282 -8.52692 -9.6582e-13
-1.32909e-11 -9.6582e-13 -1.20951

-5.30309 4.51017 2.21477e-11
4.51017 0.854093 1.15855e-12
2.21477e-11 1.15855e-12 -0.570427

-3.20889 -5.98459 3.21612e-11
-5.98459 2.44197 5.19799e-12
3.21612e-11 5.19799e-12 -0.183447

26.6126 -6.6978 2.36982e-11
-6.6978 27.103 1.17506e-11
2.36982e-11 1.17506e-11 27.4427

-4.90097 1.43276 4.08257e-11
1.43276 6.71432 -2.19565e-11
4.08257e-11 -2.19565e-11 0.700556

-2.68689 -1.30021 2.02213e-11
-1.30021 4.82732 1.92604e-11
2.02213e-11 1.92604e-11 0.523999

-9.6113 0.704606 2.38787e-11
0.704606 2.43468 -1.46316e-11
2.38787e-11 -1.46316e-11 -6.15019

-8.56387 -0.0793179 -3.6597e-12
-0.0793179 -6.62142 5.31462e-11
-3.6597e-12 5.31462e-11 -7.49315

2.71573 -0.275327 -3.97203e-11
-0.275327 -9.36892 -1.15478e-12
-3.97203e-11 -1.15478e-12 -1.96841

3.71877 0.442477 -9.3876e-12
0.442477 -10.1228 7.12389e-12
-9.3876e-12 7.12389e-12 -1.9948

-1.9514 6.44904 -3.2156e-11
6.44904 -5.19204 -1.03992e-11
-3.2156e-11 -1.03992e-11 -2.98508

-3.36025 -3.67721 1.54051e-11
-3.67721 -5.95494 -3.46756e-12
1.54051e-11 -3.46756e-12 -3.1758

-0.976079 2.36058 -6.16181e-12
2.36058 -4.32479 5.75685e-13
-6.16181e-12 5.75685e-13 -4.93445

-4.02947 -1.28869 -6.97075e-11
-1.28869 -4.37868 3.67766e-11
-6.97075e-11 3.67766e-11 -5.27864

-9.80136 2.68728 -4.69096e-11
2.68728 -12.4262 -6.20011e-11
-4.69096e-11 -6.20011e-11 -13.0085

-9.13049 -7.61451 5.75214e-12
-7.61451 -5.769 -8.3177e-11
5.75214e-12 -8.3177e-11 -11.5008

-6.58668 6.71291 1.68006e-11
6.71291 0.321856 1.54321e-12
1.68006e-11 1.54321e-12 -2.13891

-9.58823 -8.30015 -2.92213e-11
-8.30015 -4.03778 -3.27343e-11
-2.92213e-11 -3.27343e-11 -2.79175

2.79602 3.5945 -1.3094e-11
3.5945 -2.29693 -4.04965e-12
-1.3094e-11 -4.04965e-12 0.0474538

-4.97094 2.85648 6.43232e-11
2.85648 4.29083 -3.04306e-11
6.43232e-11 -3.04306e-11 0.0497198

0.169103 -4.65183 -4.88195e-11
-4.65183 0.0267761 -1.65589e-11
-4.88195e-11 -1.65589e-11 0.40478

-1.74021 -3.57187 -1.09799e-11
-3.57187 3.96095 2.42656e-11
-1.09799e-11 2.42656e-11 0.368404

2.4014 -3.34582 -3.03308e-11
-3.34582 -2.80562 3.42829e-11
-3.03308e-11 3.42829e-11 0.0807996

-1.80083 3.97659 -3.89994e-11
3.97659 4.3737 4.04684e-12
-3.89994e-11 4.04684e-12 0.384931

1.107 5.65036 -8.18131e-12
5.65036 1.38932 8.28212e-12
-8.18131e-12 8.28212e-12 0.525148

-6.98458 7.45783 3.27745e-12
7.45783 -3.74449 -1.19395e-11
3.27745e-12 -1.19395e-11 -2.69417

-5.75955 -5.55113 -2.59984e-11
-5.55113 -1.07284 -9.82061e-12
-2.59984e-11 -9.82061e-12 -2.10102

2.01886 3.40561 4.46814e-11
3.40561 -5.17152 4.5835e-11
4.46814e-11 4.5835e-11 -1.2512

-1.79685 2.51359 -7.68107e-11
2.51359 -3.22128 2.658e-11
-7.68107e-11 2.658e-11 -12.2642

-16.9889 2.40278 3.11894e-11
2.40278 -15.2341 -4.60198e-11
3.11894e-11 -4.60198e-11 -17.1983

-0.100656 -3.44246 8.0902e-12
-3.44246 -5.07288 -4.42753e-12
8.0902e-12 -4.42753e-12 -1.25803

0.230094 0.222875 -3.58184e-11
0.222875 -9.22074 -1.69454e-11
-3.58184e-11 -1.69454e-11 -3.62178

12.3644 -2.92356 2.0997e-11
-2.92356 14.628 -9.25364e-12
2.0997e-11 -9.25364e-12 12.1668

14.1686 -2.40615 5.2016e-11
-2.40615 11.7234 3.54379e-11
5.2016e-11 3.54379e-11 11.7223

0.810925 0.268463 2.2317e-11
0.268463 -8.62093 2.15641e-11
2.2317e-11 2.15641e-11 -2.7529

2.47354 -0.398129 -1.44436e-12
-0.398129 -9.39844 7.12367e-12
-1.44436e-12 7.12367e-12 -2.67936

0.53339 0.693784 -4.61979e-12
0.693784 -5.44004 2.84996e-11
-4.61979e-12 2.84996e-11 -3.25304

-4.9869 -2.09506 3.35808e-11
-2.09506 4.60763 5.04593e-11
3.35808e-11 5.04593e-11 0.174419

6.99855 2.78914 3.30875e-11
2.78914 0.9327 1.65563e-11
3.30875e-11 1.65563e-11 1.93504

-3.75283 -4.3462 2.44923e-12
-4.3462 -3.59179 -3.62059e-11
2.44923e-12 -3.62059e-11 -2.15086

-3.10505 3.59707 -2.51359e-11
3.59707 -0.456657 1.23201e-11
-2.51359e-11 1.23201e-11 -1.80965

-4.86453 0.433299 5.16003e-11
0.433299 -0.571918 -1.00058e-10
5.16003e-11 -1.00058e-10 -12.3726

-9.45475 4.09327 1.00904e-10
4.09327 -18.6696 5.23823e-11
1.00904e-10 5.23823e-11 -16.3688

3.00738 -2.72622 -3.58236e-11
-2.72622 -2.48493 -8.47204e-12
-3.58236e-11 -8.47204e-12 0.191118

-0.162253 -0.116991 4.35421e-11
-0.116991 -5.75425 6.06538e-11
4.35421e-11 6.06538e-11 -2.9464

-1.12226 -0.964965 -3.69046e-12
-0.964965 -4.79801 -7.50988e-11
-3.69046e-12 -7.50988e-11 -2.78086

-3.42632 -4.92947 6.35621e-12
-4.92947 1.40702 -1.05917e-11
6.35621e-12 -1.05917e-11 -0.8084

-6.42004 2.55433 7.31974e-12
2.55433 1.26285 2.58078e-11
7.31974e-12 2.58078e-11 -1.16672

-7.75206 4.72049 2.00254e-11
4.72049 -2.28206 -3.35096e-11
2.00254e-11 -3.35096e-11 -1.6913

-5.24196 -6.68031 2.50473e-12
-6.68031 1.66367 -8.47274e-12
2.50473e-12 -8.47274e-12 -0.846518

28.3392 8.5497 -5.56701e-11
8.5497 27.5485 7.70605e-11
-5.56701e-11 7.70605e-11 27.9447

-6.38137 4.89856 1.07819e-11
4.89856 -1.9677 1.23271e-11
1.07819e-11 1.23271e-11 -3.29194

-6.07829 -3.75319 -1.63674e-11
-3.75319 -1.28501 2.619e-11
-1.63674e-11 2.619e-11 -3.018

-7.41435 4.47424 1.07831e-11
4.47424 0.51566 -2.04137e-11
1.07831e-11 -2.04137e-11 -1.13106

-5.37252 -5.64424 1.57903e-11
-5.64424 1.48848 -1.40604e-11
1.57903e-11 -1.40604e-11 -0.908952

6.64014 -2.65961 -2.30675e-12
-2.65961 -0.292826 -1.15234e-12
-2.30675e-12 -1.15234e-12 1.72228

-0.10113 4.83817 4.62178e-12
4.83817 -3.12331 1.15589e-12
4.62178e-12 1.15589e-12 -1.27056

-1.07152 5.18356 -7.50799e-12
5.18356 -4.80886 -1.81004e-11
-7.50799e-12 -1.81004e-11 -2.54712

-3.13738 -3.4305 2.17599e-11
-3.4305 -3.21895 6.16585e-12
2.17599e-11 6.16585e-12 -2.57326

2.47591 3.25707 -2.11705e-12
3.25707 -9.09072 -1.11697e-11
-2.11705e-12 -1.11697e-11 -1.50815

-2.18254 0.631995 1.16279e-11
0.631995 -5.90746 1.61751e-11
1.16279e-11 1.61751e-11 -4.23785

-0.888261 -0.923544 -8.48599e-12
-0.923544 -8.05573 -6.16381e-12
-8.48599e-12 -6.16381e-12 -4.51836

-13.4267 1.09835 -4.37073e-11
1.09835 -6.55319 -1.71391e-11
-4.37073e-11 -1.71391e-11 -12.742

-11.3325 -1.73354 -3.94679e-11
-1.73354 0.313982 6.43186e-11
-3.94679e-11 6.43186e-11 -11.3858

16.4532 -0.802653 -4.04199e-12
-0.802653 11.4015 9.63348e-12
-4.04199e-12 9.63348e-12 16.751

9.60583 -0.167919 -1.72736e-12
-0.167919 16.3699 -3.66125e-11
-1.72736e-12 -3.66125e-11 16.5231

-4.56621 5.59438 1.10571e-12
5.59438 2.06434 -5.21888e-11
1.10571e-12 -5.21888e-11 -1.1818

-5.579 -4.81706 2.24774e-11
-4.81706 -2.48342 -4.46832e-11
2.24774e-11 -4.46832e-11 -1.66934

17.5627 3.00654 -2.58153e-11
3.00654 17.2678 3.00548e-11
-2.58153e-11 3.00548e-11 19.3427

17.6552 3.88673 1.85022e-11
3.88673 16.0915 3.81396e-11
1.85022e-11 3.81396e-11 18.8237

-24.8175 -6.15725 -7.1971e-11
-6.15725 -5.27944 1.08992e-10
-7.1971e-11 1.08992e-10 -17.2327

-17.8801 4.59455 1.50732e-11
4.59455 -8.44992 -6.77754e-11
1.50732e-11 -6.77754e-11 -16.5056

-0.661715 5.88071 4.42933e-11
5.88071 -3.24774 -3.27303e-11
4.42933e-11 -3.27303e-11 -1.06431

-4.38962 5.35945 4.94312e-11
5.35945 -0.444725 -4.1594e-11
4.94312e-11 -4.1594e-11 -1.62128

-4.59719 -5.36595 4.49172e-11
-5.36595 -2.5202 1.92453e-12
4.49172e-11 1.92453e-12 -1.56744

-0.266273 5.41162 -1.00192e-11
5.41162 2.55162 -1.57923e-11
-1.00192e-11 -1.57923e-11 0.416079

-0.987614 -4.31863 -6.54884e-12
-4.31863 1.54307 1.23293e-11
-6.54884e-12 1.23293e-11 0.493206

5.45304 -0.684907 -1.7916e-11
-0.684907 12.1789 -2.85042e-11
-1.7916e-11 -2.85042e-11 7.48355

6.23588 -1.38951 -2.81247e-11
-1.38951 12.0063 -6.55298e-12
-2.81247e-11 -6.55298e-12 7.25851

12.7447 -0.588507 -1.65693e-11
-0.588507 6.39553 3.73686e-11
-1.65693e-11 3.73686e-11 7.69066

-2.77927 6.23796 1.44292e-12
6.23796 2.08593 8.28071e-12
1.44292e-12 8.28071e-12 -0.352936

-3.78359 -4.83676 -3.58172e-11
-4.83676 0.0897432 -3.62057e-11
-3.58172e-11 -3.62057e-11 -0.442395

8.06772 0.967666 -6.5505e-12
0.967666 14.724 -5.38947e-12
-6.5505e-12 -5.38947e-12 10.0964

14.6726 1.49408 2.1967e-11
1.49408 8.33377 -2.67653e-11
2.1967e-11 -2.67653e-11 10.2444

-6.09528 -6.18154 -4.64092e-11
-6.18154 -4.52155 2.00406e-11
-4.64092e-11 2.00406e-11 -2.90892

-5.83111 5.09188 4.35626e-11
5.09188 -1.04811 -8.5501e-11
4.35626e-11 -8.5501e-11 -2.72338

-6.18454 -5.4684 5.14174e-12
-5.4684 -2.56426 -4.31365e-11
5.14174e-12 -4.31365e-11 -3.01557

-6.04196 4.06678 1.3865e-11
4.06678 -1.58697 6.93252e-11
1.3865e-11 6.93252e-11 -3.2087

17.3983 -2.54014 4.03629e-12
-2.54014 17.9522 -4.2409e-12
4.03629e-12 -4.2409e-12 19.7067

17.3633 -2.55486 -1.60837e-11
-2.55486 17.9165 2.09971e-11
-1.60837e-11 2.09971e-11 19.7769

-1.81932 4.93183 3.1966e-11
4.93183 1.64205 -3.84981e-12
3.1966e-11 -3.84981e-12 -0.419837

-2.29538 -4.51759 5.2028e-12
-4.51759 -1.26755 -3.0805e-12
5.2028e-12 -3.0805e-12 -0.615812

-7.94148 1.29051 -2.002e-11
1.29051 -2.18614 -2.25273e-11
-2.002e-11 -2.25273e-11 -7.86974

-9.38233 -0.729887 7.89353e-12
-0.729887 -8.27216 5.05487e-11
7.89353e-12 5.05487e-11 -9.04147

-9.13939 -5.67191 -1.82473e-11
-5.67191 -1.49142 -3.81245e-11
-1.82473e-11 -3.81245e-11 -3.06126

-7.44134 5.32919 2.05071e-11
5.32919 0.422079 -3.02329e-11
2.05071e-11 -3.02329e-11 -2.96178

-5.50439 -1.18673 -2.28952e-11
-1.18673 -8.87809 -8.97264e-11
-2.28952e-11 -8.97264e-11 -5.81594

-3.58007 0.115349 -5.52437e-11
0.115349 -9.92879 1.92568e-11
-5.52437e-11 1.92568e-11 -5.77308

-3.8748 5.25135 4.19792e-11
5.25135 -2.83165 -1.11613e-11
4.19792e-11 -1.11613e-11 -1.76309

-3.38985 -5.15675 -1.94481e-11
-5.15675 -0.289496 3.54323e-11
-1.94481e-11 3.54323e-11 -1.24641

-5.77786 1.58897 4.57568e-11
1.58897 -11.4423 6.93216e-12
4.57568e-11 6.93216e-12 -9.71054

-10.6294 0.47251 -2.31071e-12
0.47251 -13.4933 1.36705e-11
-2.31071e-12 1.36705e-11 -13.4191

-8.45011 -1.42831 -1.40311e-11
-1.42831 -9.82743 2.31718e-11
-1.40311e-11 2.31718e-11 -9.83811

-15.8454 -0.186907 -9.98501e-11
-0.186907 -9.56573 -1.03928e-11
-9.98501e-11 -1.03928e-11 -13.616

-11.8793 0.920619 2.50844e-12
0.920619 0.211427 7.43303e-11
2.50844e-12 7.43303e-11 -9.61916

-3.31856 5.20783 -5.50693e-11
5.20783 -7.13963 -7.70025e-12
-5.50693e-11 -7.70025e-12 -9.43651

-8.1083 -2.03719 3.9666e-11
-2.03719 -10.8781 -5.35291e-11
3.9666e-11 -5.35291e-11 -10.7745

-12.9261 -1.22609 1.48236e-11
-1.22609 -5.70742 -7.0189e-11
1.48236e-11 -7.0189e-11 -10.6535

-14.7498 3.04807 -1.43802e-10
3.04807 -11.1783 -1.67899e-10
-1.43802e-10 -1.67899e-10 -14.0945

2.75236 3.09717 5.10666e-10
3.09717 -22.4043 -7.49919e-11
5.10666e-10 -7.49919e-11 -15.89

0.219972 -2.03787 5.17327e-10
-2.03787 -1.23618 6.73007e-10
5.17327e-10 6.73007e-10 -12.2724

-10.6269 -7.00883 1.8419e-10
-7.00883 -4.62254 -1.08641e-10
1.8419e-10 -1.08641e-10 -11.8379

-8.78726 3.9534 1.20642e-11
3.9534 -9.06012 3.48523e-11
1.20642e-11 3.48523e-11 -10.491

-7.00778 2.87246 -5.24246e-11
2.87246 -2.551 -2.8497e-11
-5.24246e-11 -2.8497e-11 -5.43904

-13.3769 0.843974 5.80791e-11
0.843974 -14.6562 1.10519e-10
5.80791e-11 1.10519e-10 -15.5291

-5.93658 -6.54072 -3.75745e-11
-6.54072 -8.14861 5.58417e-11
-3.75745e-11 5.58417e-11 -9.51724

-11.0414 -7.5142 -5.19994e-11
-7.5142 -4.51529 1.11691e-10
-5.19994e-11 1.11691e-10 -13.0601

-6.4995 -3.67186 1.71829e-11
-3.67186 -4.2936 -5.39744e-12
1.71829e-11 -5.39744e-12 -5.27137

-7.64208 -6.12721 3.44642e-11
-6.12721 -4.01919 -5.58491e-11
3.44642e-11 -5.58491e-11 -6.51068

-10.8424 -4.07522 9.75012e-11
-4.07522 -6.9664 -8.55073e-11
9.75012e-11 -8.55073e-11 -9.8981

-9.42208 2.56879 -3.32187e-11
2.56879 -5.7397 -3.07965e-12
-3.32187e-11 -3.07965e-12 -7.44365

-8.47847 1.5375 -1.45514e-11
1.5375 -8.7647 -3.23505e-11
-1.45514e-11 -3.23505e-11 -9.89471

-0.0512739 4.37095 -2.30723e-12
4.37095 4.06489 -9.15149e-12
-2.30723e-12 -9.15149e-12 1.3338

-3.61308 2.19269 -9.05191e-12
2.19269 2.13297 -1.58854e-11
-9.05191e-12 -1.58854e-11 -0.771042

-5.18488 1.87749 3.56226e-11
1.87749 1.31668 -1.83933e-11
3.56226e-11 -1.83933e-11 -1.0507

4.61405 2.4817 4.62053e-12
2.4817 -5.92596 1.49016e-12
4.62053e-12 1.49016e-12 0.0146139

6.49213 0.841329 -2.42707e-11
0.841329 -3.90548 -9.15864e-12
-2.42707e-11 -9.15864e-12 1.02632

-8.56905 1.34429 -1.7524e-11
1.34429 -1.63106 -3.02345e-11
-1.7524e-11 -3.02345e-11 -3.63197

-10.1993 3.09675 9.24262e-12
3.09675 -0.804749 9.63377e-13
9.24262e-12 9.63377e-13 -3.60347

6.92926 -0.988034 -4.04534e-11
-0.988034 -3.38099 2.84124e-11
-4.04534e-11 2.84124e-11 1.19379

1.06678 -1.98428 2.39749e-11
-1.98428 -8.08947 1.73239e-12
2.39749e-11 1.73239e-12 -1.45483

3.55057 3.98015 -3.81399e-13
3.98015 7.67934 3.06752e-11
-3.81399e-13 3.06752e-11 4.44843

4.27274 -3.97672 7.70354e-12
-3.97672 8.2004 2.89441e-11
7.70354e-12 2.89441e-11 5.04156

9.71801 -3.64614 2.71593e-11
-3.64614 3.02211 1.15804e-11
2.71593e-11 1.15804e-11 4.82035

-6.29382 -3.74649 -3.46593e-11
-3.74649 -1.56144 1.29967e-11
-3.46593e-11 1.29967e-11 -3.13415

-4.08653 -2.59128 4.54448e-11
-2.59128 -1.25706 -1.84904e-11
4.54448e-11 -1.84904e-11 -2.8824

-3.89949 3.72381 2.11798e-11
3.72381 1.64253 -2.57146e-11
2.11798e-11 -2.57146e-11 -0.0993237

-6.9282 4.48171 -4.159e-11
4.48171 0.251546 3.30254e-11
-4.159e-11 3.30254e-11 -1.05519

-9.9422 -2.90392 3.92892e-11
-2.90392 -0.646181 -2.97587e-11
3.92892e-11 -2.97587e-11 -3.58975

-9.09873 -0.84887 -2.19495e-11
-0.84887 -1.64275 2.86e-11
-2.19495e-11 2.86e-11 -3.73952

5.69859 1.14257 -1.4253e-11
1.14257 -6.34489 -3.58065e-12
-1.4253e-11 -3.58065e-12 -0.214254

2.40646 1.43225 2.92767e-11
1.43225 8.99113 -5.77879e-12
2.92767e-11 -5.77879e-12 3.67107

2.43194 -1.17017 -1.81034e-11
-1.17017 8.8443 -4.20887e-11
-1.81034e-11 -4.20887e-11 3.7199

11.0488 -1.01071 -1.15556e-11
-1.01071 2.21174 -2.1451e-11
-1.15556e-11 -2.1451e-11 4.05052

0.253229 5.02316 7.41644e-12
5.02316 1.85542 -2.14756e-11
7.41644e-12 -2.14756e-11 0.976073

7.28631 -3.33965 1.34823e-11
-3.33965 -2.42146 4.50191e-11
1.34823e-11 4.50191e-11 1.72239

1.66395 5.3214 -2.11826e-11
5.3214 -0.855616 5.77027e-12
-2.11826e-11 5.77027e-12 0.427063

-0.610978 4.24127 -3.27436e-11
4.24127 5.07598 -3.89135e-11
-3.27436e-11 -3.89135e-11 1.20124

4.19608 -2.10601 1.54077e-12
-2.10601 -6.65073 -2.61657e-12
1.54077e-12 -2.61657e-12 -0.228215

9.87105 2.79891 -2.35102e-11
2.79891 12.6958 -2.01254e-11
-2.35102e-11 -2.01254e-11 8.78838

2.67945 2.61139 1.11697e-11
2.61139 -8.10982 1.11704e-11
1.11697e-11 1.11704e-11 -1.0527

14.0203 -2.41912 -2.04222e-11
-2.41912 9.11281 2.70413e-11
-2.04222e-11 2.70413e-11 9.10306

-5.3697 -0.921296 1.38668e-11
-0.921296 -1.72171 -5.46904e-11
1.38668e-11 -5.46904e-11 -3.8728

-5.47455 1.63479 -3.35053e-11
1.63479 -1.57883 2.59971e-11
-3.35053e-11 2.59971e-11 -3.84272

-0.438253 -4.97786 -4.81404e-11
-4.97786 -9.11526 -1.13562e-11
-4.81404e-11 -1.13562e-11 -10.313

-0.478919 5.15056 5.00907e-12
5.15056 -9.15285 5.6986e-11
5.00907e-12 5.6986e-11 -10.2414

10.4861 -1.32929 2.77384e-11
-1.32929 1.42138 1.13906e-11
2.77384e-11 1.13906e-11 4.12718

-1.6265 5.81551 -3.0825e-12
5.81551 -2.10637 -3.01421e-11
-3.0825e-12 -3.01421e-11 -0.623919

-0.120898 -3.01732 -2.00259e-11
-3.01732 -5.92011 6.06711e-12
-2.00259e-11 6.06711e-12 -4.05293

0.0240432 3.00632 -2.46485e-11
3.00632 -5.69844 1.90631e-11
-2.46485e-11 1.90631e-11 -3.7953

0.821196 1.04686 3.85266e-12
1.04686 -9.56836 3.75878e-11
3.85266e-12 3.75878e-11 -1.65146

-0.949921 4.79236 -1.25226e-11
4.79236 5.11906 -1.02098e-11
-1.25226e-11 -1.02098e-11 1.15953

6.18245 -4.14654 9.628e-12
-4.14654 -0.807417 -8.4727e-12
9.628e-12 -8.4727e-12 1.69833

1.50611 -0.257754 3.29335e-11
-0.257754 -10.1696 -2.35357e-11
3.29335e-11 -2.35357e-11 -1.40753

0.119514 -5.04132 -5.9713e-12
-5.04132 2.02633 9.62341e-13
-5.9713e-12 9.62341e-13 0.99028

-0.0892659 -4.13373 -1.54119e-11
-4.13373 4.05507 8.76366e-12
-1.54119e-11 8.76366e-12 1.31369

-5.49953 4.72022 -1.02002e-11
4.72022 2.1733 -7.73233e-13
-1.02002e-11 -7.73233e-13 -0.834653

5.61814 -5.76624 -5.08521e-11
-5.76624 1.41061 -1.7387e-11
-5.08521e-11 -1.7387e-11 2.40224

27.1857 -4.39686 7.69755e-13
-4.39686 24.6874 -1.17943e-12
7.69755e-13 -1.17943e-12 26.0529

27.2878 6.10777 2.69724e-11
6.10777 26.4553 -8.10522e-12
2.69724e-11 -8.10522e-12 26.6798

-9.87806 -5.63524 -3.92869e-11
-5.63524 -0.853913 2.0994e-11
-3.92869e-11 2.0994e-11 -2.59148

18.5265 0.801412 3.62186e-11
0.801412 15.83 -1.42687e-11
3.62186e-11 -1.42687e-11 18.2287

15.8916 -1.47626 9.63037e-12
-1.47626 15.0934 1.7968e-11
9.63037e-12 1.7968e-11 17.2099

-5.61579 -1.32174 5.39124e-12
-1.32174 -4.00537 8.14543e-11
5.39124e-12 8.14543e-11 -4.64043

-5.56533 1.37228 -9.82296e-12
1.37228 -4.10269 3.36983e-11
-9.82296e-12 3.36983e-11 -4.64337

7.02971 -0.0939038 9.63304e-13
-0.0939038 -7.47178 -2.01835e-11
9.63304e-13 -2.01835e-11 -0.222798

-6.06469 -0.717804 -3.62033e-11
-0.717804 -6.58527 -3.12739e-12
-3.62033e-11 -3.12739e-12 -5.32459

-5.99176 0.788933 -1.69441e-11
0.788933 -6.57003 1.5839e-11
-1.69441e-11 1.5839e-11 -5.29817

-4.0573 4.39575 -1.0403e-11
4.39575 3.82625 3.07168e-11
-1.0403e-11 3.07168e-11 0.0111485

-2.31185 -4.6595 1.57876e-11
-4.6595 -7.61984 1.00081e-11
1.57876e-11 1.00081e-11 -8.45588

-2.42629 4.6814 6.15719e-12
4.6814 -7.69008 1.49318e-12
6.15719e-12 1.49318e-12 -8.43411

-3.07464 -2.33754 2.00269e-11
-2.33754 -3.59963 2.6862e-11
2.00269e-11 2.6862e-11 -2.34345

-3.07371 2.35767 -5.77649e-12
2.35767 -3.63633 -1.48267e-11
-5.77649e-12 -1.48267e-11 -2.34942

10.1741 -3.97412 -3.23617e-11
-3.97412 2.99577 1.15165e-11
-3.23617e-11 1.15165e-11 5.36984

-12.6879 2.31031 -1.84817e-11
2.31031 -1.5831 1.46337e-11
-1.84817e-11 1.46337e-11 -8.55206

-9.8156 -0.44314 2.6569e-11
-0.44314 -5.73397 -7.70088e-12
2.6569e-11 -7.70088e-12 -8.97116

-0.922969 -4.84399 -2.6584e-11
-4.84399 5.1121 -3.101e-11
-2.6584e-11 -3.101e-11 1.14965

8.34406 -1.2187 4.62475e-12
-1.2187 12.1854 -2.9931e-11
4.62475e-12 -2.9931e-11 8.99459

13.6283 -1.25847 6.93993e-12
-1.25847 6.95116 -8.4972e-12
6.93993e-12 -8.4972e-12 9.24234

-6.00434 3.77473 3.83564e-13
3.77473 2.50824 -2.78267e-11
3.83564e-13 -2.78267e-11 -0.89557

-6.64189 3.76517 -1.3482e-11
3.76517 0.794568 1.06026e-12
-1.3482e-11 1.06026e-12 -1.06149

-11.9454 -3.751 3.56239e-11
-3.751 -21.0496 1.39872e-10
3.56239e-11 1.39872e-10 -18.7282

-11.7789 3.46825 1.46919e-10
3.46825 -19.9909 -2.00995e-12
1.46919e-10 -2.00995e-12 -18.4311

-8.01343 4.94057 -4.54458e-11
4.94057 -2.68295 3.50486e-11
-4.54458e-11 3.50486e-11 -1.77912

1.13691 1.50706 -1.79097e-11
1.50706 -6.30411 4.19347e-11
-1.79097e-11 4.19347e-11 -1.49421

1.25069 -1.56708 6.93504e-12
-1.56708 -6.31388 -3.20168e-11
6.93504e-12 -3.20168e-11 -1.47048

-4.54088 6.62972 3.38941e-11
6.62972 -3.21974 9.91507e-12
3.38941e-11 9.91507e-12 -1.49199

-7.17199 -4.46557 1.40572e-11
-4.46557 -0.428706 -1.70438e-11
1.40572e-11 -1.70438e-11 -2.35884

10.2772 -0.0767246 7.72715e-13
-0.0767246 0.2383 -1.79606e-11
7.72715e-13 -1.79606e-11 3.96945

8.31366 0.0957095 3.15897e-11
0.0957095 -3.26478 2.73839e-11
3.15897e-11 2.73839e-11 1.18628

8.36428 2.98031 -4.23794e-12
2.98031 -1.25119 -1.35297e-11
-4.23794e-12 -1.35297e-11 2.31647

0.178786 4.95733 -9.2429e-12
4.95733 -8.5245 -1.51157e-11
-9.2429e-12 -1.51157e-11 -3.56893

-1.89029 -0.736066 3.31147e-11
-0.736066 -5.67992 2.75809e-11
3.31147e-11 2.75809e-11 -11.829

-2.07526 0.731943 -2.15643e-11
0.731943 -5.31982 1.82847e-11
-2.15643e-11 1.82847e-11 -11.8745

6.54584 4.33211 -1.34825e-11
4.33211 6.05463 6.82891e-12
-1.34825e-11 6.82891e-12 4.17796

2.25835 -5.51898 7.69014e-13
-5.51898 -2.48592 -6.40332e-12
7.69014e-13 -6.40332e-12 0.18335

5.70942 -1.37107 -6.4135e-11
-1.37107 -3.51165 9.94179e-12
-6.4135e-11 9.94179e-12 0.279903

-12.275 5.3291 -6.93118e-12
5.3291 -2.75125 -5.00437e-12
-6.93118e-12 -5.00437e-12 -10.5052

-11.6202 -1.40065 -2.31139e-12
-1.40065 -9.7971 -5.71887e-11
-2.31139e-12 -5.71887e-11 -11.8632

0.0320515 -4.8484 -5.77945e-12
-4.8484 -8.21349 2.21693e-12
-5.77945e-12 2.21693e-12 -3.77379

-5.16748 -1.40374 5.02536e-11
-1.40374 1.52581 3.20656e-11
5.02536e-11 3.20656e-11 -1.16928

-4.27613 -1.46855 -5.09978e-12
-1.46855 2.00662 -1.59843e-11
-5.09978e-12 -1.59843e-11 -1.01508

4.9881 -0.387496 1.67562e-11
-0.387496 -9.56435 4.3322e-12
1.67562e-11 4.3322e-12 -1.23152

5.06608 0.364883 3.46669e-11
0.364883 -9.77871 -5.43946e-12
3.46669e-11 -5.43946e-12 -1.25489

8.4224 3.73279 -1.15641e-12
3.73279 6.06214 5.40294e-11
-1.15641e-12 5.40294e-11 4.57585

1.21272 -0.295807 -6.27424e-13
-0.295807 -9.1688 3.08139e-12
-6.27424e-13 3.08139e-12 -2.71928

1.21117 0.26828 -3.00922e-11
0.26828 -9.10181 7.5581e-12
-3.00922e-11 7.5581e-12 -2.69528

5.84047 1.36059 -1.04032e-11
1.36059 -3.59682 2.3809e-11
-1.04032e-11 2.3809e-11 0.293216

-0.713777 -4.31035 1.34841e-11
-4.31035 5.10784 2.0797e-11
1.34841e-11 2.0797e-11 1.16818

4.95395 -0.144315 2.94662e-11
-0.144315 -6.73302 -3.80566e-11
2.94662e-11 -3.80566e-11 -0.931607

5.00656 0.183179 2.69631e-11
0.183179 -6.90031 1.93518e-11
2.69631e-11 1.93518e-11 -0.95127

3.98656 -3.30505 7.71975e-13
-3.30505 -4.65522 4.38394e-12
7.71975e-13 4.38394e-12 -0.0525308

-5.42745 6.08384 2.0601e-11
6.08384 0.826406 -2.51287e-11
2.0601e-11 -2.51287e-11 -1.17184

5.27348 4.63075 8.09057e-12
4.63075 0.684722 2.33552e-11
8.09057e-12 2.33552e-11 1.81589

-6.67166 4.93692 2.88871e-11
4.93692 -3.72796 4.04612e-12
2.88871e-11 4.04612e-12 -1.8741

-5.45379 6.05343 -6.16255e-12
6.05343 1.61582 1.71401e-11
-6.16255e-12 1.71401e-11 -0.966783

7.83241 -2.35371 1.34796e-12
-2.35371 -2.33272 -2.07278e-11
1.34796e-12 -2.07278e-11 1.58836

1.08914 -5.40646 -2.50385e-11
-5.40646 -5.56285 -1.55481e-11
-2.50385e-11 -1.55481e-11 -1.32429

4.40553 3.30057 -2.46471e-11
3.30057 -3.83168 1.3001e-11
-2.46471e-11 1.3001e-11 0.249592

3.27261 5.40146 2.16662e-11
5.40146 1.64551 1.16069e-11
2.16662e-11 1.16069e-11 1.78704

2.27113 5.54791 -2.15737e-11
5.54791 -2.45431 -6.40784e-12
-2.15737e-11 -6.40784e-12 0.223626

-7.46315 0.508366 -5.39841e-12
0.508366 1.82343 -1.54058e-11
-5.39841e-12 -1.54058e-11 -1.39845

-7.31209 0.179592 3.08108e-11
0.179592 1.7844 3.23555e-11
3.08108e-11 3.23555e-11 -1.40617

9.53286 3.9035 -3.41968e-11
3.9035 2.87423 -7.88221e-11
-3.41968e-11 -7.88221e-11 4.65418

-4.60789 -6.6234 -9.63459e-12
-6.6234 -3.30361 7.89813e-12
-9.63459e-12 7.89813e-12 -1.52386

2.41813 -5.28008 -3.02374e-11
-5.28008 5.03526 5.00382e-11
-3.02374e-11 5.00382e-11 2.12209

2.35612 5.34547 -2.79274e-11
5.34547 5.32596 -1.60834e-11
-2.79274e-11 -1.60834e-11 2.17981

3.61951 -3.9847 -1.54328e-12
-3.9847 -4.41144 -7.367e-12
-1.54328e-12 -7.367e-12 -0.154495

1.30972 -2.63902 2.96608e-11
-2.63902 -12.7751 -1.71368e-11
2.96608e-11 -1.71368e-11 -2.92802

1.38111 2.66004 -2.69799e-12
2.66004 -12.0156 -1.4829e-11
-2.69799e-12 -1.4829e-11 -2.69738

-1.55748 2.92442 4.08317e-11
2.92442 4.96695 1.0589e-11
4.08317e-11 1.0589e-11 1.29448

1.94369 -5.56008 -1.92957e-12
-5.56008 -0.739388 2.68687e-11
-1.92957e-12 2.68687e-11 0.500611

0.467897 -0.22642 -3.58269e-11
-0.22642 9.5651 -7.94653e-12
-3.58269e-11 -7.94653e-12 3.83831

0.521849 0.0902363 -1.0784e-11
0.0902363 9.66696 -2.62525e-11
-1.0784e-11 -2.62525e-11 3.91077

11.8242 0.281206 -2.38883e-11
0.281206 0.366474 3.94026e-11
-2.38883e-11 3.94026e-11 4.35344

8.23623 -3.87251 1.34799e-11
-3.87251 6.462 -2.60026e-11
1.34799e-11 -2.60026e-11 4.62098

4.18697 4.70776 -2.92804e-11
4.70776 0.872386 5.00774e-11
-2.92804e-11 5.00774e-11 1.62923

-12.923 -9.57644 -5.96904e-11
-9.57644 -8.65196 4.83384e-12
-5.96904e-11 4.83384e-12 -15.0627

-9.35487 4.13927 5.42935e-11
4.13927 -6.63342 -2.32887e-11
5.42935e-11 -2.32887e-11 -13.8742

7.71047 2.14456 4.64235e-11
2.14456 -2.51084 -7.10169e-12
4.64235e-11 -7.10169e-12 1.47385

-3.85071 5.85903 -4.98766e-11
5.85903 3.10776 2.94602e-11
-4.98766e-11 2.94602e-11 -0.151886

7.15006 0.085975 2.27275e-11
0.085975 -7.37161 3.21592e-11
2.27275e-11 3.21592e-11 -0.176035

-1.72102 -2.82831 -2.85069e-11
-2.82831 5.02258 1.00197e-11
-2.85069e-11 1.00197e-11 1.2577

-11.8762 5.83405 3.84581e-13
5.83405 -0.889175 -1.25191e-11
3.84581e-13 -1.25191e-11 -2.79962

-6.72195 4.777 -3.23512e-11
4.777 0.0166515 2.55158e-11
-3.23512e-11 2.55158e-11 -2.05032

-5.41671 -6.06925 -1.73295e-11
-6.06925 0.76838 -9.62671e-12
-1.73295e-11 -9.62671e-12 -1.18903

-5.92701 6.13255 1.34552e-12
6.13255 1.97981 -1.83902e-11
1.34552e-12 -1.83902e-11 -0.997149

-4.92114 4.65006 -3.85342e-12
4.65006 -0.30958 -4.21809e-11
-3.85342e-12 -4.21809e-11 -0.628998

6.68368 0.0525883 -9.24453e-12
0.0525883 -10.7986 -1.2649e-12
-9.24453e-12 -1.2649e-12 -1.04629

4.7611 -4.64668 -2.36919e-11
-4.64668 1.0534 -7.26745e-12
-2.36919e-11 -7.26745e-12 1.83454

-6.76702 -4.96016 4.62252e-12
-4.96016 -3.79119 -4.94937e-11
4.62252e-12 -4.94937e-11 -1.9116

3.39531 -3.97483 -1.15064e-12
-3.97483 3.74149 8.19036e-11
-1.15064e-12 8.19036e-11 1.87337

6.60666 -3.85364 2.30675e-12
-3.85364 6.71116 2.0234e-11
2.30675e-12 2.0234e-11 4.68102

-1.8552 -5.73941 2.19582e-11
-5.73941 -2.00226 9.53467e-12
2.19582e-11 9.53467e-12 -0.655606

1.76517 -2.35381 3.39062e-11
-2.35381 8.6584 -5.5432e-11
3.39062e-11 -5.5432e-11 3.23511

1.70298 2.23294 2.27347e-11
2.23294 8.69053 -1.44399e-11
2.27347e-11 -1.44399e-11 3.20379

9.68247 1.34684 -3.7759e-11
1.34684 1.94399 -5.6196e-11
-3.7759e-11 -5.6196e-11 3.56628

3.33568 4.1449 -5.14237e-11
4.1449 3.70749 -1.95037e-11
-5.14237e-11 -1.95037e-11 1.8607

-2.14273 0.732742 2.88873e-11
0.732742 5.34213 2.44624e-11
2.88873e-11 2.44624e-11 0.819191

-2.13784 -0.157225 1.23278e-11
-0.157225 5.31912 2.32103e-11
1.23278e-11 2.32103e-11 0.835931

5.22071 -4.53851 2.09982e-11
-4.53851 7.529 -2.31632e-11
2.09982e-11 -2.31632e-11 4.65629

5.51368 4.54666 3.15899e-11
4.54666 7.59435 1.66138e-11
3.15899e-11 1.66138e-11 4.75234

6.78125 0.364436 -1.09769e-11
0.364436 -9.96124 1.786e-11
-1.09769e-11 1.786e-11 -0.970268

6.87738 -0.345732 -2.34971e-11
-0.345732 -10.0717 9.1227e-12
-2.34971e-11 9.1227e-12 -0.959751

-3.83674 5.34164 3.89015e-11
5.34164 2.85789 -7.22126e-12
3.89015e-11 -7.22126e-12 -0.266888

-12.3432 -5.20885 3.65865e-11
-5.20885 -1.151 -5.19962e-12
3.65865e-11 -5.19962e-12 -2.77708

-0.240301 5.87478 4.93023e-11
5.87478 -3.88137 -1.56888e-11
4.93023e-11 -1.56888e-11 -1.06554

11.8021 2.72647 -1.61826e-11
2.72647 4.56404 -9.84716e-12
-1.61826e-11 -9.84716e-12 6.79981

-1.70332 3.54412 4.31404e-11
3.54412 6.741 -3.98671e-11
4.31404e-11 -3.98671e-11 1.50001

-2.21845 0.34913 -6.27796e-11
0.34913 -5.65883 -3.29776e-11
-6.27796e-11 -3.29776e-11 -3.23833

-2.21651 -0.312269 -4.08265e-11
-0.312269 -5.58969 -1.73228e-12
-4.08265e-11 -1.73228e-12 -3.22741

2.42652 3.42203 2.3693e-11
3.42203 0.174909 4.75705e-11
2.3693e-11 4.75705e-11 0.450958

1.54333 -2.11561 3.02346e-11
-2.11561 -2.19805 -1.92713e-12
3.02346e-11 -1.92713e-12 -0.684773

1.52395 2.15628 8.08672e-12
2.15628 -2.19396 -2.35892e-11
8.08672e-12 -2.35892e-11 -0.687852

15.4653 -2.14594 4.39217e-11
-2.14594 10.6115 -2.24169e-11
4.39217e-11 -2.24169e-11 16.4281

9.28692 2.70498 1.81114e-11
2.70498 14.2917 -6.57469e-12
1.81114e-11 -6.57469e-12 16.1786

-2.00152 -3.48289 4.23887e-12
-3.48289 6.65554 -9.05305e-12
4.23887e-12 -9.05305e-12 1.41009

-7.29926 -0.785234 2.63817e-11
-0.785234 -9.83359 -6.86444e-11
2.63817e-11 -6.86444e-11 -9.31352

-7.23983 0.894914 7.51303e-12
0.894914 -9.72997 6.63336e-11
7.51303e-12 6.63336e-11 -9.26802

12.2625 2.34354 -6.54854e-12
2.34354 4.40791 -1.04607e-11
-6.54854e-12 -1.04607e-11 6.93603

-7.0092 -2.88697 2.30851e-12
-2.88697 1.60075 -4.0421e-12
2.30851e-12 -4.0421e-12 -1.12833

-6.11483 -2.81785 2.00281e-11
-2.81785 2.20816 1.8395e-11
2.00281e-11 1.8395e-11 -1.09102

3.84275 -5.67498 1.92523e-11
-5.67498 2.75177 7.15096e-11
1.92523e-11 7.15096e-11 2.2211

-5.8781 -6.17139 -6.93075e-12
-6.17139 1.95913 -1.55983e-11
-6.93075e-12 -1.55983e-11 -0.999448

-10.616 7.36283 4.62795e-12
7.36283 -2.4511 5.31551e-11
4.62795e-12 5.31551e-11 -2.078

-4.28289 3.33545 -7.70458e-12
3.33545 -1.83101 1.2808e-11
-7.70458e-12 1.2808e-11 -3.03831

-6.42807 4.60364 -6.16344e-12
4.60364 -2.05184 -2.18581e-11
-6.16344e-12 -2.18581e-11 -3.23809

-3.96145 -5.39468 -2.31074e-11
-5.39468 2.83737 -1.29966e-11
-2.31074e-11 -1.29966e-11 -0.305521

-2.31541 5.6634 -5.77756e-11
5.6634 -1.59436 -2.82194e-11
-5.77756e-11 -2.82194e-11 -0.465804

2.3601 -3.47422 1.54095e-11
-3.47422 0.199493 -2.19552e-11
1.54095e-11 -2.19552e-11 0.435649

7.29225 4.14658 3.15892e-11
4.14658 -0.97936 2.79272e-11
3.15892e-11 2.79272e-11 2.23651

8.15664 -0.127105 2.33051e-11
-0.127105 -3.39323 -1.41868e-11
2.33051e-11 -1.41868e-11 1.12274

-5.94651 6.43475 9.61324e-13
6.43475 1.70355 -1.75243e-11
9.61324e-13 -1.75243e-11 -0.92436

-4.17993 -3.87564 5.00929e-12
-3.87564 1.57829 -2.09872e-11
5.00929e-12 -2.09872e-11 -0.180125

-3.75806 1.41462 -2.04112e-11
1.41462 4.91345 1.59887e-11
-2.04112e-11 1.59887e-11 0.576795

-1.52353 3.9675 -2.50371e-11
3.9675 -1.58963 -3.73634e-11
-2.50371e-11 -3.73634e-11 -0.912705

-3.54591 1.75747 1.42478e-11
1.75747 5.42515 3.84244e-11
1.42478e-11 3.84244e-11 0.602123

-6.03804 -4.96934 -2.02178e-11
-4.96934 0.580596 -6.92761e-12
-2.02178e-11 -6.92761e-12 -1.70343

13.8372 -2.788 3.9296e-11
-2.788 14.4376 2.90942e-11
3.9296e-11 2.90942e-11 13.0938

16.413 -2.80582 -1.42511e-11
-2.80582 12.2856 -1.90821e-11
-1.42511e-11 -1.90821e-11 13.3214

5.5252 -1.12094 -5.03668e-11
-1.12094 -6.32858 1.42721e-11
-5.03668e-11 1.42721e-11 -0.249399

-1.54689 -3.9774 -2.92744e-11
-3.9774 -1.63338 9.4517e-14
-2.92744e-11 9.4517e-14 -0.927124

-7.48351 -5.32302 3.84974e-12
-5.32302 -16.9024 3.72589e-11
3.84974e-12 3.72589e-11 -15.5783

-7.30813 5.09851 8.65987e-12
5.09851 -16.4649 -7.24868e-11
8.65987e-12 -7.24868e-11 -15.429

-3.98395 -5.77889 9.82496e-12
-5.77889 3.0029 -4.91214e-12
9.82496e-12 -4.91214e-12 -0.223062

-4.3158 -4.95336 1.23218e-11
-4.95336 -4.27859 -7.7008e-12
1.23218e-11 -7.7008e-12 -6.6188

-4.38692 5.03435 3.96686e-11
5.03435 -4.22961 5.72802e-11
3.96686e-11 5.72802e-11 -6.51643

3.20738 1.08912 1.15315e-12
1.08912 -6.87912 7.41374e-12
1.15315e-12 7.41374e-12 -0.431294

-10.7714 -7.37219 5.39531e-12
-7.37219 -2.65463 -2.92727e-11
5.39531e-12 -2.92727e-11 -2.14141

11.543 -3.31955 -2.38955e-11
-3.31955 11.2375 4.50719e-11
-2.38955e-11 4.50719e-11 10.2785

11.9276 3.33202 -1.19478e-11
3.33202 9.56824 -8.71466e-12
-1.19478e-11 -8.71466e-12 9.68684

7.21862 -2.47446 -2.63934e-11
-2.47446 11.8749 3.11141e-11
-2.63934e-11 3.11141e-11 7.76057

6.61248 2.30131 2.17715e-11
2.30131 12.0501 2.62926e-11
2.17715e-11 2.62926e-11 7.73046

13.1 1.41806 2.19611e-11
1.41806 5.96513 2.58874e-11
2.19611e-11 2.58874e-11 7.95868

-5.90083 -6.48452 3.8511e-12
-6.48452 1.8171 3.46689e-12
3.8511e-12 3.46689e-12 -0.899556

7.20264 0.737118 1.57984e-11
0.737118 13.5601 -2.60845e-11
1.57984e-11 -2.60845e-11 9.58378

15.3042 -0.802281 -3.85914e-13
-0.802281 7.27345 -5.45394e-12
-3.85914e-13 -5.45394e-12 10.1545

-9.57444 -2.04455 -4.54435e-11
-2.04455 -1.38642 4.2355e-12
-4.54435e-11 4.2355e-12 -5.8093

-6.33847 -0.1257 -1.31017e-11
-0.1257 -3.99383 -1.0225e-10
-1.31017e-11 -1.0225e-10 -5.83234

2.53944 3.22083 6.54565e-12
3.22083 -5.1253 -1.96883e-11
6.54565e-12 -1.96883e-11 -0.951602

1.62281 -0.228154 1.15552e-11
-0.228154 -13.9406 -3.43027e-12
1.15552e-11 -3.43027e-12 -2.08351

1.71393 3.27101 1.54084e-11
3.27101 7.70271 2.4705e-11
1.54084e-11 2.4705e-11 3.14253

1.64398 -3.42301 5.39366e-11
-3.42301 7.69204 -2.7401e-11
5.39366e-11 -2.7401e-11 3.14795

3.8089 -0.613487 1.34822e-11
-0.613487 -6.69584 -2.56824e-12
1.34822e-11 -2.56824e-12 -0.264695

-4.21799 -4.38411 1.9259e-12
-4.38411 3.91815 1.73298e-11
1.9259e-12 1.73298e-11 -0.0232698

-4.16644 0.458944 9.2449e-12
0.458944 -8.02112 -1.06178e-12
9.2449e-12 -1.06178e-12 -6.31653

-4.19158 -0.396763 -7.8928e-12
-0.396763 -7.99646 4.46709e-11
-7.8928e-12 4.46709e-11 -6.30608

0.267985 4.89397 -1.56006e-11
4.89397 -3.15879 3.55278e-11
-1.56006e-11 3.55278e-11 -1.08013

-2.46053 -5.52345 3.46441e-12
-5.52345 -1.64728 -6.26033e-12
3.46441e-12 -6.26033e-12 -0.504446

2.98843 2.93697 -3.85122e-12
2.93697 -8.38093 1.09289e-11
-3.85122e-12 1.09289e-11 -1.20668

7.27439 4.32634 -1.69472e-11
4.32634 3.90495 -8.91213e-12
-1.69472e-11 -8.91213e-12 4.10636

-4.91726 -4.78794 -3.00447e-11
-4.78794 -0.160762 -5.79018e-13
-3.00447e-11 -5.79018e-13 -0.607943

27.7263 7.44503 4.39285e-11
7.44503 26.0958 -2.92074e-12
4.39285e-11 -2.92074e-12 27.6287

-3.56469 -1.05736 -2.69618e-11
-1.05736 4.80703 -2.80072e-12
-2.69618e-11 -2.80072e-12 0.574445

-3.29025 -1.57435 7.70621e-12
-1.57435 5.22094 3.00487e-11
7.70621e-12 3.00487e-11 0.621452

-10.1963 2.18016 3.46485e-12
2.18016 -2.50907 -4.44818e-11
3.46485e-12 -4.44818e-11 -6.91106

-9.04551 -3.26028 -2.31958e-12
-3.26028 -3.53813 -5.00385e-12
-2.31958e-12 -5.00385e-12 -6.91171

4.42181 -0.172878 -1.30954e-11
-0.172878 -10.875 -4.71774e-12
-1.30954e-11 -4.71774e-12 -2.10772

4.45311 0.161441 -1.15559e-11
0.161441 -10.9432 -4.59806e-12
-1.15559e-11 -4.59806e-12 -2.09669

-1.76442 -6.39373 -2.4652e-11
-6.39373 -5.33307 6.84123e-12
-2.4652e-11 6.84123e-12 -2.97013

-1.39517 6.449 -4.66033e-11
6.449 -5.82746 2.94577e-11
-4.66033e-11 2.94577e-11 -2.8591

-0.943318 -2.32957 -1.65591e-11
-2.32957 -4.38756 3.08394e-12
-1.65591e-11 3.08394e-12 -4.92226

-1.04406 2.32421 4.00511e-11
2.32421 -4.30765 -2.03147e-11
4.00511e-11 -2.03147e-11 -4.87921

-9.86811 -2.03369 6.93208e-12
-2.03369 -14.015 1.56903e-11
6.93208e-12 1.56903e-11 -13.3831

-9.7623 2.18889 -5.25709e-11
2.18889 -13.6502 -1.11003e-10
-5.25709e-11 -1.11003e-10 -13.2559

-6.56773 -6.11947 3.38921e-11
-6.11947 -0.36358 -8.28353e-12
3.38921e-11 -8.28353e-12 -2.05584

-6.54407 6.08797 -3.60115e-11
6.08797 -0.412781 -1.6949e-11
-3.60115e-11 -1.6949e-11 -2.07699

2.87768 -3.17327 -1.92661e-12
-3.17327 -2.77791 8.42804e-12
-1.92661e-12 8.42804e-12 -0.0162589

-3.51261 -2.6809 -9.63e-12
-2.6809 2.91985 4.42624e-12
-9.63e-12 4.42624e-12 0.118705

0.895608 5.15961 1.71452e-11
5.15961 0.837576 1.53152e-11
1.71452e-11 1.53152e-11 0.439805

-2.95345 -3.75927 1.19388e-11
-3.75927 4.32314 2.07079e-11
1.19388e-11 2.07079e-11 0.286902

8.50572 -3.99677 1.85005e-11
-3.99677 5.44389 -6.55377e-11
1.85005e-11 -6.55377e-11 4.90158

2.95012 3.1325 4.79576e-11
3.1325 -2.75068 -5.8266e-12
4.79576e-11 -5.8266e-12 0.0166727

-3.10265 2.66548 1.97694e-12
2.66548 3.01286 -7.12038e-12
1.97694e-12 -7.12038e-12 0.239286

-7.06487 -7.60804 -1.69446e-11
-7.60804 -4.03438 -3.45651e-11
-1.69446e-11 -3.45651e-11 -2.71089

-7.04821 7.61326 -3.88996e-11
7.61326 -4.08658 -1.4258e-11
-3.88996e-11 -1.4258e-11 -2.72235

2.15239 -3.05987 1.8869e-11
-3.05987 -5.42399 1.18395e-11
1.8869e-11 1.18395e-11 -1.30911

-9.04798 -5.69535 -4.08207e-11
-5.69535 -4.28135 2.3681e-11
-4.08207e-11 2.3681e-11 -13.484

-12.7208 5.82801 -6.00775e-11
5.82801 -16.3471 1.86715e-11
-6.00775e-11 1.86715e-11 -16.5455

-3.83116 -4.31048 -3.08372e-12
-4.31048 2.06719 1.06885e-11
-3.08372e-12 1.06885e-11 -0.72288

1.22405 5.38399 -2.15682e-11
5.38399 -5.21921 7.6998e-12
-2.15682e-11 7.6998e-12 -1.07819

0.426136 0.347164 -9.63422e-12
0.347164 -5.63871 -1.19846e-11
-9.63422e-12 -1.19846e-11 -3.22495

0.865472 -5.04556 5.97089e-11
-5.04556 1.0801 -3.08216e-11
5.97089e-11 -3.08216e-11 0.47616

13.2515 3.2306 3.23695e-11
3.2306 14.4197 1.34944e-12
3.23695e-11 1.34944e-12 12.2147

14.7529 3.19495 -3.77568e-11
3.19495 11.5613 2.39793e-11
-3.77568e-11 2.39793e-11 11.9652

3.11543 0.636404 -3.21613e-11
0.636404 -10.1172 1.0855e-11
-3.21613e-11 1.0855e-11 -2.75495

3.00658 -0.642415 -1.09767e-11
-0.642415 -10.1562 -1.53999e-12
-1.09767e-11 -1.53999e-12 -2.76788

0.509544 -0.563456 3.62056e-11
-0.563456 -5.41302 2.1662e-11
3.62056e-11 2.1662e-11 -3.29439

-2.74759 3.58026 -1.84642e-11
3.58026 4.25176 4.03551e-11
-1.84642e-11 4.03551e-11 0.322102

7.29649 -2.52042 -1.45904e-11
-2.52042 0.600081 1.0613e-12
-1.45904e-11 1.0613e-12 1.9291

-2.96328 -3.06092 1.67533e-11
-3.06092 -1.15665 9.14683e-12
1.67533e-11 9.14683e-12 -1.83421

-2.94851 3.0653 1.15263e-12
3.0653 -1.15243 3.2739e-11
1.15263e-12 3.2739e-11 -1.82996

-4.83764 -0.420866 -5.81398e-11
-0.420866 -0.552079 -1.9808e-11
-5.81398e-11 -1.9808e-11 -12.3494

-4.79938 0.414988 -5.04372e-11
0.414988 -0.651203 -8.07492e-11
-5.04372e-11 -8.07492e-11 -12.3208

-5.84312 -5.22608 1.23235e-11
-5.22608 1.97507 2.08962e-11
1.23235e-11 2.08962e-11 -0.881909

4.02435 4.14067 1.73354e-11
4.14067 -3.61298 3.89244e-13
1.73354e-11 3.89244e-13 0.16441

0.269259 -0.5069 -2.80169e-11
-0.5069 -6.5939 1.35268e-11
-2.80169e-11 1.35268e-11 -3.01828

0.280206 0.552497 -2.31065e-11
0.552497 -6.60661 1.70413e-11
-2.31065e-11 1.70413e-11 -3.02527

-6.54295 -3.31954 -1.34871e-11
-3.31954 -0.22021 2.18596e-11
-1.34871e-11 2.18596e-11 -1.31571

-7.93577 -5.30305 4.23728e-12
-5.30305 -2.82639 -2.57125e-11
4.23728e-12 -2.57125e-11 -1.66668

27.6722 -7.72268 -1.07928e-11
-7.72268 27.9055 2.22777e-11
-1.07928e-11 2.22777e-11 27.9252

-6.33969 -4.95332 -1.07831e-11
-4.95332 -2.04759 -5.19692e-12
-1.07831e-11 -5.19692e-12 -3.27015

-6.26278 4.99693 -3.15801e-11
4.99693 -2.07201 -7.77789e-13
-3.15801e-11 -7.77789e-13 -3.2301

-7.15821 -5.09796 -5.00717e-11
-5.09796 -0.802932 3.65767e-12
-5.00717e-11 3.65767e-12 -1.20264

7.30623 2.67299 4.39149e-11
2.67299 0.418574 -5.00762e-12
4.39149e-11 -5.00762e-12 1.84635

0.411523 -4.6985 -9.53119e-12
-4.6985 -3.47633 -2.21441e-11
-9.53119e-12 -2.21441e-11 -1.23405

-0.956034 -5.21655 -9.24623e-12
-5.21655 -5.11104 2.84992e-11
-9.24623e-12 2.84992e-11 -2.55847

-0.693518 5.09027 -3.65894e-11
5.09027 -5.20657 7.69744e-12
-3.65894e-11 7.69744e-12 -2.48439

2.72393 -2.91678 8.0862e-12
-2.91678 -8.91192 1.32404e-11
8.0862e-12 1.32404e-11 -1.47964

-0.372291 1.27681 -4.41038e-11
1.27681 -9.01084 -1.78109e-11
-4.41038e-11 -1.78109e-11 -4.65493

-0.420258 -1.25267 -1.1548e-11
-1.25267 -8.90619 -6.26018e-12
-1.1548e-11 -6.26018e-12 -4.63034

-14.1969 -2.02357 3.58114e-11
-2.02357 -3.41177 -4.73625e-11
3.58114e-11 -4.73625e-11 -12.2842

-12.1186 4.41684 7.81666e-11
4.41684 -4.19842 -3.00361e-11
7.81666e-11 -3.00361e-11 -11.9816

16.8654 0.656228 -6.51325e-11
0.656228 9.27881 4.93413e-12
-6.51325e-11 4.93413e-12 16.7498

11.6884 1.22761 7.70347e-13
1.22761 15.4087 2.25375e-11
7.70347e-13 2.25375e-11 16.8425

-4.61831 4.87904 -5.58331e-12
4.87904 1.2842 4.9117e-12
-5.58331e-12 4.9117e-12 -1.21623

-4.60279 -4.88203 1.73247e-12
-4.88203 1.3059 3.52428e-11
1.73247e-12 3.52428e-11 -1.20775

-5.71511 -6.23362 4.6198e-12
-6.23362 1.87609 1.82962e-11
4.6198e-12 1.82962e-11 -0.891376

17.0597 -3.25666 -1.92694e-12
-3.25666 16.4057 -4.54415e-11
-1.92694e-12 -4.54415e-11 18.9616

17.8087 -2.68854 -5.93444e-11
-2.68854 16.7588 -1.04299e-11
-5.93444e-11 -1.04299e-11 19.2429

-17.5114 4.30185 -3.75753e-11
4.30185 -8.92908 -2.59078e-10
-3.75753e-11 -2.59078e-10 -16.6071

-17.6284 -4.52183 -1.17423e-10
-4.52183 -9.38425 -1.28819e-10
-1.17423e-10 -1.28819e-10 -16.7235

-0.361601 -5.90813 1.96446e-11
-5.90813 -3.91506 2.42589e-11
1.96446e-11 2.42589e-11 -1.1126

-0.45572 -4.77356 5.68102e-11
-4.77356 2.49297 -2.96603e-11
5.68102e-11 -2.96603e-11 0.458134

-4.38092 4.70347 2.06061e-11
4.70347 -0.960274 1.93242e-12
2.06061e-11 1.93242e-12 -1.61729

-4.37994 -4.70151 4.81459e-12
-4.70151 -0.968633 -1.37707e-11
4.81459e-12 -1.37707e-11 -1.6176

-3.04867 -5.55483 -2.70399e-12
-5.55483 1.64513 3.72687e-11
-2.70399e-12 3.72687e-11 -0.38748

-0.337617 4.84011 2.94645e-11
4.84011 2.4319 -2.05061e-11
2.94645e-11 -2.05061e-11 0.471623

6.41951 -1.77997 -2.00363e-11
-1.77997 11.454 5.44196e-11
-2.00363e-11 5.44196e-11 7.37159

6.76779 1.49704 -1.65745e-11
1.49704 12.0866 3.86754e-11
-1.65745e-11 3.86754e-11 7.64424

12.644 1.28069 2.25403e-11
1.28069 6.24291 6.40506e-13
2.25403e-11 6.40506e-13 7.72777

-2.99322 5.54107 3.63983e-11
5.54107 1.66196 4.85686e-13
3.63983e-11 4.85686e-13 -0.370459

8.68217 -0.841395 -7.28202e-11
-0.841395 14.1587 -1.84751e-11
-7.28202e-11 -1.84751e-11 10.3759

15.0374 -0.505755 2.69784e-12
-0.505755 7.14606 1.50946e-11
2.69784e-12 1.50946e-11 10.3089

-5.84757 -4.54598 -6.54943e-12
-4.54598 -1.74422 4.32358e-11
-6.54943e-12 4.32358e-11 -2.73737

-5.79507 4.52343 -4.35206e-11
4.52343 -1.73134 -2.69638e-12
-4.35206e-11 -2.69638e-12 -2.72544

-6.04491 -3.45377 -1.8294e-11
-3.45377 -2.29751 5.57532e-11
-1.8294e-11 5.57532e-11 -3.25522

-6.0141 3.45295 7.68422e-13
3.45295 -2.38757 2.33999e-11
7.68422e-13 2.33999e-11 -3.26691

18.5629 2.99166 2.0038e-11
2.99166 16.7523 5.38617e-11
2.0038e-11 5.38617e-11 19.9265

18.4719 2.85364 1.84933e-11
2.85364 17.1042 -1.23244e-11
1.84933e-11 -1.23244e-11 20.0542

-1.78515 4.31946 -3.83216e-11
4.31946 1.18374 3.18729e-11
-3.83216e-11 3.18729e-11 -0.407062

-1.77772 -4.34816 -7.51384e-12
-4.34816 1.22442 3.139e-11
-7.51384e-12 3.139e-11 -0.398062

-10.065 -4.18214 4.89088e-11
-4.18214 -4.11365 -2.63871e-11
4.89088e-11 -2.63871e-11 -8.30444

-8.80298 1.88416 6.19995e-11
1.88416 -7.8065 -7.25964e-11
6.19995e-11 -7.25964e-11 -8.80526

-7.41371 -4.68669 1.02063e-11
-4.68669 -0.322348 -6.22995e-11
1.02063e-11 -6.22995e-11 -2.93315

-7.44669 4.68906 -1.94512e-11
4.68906 -0.482904 -4.49657e-11
-1.94512e-11 -4.49657e-11 -2.98805

-3.20517 0.301317 -4.91038e-11
0.301317 -10.7696 8.24133e-11
-4.91038e-11 8.24133e-11 -5.88188

-3.21387 -0.257556 -2.63796e-11
-0.257556 -10.7276 -5.29939e-12
-2.63796e-11 -5.29939e-12 -5.86467

-3.57407 -5.30964 3.15827e-11
-5.30964 -3.09419 1.47313e-11
3.15827e-11 1.47313e-11 -1.71842

-3.3794 5.37753 6.5477e-11
5.37753 -3.24768 -6.34903e-12
6.5477e-11 -6.34903e-12 -1.70749

-5.42944 1.29371 2.04121e-11
1.29371 -12.2448 2.50422e-12
2.04121e-11 2.50422e-12 -9.87308

-10.3387 0.224868 -7.54834e-11
0.224868 -14.4653 7.58595e-11
-7.54834e-11 7.58595e-11 -13.617

-5.42946 -1.31186 2.5033e-11
-1.31186 -12.2239 1.15641e-12
2.5033e-11 1.15641e-12 -9.86951

-10.3557 -0.355364 -2.54147e-11
-0.355364 -14.7178 -5.64165e-11
-2.54147e-11 -5.64165e-11 -13.6711

-11.9984 0.218006 -3.88919e-11
0.218006 -6.1916 5.98874e-11
-3.88919e-11 5.98874e-11 -10.5869

-3.31997 5.21792 -1.46334e-11
5.21792 -7.16323 -6.44149e-11
-1.46334e-11 -6.44149e-11 -9.39627

-3.30697 -5.19764 4.62034e-12
-5.19764 -7.14048 -1.25366e-12
4.62034e-12 -1.25366e-12 -9.41468

-14.308 -2.79654 -3.85156e-11
-2.79654 -0.833501 8.04898e-11
-3.85156e-11 8.04898e-11 -9.90973

-14.5724 -2.46618 6.62284e-11
-2.46618 -13.1241 2.17292e-10
6.62284e-11 2.17292e-10 -14.4775

2.97053 -3.57395 -2.26824e-10
-3.57395 -26.2995 1.55872e-10
-2.26824e-10 1.55872e-10 -16.7494

-14.8267 2.59717 -1.17854e-10
2.59717 -12.6597 -4.43166e-10
-1.17854e-10 -4.43166e-10 -14.3666

3.01967 3.3046 -1.184e-09
3.3046 -25.2129 6.99331e-10
-1.184e-09 6.99331e-10 -16.4355

-8.71997 -3.38043 -6.04619e-11
-3.38043 -10.1433 -1.63508e-12
-6.04619e-11 -1.63508e-12 -10.6632

-6.99933 -2.36003 5.16055e-11
-2.36003 -3.41817 -4.86237e-11
5.16055e-11 -4.86237e-11 -5.49082

-13.5906 -0.197532 -2.40711e-11
-0.197532 -16.9074 -2.21425e-12
-2.40711e-11 -2.21425e-12 -16.1

-8.83577 3.54844 4.8524e-11
3.54844 -10.0804 -1.06855e-11
4.8524e-11 -1.06855e-11 -10.639

-6.95508 2.44053 -1.03981e-11
2.44053 -3.57269 -2.52247e-11
-1.03981e-11 -2.52247e-11 -5.51787

-13.493 0.222634 -3.19652e-11
0.222634 -16.2466 2.03714e-10
-3.19652e-11 2.03714e-10 -15.8804

-9.49917 -1.9488 6.52767e-11
-1.9488 -6.64427 4.13902e-12
6.52767e-11 4.13902e-12 -7.59662

-8.31317 -1.09425 2.96573e-11
-1.09425 -9.81666 3.3684e-12
2.96573e-11 3.3684e-12 -10.0831

-9.40292 2.04057 -3.07754e-12
2.04057 -6.63352 -1.06887e-11
-3.07754e-12 -1.06887e-11 -7.55888

-8.25462 1.14354 3.08309e-12
1.14354 -9.76981 -4.91029e-12
3.08309e-12 -4.91029e-12 -10.0408

0.192711 4.59979 -2.52349e-11
4.59979 5.50707 -4.93146e-11
-2.52349e-11 -4.93146e-11 1.426

-6.41098 0.929424 2.25297e-11
0.929424 3.37276 2.23427e-11
2.25297e-11 2.23427e-11 -0.992971

-2.31496 2.47607 3.50484e-11
2.47607 1.5194 7.32074e-12
3.50484e-11 7.32074e-12 -0.736429

4.16466 -3.01153 -2.71552e-11
-3.01153 -5.84231 -3.81298e-11
-2.71552e-11 -3.81298e-11 -0.0173303

5.78818 -1.84088 -1.25232e-11
-1.84088 -3.3425 -3.1204e-11
-1.25232e-11 -3.1204e-11 0.998443

-11.0576 1.41072 3.85365e-12
1.41072 2.2133 2.5422e-11
3.85365e-12 2.5422e-11 -3.39228

-7.64327 2.55702 5.8155e-11
2.55702 -3.0203 -1.55e-11
5.8155e-11 -1.55e-11 -3.78055

5.61439 -0.017192 -7.12571e-12
-0.017192 -3.0875 1.65591e-11
-7.12571e-12 1.65591e-11 0.998813

0.65571 1.16437 -6.83768e-12
1.16437 -10.0014 1.09762e-11
-6.83768e-12 1.09762e-11 -1.68806

3.32196 3.97911 1.48322e-11
3.97911 9.15906 3.81422e-11
1.48322e-11 3.81422e-11 4.57428

2.38757 3.14952 8.28663e-12
3.14952 9.60478 2.38916e-11
8.28663e-12 2.38916e-11 4.84788

9.24431 3.15581 3.46582e-12
3.15581 3.61255 -1.42529e-11
3.46582e-12 -1.42529e-11 5.07895

-4.30174 -4.80566 2.09913e-11
-4.80566 -1.61407 -4.81393e-12
2.09913e-11 -4.81393e-12 -3.11228

-4.93702 -2.01979 2.19541e-11
-2.01979 0.393737 2.96565e-11
2.19541e-11 2.96565e-11 -2.76829

0.242435 -5.55428 -1.25176e-11
-5.55428 -0.470226 6.5512e-12
-1.25176e-11 6.5512e-12 0.0894533

-3.63184 4.46427 -3.86395e-13
4.46427 3.37117 2.81186e-11
-3.86395e-13 2.81186e-11 -0.0208647

-5.06944 5.21328 1.15948e-12
5.21328 1.44399 4.14053e-11
1.15948e-12 4.14053e-11 -0.907714

-7.83608 -2.51956 -1.07847e-11
-2.51956 -3.09702 -1.69471e-11
-1.07847e-11 -1.69471e-11 -3.91518

-11.0727 -1.67076 -2.31251e-12
-1.67076 2.49225 7.12533e-11
-2.31251e-12 7.12533e-11 -3.3971

5.04289 1.40288 2.874e-13
1.40288 -5.87086 7.3202e-12
2.874e-13 7.3202e-12 -0.14035

2.32002 1.30741 -1.16096e-12
1.30741 9.79087 3.21694e-11
-1.16096e-12 3.21694e-11 3.65862

0.788059 0.578401 -1.59866e-11
0.578401 9.70473 2.30808e-12
-1.59866e-11 2.30808e-12 3.60885

10.3569 0.543855 -1.98403e-11
0.543855 2.33916 3.46713e-11
-1.98403e-11 3.46713e-11 4.08752

-1.97046 3.14518 -1.96462e-11
3.14518 5.67653 -8.86121e-12
-1.96462e-11 -8.86121e-12 1.28644

0.032628 5.1392 -3.62104e-11
5.1392 4.41218 -5.70138e-11
-3.62104e-11 -5.70138e-11 1.23236

3.29512 0.875007 -3.27101e-12
0.875007 -6.34425 3.46253e-12
-3.27101e-12 3.46253e-12 -0.267816

8.98861 2.37794 -3.35126e-11
2.37794 13.4759 2.8891e-12
-3.35126e-11 2.8891e-12 8.64809

2.41986 -3.21713 -2.6191e-11
-3.21713 -8.50426 -2.42621e-11
-2.6191e-11 -2.42621e-11 -1.09755

-5.97943 0.244078 -2.06004e-11
0.244078 1.16931 1.92542e-11
-2.06004e-11 1.92542e-11 -3.63748

-3.86181 0.0682905 -2.56105e-11
0.0682905 -2.85957 7.89398e-12
-2.56105e-11 7.89398e-12 -3.90982

-1.43821 2.15827 4.2382e-12
2.15827 -13.5977 3.15797e-11
4.2382e-12 3.15797e-11 -10.9281

-0.479294 -5.1955 -3.19671e-11
-5.1955 -9.19523 2.23373e-11
-3.19671e-11 2.23373e-11 -10.2354

-0.947424 -5.89382 -2.09919e-11
-5.89382 0.61935 1.8102e-11
-2.09919e-11 1.8102e-11 0.187866

-1.46786 -4.76774 1.92713e-12
-4.76774 3.82741 2.27269e-11
1.92713e-12 2.27269e-11 1.02167

9.52964 -1.64117 -1.16553e-11
-1.64117 0.710295 4.24127e-12
-1.16553e-11 4.24127e-12 3.67964

-0.879396 0.847817 -3.69688e-11
0.847817 -6.73283 -1.82904e-11
-3.69688e-11 -1.82904e-11 -4.10093

-0.0878112 -3.0786 3.84137e-13
-3.0786 -5.55363 3.85403e-12
3.84137e-13 3.85403e-12 -3.77574

0.838428 -1.36753 4.62641e-12
-1.36753 -9.86316 -2.07962e-11
4.62641e-12 -2.07962e-11 -1.60058

1.45204 -0.406125 -7.89431e-12
-0.406125 -10.6879 -8.85825e-12
-7.89431e-12 -8.85825e-12 -1.34483

5.73977 -4.86144 1.34839e-11
-4.86144 0.975037 -3.83619e-13
1.34839e-11 -3.83619e-13 2.00601

7.11054 2.24711 -3.08183e-12
2.24711 -1.01508 -8.47652e-12
-3.08183e-12 -8.47652e-12 2.00887

6.60036 -3.96695 1.57937e-11
-3.96695 -1.24196 -6.54954e-12
1.57937e-11 -6.54954e-12 1.86615

-8.2074 3.26733 -1.67561e-11
3.26733 2.26554 1.92624e-12
-1.67561e-11 1.92624e-12 -0.959417

-1.49398 -3.94966 -1.84871e-11
-3.94966 5.32102 1.15182e-12
-1.84871e-11 1.15182e-12 1.29601

-1.81305 3.7982 1.62748e-11
3.7982 3.8564 -1.27121e-11
1.62748e-11 -1.27121e-11 0.994073

26.3878 -6.0326 -1.65699e-11
-6.0326 26.6537 2.58186e-11
-1.65699e-11 2.58186e-11 26.2886

24.688 3.7109 1.09805e-11
3.7109 26.6182 -6.1266e-11
1.09805e-11 -6.1266e-11 25.952

-9.83442 -4.51857 -9.82449e-12
-4.51857 0.362642 1.92616e-11
-9.82449e-12 1.92616e-11 -2.59811

-5.66758 3.00001 -3.27087e-12
3.00001 3.75155 2.11876e-11
-3.27087e-12 2.11876e-11 -0.0263634

15.1257 0.627522 1.83054e-11
0.627522 15.677 3.04408e-11
1.83054e-11 3.04408e-11 17.2381

15.7017 -1.22139 5.77871e-12
-1.22139 17.5664 1.9459e-11
5.77871e-12 1.9459e-11 17.7082

-5.81633 -1.79813 6.16663e-11
-1.79813 -3.11667 -1.38657e-11
6.16663e-11 -1.38657e-11 -4.57062

-6.20325 3.79889 -1.03404e-11
3.79889 -4.64937 1.73339e-11
-1.03404e-11 1.73339e-11 -4.65384

6.1902 0.0402827 3.28411e-11
0.0402827 -6.88524 -2.29158e-11
3.28411e-11 -2.29158e-11 -0.171853

-6.26442 -1.20601 7.35797e-11
-1.20601 -5.74091 1.7321e-12
7.35797e-11 1.7321e-12 -5.23517

-6.20454 3.54514 -3.33326e-11
3.54514 -4.60273 -9.32053e-11
-3.33326e-11 -9.32053e-11 -4.77242

-1.96892 3.89035 6.93243e-11
3.89035 -12.0712 1.82865e-11
6.93243e-11 1.82865e-11 -8.81743

-2.50787 -4.75967 -4.62393e-12
-4.75967 -7.79674 1.77141e-11
-4.62393e-12 1.77141e-11 -8.43934

-3.2725 -2.87773 -1.21335e-11
-2.87773 -2.86061 4.62679e-11
-1.21335e-11 4.62679e-11 -2.29277

-3.34322 3.79973 -1.50193e-11
3.79973 -3.60793 -2.2052e-11
-1.50193e-11 -2.2052e-11 -2.14693

-10.1959 -0.301001 5.00311e-12
-0.301001 0.206958 8.08746e-12
5.00311e-12 8.08746e-12 -8.10246

-10.5794 1.36392 3.61977e-11
1.36392 -5.82781 2.36883e-11
3.61977e-11 2.36883e-11 -9.10345

-0.823072 -5.43017 -1.05966e-11
-5.43017 5.36968 -7.318e-12
-1.05966e-11 -7.318e-12 1.11535

7.22224 0.5723 -2.61944e-11
0.5723 12.9394 -1.23294e-11
-2.61944e-11 -1.23294e-11 8.84377

12.5593 0.737316 -2.63907e-11
0.737316 7.87218 -4.54646e-11
-2.63907e-11 -4.54646e-11 8.8569

-8.25001 2.85352 1.8487e-11
2.85352 2.9351 -7.70206e-12
1.8487e-11 -7.70206e-12 -1.032

-5.10118 4.18739 -2.07948e-11
4.18739 1.76348 4.19867e-11
-2.07948e-11 4.19867e-11 -0.925696

-12.1062 -3.96634 1.51324e-10
-3.96634 -19.1864 -1.96422e-11
1.51324e-10 -1.96422e-11 -18.3356

-12.6003 6.16131 -3.32877e-11
6.16131 -5.52818 5.96915e-11
-3.32877e-11 5.96915e-11 -15.727

4.17967 3.83908 1.46413e-11
3.83908 2.13564 2.60033e-11
1.46413e-11 2.60033e-11 1.78102

-5.12126 6.47695 2.50282e-12
6.47695 1.37701 1.34851e-12
2.50282e-12 1.34851e-12 -0.942957

0.747943 2.46324 -4.37946e-13
2.46324 -5.6557 2.1953e-11
-4.37946e-13 2.1953e-11 -1.26369

0.939496 -1.96263 7.70206e-12
-1.96263 -5.59273 -1.98364e-11
7.70206e-12 -1.98364e-11 -1.40357

-4.6343 6.15294 -1.8484e-11
6.15294 -0.507172 2.85009e-11
-1.8484e-11 2.85009e-11 -1.33762

-6.77441 -6.06978 3.03318e-11
-6.06978 -0.139383 -2.23415e-11
3.03318e-11 -2.23415e-11 -2.36078

-0.0814976 -5.19487 -5.39576e-12
-5.19487 -8.66155 3.15824e-11
-5.39576e-12 3.15824e-11 -3.61542

9.2912 -0.46424 -6.54795e-12
-0.46424 0.940706 -1.53592e-12
-6.54795e-12 -1.53592e-12 3.68926

-1.87205 0.723114 -5.3139e-11
0.723114 -5.68126 -2.15711e-11
-5.3139e-11 -2.15711e-11 -11.8074

-1.61327 -0.448175 8.62588e-11
-0.448175 -13.9213 -4.05424e-12
8.62588e-11 -4.05424e-12 -12.9829

0.862183 4.72521 -4.04444e-11
4.72521 -1.23008 -5.39361e-12
-4.04444e-11 -5.39361e-12 0.0738734

4.95092 1.79743 1.87761e-11
1.79743 -3.97361 1.15525e-11
1.87761e-11 1.15525e-11 0.199695

5.56013 4.03208 -3.82213e-13
4.03208 7.40906 4.39151e-11
-3.82213e-13 4.39151e-11 4.13575

-12.605 0.957378 9.37707e-11
0.957378 -9.63066 4.78514e-11
9.37707e-11 4.78514e-11 -12.0209

-9.70004 2.78724 4.02366e-11
2.78724 -0.917551 -1.84911e-11
4.02366e-11 -1.84911e-11 -10.0713

-0.965693 2.57887 -1.34802e-11
2.57887 -10.5477 -6.35566e-12
-1.34802e-11 -6.35566e-12 -4.1402

-6.66727 -1.09179 1.72339e-11
-1.09179 3.54361 6.9326e-12
1.72339e-11 6.9326e-12 -1.1717

-2.61726 -2.3345 -1.68503e-11
-2.3345 1.59881 -2.85034e-11
-1.68503e-11 -2.85034e-11 -0.935074

3.87651 0.749747 2.26569e-11
0.749747 -8.68999 -4.39056e-11
2.26569e-11 -4.39056e-11 -1.15024

4.3217 -0.587475 -3.4653e-12
-0.587475 -8.74283 8.47121e-12
-3.4653e-12 8.47121e-12 -1.1459

8.18009 -4.04567 3.17883e-11
-4.04567 6.29875 -2.42733e-11
3.17883e-11 -2.42733e-11 4.53026

7.58503 0.0111583 -2.83108e-11
0.0111583 -3.29156 -2.65765e-11
-2.83108e-11 -2.65765e-11 1.11873

0.74248 -0.659836 -2.04637e-11
-0.659836 -8.36115 7.51214e-12
-2.04637e-11 7.51214e-12 -2.63895

-0.197627 1.33258 -8.56811e-12
1.33258 -7.36648 3.07695e-12
-8.56811e-12 3.07695e-12 -2.47543

5.25508 -1.68588 6.74298e-12
-1.68588 -2.89608 -6.34818e-12
6.74298e-12 -6.34818e-12 0.307982

-0.318851 -4.793 8.85521e-12
-4.793 5.21579 2.75415e-11
8.85521e-12 2.75415e-11 1.1422

4.23575 -0.388003 1.46836e-11
-0.388003 -6.06766 -2.65737e-11
1.46836e-11 -2.65737e-11 -0.927174

3.57405 0.858996 -4.37872e-12
0.858996 -6.39752 7.89491e-12
-4.37872e-12 7.89491e-12 -0.983805

2.94402 1.95396 -8.09145e-12
1.95396 -4.82454 2.63819e-11
-8.09145e-12 2.63819e-11 -0.20077

3.29694 -6.10166 -6.35714e-12
-6.10166 2.4889 1.6181e-11
-6.35714e-12 1.6181e-11 2.16685

-6.90102 5.88114 4.14269e-12
5.88114 -1.4968 -1.54078e-11
4.14269e-12 -1.54078e-11 -1.36643

-5.28198 5.7772 -2.33013e-11
5.7772 1.57197 -1.3488e-12
-2.33013e-11 -1.3488e-12 -1.01661

-8.37576 4.35987 -9.14477e-12
4.35987 -1.81188 3.62054e-11
-9.14477e-12 3.62054e-11 -1.7413

7.3517 2.12847 -5.25887e-11
2.12847 -2.02454 -4.62232e-12
-5.25887e-11 -4.62232e-12 1.66654

11.3241 -4.20821 2.50259e-12
-4.20821 7.63132 -1.1516e-12
2.50259e-12 -1.1516e-12 7.7241

-0.544891 3.55387 3.02331e-11
3.55387 -5.47778 -2.86949e-11
3.02331e-11 -2.86949e-11 -1.55904

4.04453 -3.78538 -7.90242e-12
-3.78538 -3.71391 4.54496e-11
-7.90242e-12 4.54496e-11 0.235046

11.5151 -3.64724 2.81267e-11
-3.64724 6.82818 -3.88393e-13
2.81267e-11 -3.88393e-13 7.46581

1.86994 -6.0786 -1.52173e-11
-6.0786 -2.20497 2.15702e-11
-1.52173e-11 2.15702e-11 0.159835

-6.25955 0.154423 -9.05114e-12
0.154423 0.719437 -3.87132e-11
-9.05114e-12 -3.87132e-11 -1.59802

-9.09214 0.000528733 -2.50353e-11
0.000528733 4.51181 -2.15698e-11
-2.50353e-11 -2.15698e-11 -1.21505

2.55479 5.18174 -1.88726e-11
5.18174 3.01048 1.09783e-11
-1.88726e-11 1.09783e-11 1.77639

9.28156 -4.31751 3.0522e-11
-4.31751 3.23679 4.60393e-11
3.0522e-11 4.60393e-11 4.63175

-4.32417 -6.30462 3.73632e-11
-6.30462 -2.15619 1.11654e-11
3.73632e-11 1.11654e-11 -1.26598

2.48782 -5.64033 -1.11698e-11
-5.64033 5.39503 -3.29342e-11
-1.11698e-11 -3.29342e-11 2.12047

2.43081 -5.70204 -2.30986e-12
-5.70204 4.99413 -7.7051e-12
-2.30986e-12 -7.7051e-12 2.37598

2.761 2.91762 7.31511e-12
2.91762 -2.73358 -3.83239e-11
7.31511e-12 -3.83239e-11 0.0292354

1.42768 1.84142 -7.70313e-12
1.84142 -15.0662 2.13738e-11
-7.70313e-12 2.13738e-11 -3.05373

1.25587 -2.90036 -1.38665e-11
-2.90036 -12.4628 8.08912e-12
-1.38665e-11 8.08912e-12 -2.73008

-1.14365 3.23831 1.13666e-11
3.23831 6.23828 -4.02576e-11
1.13666e-11 -4.02576e-11 1.42555

-3.26935 2.21261 -8.66895e-12
2.21261 7.00416 2.69518e-12
-8.66895e-12 2.69518e-12 1.37976

0.444972 -0.471063 -3.21644e-11
-0.471063 10.2087 8.28715e-12
-3.21644e-11 8.28715e-12 3.80964

-0.489212 -0.62629 -5.06586e-11
-0.62629 10.7957 7.69311e-13
-5.06586e-11 7.69311e-13 4.02833

11.3459 -0.41517 -4.76804e-13
-0.41517 0.700881 -6.93571e-12
-4.76804e-13 -6.93571e-12 4.40765

4.19566 -5.14226 1.23255e-11
-5.14226 1.20664 2.85109e-11
1.23255e-11 2.85109e-11 1.64992

-17.5767 -3.78494 1.59039e-10
-3.78494 -11.8476 7.68463e-12
1.59039e-10 7.68463e-12 -16.6064

-1.54656 -1.50455 -2.86849e-11
-1.50455 -1.50153 3.08231e-12
-2.86849e-11 3.08231e-12 -11.8012

5.89012 3.62313 -4.04624e-12
3.62313 -0.191442 -3.62086e-11
-4.04624e-12 -3.62086e-11 1.99806

7.35848 -2.47248 -4.59421e-11
-2.47248 -2.24137 -1.21337e-11
-4.59421e-11 -1.21337e-11 1.462

10.9761 2.26427 3.16001e-11
2.26427 5.74709 -4.04632e-12
3.16001e-11 -4.04632e-12 6.85246

-6.26574 3.71571 -3.12928e-11
3.71571 1.43396 1.84865e-11
-3.12928e-11 1.84865e-11 -0.527337

6.26974 0.0590431 2.26787e-11
0.0590431 -6.72905 1.98357e-11
2.26787e-11 1.98357e-11 -0.160912

-6.92387 5.65842 -2.83099e-11
5.65842 -0.280983 -1.3674e-11
-2.83099e-11 -1.3674e-11 -2.11568

-11.3281 4.49744 9.8229e-12
4.49744 0.376212 4.23631e-12
9.8229e-12 4.23631e-12 -2.62342

4.56269 2.91649 6.45003e-12
2.91649 7.7063 -1.06957e-11
6.45003e-12 -1.06957e-11 4.27829

7.30431 3.24605 1.95493e-11
3.24605 6.42809 -1.03998e-11
1.95493e-11 -1.03998e-11 4.63506

-5.45277 -6.84039 3.6301e-11
-6.84039 1.2371 -3.90978e-11
3.6301e-11 -3.90978e-11 -1.24813

11.0668 1.82966 1.92619e-11
1.82966 5.5237 -1.19433e-11
1.92619e-11 -1.19433e-11 6.78947

-8.51563 5.05325 2.63347e-11
5.05325 -3.42445 1.04016e-11
2.63347e-11 1.04016e-11 -1.93533

-3.08012 6.15776 6.16096e-12
6.15776 2.68688 1.44426e-11
6.16096e-12 1.44426e-11 -0.0849415

5.57003 -0.0883466 -4.55498e-11
-0.0883466 -9.83564 -8.47538e-12
-4.55498e-11 -8.47538e-12 -0.934796

-7.05206 -4.66807 4.179e-11
-4.66807 -3.35199 -2.27278e-11
4.179e-11 -2.27278e-11 -1.93711

0.668316 5.03959 -1.73433e-11
5.03959 0.995591 -5.00791e-11
-1.73433e-11 -5.00791e-11 0.40784

2.14921 -2.47144 2.73478e-11
-2.47144 9.02901 -3.71762e-11
2.73478e-11 -3.71762e-11 3.22934

0.426884 -2.35253 -2.60012e-11
-2.35253 9.29714 -2.11906e-11
-2.60012e-11 -2.11906e-11 3.21253

9.38804 -1.7544 -7.71087e-12
-1.7544 2.33965 -2.19626e-11
-7.71087e-12 -2.19626e-11 3.57492

3.41841 -4.61776 -1.96472e-11
-4.61776 4.09588 7.12845e-12
-1.96472e-11 7.12845e-12 1.89147

-4.21438 -0.303744 -4.00534e-11
-0.303744 6.38356 -5.01081e-12
-4.00534e-11 -5.01081e-12 0.67123

-0.661279 -0.045036 -4.42779e-12
-0.045036 5.59772 1.25165e-11
-4.42779e-12 1.25165e-11 0.9719

5.65037 -4.94519 3.69841e-11
-4.94519 7.92192 -1.31003e-11
3.69841e-11 -1.31003e-11 4.79108

4.22991 -4.80433 2.5034e-12
-4.80433 8.67601 6.17106e-12
2.5034e-12 6.17106e-12 4.8472

5.34358 -0.24467 -3.86381e-11
-0.24467 -9.02479 -2.34926e-11
-3.86381e-11 -2.34926e-11 -0.915823

5.72085 0.253149 -4.06852e-11
0.253149 -9.205 3.07746e-12
-4.06852e-11 3.07746e-12 -0.935292

-4.95427 4.70981 2.5132e-11
4.70981 -0.395529 1.81071e-11
2.5132e-11 1.81071e-11 -0.64754

-10.9832 -3.96734 -1.04031e-11
-3.96734 0.128973 2.15695e-11
-1.04031e-11 2.15695e-11 -2.50576

-0.495936 -6.10064 1.86804e-11
-6.10064 -3.88549 -6.92875e-12
1.86804e-11 -6.92875e-12 -1.12444

-3.40425 2.32546 3.08602e-11
2.32546 -5.90002 -1.89593e-11
3.08602e-11 -1.89593e-11 -3.32876

-2.55807 -0.711961 7.44277e-11
-0.711961 -4.87214 5.37288e-11
7.44277e-11 5.37288e-11 -3.19007

1.17858 -2.54807 1.84367e-11
-2.54807 -1.63022 4.69846e-11
1.84367e-11 4.69846e-11 -0.692897

0.678086 3.06383 -1.43219e-13
3.06383 -3.42153 1.23235e-11
-1.43219e-13 1.23235e-11 -0.860294

14.6576 -2.55982 1.44486e-11
-2.55982 9.06319 5.39169e-12
1.44486e-11 5.39169e-12 16.0118

1.50935 4.8554 8.76847e-12
4.8554 4.56198 2.23442e-11
8.76847e-12 2.23442e-11 2.04944

11.1123 1.76601 3.6223e-11
1.76601 14.785 -1.15569e-11
3.6223e-11 -1.15569e-11 16.3585

-2.40727 5.45912 -7.74788e-13
5.45912 0.649973 -2.69658e-12
-7.74788e-13 -2.69658e-12 -0.449749

-1.44115 -3.82646 1.04938e-11
-3.82646 6.76572 3.9874e-11
1.04938e-11 3.9874e-11 1.39439

-3.35086 -3.41122 1.98439e-11
-3.41122 6.65744 -2.15749e-11
1.98439e-11 -2.15749e-11 1.30458

-7.58452 -1.17367 -1.23265e-11
-1.17367 -8.95391 4.92949e-11
-1.23265e-11 4.92949e-11 -9.18152

-9.32869 3.21283 5.73661e-11
3.21283 -5.76501 -8.46952e-12
5.73661e-11 -8.46952e-12 -8.78842

1.90031 3.6242 -3.56308e-12
3.6242 -0.902025 2.54212e-11
-3.56308e-12 2.54212e-11 0.387311

7.67287 -0.371332 -2.06139e-11
-0.371332 -2.78378 1.05913e-11
-2.06139e-11 1.05913e-11 1.1935

4.57373 4.06074 -1.63528e-12
4.06074 0.819271 -3.19712e-11
-1.63528e-12 -3.19712e-11 1.93162

-7.99478 -2.3427 3.77444e-11
-2.3427 3.94668 -1.57914e-11
3.77444e-11 -1.57914e-11 -0.972103

-5.37269 -3.86164 2.69697e-12
-3.86164 1.53044 -2.81177e-11
2.69697e-12 -2.81177e-11 -1.22715

-5.82573 -7.01714 8.47026e-12
-7.01714 2.90604 2.48435e-11
8.47026e-12 2.48435e-11 -0.988584

2.14207 -3.90477 3.09108e-11
-3.90477 0.632522 4.37179e-11
3.09108e-11 4.37179e-11 0.425162

-5.73047 6.53178 -1.73517e-12
6.53178 1.33621 -4.4275e-12
-1.73517e-12 -4.4275e-12 -0.951612

-4.83763 3.01734 1.46338e-11
3.01734 -0.528342 -1.7137e-11
1.46338e-11 -1.7137e-11 -2.89882

-4.56023 4.56819 1.98317e-11
4.56819 -2.20634 -1.4729e-11
1.98317e-11 -1.4729e-11 -3.1398

-3.87704 -6.14517 -1.56927e-11
-6.14517 3.29331 -1.90625e-11
-1.56927e-11 -1.90625e-11 -0.327845

-2.93871 5.57945 -2.36821e-11
5.57945 2.40505 2.79254e-11
-2.36821e-11 2.79254e-11 -0.165512

-11.5808 7.02737 2.08963e-11
7.02737 -1.77603 2.85057e-11
2.08963e-11 2.85057e-11 -2.07742

-5.43078 0.660694 6.74411e-12
0.660694 6.70547 -2.69667e-11
6.74411e-12 -2.69667e-11 0.61433

-3.31643 1.52947 -1.98343e-11
1.52947 5.23749 2.71553e-11
-1.98343e-11 2.71553e-11 0.487295

-1.71121 4.33623 -1.33851e-11
4.33623 -2.45258 1.23198e-11
-1.33851e-11 1.23198e-11 -0.830212

3.06933 3.64643 1.41608e-11
3.64643 2.62315 2.27334e-11
1.41608e-11 2.27334e-11 1.80888

-5.31634 -3.77641 -1.34784e-11
-3.77641 3.47513 1.77154e-11
-1.34784e-11 1.77154e-11 -0.0790315

-6.46392 -6.59447 -1.63679e-11
-6.59447 0.740738 1.92657e-12
-1.63679e-11 1.92657e-12 -1.92799

12.6002 2.18689 5.00429e-12
2.18689 15.7093 1.4803e-15
5.00429e-12 1.4803e-15 12.9386

14.9438 2.27994 2.543e-11
2.27994 13.1654 -2.73643e-11
2.543e-11 -2.73643e-11 12.8638

5.63914 -4.88495 2.73507e-11
-4.88495 6.84865 -5.78441e-12
2.73507e-11 -5.78441e-12 4.4469

-1.6084 -4.54031 3.17745e-11
-4.54031 -1.04388 4.71794e-11
3.17745e-11 4.71794e-11 -0.890559

5.10253 -1.35825 4.3822e-12
-1.35825 -5.80693 3.27917e-12
4.3822e-12 3.27917e-12 -0.195957

-11.7996 4.91293 -8.08663e-11
4.91293 -9.05905 -8.20279e-11
-8.08663e-11 -8.20279e-11 -14.8114

-7.91643 -5.34407 1.41536e-11
-5.34407 -15.6327 7.51208e-12
1.41536e-11 7.51208e-12 -15.3595

-3.68056 -6.70959 1.61796e-11
-6.70959 3.24346 -1.9839e-11
1.61796e-11 -1.9839e-11 -0.250181

-6.63018 1.24523 2.31067e-12
1.24523 -9.53056 -1.92228e-12
2.31067e-12 -1.92228e-12 -7.77336

-4.44338 -5.09404 3.81249e-11
-5.09404 -4.2723 -7.31459e-12
3.81249e-11 -7.31459e-12 -6.52515

2.89809 -1.77175 -2.04169e-11
-1.77175 -6.95241 -3.84918e-12
-2.04169e-11 -3.84918e-12 -0.417

-10.2512 -6.96346 4.98813e-11
-6.96346 -2.12711 -3.31288e-11
4.98813e-11 -3.31288e-11 -2.06436

9.98556 -4.2669 5.02758e-11
-4.2669 11.8156 1.46407e-11
5.02758e-11 1.46407e-11 9.90275

11.1151 3.10934 -3.52488e-11
3.10934 10.9481 -3.28496e-11
-3.52488e-11 -3.28496e-11 9.79277

6.26873 -2.54372 -3.10124e-11
-2.54372 12.4053 1.71458e-11
-3.10124e-11 1.71458e-11 7.73836

6.1408 -2.78991 3.6989e-11
-2.78991 12.1202 8.08982e-12
3.6989e-11 8.08982e-12 7.50467

13.0222 -2.11903 2.0706e-11
-2.11903 6.36722 1.01096e-11
2.0706e-11 1.01096e-11 7.8132

6.23512 3.77334 4.02551e-11
3.77334 5.4767 -5.58635e-12
4.02551e-11 -5.58635e-12 4.08969

-6.0117 -7.45849 1.01085e-11
-7.45849 2.39449 7.51023e-12
1.01085e-11 7.51023e-12 -1.01825

7.03322 0.378528 3.27451e-12
0.378528 14.7538 -1.97916e-13
3.27451e-12 -1.97916e-13 9.77035

14.0158 -1.13121 -1.54277e-12
-1.13121 6.65366 -4.27666e-11
-1.54277e-12 -4.27666e-11 9.60073

-7.08281 0.580946 -1.82894e-11
0.580946 0.68488 -1.07891e-11
-1.82894e-11 -1.07891e-11 -5.26261

-7.43855 -3.03397 4.06288e-11
-3.03397 -4.55079 -2.02157e-12
4.06288e-11 -2.02157e-12 -6.25341

2.25185 -3.48377 3.7556e-11
-3.48377 -4.99499 1.25825e-15
3.7556e-11 1.25825e-15 -0.941103

1.41749 -0.217383 -5.00836e-12
-0.217383 -15.202 8.85859e-12
-5.00836e-12 8.85859e-12 -2.20796

0.542994 -3.74503 2.13864e-11
-3.74503 7.47509 -2.46567e-11
2.13864e-11 -2.46567e-11 3.10164

1.63556 -3.73626 1.99344e-11
-3.73626 7.95333 -4.06454e-11
1.99344e-11 -4.06454e-11 3.0835

3.34479 -0.207123 -2.98495e-11
-0.207123 -7.48452 -4.23761e-12
-2.98495e-11 -4.23761e-12 -0.394869

-3.84364 -5.1299 2.50402e-11
-5.1299 3.74137 -2.06097e-11
2.50402e-11 -2.06097e-11 -0.113759

-4.53536 0.07386 5.36695e-11
0.07386 -7.08003 5.44948e-11
5.36695e-11 5.44948e-11 -6.21019

-6.42438 1.53388 -3.38461e-11
1.53388 -5.4873 -3.31234e-11
-3.38461e-11 -3.31234e-11 -6.11796

0.0740315 -4.83386 -6.54921e-12
-4.83386 -3.182 -1.61747e-11
-6.54921e-12 -1.61747e-11 -1.13081

-3.92461 -4.93774 9.82214e-12
-4.93774 -0.595206 2.31098e-11
9.82214e-12 2.31098e-11 -0.633671

2.74409 -3.4713 -1.38648e-11
-3.4713 -8.28454 -5.39072e-12
-1.38648e-11 -5.39072e-12 -1.17508

-5.26359 -4.34864 -3.44721e-11
-4.34864 1.32708 1.00146e-11
-3.44721e-11 1.00146e-11 -0.463175

26.89 -8.28548 -2.88976e-11
-8.28548 27.6943 1.54069e-12
-2.88976e-11 1.54069e-12 27.6678

-2.7181 -1.90736 5.39158e-12
-1.90736 4.96351 2.25359e-11
5.39158e-12 2.25359e-11 0.515982

-4.6787 -1.43685 4.17934e-11
-1.43685 6.68989 5.01362e-12
4.17934e-11 5.01362e-12 0.744691

-9.60035 -0.700374 -1.48311e-11
-0.700374 2.43398 1.9232e-12
-1.48311e-11 1.9232e-12 -6.1518

-8.5759 -0.828411 5.39776e-12
-0.828411 -6.59848 -8.39557e-11
5.39776e-12 -8.39557e-11 -7.48783

3.70247 -0.466222 -3.18727e-11
-0.466222 -10.0161 -3.85914e-13
-3.18727e-11 -3.85914e-13 -1.99229

2.72887 0.229662 -5.05547e-12
0.229662 -9.42853 1.42503e-11
-5.05547e-12 1.42503e-11 -1.96245

-3.80674 3.62339 -3.46625e-11
3.62339 -5.95889 3.07706e-12
-3.46625e-11 3.07706e-12 -3.39306

-1.66164 -6.50354 -1.61711e-11
-6.50354 -5.64554 -2.31123e-12
-1.61711e-11 -2.31123e-12 -2.87165

-3.90602 1.29579 2.3493e-11
1.29579 -4.59236 -4.80985e-12
2.3493e-11 -4.80985e-12 -5.35118

-1.07566 -2.32024 4.04346e-11
-2.32024 -4.35138 -1.90657e-11
4.04346e-11 -1.90657e-11 -4.90388

-9.92616 -2.5338 -5.5267e-11
-2.5338 -12.751 3.69727e-11
-5.5267e-11 3.69727e-11 -13.1298

-9.07909 7.60647 -3.96515e-11
7.60647 -5.76979 -5.78439e-12
-3.96515e-11 -5.78439e-12 -11.5014

-6.64977 -6.71713 -4.33431e-13
-6.71713 0.402856 1.88729e-11
-4.33431e-13 1.88729e-11 -2.11936

-9.58919 8.31558 -1.78149e-11
8.31558 -4.03716 -4.23971e-12
-1.78149e-11 -4.23971e-12 -2.79543

2.52854 3.36259 -1.34788e-11
3.36259 -2.91476 1.23184e-11
-1.34788e-11 1.23184e-11 0.0858462

-5.03509 -2.86845 2.15672e-11
-2.86845 4.30754 4.54548e-11
2.15672e-11 4.54548e-11 0.0434694

-1.868 -4.35049 1.24225e-11
-4.35049 4.34999 2.58059e-11
1.24225e-11 2.58059e-11 0.356244

2.6752 -3.54014 3.3324e-11
-3.54014 -2.1155 -2.36898e-11
3.3324e-11 -2.36898e-11 0.0531071

-1.56592 3.273 -1.59341e-11
3.273 3.99972 2.60019e-11
-1.59341e-11 2.60019e-11 0.429487

-4.88084 1.93299 4.24169e-11
1.93299 4.76021 -1.88698e-11
4.24169e-11 -1.88698e-11 0.212677

0.301623 4.64643 1.22298e-11
4.64643 0.0776341 1.15565e-11
1.22298e-11 1.15565e-11 0.442828

-5.9764 5.5719 -3.56268e-11
5.5719 -1.27059 -2.60009e-11
-3.56268e-11 -2.60009e-11 -2.23681

-6.83051 -7.44704 -5.00899e-12
-7.44704 -3.81712 -1.92583e-11
-5.00899e-12 -1.92583e-11 -2.65739

0.893982 -5.69065 3.94958e-12
-5.69065 1.36408 3.44761e-11
3.94958e-12 3.44761e-11 0.472349

1.54073 1.64953 -3.661e-12
1.64953 -5.55089 -9.62734e-12
-3.661e-12 -9.62734e-12 -1.26431

-1.79349 -2.51185 -5.08317e-11
-2.51185 -3.22401 3.65746e-11
-5.08317e-11 3.65746e-11 -12.2696

-16.6621 1.52841 -1.40368e-10
1.52841 -15.2036 7.12349e-11
-1.40368e-10 7.12349e-11 -17.1492

-3.5429 -5.63527 1.83923e-11
-5.63527 2.01594 -2.69616e-11
1.83923e-11 -2.69616e-11 -0.815717

0.885851 -5.58438 2.54234e-11
-5.58438 -5.07295 -2.00308e-11
2.54234e-11 -2.00308e-11 -1.1061

0.435296 -0.48314 -2.81147e-11
-0.48314 -5.63668 1.15471e-11
-2.81147e-11 1.15471e-11 -3.1753

12.8871 -3.92326 -4.64237e-11
-3.92326 14.3992 -9.63289e-12
-4.64237e-11 -9.63289e-12 12.1114

14.3046 -3.50199 -3.42945e-11
-3.50199 11.9079 2.44705e-11
-3.42945e-11 2.44705e-11 11.7025

2.5422 0.383896 -1.35304e-11
0.383896 -9.3567 3.87035e-11
-1.35304e-11 3.87035e-11 -2.67301

0.715119 -0.301501 2.74185e-11
-0.301501 -8.69363 1.7334e-11
2.74185e-11 1.7334e-11 -2.77186

0.271691 -0.0723913 1.84891e-11
-0.0723913 -9.17727 1.25139e-11
1.84891e-11 1.25139e-11 -3.7212

6.66283 2.38094 -1.58429e-11
2.38094 -0.111682 1.6946e-11
-1.58429e-11 1.6946e-11 1.83297

-3.17266 -3.59205 -1.70962e-11
-3.59205 -0.419103 5.50778e-11
-1.70962e-11 5.50778e-11 -1.81434

-3.7226 4.36126 -2.20968e-11
4.36126 -3.6087 4.22958e-12
-2.20968e-11 4.22958e-12 -2.15097

-9.46417 -3.98711 2.81089e-11
-3.98711 -18.3706 7.55672e-11
2.81089e-11 7.55672e-11 -16.2858

-4.79668 -0.425421 -5.08344e-11
-0.425421 -0.607748 2.80605e-11
-5.08344e-11 2.80605e-11 -12.3033

-5.64003 -6.32941 -7.98813e-12
-6.32941 2.11494 -3.64005e-11
-7.98813e-12 -3.64005e-11 -0.963014

3.55157 -4.44435 -3.25477e-11
-4.44435 -3.25305 1.88788e-11
-3.25477e-11 1.88788e-11 0.142013

-1.13573 0.974726 -1.81233e-11
0.974726 -4.81665 8.85462e-12
-1.81233e-11 8.85462e-12 -2.78464

-0.175717 0.149698 -2.13754e-11
0.149698 -5.7394 -9.58715e-13
-2.13754e-11 -9.58715e-13 -2.95365

-6.40552 -2.54632 -1.61748e-11
-2.54632 1.29665 -2.04129e-11
-1.61748e-11 -2.04129e-11 -1.16604

-7.82054 -4.66696 -3.60077e-11
-4.66696 -2.1679 -2.73472e-11
-3.60077e-11 -2.73472e-11 -1.68563

28.1049 7.00555 -5.95356e-11
7.00555 26.9906 -9.25589e-12
-5.95356e-11 -9.25589e-12 27.7353

-6.16628 3.73549 -2.32997e-11
3.73549 -1.55923 2.42622e-11
-2.32997e-11 2.42622e-11 -3.17393

-6.13536 -4.8618 -2.13732e-11
-4.8618 -1.96706 1.61745e-11
-2.13732e-11 1.61745e-11 -3.18668

-7.57626 -4.41571 -2.21448e-11
-4.41571 0.6316 -1.38654e-11
-2.21448e-11 -1.38654e-11 -1.14578

6.91461 -2.98284 -2.14759e-11
-2.98284 0.751457 1.13644e-11
-2.14759e-11 1.13644e-11 1.80278

-0.808017 3.23985 -4.23831e-12
3.23985 -1.86883 6.1433e-11
-4.23831e-12 6.1433e-11 -1.1321

-3.17786 3.40096 -4.06315e-11
3.40096 -2.61442 -2.08024e-11
-4.06315e-11 -2.08024e-11 -2.54355

-0.846057 -5.23721 -1.8288e-11
-5.23721 -5.24553 4.24146e-12
-1.8288e-11 4.24146e-12 -2.51352

2.04821 1.30916 -1.61779e-11
1.30916 -9.21208 5.39524e-12
-1.61779e-11 5.39524e-12 -1.48643

-2.21924 -0.602446 1.44228e-11
-0.602446 -5.88747 -3.11928e-11
1.44228e-11 -3.11928e-11 -4.23329

-0.870001 0.943104 8.29226e-12
0.943104 -8.13438 -2.6765e-11
8.29226e-12 -2.6765e-11 -4.54194

-11.3312 1.73541 7.10417e-11
1.73541 0.31469 -1.07815e-11
7.10417e-11 -1.07815e-11 -11.3902

-13.4388 0.328063 -3.09986e-11
0.328063 -6.51452 -4.62131e-11
-3.09986e-11 -4.62131e-11 -12.7555

15.8832 -1.79232 -2.79371e-11
-1.79232 11.2992 -7.31874e-12
-2.79371e-11 -7.31874e-12 16.7307

9.61544 -1.19138 6.14541e-11
-1.19138 16.4152 7.69984e-12
6.14541e-11 7.69984e-12 16.5315

-4.61858 -5.57514 -6.30251e-12
-5.57514 2.11599 -4.44908e-11
-6.30251e-12 -4.44908e-11 -1.17793

-5.54683 4.83586 1.52162e-11
4.83586 -2.49667 6.93423e-12
1.52162e-11 6.93423e-12 -1.66957

-5.51082 -7.45881 -4.33315e-11
-7.45881 2.65875 3.3321e-11
-4.33315e-11 3.3321e-11 -0.874893

17.5864 1.91003 -2.77459e-11
1.91003 17.3144 -9.63748e-12
-2.77459e-11 -9.63748e-12 19.261

17.6953 2.87997 4.81666e-11
2.87997 15.8068 -5.79832e-13
4.81666e-11 -5.79832e-13 18.7357

-24.6675 6.10037 6.69132e-11
6.10037 -5.24097 -1.87562e-10
6.69132e-11 -1.87562e-10 -17.2122

-18.0297 -4.80926 1.13545e-10
-4.80926 -8.86871 1.59443e-10
1.13545e-10 1.59443e-10 -16.6192

-2.28334 4.50784 5.23815e-11
4.50784 -2.09053 2.06116e-11
5.23815e-11 2.06116e-11 -1.25417

-0.429379 -5.38034 -4.50711e-11
-5.38034 2.74609 2.58126e-11
-4.50711e-11 2.58126e-11 0.421685

-4.44898 -5.34464 -1.50645e-11
-5.34464 -0.399483 4.04432e-12
-1.50645e-11 4.04432e-12 -1.62058

-4.56726 5.37962 6.30599e-12
5.37962 -2.53639 -2.61942e-11
6.30599e-12 -2.61942e-11 -1.56857

-2.93425 -6.24095 3.76107e-12
-6.24095 2.04121 -2.98497e-11
3.76107e-12 -2.98497e-11 -0.390943

-0.939929 4.33852 3.62062e-11
4.33852 1.39695 -1.80975e-11
3.62062e-11 -1.80975e-11 0.468489

4.95372 -2.27593 -3.93032e-11
-2.27593 11.7684 2.54201e-11
-3.93032e-11 2.54201e-11 7.12744

6.67988 -1.95818 -5.81756e-11
-1.95818 12.1604 3.23648e-11
-5.81756e-11 3.23648e-11 7.54484

12.8041 -1.59417 2.61184e-12
-1.59417 6.36879 -9.44026e-12
2.61184e-12 -9.44026e-12 7.67293

-3.74782 4.86803 -1.22289e-11
4.86803 0.0942524 -2.2342e-11
-1.22289e-11 -2.2342e-11 -0.441167

7.43048 -0.250816 -7.70461e-12
-0.250816 14.7396 7.70628e-12
-7.70461e-12 7.70628e-12 10.1227

14.6069 0.498305 1.44467e-11
0.498305 8.38211 3.46353e-12
1.44467e-11 3.46353e-12 10.2499

-5.92911 -5.10028 -3.22005e-11
-5.10028 -1.0247 -5.21871e-11
-3.22005e-11 -5.21871e-11 -2.7347

-6.06749 6.19573 -4.10594e-11
6.19573 -4.53736 -1.31021e-11
-4.10594e-11 -1.31021e-11 -2.91021

-6.12621 -4.06299 1.06872e-11
-4.06299 -1.46821 -1.7142e-11
1.06872e-11 -1.7142e-11 -3.20019

-6.15529 5.48018 -6.01053e-12
5.48018 -2.59158 4.61575e-12
-6.01053e-12 4.61575e-12 -3.01822

17.4437 -3.65734 -1.54158e-11
-3.65734 17.9872 -3.7377e-11
-1.54158e-11 -3.7377e-11 19.8163

17.3198 -3.56588 7.18699e-11
-3.56588 18.3054 2.23549e-11
7.18699e-11 2.23549e-11 19.8816

-2.26964 4.54059 -7.60414e-12
4.54059 -1.2641 1.1166e-11
-7.60414e-12 1.1166e-11 -0.614103

-1.88939 -4.92743 2.79304e-11
-4.92743 1.6995 -2.25336e-11
2.79304e-11 -2.25336e-11 -0.420241

-7.93541 -1.28366 2.06058e-11
-1.28366 -2.18535 -4.94879e-11
2.06058e-11 -4.94879e-11 -7.87241

-9.41064 -1.5377 -8.76141e-11
-1.5377 -8.14209 -2.76343e-11
-8.76141e-11 -2.76343e-11 -9.05653

-7.45445 -5.3069 -2.37778e-11
-5.3069 0.609269 -4.85298e-11
-2.37778e-11 -4.85298e-11 -2.90833

-9.12935 5.67524 -2.06062e-11
5.67524 -1.50602 -1.07862e-11
-2.06062e-11 -1.07862e-11 -3.06597

-3.60299 -0.0752982 -9.00198e-12
-0.0752982 -9.94623 -3.58156e-11
-9.00198e-12 -3.58156e-11 -5.79042

-5.48642 1.20462 -3.49267e-11
1.20462 -8.87034 -2.61844e-11
-3.49267e-11 -2.61844e-11 -5.80846

-4.04818 5.04686 3.00384e-11
5.04686 -0.450528 -2.17587e-11
3.00384e-11 -2.17587e-11 -1.47934

-3.12791 -5.34845 7.71901e-13
-5.34845 -2.94084 1.96443e-11
7.71901e-13 1.96443e-11 -1.58366

-12.9847 -2.20426 2.79197e-11
-2.20426 -5.75882 6.54713e-12
2.79197e-11 6.54713e-12 -10.7734

-7.94103 2.14429 4.69889e-11
2.14429 -10.7989 3.90873e-11
4.69889e-11 3.90873e-11 -10.7204

-3.3274 -5.21926 -9.24549e-12
-5.21926 -7.207 4.81366e-11
-9.24549e-12 4.81366e-11 -9.4136

-11.8837 -0.920425 -2.13733e-11
-0.920425 0.213269 6.2776e-11
-2.13733e-11 6.2776e-11 -9.6246

-8.42182 1.46691 2.82348e-11
1.46691 -9.82649 -2.16419e-13
2.82348e-11 -2.16419e-13 -9.83484

-15.7429 0.189079 -1.72462e-11
0.189079 -9.56002 3.88999e-11
-1.72462e-11 3.88999e-11 -13.606

-5.80547 -1.6066 -3.8415e-11
-1.6066 -11.4094 -1.71069e-11
-3.8415e-11 -1.71069e-11 -9.7085

-10.6762 -0.594577 1.07923e-10
-0.594577 -13.7095 8.26041e-11
1.07923e-10 8.26041e-11 -13.47

-14.538 -2.90334 7.45202e-11
-2.90334 -11.5955 -6.83588e-11
7.45202e-11 -6.83588e-11 -14.2029

-10.6134 6.99992 -5.89436e-11
6.99992 -4.61665 -1.55197e-10
-5.89436e-11 -1.55197e-10 -11.8441

0.232229 2.01187 -7.12575e-11
2.01187 -1.22378 2.36025e-10
-7.12575e-11 2.36025e-10 -12.2809

2.71623 -3.34266 -3.66e-10
-3.34266 -23.4215 -3.32208e-10
-3.66e-10 -3.32208e-10 -16.1858

-8.70298 -3.77679 -9.1455e-12
-3.77679 -9.08802 2.09905e-11
-9.1455e-12 2.09905e-11 -10.5129

-7.08704 -2.78035 6.49864e-11
-2.78035 -2.36913 -1.8873e-11
6.49864e-11 -1.8873e-11 -5.41176

-5.91607 6.53319 1.04914e-11
6.53319 -8.15565 4.35177e-11
1.04914e-11 4.35177e-11 -9.52291

-6.46606 3.66639 2.96492e-11
3.66639 -4.29783 -2.07938e-11
2.96492e-11 -2.07938e-11 -5.27082

-11.0017 7.48192 2.29139e-12
7.48192 -4.49329 6.04592e-11
2.29139e-12 6.04592e-11 -13.0592

-13.4987 -0.806364 2.12001e-12
-0.806364 -15.2633 -1.83689e-10
2.12001e-12 -1.83689e-10 -15.7414

-9.54942 -2.47616 3.67815e-11
-2.47616 -5.71912 -6.23906e-11
3.67815e-11 -6.23906e-11 -7.4798

-8.56397 -1.48632 -2.08387e-11
-1.48632 -8.77689 -6.3927e-11
-2.08387e-11 -6.3927e-11 -9.93388

-7.61112 6.12919 -5.68397e-12
6.12919 -4.04781 1.57936e-11
-5.68397e-12 1.57936e-11 -6.51557

-10.7819 4.0648 5.81847e-11
4.0648 -6.97914 -1.81035e-11
5.81847e-11 -1.81035e-11 -9.89619

-6.65304 1.43277 -1.52156e-11
1.43277 3.53025 -2.77329e-11
-1.52156e-11 -2.77329e-11 -0.969032

-0.929867 -0.551427 -9.82124e-12
-0.551427 1.97157 -1.94487e-11
-9.82124e-12 -1.94487e-11 -0.337708

5.88264 1.37606 6.16477e-12
1.37606 -5.40279 -8.47415e-12
6.16477e-12 -8.47415e-12 0.033725

7.92552 0.333798 -7.94476e-12
0.333798 -2.52225 -1.86804e-11
-7.94476e-12 -1.86804e-11 1.28393

-11.2189 1.62168 -2.48385e-11
1.62168 2.27992 -3.38948e-11
-2.48385e-11 -3.38948e-11 -3.34713

-5.7286 0.423628 3.85333e-12
0.423628 -1.55668 5.48916e-12
3.85333e-12 5.48916e-12 -2.71558

7.84355 -0.52954 2.19636e-11
-0.52954 -2.79607 -3.15791e-11
2.19636e-11 -3.15791e-11 1.26079

4.59615 -0.317099 3.29766e-12
-0.317099 -7.82801 3.42755e-11
3.29766e-12 3.42755e-11 -0.945178

2.9907 -3.1805 1.54102e-11
-3.1805 10.0322 -9.63259e-12
1.54102e-11 -9.63259e-12 5.19023

4.42533 5.15258 6.35806e-12
5.15258 9.92255 2.44652e-11
6.35806e-12 2.44652e-11 4.74822

8.95865 4.87657 1.03946e-11
4.87657 3.6876 1.69508e-11
1.03946e-11 1.69508e-11 4.98483

-3.31389 5.89228 -5.7813e-13
5.89228 0.232672 -1.52081e-11
-5.7813e-13 -1.52081e-11 -2.16514

-5.41512 -1.99878 2.59027e-11
-1.99878 0.566207 -1.38598e-11
2.59027e-11 -1.38598e-11 -2.69427

0.427066 5.02253 -5.29843e-12
5.02253 3.08079 1.36765e-11
-5.29843e-12 1.36765e-11 0.360991

-6.53242 4.43358 2.84057e-11
4.43358 -0.568873 -1.02004e-11
2.84057e-11 -1.02004e-11 -2.83512

-11.7107 -1.59454 -1.95157e-13
-1.59454 2.55444 8.08879e-12
-1.95157e-13 8.08879e-12 -3.40365

4.54167 -0.98883 -1.82846e-12
-0.98883 -6.2644 3.77422e-11
-1.82846e-12 3.77422e-11 0.0575131

3.12877 2.3512 3.66905e-11
2.3512 10.3881 -2.69682e-11
3.66905e-11 -2.69682e-11 3.74321

0.789264 -0.614956 1.14616e-11
-0.614956 10.325 -2.04158e-11
1.14616e-11 -2.04158e-11 3.76191

10.3073 2.39617 4.04269e-12
2.39617 2.28993 -1.15948e-12
4.04269e-12 -1.15948e-12 4.14351

6.97455 -2.48417 4.71923e-11
-2.48417 -1.40631 4.88498e-15
4.71923e-11 4.88498e-15 1.70463

-1.41339 4.27749 -1.50249e-11
4.27749 5.38083 1.1567e-12
-1.50249e-11 1.1567e-12 1.35448

2.50837 -3.24687 -2.29609e-12
-3.24687 4.94378 -7.6458e-11
-2.29609e-12 -7.6458e-11 1.61689

5.86521 -1.59985 -2.54915e-12
-1.59985 -5.97883 -2.31079e-11
-2.54915e-12 -2.31079e-11 -0.00206371

9.96289 3.23778 -1.19413e-11
3.23778 13.6748 3.54416e-11
-1.19413e-11 3.54416e-11 8.7855

4.55261 0.340911 4.92357e-11
0.340911 -8.21093 -1.32811e-11
4.92357e-11 -1.32811e-11 -1.04515

13.1205 3.4976 -3.19835e-11
3.4976 9.68837 2.38816e-11
-3.19835e-11 2.38816e-11 9.22404

-6.38849 0.385243 -1.75204e-11
0.385243 1.32898 -2.04127e-11
-1.75204e-11 -2.04127e-11 -3.5863

-3.04815 2.03178 1.77162e-11
2.03178 -1.16079 -5.19681e-12
1.77162e-11 -5.19681e-12 -2.80271

-9.58787 -5.21675 6.34237e-11
-5.21675 -9.04556 -1.92628e-11
6.34237e-11 -1.92628e-11 -11.5178

-7.5046 2.26971 -2.08921e-11
2.26971 -11.1299 1.38645e-11
-2.08921e-11 1.38645e-11 -11.5558

10.9367 -0.742615 -2.2539e-11
-0.742615 2.75209 5.39043e-12
-2.2539e-11 5.39043e-12 4.31093

-1.16749 6.11254 -4.23817e-12
6.11254 2.24176 1.05938e-11
-4.23817e-12 1.05938e-11 -0.0672003

-2.71152 0.911973 -2.41888e-12
0.911973 -3.89401 -2.88865e-11
-2.41888e-12 -2.88865e-11 -3.94138

-4.81557 -2.78314 -1.23738e-12
-2.78314 -5.38953 5.78038e-12
-1.23738e-12 5.78038e-12 -4.49466

5.59884 -0.363017 -1.90163e-11
-0.363017 -9.00305 -3.77418e-11
-1.90163e-11 -3.77418e-11 -0.978227

-1.6347 5.05517 2.51169e-12
5.05517 3.44659 5.78308e-12
2.51169e-12 5.78308e-12 0.955865

0.785634 -4.60797 2.42703e-11
-4.60797 4.40396 -2.27209e-11
2.42703e-11 -2.27209e-11 1.24651

6.06748 -3.25254 4.14116e-11
-3.25254 0.662173 -2.50403e-11
4.14116e-11 -2.50403e-11 1.89923

5.51954 -0.771431 -7.80035e-12
-0.771431 -8.92096 2.54197e-11
-7.80035e-12 2.54197e-11 -0.760143

0.41536 5.96168 -4.12166e-11
5.96168 6.4497 -1.44511e-11
-4.12166e-11 -1.44511e-11 1.39094

-1.53191 -4.11286 -3.61167e-11
-4.11286 3.75186 2.38823e-11
-3.61167e-11 2.38823e-11 1.04116

0.469911 5.51341 6.16163e-12
5.51341 6.2951 -2.12112e-12
6.16163e-12 -2.12112e-12 1.33528

-2.16253 -3.30467 -7.03437e-12
-3.30467 5.934 2.00312e-11
-7.03437e-12 2.00312e-11 1.31817

-1.43776 -2.73041 -1.29052e-11
-2.73041 0.857468 2.36877e-11
-1.29052e-11 2.36877e-11 -0.340775

-7.47739 3.84288 -1.13627e-11
3.84288 2.14703 -3.27411e-11
-1.13627e-11 -3.27411e-11 -0.858503

4.66867 -4.795 -1.04016e-10
-4.795 2.71307 -3.62116e-11
-1.04016e-10 -3.62116e-11 2.4329

26.9876 -4.24365 -4.0455e-11
-4.24365 26.3798 -6.24224e-11
-4.0455e-11 -6.24224e-11 26.6369

25.6201 -4.56046 -3.08783e-12
-4.56046 27.9081 5.89561e-11
-3.08783e-12 5.89561e-11 26.9687

-5.96326 7.14392 -3.57198e-11
7.14392 1.61708 6.73424e-12
-3.57198e-11 6.73424e-12 -1.74541

-10.7715 -4.65775 -2.63761e-11
-4.65775 0.329152 -6.93419e-12
-2.63761e-11 -6.93419e-12 -2.63634

16.1699 -0.916837 -4.23639e-12
-0.916837 16.214 -2.38876e-11
-4.23639e-12 -2.38876e-11 17.9521

15.9918 -0.983495 -4.23261e-12
-0.983495 16.701 -4.95138e-11
-4.23261e-12 -4.95138e-11 17.5389

-1.02908 4.08882 4.89145e-11
4.08882 -5.36923 3.12045e-11
4.89145e-11 3.12045e-11 -3.97303

0.225554 -3.11596 3.34945e-11
-3.11596 -5.89902 9.64021e-12
3.34945e-11 9.64021e-12 -2.85002

2.43651 -0.141189 -5.56629e-11
-0.141189 -7.92832 1.69418e-11
-5.56629e-11 1.69418e-11 -0.559556

-1.91251 5.74502 3.42805e-11
5.74502 -6.12423 3.27424e-11
3.42805e-11 3.27424e-11 -4.38458

-0.167747 -4.14878 6.58532e-11
-4.14878 -8.52898 3.04328e-11
6.58532e-11 3.04328e-11 -3.44136

-5.06251 4.05823 -1.92683e-12
4.05823 3.52763 -3.12018e-11
-1.92683e-12 -3.12018e-11 0.0405599

-1.65318 -3.20013 8.66855e-12
-3.20013 3.25128 -2.98499e-11
8.66855e-12 -2.98499e-11 0.203443

-4.82931 2.00428 2.59965e-11
2.00428 -10.8804 -3.30323e-11
2.59965e-11 -3.30323e-11 -9.1833

-7.58407 -2.63581 -3.60119e-13
-2.63581 -9.36956 2.21195e-11
-3.60119e-13 2.21195e-11 -9.38469

-0.801264 6.19768 -1.77176e-11
6.19768 -4.98544 -9.19761e-12
-1.77176e-11 -9.19761e-12 -1.98344

0.98135 -4.90127 -3.87007e-11
-4.90127 -5.55371 -4.48715e-11
-3.87007e-11 -4.48715e-11 -1.41402

9.83214 -3.31379 -3.12147e-11
-3.31379 4.51723 1.57965e-11
-3.12147e-11 1.57965e-11 5.51729

-10.4057 -0.169206 2.23315e-11
-0.169206 0.244842 3.00382e-11
2.23315e-11 3.00382e-11 -8.0121

-7.91552 1.24511 -2.79179e-11
1.24511 -4.45392 3.49435e-11
-2.79179e-11 3.49435e-11 -6.40291

7.77504 -0.584367 2.02289e-11
-0.584367 13.9205 -1.73352e-11
2.02289e-11 -1.73352e-11 9.40056

13.8912 -0.725939 7.99494e-12
-0.725939 8.61913 -5.38325e-12
7.99494e-12 -5.38325e-12 9.57247

-8.12531 3.44227 -8.27977e-12
3.44227 2.7356 -1.50219e-11
-8.27977e-12 -1.50219e-11 -1.03287

-3.49576 -2.00799 2.75348e-11
-2.00799 1.92243 7.50984e-12
2.75348e-11 7.50984e-12 -0.626373

-3.11811 -1.18928 -6.04375e-11
-1.18928 0.949759 2.46362e-11
-6.04375e-11 2.46362e-11 -12.736

-2.74987 -3.79154 -2.11751e-11
-3.79154 -14.1985 -1.96927e-11
-2.11751e-11 -1.96927e-11 -11.574

1.78478 5.50605 2.06056e-11
5.50605 -6.08878 -3.8889e-11
2.06056e-11 -3.8889e-11 -1.00752

2.59033 -3.63129 1.11707e-11
-3.63129 -6.56751 1.55991e-11
1.11707e-11 1.55991e-11 -0.747686

10.8561 0.0929298 -1.13674e-11
0.0929298 1.94718 -9.59714e-13
-1.13674e-11 -9.59714e-13 4.1959

6.3849 0.178797 2.44652e-11
0.178797 -3.11701 7.71109e-12
2.44652e-11 7.71109e-12 1.19566

8.60645 2.67757 -3.01454e-11
2.67757 -0.313569 -7.32124e-12
-3.01454e-11 -7.32124e-12 2.26286

-1.72823 0.981471 -2.55107e-12
0.981471 -8.27636 -1.271e-11
-2.55107e-12 -1.271e-11 -3.9346

-20.027 -1.94704 -5.52328e-11
-1.94704 -8.46924 -1.50211e-11
-5.52328e-11 -1.50211e-11 -15.4469

-14.2269 0.999779 -4.19388e-11
0.999779 -13.3804 5.50684e-11
-4.19388e-11 5.50684e-11 -15.2548

6.51644 4.64607 1.56997e-11
4.64607 8.36235 2.67852e-11
1.56997e-11 2.67852e-11 4.25947

0.709607 -4.03047 2.74485e-11
-4.03047 -1.48503 -1.27094e-11
2.74485e-11 -1.27094e-11 0.0779965

3.79999 4.41775 4.00657e-11
4.41775 -4.44749 -2.68907e-12
4.00657e-11 -2.68907e-12 0.0627351

-10.4532 1.89494 -3.81232e-11
1.89494 -6.79418 1.22254e-11
-3.81232e-11 1.22254e-11 -8.71098

-10.0095 2.8014 5.39073e-11
2.8014 -0.927352 5.39565e-12
5.39073e-11 5.39565e-12 -9.97747

-3.39073 -2.3365 -2.27477e-11
-2.3365 -7.58793 -1.92061e-12
-2.27477e-11 -1.92061e-12 -4.09904

-1.79532 3.6274 3.09044e-11
3.6274 2.72878 -2.48381e-11
3.09044e-11 -2.48381e-11 -0.516715

-7.23891 -0.659415 1.92518e-11
-0.659415 3.85524 2.31178e-12
1.92518e-11 2.31178e-12 -1.13978

2.19244 2.73697 1.46353e-11
2.73697 -10.0199 2.69654e-11
1.46353e-11 2.69654e-11 -1.24618

2.56586 -0.550348 1.34834e-11
-0.550348 -10.7841 -1.6362e-11
1.34834e-11 -1.6362e-11 -1.11776

8.8429 -3.60627 9.35356e-12
-3.60627 6.5274 -5.87486e-11
9.35356e-12 -5.87486e-11 4.80503

1.22075 4.93854 -8.33496e-12
4.93854 -8.70177 5.01044e-12
-8.33496e-12 5.01044e-12 -2.28734

1.7298 -3.11854 1.96406e-11
-3.11854 -10.6607 3.87167e-11
1.96406e-11 3.87167e-11 -1.99443

3.85747 -2.41201 -1.74053e-12
-2.41201 -4.14311 4.10143e-11
-1.74053e-12 4.10143e-11 0.195165

1.79371 3.58686 -1.0013e-11
3.58686 -7.21577 -1.69444e-11
-1.0013e-11 -1.69444e-11 -1.24134

1.44556 -1.82815 2.58022e-11
-1.82815 -7.97832 2.77349e-11
2.58022e-11 2.77349e-11 -1.12245

4.20979 -1.53561 -6.31539e-12
-1.53561 -4.23877 3.15864e-11
-6.31539e-12 3.15864e-11 -0.0619199

-5.35613 6.45715 -3.87801e-13
6.45715 -2.20804 1.61806e-11
-3.87801e-13 1.61806e-11 -1.32285

0.652215 -5.53935 3.29282e-11
-5.53935 -2.0465 -2.79186e-11
3.29282e-11 -2.79186e-11 -0.493478

5.3969 4.35351 -3.36048e-11
4.35351 3.85054 1.71358e-11
-3.36048e-11 1.71358e-11 2.06231

-3.20005 -4.05084 -2.4261e-11
-4.05084 -0.191395 -3.84433e-13
-2.4261e-11 -3.84433e-13 -0.833279

-8.2562 4.50077 2.50256e-12
4.50077 -2.01037 -7.70347e-13
2.50256e-12 -7.70347e-13 -1.78574

6.74021 3.97431 -9.0532e-12
3.97431 -1.99095 -2.73478e-11
-9.0532e-12 -2.73478e-11 1.71366

-1.33163 -3.55248 -2.07513e-11
-3.55248 -4.88543 -5.19994e-11
-2.07513e-11 -5.19994e-11 -1.5684

5.14724 1.49036 6.06626e-12
1.49036 -2.34013 1.05924e-11
6.06626e-12 1.05924e-11 0.361255

2.81362 5.66764 -3.15824e-11
5.66764 3.79257 -3.27893e-12
-3.15824e-11 -3.27893e-12 1.67126

1.7621 4.57637 -1.48295e-11
4.57637 -0.781693 2.69614e-12
-1.48295e-11 2.69614e-12 0.0219477

-4.95782 1.82235 1.84839e-11
1.82235 2.20647 -4.91025e-11
1.84839e-11 -4.91025e-11 -1.08081

-9.40803 0.510956 3.04258e-11
0.510956 4.67527 -2.85007e-11
3.04258e-11 -2.85007e-11 -1.1923

10.1644 -3.48318 2.20613e-11
-3.48318 3.08798 4.62134e-12
2.20613e-11 4.62134e-12 4.9451

-7.20941 -6.32388 -2.41044e-12
-6.32388 -2.07555 2.8117e-11
-2.41044e-12 2.8117e-11 -1.56856

-4.80811 6.93739 1.53109e-11
6.93739 1.80125 1.8106e-11
1.53109e-11 1.8106e-11 -1.19436

4.77366 -5.12233 1.09686e-11
-5.12233 5.26538 2.63854e-11
1.09686e-11 2.63854e-11 2.5599

2.19587 6.16989 2.12445e-12
6.16989 5.32155 2.50429e-11
2.12445e-12 2.50429e-11 2.37025

3.13774 -2.87041 -4.04978e-11
-2.87041 -3.19382 -9.69225e-13
-4.04978e-11 -9.69225e-13 -0.0151346

1.63845 -0.738806 9.38879e-12
-0.738806 -9.96218 2.88853e-11
9.38879e-12 2.88853e-11 -2.38038

3.26987 0.214187 1.91662e-13
0.214187 -10.1873 9.4363e-12
1.91662e-13 9.4363e-12 -2.15539

0.189812 -4.80634 1.35758e-11
-4.80634 1.03476 -3.65959e-12
1.35758e-11 -3.65959e-12 0.570651

1.32095 0.985095 -3.31268e-11
0.985095 11.0648 -4.27683e-11
-3.31268e-11 -4.27683e-11 4.03431

-0.484505 0.844943 -5.2779e-11
0.844943 11.1033 2.3069e-12
-5.2779e-11 2.3069e-12 4.12715

10.7898 0.894958 1.29088e-11
0.894958 0.716282 2.65774e-11
1.29088e-11 2.65774e-11 4.42255

7.39711 5.10643 -2.31262e-11
5.10643 6.20649 5.39006e-12
-2.31262e-11 5.39006e-12 4.59057

5.74593 -5.01236 -5.78086e-12
-5.01236 0.846661 -1.73846e-12
-5.78086e-12 -1.73846e-12 1.99078

-15.5702 5.71855 -5.42978e-11
5.71855 -8.47526 2.3e-11
-5.42978e-11 2.3e-11 -12.4422

-1.72906 -1.50261 -8.27876e-11
-1.50261 -1.4205 4.77467e-11
-8.27876e-11 4.77467e-11 -11.6227

7.35267 -1.70151 3.12075e-11
-1.70151 -2.47753 1.79171e-11
3.12075e-11 1.79171e-11 1.64729

-5.858 4.51227 -2.23421e-11
4.51227 0.877016 -2.50403e-11
-2.23421e-11 -2.50403e-11 -0.596057

-0.439703 -5.09807 -3.10065e-11
-5.09807 1.3095 -6.54854e-12
-3.10065e-11 -6.54854e-12 0.0517882

3.27578 2.33655 -9.62956e-12
2.33655 -7.59608 6.93379e-12
-9.62956e-12 6.93379e-12 -0.38361

-0.311598 4.76579 2.30128e-11
4.76579 7.57254 -2.44592e-11
2.30128e-11 -2.44592e-11 1.60146

-3.5081 -2.12013 -3.34917e-15
-2.12013 7.02108 3.58294e-11
-3.34917e-15 3.58294e-11 1.35436

-11.3202 4.79524 8.32667e-16
4.79524 0.333637 1.27118e-11
8.32667e-16 1.27118e-11 -2.61575

-3.52245 -1.97484 -2.23387e-11
-1.97484 -0.675975 1.59795e-11
-2.23387e-11 1.59795e-11 -1.27527

-7.39397 4.85327 -3.66292e-12
4.85327 -3.53413 2.3114e-11
-3.66292e-12 2.3114e-11 -1.86645

-1.73869 -4.91441 -1.77102e-11
-4.91441 -1.16664 -1.63662e-11
-1.77102e-11 -1.63662e-11 -0.744305

1.81565 0.393671 1.50239e-11
0.393671 -16.573 -9.62805e-12
1.50239e-11 -9.62805e-12 -2.16147

4.59406 6.18953 -1.00179e-11
6.18953 1.18312 -1.27104e-11
-1.00179e-11 -1.27104e-11 2.05458

-5.20799 7.40707 6.73646e-13
7.40707 3.54404 -8.66511e-12
6.73646e-13 -8.66511e-12 -0.933351

-8.84619 -5.49112 -3.02717e-12
-5.49112 -3.93987 -5.77766e-11
-3.02717e-12 -5.77766e-11 -2.1122

2.9084 5.24232 9.43512e-12
5.24232 2.22895 -2.34994e-11
9.43512e-12 -2.34994e-11 1.71566

5.56252 -3.1856 1.45457e-11
-3.1856 8.56872 -1.75325e-11
1.45457e-11 -1.75325e-11 4.8424

-3.87355 -4.78025 -9.82488e-12
-4.78025 -0.605266 9.63081e-12
-9.82488e-12 9.63081e-12 -0.650664

3.67477 -1.01752 -1.90618e-11
-1.01752 9.60391 -4.95035e-11
-1.90618e-11 -4.95035e-11 3.55943

0.515884 2.71255 2.2916e-11
2.71255 9.67353 4.97001e-11
2.2916e-11 4.97001e-11 3.32978

9.41069 -1.04422 1.25226e-11
-1.04422 2.33355 -2.69784e-12
1.25226e-11 -2.69784e-12 3.77467

4.4782 -4.49392 -1.83058e-11
-4.49392 3.36311 1.54003e-11
-1.83058e-11 1.54003e-11 2.01917

-4.54497 0.740077 5.77858e-12
0.740077 6.82944 -5.77375e-12
5.77858e-12 -5.77375e-12 0.732831

0.495452 1.03443 1.67534e-11
1.03443 6.14255 2.56191e-11
1.67534e-11 2.56191e-11 1.16501

7.04103 -4.25638 5.58641e-11
-4.25638 8.2913 -2.63782e-11
5.58641e-11 -2.63782e-11 5.16493

4.60831 5.29257 1.86841e-11
5.29257 8.17393 -6.54217e-12
1.86841e-11 -6.54217e-12 4.80736

-0.0735429 1.01886 1.46357e-11
1.01886 -10.9202 8.47481e-12
1.46357e-11 8.47481e-12 -1.7215

-0.366827 0.00964593 1.23274e-11
0.00964593 -11.9872 -1.03953e-11
1.23274e-11 -1.03953e-11 -1.76821

-3.59123 5.39919 1.90736e-13
5.39919 -0.869817 -3.27375e-11
1.90736e-13 -3.27375e-11 -0.543265

-0.157781 -4.4812 9.62119e-13
-4.4812 1.01987 -6.5441e-12
9.62119e-13 -6.5441e-12 0.0458315

-5.94386 7.31669 2.18544e-11
7.31669 2.29604 2.33057e-11
2.18544e-11 2.33057e-11 -1.47254

-11.9982 -4.15695 2.60288e-12
-4.15695 0.13248 -1.30964e-11
2.60288e-12 -1.30964e-11 -2.52157

-2.97592 4.82186 -2.26773e-11
4.82186 -1.11681 2.42641e-11
-2.26773e-11 2.42641e-11 -1.47488

11.8635 3.01227 -2.05171e-11
3.01227 6.51805 -1.04056e-11
-2.05171e-11 -1.04056e-11 6.96833

0.0540371 -2.73931 -1.21275e-11
-2.73931 6.82031 -5.25831e-11
-1.21275e-11 -5.25831e-11 1.61006

-3.33657 3.69522 1.2137e-11
3.69522 6.88618 1.6181e-11
1.2137e-11 1.6181e-11 1.37934

0.451012 4.41099 -4.62326e-12
4.41099 -6.88808 1.26187e-11
-4.62326e-12 1.26187e-11 -2.83235

1.17297 -2.53448 5.58427e-11
-2.53448 -7.26431 1.11717e-11
5.58427e-11 1.11717e-11 -2.09628

3.36828 -4.19545 -2.88757e-11
-4.19545 -0.732871 -3.77463e-11
-2.88757e-11 -3.77463e-11 0.586328

1.83158 5.21099 1.27079e-11
5.21099 -4.26367 7.70291e-12
1.27079e-11 7.70291e-12 -0.800437

2.25641 -3.64087 7.72138e-12
-3.64087 -3.6155 -7.16266e-11
7.72138e-12 -7.16266e-11 -0.448746

15.8512 -1.38581 -4.60464e-11
-1.38581 9.45479 -5.24036e-11
-4.60464e-11 -5.24036e-11 16.5955

9.53881 -1.71977 -1.9649e-11
-1.71977 15.4511 2.38861e-11
-1.9649e-11 2.38861e-11 16.8171

-1.35714 5.87294 -5.23786e-11
5.87294 -6.7302 -1.15785e-12
-5.23786e-11 -1.15785e-12 -7.59971

-0.262346 -4.13026 2.23362e-11
-4.13026 -11.32 4.69827e-11
2.23362e-11 4.69827e-11 -6.22108

2.53752 5.72752 8.66988e-12
5.72752 -1.47016 2.15732e-11
8.66988e-12 2.15732e-11 0.406529

12.3772 2.72618 -5.58057e-12
2.72618 5.83155 -5.97158e-12
-5.58057e-12 -5.97158e-12 7.05207

-4.6479 5.10991 -5.77889e-12
5.10991 3.24939 1.67542e-11
-5.77889e-12 1.67542e-11 -0.807875

-8.92681 -1.97767 -2.54169e-11
-1.97767 4.16531 -2.96622e-11
-2.54169e-11 -2.96622e-11 -1.0115

2.21897 -4.86332 -2.31197e-11
-4.86332 4.48695 2.73526e-11
-2.31197e-11 2.73526e-11 2.24715

-5.16109 3.14669 4.73723e-11
3.14669 -0.569894 1.52177e-11
4.73723e-11 1.52177e-11 -2.91313

-3.96566 -1.77913 -1.15756e-12
-1.77913 -1.72112 2.36841e-11
-1.15756e-12 2.36841e-11 -2.40377

7.60358 3.83056 -3.66983e-11
3.83056 0.96761 2.4266e-11
-3.66983e-11 2.4266e-11 2.35569

6.02219 2.06763 6.9346e-12
2.06763 -3.65587 -3.0427e-11
6.9346e-12 -3.0427e-11 1.01593

-10.9399 7.16003 -3.87986e-13
7.16003 -1.8952 -1.92057e-12
-3.87986e-13 -1.92057e-12 -2.05578

-0.448926 -3.67624 -4.23498e-12
-3.67624 -0.665726 3.65582e-12
-4.23498e-12 3.65582e-12 -0.258779

-3.29381 5.9231 1.93548e-11
5.9231 5.0658 2.5425e-11
1.93548e-11 2.5425e-11 0.0792471

-6.17786 -3.17287 -1.03033e-11
-3.17287 3.66793 2.42676e-11
-1.03033e-11 2.42676e-11 -0.121354

-0.238674 6.46881 -3.27437e-11
6.46881 -3.20341 1.88707e-11
-3.27437e-11 1.88707e-11 -0.718953

1.99364 -5.50744 -9.2341e-12
-5.50744 -2.77386 -6.02779e-11
-9.2341e-12 -6.02779e-11 -0.269481

-4.96585 1.83499 3.33182e-11
1.83499 6.83163 5.0111e-12
3.33182e-11 5.0111e-12 0.757034

-1.19214 -0.136606 -5.74836e-13
-0.136606 5.71677 3.85603e-12
-5.74836e-13 3.85603e-12 0.849982

13.3904 -2.09776 -1.1366e-11
-2.09776 16.7923 -5.16313e-11
-1.1366e-11 -5.16313e-11 13.6422

16.2775 -2.03553 2.23467e-11
-2.03553 14.0083 -3.08346e-12
2.23467e-11 -3.08346e-12 13.6605

3.85731 3.35905 4.78647e-11
3.35905 -5.99539 -6.15439e-12
4.78647e-11 -6.15439e-12 -0.08294

1.03275 1.02223 -7.6248e-11
1.02223 -6.82076 1.46701e-10
-7.6248e-11 1.46701e-10 -12.0249

-0.965168 -3.6646 2.46348e-11
-3.6646 -14.2317 5.71792e-11
2.46348e-11 5.71792e-11 -10.4387

-8.72625 -4.85863 -5.99099e-12
-4.85863 -3.44481 2.07993e-11
-5.99099e-12 2.07993e-11 -6.81035

-8.53755 1.52311 -8.30373e-12
1.52311 -6.20131 3.60109e-11
-8.30373e-12 3.60109e-11 -7.49534

6.89257 -0.287235 4.98852e-11
-0.287235 -6.15952 -1.15487e-11
4.98852e-11 -1.15487e-11 0.0629319

-5.67586 7.96091 -1.41529e-11
7.96091 3.36621 3.65759e-12
-1.41529e-11 3.65759e-12 -0.897463

-12.2592 -7.47377 4.81689e-13
-7.47377 -2.05522 3.46634e-12
4.81689e-13 3.46634e-12 -2.18553

10.7183 3.97811 3.27559e-11
3.97811 12.3892 -2.65851e-11
3.27559e-11 -2.65851e-11 10.457

12.1014 4.17819 3.35165e-11
4.17819 11.5131 -2.51302e-11
3.35165e-11 -2.51302e-11 9.9245

6.88204 -1.52566 -1.92616e-11
-1.52566 13.2036 5.19895e-12
-1.92616e-11 5.19895e-12 8.0827

6.33759 3.15509 5.33622e-11
3.15509 12.4916 7.32362e-12
5.33622e-11 7.32362e-12 7.77483

13.2648 -0.762508 -1.34411e-12
-0.762508 6.58918 -1.32938e-11
-1.34411e-12 -1.32938e-11 8.27188

7.92371 1.85963 -3.94897e-11
1.85963 15.4036 4.35333e-11
-3.94897e-11 4.35333e-11 10.0884

14.6301 2.17957 3.46582e-12
2.17957 8.15205 -8.09076e-12
3.46582e-12 -8.09076e-12 10.41

-7.56941 0.556603 -2.69207e-12
0.556603 0.720135 -4.92948e-11
-2.69207e-12 -4.92948e-11 -5.20228

-6.08928 4.18798 -1.157e-12
4.18798 -1.54688 -1.58871e-11
-1.157e-12 -1.58871e-11 -4.51858

3.49966 0.675012 -5.1037e-12
0.675012 -3.35696 4.25571e-11
-5.1037e-12 4.25571e-11 -0.650668

5.61709 -0.12824 -4.52464e-12
-0.12824 -9.77551 6.54575e-12
-4.52464e-12 6.54575e-12 -0.9297

2.70915 -2.53417 4.50669e-11
-2.53417 8.21761 4.81595e-11
4.50669e-11 4.81595e-11 3.32595

0.859292 3.80515 2.69185e-12
3.80515 7.53977 1.23327e-11
2.69185e-12 1.23327e-11 3.13865

6.53424 -0.189615 4.95483e-11
-0.189615 -6.80839 1.65705e-11
4.95483e-11 1.65705e-11 -0.103147

-1.11366 3.24566 -3.27309e-11
3.24566 -6.36753 6.70041e-11
-3.27309e-11 6.70041e-11 -5.39872

-0.184319 -2.31055 1.92645e-11
-2.31055 -8.77541 1.73452e-11
1.92645e-11 1.73452e-11 -4.21448

-0.718536 3.14621 4.25613e-11
3.14621 0.187017 -7.70421e-13
4.25613e-11 -7.70421e-13 -0.916688

-4.87789 -5.21112 1.11714e-11
-5.21112 -0.512186 -3.87542e-13
1.11714e-11 -3.87542e-13 -0.622793

-3.16728 6.69273 2.02187e-11
6.69273 4.53155 1.52201e-11
2.02187e-11 1.52201e-11 -0.102

3.91724 0.666971 -6.35321e-12
0.666971 -7.24118 7.69681e-13
-6.35321e-12 7.69681e-13 -1.08973

7.40724 4.78659 1.45444e-11
4.78659 6.05651 1.27188e-11
1.45444e-11 1.27188e-11 4.24664

-6.67245 -3.96648 7.51229e-12
-3.96648 1.58015 3.08094e-12
7.51229e-12 3.08094e-12 -0.536807

-2.91645 7.15338 1.04953e-11
7.15338 4.03909 1.63728e-11
1.04953e-11 1.63728e-11 -0.10705

27.8528 8.36049 8.86524e-12
8.36049 28.4795 4.73979e-11
8.86524e-12 4.73979e-11 28.2763

-5.49407 -0.500687 -2.28175e-11
-0.500687 6.95608 4.62549e-12
-2.28175e-11 4.62549e-12 0.67725

-2.30531 2.72617 -9.24547e-12
2.72617 6.05656 2.17636e-11
-9.24547e-12 2.17636e-11 0.640986

-9.95245 -0.658503 -2.36775e-11
-0.658503 2.44935 -2.65776e-11
-2.36775e-11 -2.65776e-11 -6.09076

-6.90875 3.31065 2.54135e-11
3.31065 -4.1848 3.76462e-11
2.54135e-11 3.76462e-11 -5.51841

1.39473 2.7046 1.34827e-11
2.7046 -13.9759 1.54071e-11
1.34827e-11 1.54071e-11 -2.68036

1.71709 -1.84288 3.85284e-13
-1.84288 -16.7536 -2.88813e-12
3.85284e-13 -2.88813e-12 -2.65438

-4.34174 3.62624 -8.6995e-11
3.62624 -3.43566 -2.83151e-11
-8.6995e-11 -2.83151e-11 -3.12432

-5.23176 -5.45956 -3.76435e-11
-5.45956 -4.12959 -4.31353e-11
-3.76435e-11 -4.31353e-11 -3.09648

-7.19974 3.0685 -3.25029e-12
3.0685 -2.65161 2.73453e-11
-3.25029e-12 2.73453e-11 -5.73326

-6.93313 -4.28931 1.63642e-11
-4.28931 -5.24558 -2.88468e-12
1.63642e-11 -2.88468e-12 -5.7642

-2.29679 5.62806 1.53929e-12
5.62806 -5.36192 6.70065e-11
1.53929e-12 6.70065e-11 -10.3035

-0.971027 -3.97653 -9.66703e-11
-3.97653 -12.087 5.58256e-11
-9.66703e-11 5.58256e-11 -8.35058

-7.65845 7.8891 3.15816e-11
7.8891 -4.11859 1.34954e-11
3.15816e-11 1.34954e-11 -2.62661

1.3446 -4.23464 -2.02156e-11
-4.23464 -3.41813 -6.93305e-12
-2.02156e-11 -6.93305e-12 -0.868387

2.92323 5.84535 3.62121e-11
5.84535 -3.06097 1.34896e-11
3.62121e-11 1.34896e-11 0.22302

-1.0655 5.05045 -1.18435e-11
5.05045 5.22946 1.94489e-11
-1.18435e-11 1.94489e-11 0.526199

-5.64458 -2.0182 -1.53405e-12
-2.0182 4.93839 -1.27107e-11
-1.53405e-12 -1.27107e-11 0.123734

3.04924 -5.91889 -5.37585e-12
-5.91889 0.110275 -4.42914e-11
-5.37585e-12 -4.42914e-11 0.749991

8.17124 -3.19172 -1.53951e-12
-3.19172 6.89423 -5.66323e-11
-1.53951e-12 -5.66323e-11 5.07974

4.43098 -4.2541 -1.40673e-11
-4.2541 -2.78965 3.13904e-11
-1.40673e-11 3.13904e-11 0.529896

0.741982 6.43921 5.66214e-11
6.43921 -0.328804 2.35139e-11
5.66214e-11 2.35139e-11 0.438471

-10.3362 -8.62924 1.94056e-11
-8.62924 -3.90452 -4.81502e-11
1.94056e-11 -4.81502e-11 -2.97721

-6.68985 6.87561 -1.96422e-11
6.87561 0.779797 -2.07994e-11
-1.96422e-11 -2.07994e-11 -2.271

2.04147 -1.52179 -9.87373e-12
-1.52179 -4.71584 -3.11959e-11
-9.87373e-12 -3.11959e-11 -1.1236

-1.96502 -2.54232 6.60405e-11
-2.54232 -3.19703 1.19518e-11
6.60405e-11 1.19518e-11 -12.0919

-12.7234 2.19251 3.61949e-11
2.19251 -8.94456 3.35982e-11
3.61949e-11 3.35982e-11 -12.5839

-0.38743 2.64068 3.25441e-11
2.64068 -3.96342 -9.62475e-12
3.25441e-11 -9.62475e-12 -1.47103

0.944494 -1.04919 3.1776e-11
-1.04919 -7.53688 -1.82923e-11
3.1776e-11 -1.82923e-11 -3.43305

14.1812 -2.97744 2.30149e-12
-2.97744 16.0503 7.78306e-11
2.30149e-12 7.78306e-11 12.9426

16.1827 -2.8233 -5.50912e-11
-2.8233 12.6807 -7.70413e-12
-5.50912e-11 -7.70413e-12 12.6842

1.32083 0.867197 -1.54253e-12
0.867197 -10.1373 5.39006e-12
-1.54253e-12 5.39006e-12 -2.72061

1.07448 0.220648 2.50341e-11
0.220648 -12.3982 2.8891e-11
2.50341e-11 2.8891e-11 -2.4816

-0.622498 0.0833392 8.30491e-12
0.0833392 -6.20272 8.85899e-12
8.30491e-12 8.85899e-12 -3.4439

0.387599 -2.34232 4.55384e-11
-2.34232 3.93301 2.25332e-11
4.55384e-11 2.25332e-11 0.67093

-4.86346 3.04797 1.21093e-11
3.04797 4.57055 3.2363e-11
1.21093e-11 3.2363e-11 0.190741

6.07555 4.69544 -8.47041e-12
4.69544 -0.38443 -1.84917e-11
-8.47041e-12 -1.84917e-11 1.76096

-0.574695 5.36162 -2.3878e-11
5.36162 -4.42767 1.96381e-11
-2.3878e-11 1.96381e-11 -1.82556

0.856455 -4.197 -4.85325e-11
-4.197 -3.23891 1.44419e-11
-4.85325e-11 1.44419e-11 -1.08014

-13.5771 0.698623 -1.16462e-11
0.698623 -16.3862 -8.35591e-13
-1.16462e-11 -8.35591e-13 -16.5785

-12.5746 -5.93629 3.50823e-11
-5.93629 -4.57122 1.42314e-10
3.50823e-11 1.42314e-10 -14.0111

4.30566 2.3571 2.33031e-11
2.3571 -0.603344 2.09895e-11
2.33031e-11 2.09895e-11 0.454716

0.49334 3.77931 2.51162e-12
3.77931 -5.74067 5.31519e-11
2.51162e-12 5.31519e-11 -2.64862

0.74149 -2.81671 1.02159e-11
-2.81671 -7.46872 -3.73537e-11
1.02159e-11 -3.73537e-11 -2.16951

-7.22024 -2.28942 -5.68124e-12
-2.28942 1.79344 -7.69984e-12
-5.68124e-12 -7.69984e-12 -1.08149

-2.75596 6.48301 -3.17758e-11
6.48301 3.19269 -2.13807e-11
-3.17758e-11 -2.13807e-11 -0.484182

-4.54494 8.25382 4.42894e-11
8.25382 3.64182 -3.07421e-12
4.42894e-11 -3.07421e-12 -0.610372

-8.84025 -4.96012 -3.36843e-12
-4.96012 -2.31116 -6.16203e-12
-3.36843e-12 -6.16203e-12 -1.70233

30.4763 9.54458 5.97239e-11
9.54458 30.7393 -3.06227e-11
5.97239e-11 -3.06227e-11 29.6067

-6.71078 5.11428 -3.14831e-11
5.11428 0.891492 3.65587e-12
-3.14831e-11 3.65587e-12 -2.9925

-9.38529 -5.83277 4.45293e-11
-5.83277 -2.04942 -2.08031e-11
4.45293e-11 -2.08031e-11 -3.44432

-9.07681 -4.52433 6.54254e-12
-4.52433 0.671878 5.7773e-12
6.54254e-12 5.7773e-12 -1.25031

-5.13364 7.08789 -1.96436e-11
7.08789 3.50062 -4.35256e-11
-1.96436e-11 -4.35256e-11 -0.73022

6.76274 -3.14118 3.71725e-11
-3.14118 0.160119 -1.82893e-11
3.71725e-11 -1.82893e-11 1.86476

-1.78154 -3.80348 -3.58125e-11
-3.80348 -2.54776 -3.12018e-11
-3.58125e-11 -3.12018e-11 -1.27995

-5.0676 4.16273 -4.90549e-11
4.16273 -1.02835 2.96545e-11
-4.90549e-11 2.96545e-11 -2.78331

-5.48307 -5.66792 -9.63052e-12
-5.66792 -4.62826 2.00258e-11
-9.63052e-12 2.00258e-11 -2.99763

2.57213 -1.48666 1.61239e-11
-1.48666 -8.1375 2.5036e-11
1.61239e-11 2.5036e-11 -1.4553

-0.434942 1.56231 -1.5173e-15
1.56231 -4.63168 -1.50244e-11
-1.5173e-15 -1.50244e-11 -3.59995

-0.544523 -1.60006 1.42464e-11
-1.60006 -9.04537 9.24542e-12
1.42464e-11 9.24542e-12 -3.31519

-11.6888 1.73989 1.6359e-11
1.73989 0.326489 6.81671e-11
1.6359e-11 6.81671e-11 -11.2768

-11.0752 2.31043 1.02032e-11
2.31043 -3.82397 -1.40563e-11
1.02032e-11 -1.40563e-11 -9.54052

16.4719 1.80429 -2.83246e-11
1.80429 11.7284 -3.47159e-12
-2.83246e-11 -3.47159e-12 17.302

11.9539 1.79752 -7.06092e-11
1.79752 17.3088 -1.92602e-12
-7.06092e-11 -1.92602e-12 17.3053

-3.44295 5.20944 1.44444e-11
5.20944 -3.28861 -4.38972e-11
1.44444e-11 -4.38972e-11 -1.56168

-0.216403 -5.34966 -6.7352e-12
-5.34966 -1.54799 -1.82949e-11
-6.7352e-12 -1.82949e-11 -0.734918

19.055 3.55581 4.58516e-11
3.55581 18.5654 2.51636e-12
4.58516e-11 2.51636e-12 20.2246

18.3442 3.89041 -4.00808e-11
3.89041 18.5649 -4.27794e-11
-4.00808e-11 -4.27794e-11 20.0991

-3.76952 -1.39672 9.46891e-11
-1.39672 -7.46212 9.87865e-11
9.46891e-11 9.87865e-11 -10.3511

-2.67609 -0.899046 -3.35111e-11
-0.899046 -0.730848 -7.74095e-11
-3.35111e-11 -7.74095e-11 -12.1606

-3.59649 -5.1288 -1.44307e-12
-5.1288 -2.70225 1.57896e-11
-1.44307e-12 1.57896e-11 -1.31549

-2.23021 6.60853 3.50554e-11
6.60853 -3.65157 -5.38573e-12
3.50554e-11 -5.38573e-12 -1.44816

1.06653 -5.55816 -4.71886e-11
-5.55816 -3.3522 8.24154e-11
-4.71886e-11 8.24154e-11 -0.810778

0.18467 5.81729 5.0845e-11
5.81729 1.29961 1.73449e-11
5.0845e-11 1.73449e-11 0.643363

2.73488 -4.61456 1.25222e-11
-4.61456 1.65638 -1.07819e-11
1.25222e-11 -1.07819e-11 0.88277

7.80581 -0.854081 -2.50222e-12
-0.854081 13.0918 9.63437e-12
-2.50222e-12 9.63437e-12 7.93914

5.19607 2.4002 -5.31685e-11
2.4002 12.305 -7.31963e-12
-5.31685e-11 -7.31963e-12 7.4278

13.1386 -0.355162 8.67513e-12
-0.355162 7.0332 1.69561e-11
8.67513e-12 1.69561e-11 8.17697

-2.77431 6.16761 -1.82913e-11
6.16761 -0.632772 -7.08779e-11
-1.82913e-11 -7.08779e-11 -0.456211

0.883923 -6.06851 2.34925e-11
-6.06851 -0.139108 7.89798e-12
2.34925e-11 7.89798e-12 0.0217307

7.90643 0.386182 -2.7932e-11
0.386182 15.4533 1.46385e-11
-2.7932e-11 1.46385e-11 10.6116

15.2447 -0.0418193 2.77505e-11
-0.0418193 8.96659 1.54184e-11
2.77505e-11 1.54184e-11 10.6138

-2.51733 6.29056 -1.55892e-11
6.29056 -5.13695 -7.70259e-11
-1.55892e-11 -7.70259e-11 -2.51875

0.745404 -4.4844 -1.51916e-12
-4.4844 -4.16962 -7.83717e-11
-1.51916e-12 -7.83717e-11 -1.48395

-3.23899 6.2188 3.86062e-13
6.2188 -4.04978 4.08272e-11
3.86062e-13 4.08272e-11 -2.91654

-0.0147796 -5.45051 1.02058e-11
-5.45051 -5.05123 -3.33099e-11
1.02058e-11 -3.33099e-11 -2.00682

18.7203 3.64575 1.38796e-11
3.64575 18.8871 -2.69713e-11
1.38796e-11 -2.69713e-11 20.593

18.7863 3.36589 -2.22045e-12
3.36589 19.3901 7.05133e-11
-2.22045e-12 7.05133e-11 20.6746

-0.510348 5.89285 -2.56039e-11
5.89285 -1.98787 -8.05006e-11
-2.56039e-11 -8.05006e-11 -0.490815

1.21288 -4.87009 2.77248e-11
-4.87009 -0.61674 3.31235e-11
2.77248e-11 3.31235e-11 -0.0684743

-7.50381 3.81102 -3.63891e-11
3.81102 -4.7649 -6.65349e-11
-3.63891e-11 -6.65349e-11 -6.65269

-8.31255 -1.23087 -2.0218e-11
-1.23087 -2.11146 1.27027e-11
-2.0218e-11 1.27027e-11 -7.78186

-7.00923 4.95856 5.14122e-11
4.95856 -1.89148 8.87369e-12
5.14122e-11 8.87369e-12 -2.95311

-0.27102 -5.63887 -2.54178e-11
-5.63887 -3.59591 9.24105e-12
-2.54178e-11 9.24105e-12 -1.69486

-0.570324 4.44933 -3.08139e-12
4.44933 -9.4349 3.08067e-11
-3.08139e-12 3.08067e-11 -5.01224

0.679541 -2.88954 1.88693e-11
-2.88954 -11.8554 6.93949e-12
1.88693e-11 6.93949e-12 -4.00897

-3.60151 5.98754 5.72971e-12
5.98754 1.92227 -3.46601e-12
5.72971e-12 -3.46601e-12 -1.15564

-6.11722 -5.02184 -7.84876e-12
-5.02184 -2.12567 1.65639e-11
-7.84876e-12 1.65639e-11 -1.75277

-10.6828 3.64134 1.3447e-12
3.64134 -2.03543 6.47955e-11
1.3447e-12 6.47955e-11 -8.02609

-9.76445 4.21373 3.05763e-12
4.21373 -8.44974 -3.98599e-11
3.05763e-12 -3.98599e-11 -10.6438

-7.49672 -7.50295 -1.30046e-11
-7.50295 -7.71145 1.46364e-11
-1.30046e-11 1.46364e-11 -9.75896

-12.3141 -1.02261 -1.07745e-11
-1.02261 0.1791 6.16425e-12
-1.07745e-11 6.16425e-12 -9.53493

-1.99444 4.41378 2.65703e-11
4.41378 -8.27713 3.27391e-11
2.65703e-11 3.27391e-11 -8.32205

-0.906049 0.93654 -2.19522e-11
0.93654 -7.89167 5.23634e-11
-2.19522e-11 5.23634e-11 -10.5348

-0.761286 -4.07355 2.31319e-12
-4.07355 -12.903 1.54098e-11
2.31319e-12 1.54098e-11 -6.94537

-0.745144 -1.33976 -5.3966e-12
-1.33976 -13.264 5.95001e-11
-5.3966e-12 5.95001e-11 -8.8747

-7.86263 5.18477 1.7206e-10
5.18477 -3.41889 3.79746e-10
1.7206e-10 3.79746e-10 -11.2566

1.67746 -1.0371 1.11683e-10
-1.0371 -1.19215 -1.84814e-10
1.11683e-10 -1.84814e-10 -12.1667

-0.455223 -3.62891 -2.05622e-10
-3.62891 -14.5316 -2.79316e-10
-2.05622e-10 -2.79316e-10 -10.7099

-0.300969 -4.46283 4.52222e-10
-4.46283 -11.2174 -5.15296e-10
4.52222e-10 -5.15296e-10 -7.71119

-2.6906 4.98716 -5.23686e-11
4.98716 -7.36469 -9.9365e-15
-5.23686e-11 -9.9365e-15 -8.95166

-1.93761 2.22929 -1.19411e-11
2.22929 -3.76459 3.19677e-11
-1.19411e-11 3.19677e-11 -4.51689

-5.4394 2.49577 -4.69482e-11
2.49577 -1.93869 -1.15531e-10
-4.69482e-11 -1.15531e-10 -11.6492

1.09087 -3.50021 -2.92866e-11
-3.50021 -10.4874 8.77846e-11
-2.92866e-11 8.77846e-11 -6.19371

-2.54879 -4.1656 -3.65606e-11
-4.1656 -12.3193 -7.39313e-11
-3.65606e-11 -7.39313e-11 -9.35077

0.0698108 -2.85525 1.96409e-11
-2.85525 -5.08843 -3.76625e-13
1.96409e-11 -3.76625e-13 -3.2095

-3.36602 5.80863 8.0882e-12
5.80863 -5.68432 -4.99754e-12
8.0882e-12 -4.99754e-12 -6.23378

-1.41861 2.81151 -8.85218e-12
2.81151 -7.00399 -5.19843e-11
-8.85218e-12 -5.19843e-11 -8.27297

-0.578949 -4.38014 4.73751e-11
-4.38014 -8.67746 -3.65716e-11
4.73751e-11 -3.65716e-11 -4.65458

-0.648236 -2.57841 -3.5427e-11
-2.57841 -9.96253 -1.96432e-11
-3.5427e-11 -1.96432e-11 -6.39615

-1.62725 0.471611 2.69631e-12
0.471611 -1.39117 2.11769e-12
2.69631e-12 2.11769e-12 -0.280126

1.04698 -0.250392 -1.23212e-11
-0.250392 -0.76555 -7.79728e-12
-1.23212e-11 -7.79728e-12 -0.506802

1.11616 0.897963 4.62249e-12
0.897963 -1.70877 2.46424e-11
4.62249e-12 2.46424e-11 -0.463011

-1.03415 -0.933338 5.77605e-12
-0.933338 -4.72913 -1.21596e-11
5.77605e-12 -1.21596e-11 -0.613009

-0.851132 0.159142 2.04088e-11
0.159142 -3.55848 -1.17534e-11
2.04088e-11 -1.17534e-11 -0.289279

0.483336 -1.33297 -1.34555e-12
-1.33297 -1.00475 -1.96366e-11
-1.34555e-12 -1.96366e-11 -1.30469

-0.149444 2.39316 -1.3477e-12
2.39316 -3.10214 1.1557e-12
-1.3477e-12 1.1557e-12 -1.6635

-0.787836 -0.225048 -6.35358e-12
-0.225048 -3.96231 7.12666e-13
-6.35358e-12 7.12666e-13 -0.36088

0.699223 1.0772 -9.24142e-12
1.0772 -5.93401 1.60763e-11
-9.24142e-12 1.60763e-11 -0.934296

-0.919447 0.225661 6.93175e-12
0.225661 -1.68598 2.16113e-11
6.93175e-12 2.16113e-11 -0.133558

-0.874198 -0.210227 5.38991e-12
-0.210227 -1.55889 2.12263e-11
5.38991e-12 2.12263e-11 -0.101778

-0.638907 0.125389 2.84926e-11
0.125389 0.166232 -7.36362e-12
2.84926e-11 -7.36362e-12 -0.0243661

2.87325 -1.3607 -3.88874e-13
-1.3607 -3.4251 1.91543e-11
-3.88874e-13 1.91543e-11 -1.24028

2.03309 0.0953098 3.84999e-12
0.0953098 -0.202544 -6.64335e-12
3.84999e-12 -6.64335e-12 -1.00365

-1.57378 1.76747 -2.00231e-11
1.76747 -2.18482 -3.08039e-12
-2.00231e-11 -3.08039e-12 -0.509677

-1.97166 2.50597 3.27579e-12
2.50597 -1.81448 1.65567e-11
3.27579e-12 1.65567e-11 -0.727664

-0.256022 -2.37022 3.8695e-13
-2.37022 -3.1802 -2.25246e-11
3.8695e-13 -2.25246e-11 -1.75532

0.361296 1.23881 -1.65557e-11
1.23881 -0.9427 8.27913e-12
-1.65557e-11 8.27913e-12 -1.27524

-0.370277 0.0679166 -1.81923e-11
0.0679166 0.76429 3.98857e-12
-1.81923e-11 3.98857e-12 -0.0838486

-1.40211 0.240722 1.23212e-11
0.240722 -0.727643 -1.14551e-11
1.23212e-11 -1.14551e-11 -0.143516

-1.42271 -0.270964 1.0011e-11
-0.270964 -0.697167 5.29995e-13
1.0011e-11 5.29995e-13 -0.149049

-0.900211 -0.286533 -7.70051e-13
-0.286533 0.45747 -7.21731e-14
-7.70051e-13 -7.21731e-14 -0.0673379

-1.45309 0.789212 -3.85057e-12
0.789212 -1.98733 6.73781e-12
-3.85057e-12 6.73781e-12 -0.283387

-1.41843 0.643982 -1.15521e-11
0.643982 -3.44652 -9.55456e-12
-1.15521e-11 -9.55456e-12 -0.393864

-2.26454 0.618744 4.42717e-12
0.618744 -1.89504 -1.17447e-11
4.42717e-12 -1.17447e-11 -0.437247

-0.115636 -0.418614 -8.47146e-12
-0.418614 -0.311882 1.90593e-11
-8.47146e-12 1.90593e-11 -0.157886

-0.524907 0.783283 1.34772e-12
0.783283 -4.53819 -8.7481e-12
1.34772e-12 -8.7481e-12 -0.479922

-1.38087 0.137895 -2.27181e-11
0.137895 -0.811937 -1.78078e-11
-2.27181e-11 -1.78078e-11 -0.0549468

-0.151931 -1.06392 -6.54669e-12
-1.06392 -7.05832 1.54323e-11
-6.54669e-12 1.54323e-11 -1.15054

-0.96327 -0.283999 3.46537e-11
-0.283999 -0.0433905 -1.65686e-11
3.46537e-11 -1.65686e-11 -0.0766462

2.01406 -0.237609 -1.46289e-11
-0.237609 -1.76213 -2.56052e-11
-1.46289e-11 -2.56052e-11 -1.56315

2.06216 0.355286 5.39261e-12
0.355286 -2.62672 1.4437e-11
5.39261e-12 1.4437e-11 -1.68863

-5.48781 -1.1986 -2.11775e-12
-1.1986 -7.30504 8.18241e-12
-2.11775e-12 8.18241e-12 -7.48337

-5.51769 1.20531 1.34757e-12
1.20531 -7.24981 2.63766e-11
1.34757e-12 2.63766e-11 -7.5131

-0.924267 -0.277291 2.04083e-11
-0.277291 -2.51702 -7.67701e-12
2.04083e-11 -7.67701e-12 -0.108862

-2.62478 0.22403 4.00462e-11
0.22403 -2.13486 -4.09336e-12
4.00462e-11 -4.09336e-12 -0.650406

-3.8693 -1.92119 2.21407e-11
-1.92119 -3.85157 -4.19253e-11
2.21407e-11 -4.19253e-11 -2.88701

-4.14121 2.03719 7.8934e-12
2.03719 -3.96242 2.52231e-11
7.8934e-12 2.52231e-11 -3.07248

1.45597 -0.938644 8.47137e-12
-0.938644 -5.59316 2.91086e-11
8.47137e-12 2.91086e-11 -0.674366

-0.642237 -0.534889 2.52202e-11
-0.534889 0.589389 -1.60748e-11
2.52202e-11 -1.60748e-11 -0.0788091

-1.47438 0.016996 -7.70412e-13
0.016996 -2.31381 1.67018e-11
-7.70412e-13 1.67018e-11 -0.227576

1.19829 0.815106 -1.4922e-11
0.815106 -5.89909 -1.56194e-11
-1.4922e-11 -1.56194e-11 -0.630305

-1.42443 -0.733667 7.89386e-12
-0.733667 -1.87933 -5.77542e-12
7.89386e-12 -5.77542e-12 -0.253199

-1.70252 -0.482767 -2.92642e-11
-0.482767 -1.34254 -1.17453e-11
-2.92642e-11 -1.17453e-11 -0.289182

0.645832 -1.01828 -1.11649e-11
-1.01828 0.0361298 -1.90592e-11
-1.11649e-11 -1.90592e-11 -0.311672

-1.29871 0.0386779 4.10085e-11
0.0386779 -2.53406 1.82431e-11
4.10085e-11 1.82431e-11 -0.257927

-1.27078 0.394624 -3.04189e-11
0.394624 -1.3606 -1.68216e-11
-3.04189e-11 -1.68216e-11 -0.144179

-1.17948 0.510073 -5.00539e-12
0.510073 -0.754704 -1.74711e-11
-5.00539e-12 -1.74711e-11 -0.151377

0.2629 -3.74241 -3.58177e-11
-3.74241 -4.30932 1.79034e-11
-3.58177e-11 1.79034e-11 -1.32777

-1.11109 -0.209088 -3.85303e-13
-0.209088 -0.456289 -1.15487e-12
-3.85303e-13 -1.15487e-12 -0.070832

-1.32206 0.229445 1.07814e-11
0.229445 -1.06899 -1.57148e-11
1.07814e-11 -1.57148e-11 -0.03922

0.0555046 0.679501 5.2363e-11
0.679501 0.55123 2.80096e-11
5.2363e-11 2.80096e-11 -0.61667

0.0551898 -0.676825 2.00229e-11
-0.676825 0.554416 -5.02441e-11
2.00229e-11 -5.02441e-11 -0.615572

-0.193779 -0.274011 3.00317e-11
-0.274011 0.830767 9.5204e-12
3.00317e-11 9.5204e-12 -0.0793993

-0.099557 0.294836 -2.57976e-11
0.294836 0.745871 -6.80034e-11
-2.57976e-11 -6.80034e-11 -0.611712

-0.100292 -0.293523 -4.88975e-11
-0.293523 0.746557 3.45551e-11
-4.88975e-11 3.45551e-11 -0.611435

-0.247844 -0.841034 -1.53981e-12
-0.841034 0.29409 -6.16019e-12
-1.53981e-12 -6.16019e-12 -0.173911

-4.58242 -1.5647 -2.17567e-11
-1.5647 -7.93499 9.63637e-13
-2.17567e-11 9.63637e-13 -6.44777

-4.63064 1.61534 -3.13836e-11
1.61534 -7.97502 1.03008e-11
-3.13836e-11 1.03008e-11 -6.48653

-0.21841 0.392596 -7.31518e-12
0.392596 0.861099 1.03475e-11
-7.31518e-12 1.03475e-11 -0.286808

-0.217937 -0.393231 -1.61719e-11
-0.393231 0.86827 3.45558e-11
-1.61719e-11 3.45558e-11 -0.285301

-1.31867 0.257765 2.29112e-11
0.257765 -2.2949 -3.60985e-11
2.29112e-11 -3.60985e-11 -0.195381

-0.818921 2.23185 4.2354e-11
2.23185 -4.6367 -1.40572e-11
4.2354e-11 -1.40572e-11 -4.56817

1.56486 -1.80787 3.84848e-12
-1.80787 -0.671052 2.07938e-11
3.84848e-12 2.07938e-11 -2.8996

-0.664997 0.524863 -5.77667e-12
0.524863 0.598648 -3.19582e-11
-5.77667e-12 -3.19582e-11 -0.0850597

-1.4776 -0.24866 3.85081e-12
-0.24866 -0.751627 -2.05998e-11
3.85081e-12 -2.05998e-11 -0.072434

-1.02808 -0.365255 -1.92526e-11
-0.365255 -1.57084 -1.37297e-11
-1.92526e-11 -1.37297e-11 -0.0209787

-0.0634262 -0.841163 -1.53992e-11
-0.841163 0.460629 -3.39797e-11
-1.53992e-11 -3.39797e-11 -0.327165

-0.36558 2.28427 -5.7746e-12
2.28427 -2.7105 3.46488e-12
-5.7746e-12 3.46488e-12 -0.673451

-0.160803 0.475667 2.30613e-10
0.475667 0.510917 -1.71142e-10
2.30613e-10 -1.71142e-10 -2.10588

-0.164567 -0.472218 9.08588e-11
-0.472218 0.502913 1.05495e-10
9.08588e-11 1.05495e-10 -2.10865

0.594241 3.06221 3.27349e-12
3.06221 -2.31936 -7.79828e-12
3.27349e-12 -7.79828e-12 -0.386989

-0.278152 0.18471 2.54108e-11
0.18471 0.854045 -3.65298e-11
2.54108e-11 -3.65298e-11 -0.157062

-0.284389 -0.182183 1.30909e-11
-0.182183 0.875785 -2.00693e-11
1.30909e-11 -2.00693e-11 -0.155495

-4.118 1.47342 -9.24239e-12
1.47342 -1.67024 -4.04291e-12
-9.24239e-12 -4.04291e-12 -1.09076

0.83964 1.02717 -1.4248e-11
1.02717 0.937893 -2.66629e-11
-1.4248e-11 -2.66629e-11 -0.551968

-1.1547 0.273335 2.5029e-11
0.273335 -2.63529 -1.29956e-11
2.5029e-11 -1.29956e-11 -0.17451

-1.05707 -0.463694 2.31037e-12
-0.463694 -3.5827 -2.30072e-11
2.31037e-12 -2.30072e-11 -0.341378

-3.29382 -2.28354 -1.30928e-11
-2.28354 -6.33757 1.63172e-11
-1.30928e-11 1.63172e-11 -2.79661

-10.9484 2.502 -1.06466e-10
2.502 -7.57403 -3.48551e-11
-1.06466e-10 -3.48551e-11 -10.04

-10.8345 -2.61099 -2.657e-11
-2.61099 -7.75438 -2.10803e-11
-2.657e-11 -2.10803e-11 -10.0278

-1.46243 0.424667 2.65693e-11
0.424667 -1.44274 1.18882e-11
2.65693e-11 1.18882e-11 -0.123281

-2.13327 0.624878 -2.88812e-12
0.624878 -3.28223 -5.77597e-12
-2.88812e-12 -5.77597e-12 -0.627852

-0.307093 -0.509145 -3.58071e-11
-0.509145 0.669673 -1.58586e-11
-3.58071e-11 -1.58586e-11 -0.11125

0.38067 -0.0349375 -2.69732e-12
-0.0349375 -0.36368 2.07944e-11
-2.69732e-12 2.07944e-11 -3.82315

1.85166 1.88551 -6.15145e-12
1.88551 -6.73117 3.81147e-11
-6.15145e-12 3.81147e-11 -5.35221

-3.59393 2.40846 -1.92618e-12
2.40846 -6.32517 -2.51255e-11
-1.92618e-12 -2.51255e-11 -2.99823

0.888875 -0.77056 2.47397e-11
-0.77056 -1.66337 -5.75382e-13
2.47397e-11 -5.75382e-13 -0.603507

0.873685 0.23354 -2.4547e-11
0.23354 -0.957979 -1.63488e-12
-2.4547e-11 -1.63488e-12 -0.585331

-0.224187 -0.00130853 -1.96361e-11
-0.00130853 0.975481 9.38503e-12
-1.96361e-11 9.38503e-12 -0.124913

-0.218089 0.0116217 -1.65559e-11
0.0116217 0.963832 1.78102e-12
-1.65559e-11 1.78102e-12 -0.126578

-0.796733 0.49255 1.62668e-11
0.49255 0.157044 -3.06105e-11
1.62668e-11 -3.06105e-11 -0.0766262

-0.535847 -0.313328 -1.50161e-11
-0.313328 0.671299 8.45414e-12
-1.50161e-11 8.45414e-12 -0.0681266

-0.0871485 0.19398 -5.71272e-11
0.19398 0.86631 -2.05021e-11
-5.71272e-11 -2.05021e-11 -0.285876

-0.0851824 -0.190267 2.73362e-11
-0.190267 0.86784 4.44461e-11
2.73362e-11 4.44461e-11 -0.284536

-0.338829 0.514376 7.70075e-12
0.514376 0.671053 9.04792e-12
7.70075e-12 9.04792e-12 -0.116778

-0.141806 0.380148 2.34884e-11
0.380148 -0.292379 1.91547e-11
2.34884e-11 1.91547e-11 -0.163316

-0.103636 0.484631 -2.69635e-12
0.484631 0.735466 -6.89672e-11
-2.69635e-12 -6.89672e-11 -0.194401

-0.0808767 -0.469812 -3.42668e-11
-0.469812 0.728706 3.658e-12
-3.42668e-11 3.658e-12 -0.191978

-1.01224 1.03574 -3.79302e-11
1.03574 -4.89662 9.7701e-12
-3.79302e-11 9.7701e-12 -0.750823

0.590013 -0.606586 6.66075e-11
-0.606586 0.562706 3.9852e-11
6.66075e-11 3.9852e-11 -0.12645

-1.35583 0.180178 5.92119e-16
0.180178 -2.19274 1.18887e-11
5.92119e-16 1.18887e-11 -0.193355

-2.08031 2.38295 5.96882e-12
2.38295 -1.00772 1.53066e-11
5.96882e-12 1.53066e-11 -0.610022

0.860367 -0.637364 -1.42473e-11
-0.637364 0.825805 2.14653e-11
-1.42473e-11 2.14653e-11 -0.209675

-0.562416 0.0985774 3.85021e-12
0.0985774 0.508001 1.29708e-11
3.85021e-12 1.29708e-11 -0.0546108

-3.24862 1.46017 2.503e-11
1.46017 -4.50073 -1.67492e-11
2.503e-11 -1.67492e-11 -1.42748

-1.04756 -0.822344 2.84959e-11
-0.822344 -4.50601 3.942e-11
2.84959e-11 3.942e-11 -0.648789

-1.84293 -0.173035 1.34752e-12
-0.173035 -2.28469 -6.64274e-12
1.34752e-12 -6.64274e-12 -0.364693

-2.37151 -0.596793 2.38746e-11
-0.596793 -3.21972 2.43062e-11
2.38746e-11 2.43062e-11 -0.653319

-0.55131 1.58752 -2.38737e-11
1.58752 -1.82522 -4.04164e-12
-2.38737e-11 -4.04164e-12 -0.789136

-0.290626 -1.43366 7.31783e-12
-1.43366 -1.42922 -2.38714e-11
7.31783e-12 -2.38714e-11 -0.697741

-0.755117 -0.113277 5.487e-12
-0.113277 0.221587 5.46031e-11
5.487e-12 5.46031e-11 -0.0435887

-4.21703 -1.56887 5.96761e-12
-1.56887 -1.61401 -2.1179e-12
5.96761e-12 -2.1179e-12 -1.10342

-0.495269 0.154921 -3.04172e-11
0.154921 0.0202479 1.41986e-11
-3.04172e-11 1.41986e-11 -0.0973438

-0.516338 -0.151589 3.42674e-11
-0.151589 -0.0193859 1.80489e-11
3.42674e-11 1.80489e-11 -0.107938

-1.76255 0.704984 -2.32967e-11
0.704984 -2.99527 9.67371e-12
-2.32967e-11 9.67371e-12 -0.560127

0.231405 2.00299 3.79335e-11
2.00299 -8.10804 -2.18512e-11
3.79335e-11 -2.18512e-11 -1.90264

0.339758 -1.7317 1.09755e-11
-1.7317 -8.03659 3.75434e-11
1.09755e-11 3.75434e-11 -1.82146

-0.563259 0.862182 -6.1607e-12
0.862182 -1.75444 -1.92493e-12
-6.1607e-12 -1.92493e-12 -0.21018

-2.49988 -0.54104 -1.1561e-12
-0.54104 -1.86345 8.42352e-12
-1.1561e-12 8.42352e-12 -0.482173

-0.849584 0.685753 -5.00457e-12
0.685753 -0.840791 2.49315e-11
-5.00457e-12 2.49315e-11 -0.129122

-0.800299 -0.671734 -1.61732e-11
-0.671734 -0.838713 2.9841e-11
-1.61732e-11 2.9841e-11 -0.125129

-0.496967 0.0457392 -2.50272e-11
0.0457392 0.0926644 -2.70486e-11
-2.50272e-11 -2.70486e-11 -0.0395807

-0.874798 -0.490982 2.57977e-11
-0.490982 0.129889 -1.93481e-11
2.57977e-11 -1.93481e-11 -0.0950204

-0.615688 0.0628625 -1.46315e-11
0.0628625 0.468364 -9.96241e-12
-1.46315e-11 -9.96241e-12 -0.0506912

4.09505 0.720694 -1.03193e-10
0.720694 -1.97547 3.21342e-11
-1.03193e-10 3.21342e-11 -4.7892

3.67638 -3.58903 -8.58496e-11
-3.58903 -4.18733 5.77718e-11
-8.58496e-11 5.77718e-11 -5.91186

-0.493518 -0.0430362 -1.46313e-11
-0.0430362 0.49583 -2.0527e-11
-1.46313e-11 -2.0527e-11 -0.0496078

0.235002 -0.332908 -1.73258e-11
-0.332908 0.546249 -1.22253e-11
-1.73258e-11 -1.22253e-11 -0.115683

-0.236421 0.282127 -4.23548e-12
0.282127 0.825566 -1.18305e-11
-4.23548e-12 -1.18305e-11 -0.0878074

-0.574442 -0.828706 3.23459e-11
-0.828706 -1.66476 -2.24278e-11
3.23459e-11 -2.24278e-11 -0.20261

1.84141 -1.59859 -1.92436e-12
-1.59859 0.700094 -2.50177e-12
-1.92436e-12 -2.50177e-12 -0.374135

-1.20656 4.23797 -7.69755e-13
4.23797 -3.34685 2.40545e-12
-7.69755e-13 2.40545e-12 -1.34597

0.616477 0.663151 2.88779e-11
0.663151 0.542169 1.86728e-11
2.88779e-11 1.86728e-11 -0.132065

0.490741 -0.778931 2.04073e-11
-0.778931 0.832242 -1.54965e-11
2.04073e-11 -1.54965e-11 -0.127724

-1.05852 1.43556 1.71386e-11
1.43556 -1.47596 3.54238e-11
1.71386e-11 3.54238e-11 -0.267449

-0.174238 -0.00803615 1.34756e-11
-0.00803615 1.296 1.1531e-11
1.34756e-11 1.1531e-11 -0.0596774

-0.553605 -0.0482684 1.6942e-11
-0.0482684 0.34928 -3.17652e-11
1.6942e-11 -3.17652e-11 -0.0576932

-2.20791 -2.38474 1.05881e-11
-2.38474 -0.941449 8.567e-12
1.05881e-11 8.567e-12 -0.624213

-0.618146 -0.537857 3.85003e-12
-0.537857 0.663844 4.81166e-13
3.85003e-12 4.81166e-13 -0.0363401

-1.8199 -0.270113 -2.11779e-11
-0.270113 -1.43245 -3.27338e-12
-2.11779e-11 -3.27338e-12 -0.203903

-2.45014 -0.295581 2.54153e-11
-0.295581 -2.1319 -3.68695e-11
2.54153e-11 -3.68695e-11 -0.623612

-0.50402 0.201166 2.46429e-11
0.201166 -0.698665 -4.04383e-12
2.46429e-11 -4.04383e-12 -0.123142

-0.490915 -0.222041 -5.42901e-11
-0.222041 -0.724239 -1.31894e-11
-5.42901e-11 -1.31894e-11 -0.126925

-0.901102 0.257221 -5.69844e-11
0.257221 0.53524 -9.90244e-12
-5.69844e-11 -9.90244e-12 -0.0618422

-0.617263 0.552365 -6.08319e-11
0.552365 0.613342 9.08208e-11
-6.08319e-11 9.08208e-11 -0.0444493

0.00580817 -0.324095 1.57873e-11
-0.324095 -0.854986 -1.32828e-11
1.57873e-11 -1.32828e-11 -0.226289

0.0473426 0.383971 -1.42473e-11
0.383971 -0.833369 -1.16467e-11
-1.42473e-11 -1.16467e-11 -0.188515

-0.710603 -0.0550251 2.77224e-11
-0.0550251 -0.0748114 -2.23815e-11
2.77224e-11 -2.23815e-11 -0.0452262

-0.733594 0.0431945 -5.77528e-12
0.0431945 0.006258 -8.56766e-12
-5.77528e-12 -8.56766e-12 -0.0374681

0.107546 0.159858 2.73364e-11
0.159858 0.977527 2.19701e-11
2.73364e-11 2.19701e-11 -0.0841784

0.115318 -0.152214 1.96359e-11
-0.152214 0.977612 8.18152e-12
1.96359e-11 8.18152e-12 -0.0821554

0.0913642 -0.891481 -2.7336e-11
-0.891481 0.764147 -1.41505e-11
-2.7336e-11 -1.41505e-11 -0.104016

-1.30263 -3.85157 1.36701e-11
-3.85157 -2.55217 -9.62008e-13
1.36701e-11 -9.62008e-13 -1.13589

-4.3516 0.0542428 -5.77602e-12
0.0542428 -2.66367 6.73922e-12
-5.77602e-12 6.73922e-12 -1.2768

-1.42796 0.142476 -2.81098e-11
0.142476 -1.52055 -5.52311e-11
-2.81098e-11 -5.52311e-11 -0.0807468

-0.829516 -0.395311 -3.42697e-11
-0.395311 0.076491 3.35939e-11
-3.42697e-11 3.35939e-11 -0.12167

0.0782769 0.561672 -3.85017e-11
0.561672 0.574297 1.80483e-11
-3.85017e-11 1.80483e-11 -0.409147

0.079912 -0.557781 2.54106e-11
-0.557781 0.579689 3.00801e-11
2.54106e-11 3.00801e-11 -0.407765

-0.192663 0.695144 4.11974e-11
0.695144 0.646745 8.65484e-13
4.11974e-11 8.65484e-13 -0.211605

-0.197998 -0.698147 1.65551e-11
-0.698147 0.649061 2.90697e-11
1.65551e-11 2.90697e-11 -0.212546

-1.27771 -0.105411 7.69551e-13
-0.105411 -0.490293 -1.97096e-11
7.69551e-13 -1.97096e-11 -0.0334016

-0.799337 -0.0695299 -4.04291e-11
-0.0695299 -0.122626 -2.6279e-11
-4.04291e-11 -2.6279e-11 -0.00556265

-0.826294 0.456841 1.65563e-11
0.456841 0.110082 -5.4872e-12
1.65563e-11 -5.4872e-12 -0.113839

0.0344541 0.0335645 2.07906e-11
0.0335645 0.535323 -7.70085e-12
2.07906e-11 -7.70085e-12 -1.11478

0.0337615 -0.0322732 1.2705e-11
-0.0322732 0.530954 1.40537e-11
1.2705e-11 1.40537e-11 -1.11565

-0.260766 -0.611467 -1.92509e-12
-0.611467 0.571671 -5.67896e-12
-1.92509e-12 -5.67896e-12 -0.100881

-1.04846 -0.248874 -3.04198e-11
-0.248874 -2.47578 -6.37734e-12
-3.04198e-11 -6.37734e-12 -0.163755

-0.54238 0.322225 -1.0011e-11
0.322225 0.678401 -3.21666e-11
-1.0011e-11 -3.21666e-11 -0.0688034

-0.6987 -2.09152 1.80971e-11
-2.09152 -2.20104 3.94837e-12
1.80971e-11 3.94837e-12 -0.739775

0.100737 1.05338 1.61714e-11
1.05338 -0.288478 -1.34903e-12
1.61714e-11 -1.34903e-12 -0.479707

-1.91339 0.136127 3.27279e-12
0.136127 -1.81027 -5.2464e-12
3.27279e-12 -5.2464e-12 -0.294225

0.531155 0.773478 -1.92457e-12
0.773478 0.802709 -7.02717e-12
-1.92457e-12 -7.02717e-12 -0.132706

-0.292267 0.625607 3.8502e-12
0.625607 0.58397 3.2727e-12
3.8502e-12 3.2727e-12 -0.103569

-3.25057 3.81367 -1.29018e-11
3.81367 -1.68956 -2.50107e-12
-1.29018e-11 -2.50107e-12 -0.931895

2.12423 -0.0461816 5.39239e-12
-0.0461816 0.237732 -2.11752e-11
5.39239e-12 -2.11752e-11 -0.930113

3.04907 1.90411 3.77366e-11
1.90411 -4.21051 -4.33701e-12
3.77366e-11 -4.33701e-12 -1.33353

0.0509842 0.926347 3.88883e-11
0.926347 0.741444 -1.92619e-12
3.88883e-11 -1.92619e-12 -0.124745

-2.61654 1.84634 2.29122e-11
1.84634 -1.77757 2.11745e-12
2.29122e-11 2.11745e-12 -0.626171

-1.70209 -0.227143 1.92938e-13
-0.227143 -2.34783 1.68944e-11
1.92938e-13 1.68944e-11 -0.257333

1.52746 -1.16883 6.1591e-12
-1.16883 0.62434 3.0129e-11
6.1591e-12 3.0129e-11 -0.0191214

-1.38901 -1.81848 -2.77232e-11
-1.81848 -2.10665 -1.85794e-11
-2.77232e-11 -1.85794e-11 -0.473252

-1.08644 1.23804 -1.15526e-11
1.23804 -1.33731 -2.0889e-11
-1.15526e-11 -2.0889e-11 -0.377832

-0.329494 -0.323942 4.69718e-11
-0.323942 0.829955 2.75314e-11
4.69718e-11 2.75314e-11 -0.137886

-0.292744 -0.906605 -2.54134e-11
-0.906605 -0.681655 5.87117e-12
-2.54134e-11 5.87117e-12 -0.25702

2.22208 1.39059 -3.1573e-11
1.39059 0.634018 -9.43197e-12
-3.1573e-11 -9.43197e-12 -0.259349

-1.41474 0.153995 1.61716e-11
0.153995 -1.3183 9.77131e-12
1.61716e-11 9.77131e-12 -0.134815

-1.18999 -0.083319 2.61829e-11
-0.083319 -1.8065 3.14963e-11
2.61829e-11 3.14963e-11 -0.145957

-0.325724 0.327803 5.42884e-11
0.327803 0.829452 8.27714e-12
5.42884e-11 8.27714e-12 -0.13712

-0.366817 -0.045348 -8.75939e-12
-0.045348 0.783101 -1.75039e-11
-8.75939e-12 -1.75039e-11 -0.0790652

0.300162 0.336437 1.78646e-10
0.336437 -0.00834893 5.55345e-11
1.78646e-10 5.55345e-11 -1.89965

0.297003 -0.332825 1.10502e-10
-0.332825 -0.0138856 -9.61544e-11
1.10502e-10 -9.61544e-11 -1.90167

0.256552 0.399015 7.3146e-12
0.399015 0.487771 -1.96371e-11
7.3146e-12 -1.96371e-11 -0.14356

-6.82749 -2.19903 6.9504e-11
-2.19903 -5.33997 4.08135e-11
6.9504e-11 4.08135e-11 -5.16948

-6.9352 2.23786 2.09854e-11
2.23786 -5.32618 4.00492e-11
2.09854e-11 4.00492e-11 -5.24161

0.481413 -0.288934 -5.00622e-12
-0.288934 -4.9378 -2.74519e-12
-5.00622e-12 -2.74519e-12 -0.39906

-3.30573 -3.75589 2.02146e-11
-3.75589 -1.54235 1.55003e-11
2.02146e-11 1.55003e-11 -0.912288

-0.899955 0.223757 2.30989e-12
0.223757 -0.155541 2.15623e-11
2.30989e-12 2.15623e-11 -0.0344055

-1.1368 0.0172687 -2.5799e-11
0.0172687 -1.8423 -2.89022e-11
-2.5799e-11 -2.89022e-11 -0.150341

-0.943112 0.427909 7.50837e-12
0.427909 -0.453194 1.53048e-11
7.50837e-12 1.53048e-11 -0.0932947

-0.956117 -0.436084 -7.70128e-12
-0.436084 -0.500897 2.14179e-11
-7.70128e-12 2.14179e-11 -0.114652

-0.689612 0.192404 1.38607e-11
0.192404 -0.107452 -2.3295e-11
1.38607e-11 -2.3295e-11 -0.0436179

1.54835 1.12787 -1.65551e-11
1.12787 0.65457 5.67883e-12
-1.65551e-11 5.67883e-12 -0.0122086

-1.15839 0.389292 4.62041e-12
0.389292 -1.02593 -6.25695e-12
4.62041e-12 -6.25695e-12 -0.120825

-0.681226 0.11195 3.08018e-12
0.11195 -0.249584 1.90474e-11
3.08018e-12 1.90474e-11 -0.0519108

1.10201 -1.31605 -2.31385e-12
-1.31605 -3.4549 4.23525e-11
-2.31385e-12 4.23525e-11 -2.7151

2.54055 1.42672 3.15786e-11
1.42672 -0.880859 5.37076e-11
3.15786e-11 5.37076e-11 -1.93628

-0.971911 -1.56416 -2.04095e-11
-1.56416 -3.59278 1.59808e-11
-2.04095e-11 1.59808e-11 -0.820823

1.74985 -0.261099 2.50323e-11
-0.261099 -8.09853 1.99765e-12
2.50323e-11 1.99765e-12 -1.09315

-0.845774 -0.577062 -2.38708e-11
-0.577062 0.0472194 -4.38956e-11
-2.38708e-11 -4.38956e-11 -0.0778071

-0.872168 0.570663 1.84814e-11
0.570663 0.0849109 -4.90989e-12
1.84814e-11 -4.90989e-12 -0.0768017

0.25881 -0.198184 -1.00127e-11
-0.198184 -6.03189 -1.02174e-11
-1.00127e-11 -1.02174e-11 -0.664617

-0.255036 0.874363 2.46418e-11
0.874363 0.367474 -1.20335e-11
2.46418e-11 -1.20335e-11 -0.175653

-0.173498 0.526512 7.69895e-12
0.526512 0.526155 -5.59243e-11
7.69895e-12 -5.59243e-11 -0.844198

-0.171847 -0.52373 3.31114e-11
-0.52373 0.524972 2.01175e-11
3.31114e-11 2.01175e-11 -0.843879

-2.69644 -0.596867 -4.42924e-12
-0.596867 -2.54409 -1.67505e-11
-4.42924e-12 -1.67505e-11 -1.00841

-2.70026 -1.88479 5.00675e-12
-1.88479 -1.78668 -2.44518e-11
5.00675e-12 -2.44518e-11 -0.647583

-0.971236 -1.6446 -8.08657e-12
-1.6446 -5.12352 1.08785e-11
-8.08657e-12 1.08785e-11 -0.948724

-1.2358 0.044971 1.5018e-11
0.044971 -2.49005 2.36805e-11
1.5018e-11 2.36805e-11 -0.227151

-1.31995 -1.40333 8.47267e-12
-1.40333 -1.45404 -2.77239e-11
8.47267e-12 -2.77239e-11 -0.331661

-1.47863 -0.301264 6.9302e-12
-0.301264 -1.47387 3.48712e-11
6.9302e-12 3.48712e-11 -0.198579

-1.16461 -1.16467 4.58196e-11
-1.16467 -1.15976 1.47306e-11
4.58196e-11 1.47306e-11 -0.37274

-0.227479 0.886036 1.53975e-12
0.886036 -0.9722 -1.18401e-11
1.53975e-12 -1.18401e-11 -0.285477

1.41905 -1.37585 -3.34962e-11
-1.37585 -1.69012 -5.58534e-12
-3.34962e-11 -5.58534e-12 -2.61666

0.795917 0.997859 -5.00899e-12
0.997859 -1.92965 -3.23414e-11
-5.00899e-12 -3.23414e-11 -2.78792

-0.122746 0.0297074 2.88765e-11
0.0297074 1.11278 3.31116e-11
2.88765e-11 3.31116e-11 -0.199135

-0.135 -0.0320861 1.42457e-11
-0.0320861 1.10589 4.40362e-12
1.42457e-11 4.40362e-12 -0.202365

-4.75977 -1.02245 2.59908e-11
-1.02245 -3.82089 -3.35026e-11
2.59908e-11 -3.35026e-11 -2.27185

-4.97853 1.07529 -1.98317e-11
1.07529 -3.7849 3.99502e-11
-1.98317e-11 3.99502e-11 -2.39389

-5.94995 -0.548235 8.10561e-11
-0.548235 -3.13956 2.05001e-11
8.10561e-11 2.05001e-11 -4.0173

-6.01751 0.611994 3.85059e-11
0.611994 -3.22698 -9.14557e-12
3.85059e-11 -9.14557e-12 -4.06967

0.0543482 0.0301681 -1.91731e-10
0.0301681 0.338458 1.61517e-10
-1.91731e-10 1.61517e-10 -1.5717

0.0510642 -0.0280351 -5.04328e-11
-0.0280351 0.333456 -1.15216e-10
-5.04328e-11 -1.15216e-10 -1.57339

1.03149 0.751311 1.03966e-11
0.751311 0.445338 1.43418e-11
1.03966e-11 1.43418e-11 -0.168606

1.0295 -0.759715 -2.57946e-11
-0.759715 0.459869 -3.26308e-11
-2.57946e-11 -3.26308e-11 -0.163981

-0.545403 -0.163554 1.00114e-11
-0.163554 0.776575 -5.00536e-11
1.00114e-11 -5.00536e-11 -0.0917114

-0.03018 -0.834103 1.07796e-11
-0.834103 -1.52493 2.23344e-11
1.07796e-11 2.23344e-11 -0.229459

0.0129837 0.192533 -1.84824e-11
0.192533 -0.140398 -8.08513e-12
-1.84824e-11 -8.08513e-12 -0.228757

-1.16894 -0.389734 -9.62803e-12
-0.389734 -2.10577 6.10788e-11
-9.62803e-12 6.10788e-11 -0.150299

-0.532074 0.174183 -3.58071e-11
0.174183 0.786169 1.68938e-11
-3.58071e-11 1.68938e-11 -0.0867739

-0.385755 0.692299 5.26542e-13
0.692299 -1.22655 -4.52445e-11
5.26542e-13 -4.52445e-11 -0.214437

-0.631234 -0.28917 -3.08022e-11
-0.28917 0.660654 -5.48726e-12
-3.08022e-11 -5.48726e-12 -0.113011

-5.53156 -2.38958 1.15559e-12
-2.38958 -1.54513 -5.19836e-12
1.15559e-12 -5.19836e-12 -1.78042

-5.52215 2.39755 -8.66339e-12
2.39755 -1.62479 2.79199e-12
-8.66339e-12 2.79199e-12 -1.79928

-0.647685 0.297961 1.2707e-11
0.297961 0.653012 3.49415e-11
1.2707e-11 3.49415e-11 -0.116224

-1.28584 1.76536 -5.5834e-12
1.76536 -3.7169 -4.09133e-11
-5.5834e-12 -4.09133e-11 -1.04825

4.45794 0.40044 2.42427e-11
0.40044 -10.1746 4.35073e-11
2.42427e-11 4.35073e-11 -7.03079

3.6863 -0.849291 3.46574e-11
-0.849291 0.368586 2.2903e-11
3.46574e-11 2.2903e-11 -4.40832

1.00473 0.380464 7.3158e-12
0.380464 0.0598708 9.49403e-14
7.3158e-12 9.49403e-14 -0.358461

-3.14345 -1.35694 1.15481e-12
-1.35694 -4.39005 -1.60287e-11
1.15481e-12 -1.60287e-11 -1.28728

-1.34197 -2.57927 1.00125e-11
-2.57927 -5.15602 3.60934e-12
1.00125e-11 3.60934e-12 -2.44407

-0.858872 -0.143538 1.00116e-11
-0.143538 -0.533997 1.85057e-11
1.00116e-11 1.85057e-11 -0.0772399

-1.16701 0.0428259 -3.11883e-11
0.0428259 0.0413883 -1.634e-11
-3.11883e-11 -1.634e-11 -0.058924

0.2943 0.280115 3.42663e-11
0.280115 0.764461 3.77793e-12
3.42663e-11 3.77793e-12 -0.280462

0.302591 -0.26759 -1.80957e-11
-0.26759 0.762303 3.33524e-11
-1.80957e-11 3.33524e-11 -0.278257

-1.42403 2.57578 2.71467e-11
2.57578 -5.15596 -3.6531e-11
2.71467e-11 -3.6531e-11 -2.53577

0.0396831 -0.271645 -3.48727e-11
-0.271645 -0.289337 4.21603e-11
-3.48727e-11 4.21603e-11 -0.253722

-0.621231 -0.516151 1.66537e-11
-0.516151 0.590298 -5.88136e-11
1.66537e-11 -5.88136e-11 -0.0714718

-0.0851512 0.78821 1.03945e-11
0.78821 0.664767 -2.77221e-11
1.03945e-11 -2.77221e-11 -0.31581

-0.084115 -0.786211 -1.11654e-11
-0.786211 0.670927 8.95197e-12
-1.11654e-11 8.95197e-12 -0.314112

-9.87947 -3.78219 3.84816e-12
-3.78219 -11.8255 3.83833e-11
3.84816e-12 3.83833e-11 -11.2215

-9.98179 3.85195 2.15641e-11
3.85195 -11.8143 4.42846e-11
2.15641e-11 4.42846e-11 -11.2436

0.540503 1.12461 -8.08663e-12
1.12461 0.609432 -2.0695e-11
-8.08663e-12 -2.0695e-11 -0.196457

-1.47053 -0.47818 4.06252e-11
-0.47818 -2.86424 3.80235e-11
4.06252e-11 3.80235e-11 -0.438113

-0.261056 0.592791 -6.63187e-11
0.592791 0.83838 1.4487e-11
-6.63187e-11 1.4487e-11 -0.437556

-0.257176 -0.590625 4.75489e-11
-0.590625 0.837827 4.37995e-12
4.75489e-11 4.37995e-12 -0.436773

0.899153 -1.66741 -2.00261e-11
-1.66741 -1.89486 2.06956e-11
-2.00261e-11 2.06956e-11 -0.371209

0.309936 -3.22817 2.50279e-11
-3.22817 -1.88586 1.46338e-11
2.50279e-11 1.46338e-11 -0.299666

-1.38079 -0.466794 8.70192e-11
-0.466794 -0.660536 1.13819e-11
8.70192e-11 1.13819e-11 -0.155086

-4.99356 0.227022 -2.57977e-11
0.227022 -1.07532 3.13851e-11
-2.57977e-11 3.13851e-11 -2.06414

-5.05737 -0.22779 -2.71488e-11
-0.22779 -1.11991 1.5414e-12
-2.71488e-11 1.5414e-12 -2.09935

-1.92513 -3.19001 1.21259e-11
-3.19001 -2.53573 2.73405e-11
1.21259e-11 2.73405e-11 -0.822714

-0.595781 0.517238 -2.984e-11
0.517238 0.529931 -1.65563e-11
-2.984e-11 -1.65563e-11 -0.0837705

-2.78505 0.635953 1.8097e-11
0.635953 -2.55025 1.56924e-11
1.8097e-11 1.56924e-11 -1.1051

-5.0017 0.199048 -4.61894e-12
0.199048 -2.62689 3.41771e-11
-4.61894e-12 3.41771e-11 -2.12676

-5.10692 -0.236522 -1.27045e-11
-0.236522 -2.58229 -2.57979e-11
-1.27045e-11 -2.57979e-11 -2.16085

-1.28243 2.01897 1.07825e-11
2.01897 -5.67934 1.87724e-11
1.07825e-11 1.87724e-11 -1.20143

-0.16918 0.377343 1.77095e-11
0.377343 0.923394 -5.68862e-11
1.77095e-11 -5.68862e-11 -0.579442

-0.166176 -0.374297 -5.0057e-12
-0.374297 0.918354 1.07805e-11
-5.0057e-12 1.07805e-11 -0.579363

0.869887 -0.0893098 -2.58108e-11
-0.0893098 -1.75514 8.08498e-11
-2.58108e-11 8.08498e-11 -4.76635

0.125321 1.81975 -6.19865e-11
1.81975 -2.19943 2.85013e-11
-6.19865e-11 2.85013e-11 -4.91966

-1.22992 0.128604 -4.62082e-12
0.128604 -0.450267 5.24639e-12
-4.62082e-12 5.24639e-12 -0.0328361

-0.333015 -0.0814399 1.3862e-11
-0.0814399 -1.67873 -1.33323e-11
1.3862e-11 -1.33323e-11 0.0680561

-0.00694487 0.734696 9.24019e-12
0.734696 0.876717 -6.64179e-12
9.24019e-12 -6.64179e-12 -0.209379

0.00835386 -0.731691 3.65754e-11
-0.731691 0.881113 4.091e-11
3.65754e-11 4.091e-11 -0.204065

0.788984 0.808937 4.62012e-12
0.808937 0.806584 -1.08774e-11
4.62012e-12 -1.08774e-11 -0.189337

-1.06986 0.18414 5.5831e-11
0.18414 -0.549361 -1.06617e-11
5.5831e-11 -1.06617e-11 -0.0579085

-0.694144 -0.0676777 -3.08033e-11
-0.0676777 -0.694887 1.00353e-11
-3.08033e-11 1.00353e-11 -0.082614

-0.358536 -0.412797 -1.02794e-10
-0.412797 0.376772 -1.17334e-10
-1.02794e-10 -1.17334e-10 -2.04095

-0.355087 0.416142 8.08509e-11
0.416142 0.381564 -3.44597e-11
8.08509e-11 -3.44597e-11 -2.03895

-4.45153 -0.0697119 -2.88741e-12
-0.0697119 -2.72582 -2.08899e-11
-2.88741e-12 -2.08899e-11 -1.32461

-0.0580974 0.56219 -1.61712e-11
0.56219 0.283606 -5.38989e-12
-1.61712e-11 -5.38989e-12 -0.101198

0.0978705 0.495972 -3.34983e-11
0.495972 0.724194 -2.31969e-11
-3.34983e-11 -2.31969e-11 -0.185489

0.0993853 -0.492655 3.61926e-11
-0.492655 0.728831 -1.53998e-11
3.61926e-11 -1.53998e-11 -0.183337

-0.202705 0.354415 4.23336e-12
0.354415 0.687251 -6.08351e-11
4.23336e-12 -6.08351e-11 -0.124838

-0.057223 -0.535174 -1.38608e-11
-0.535174 0.261356 -1.53054e-11
-1.38608e-11 -1.53054e-11 -0.104211

-1.15346 -0.0290732 -2.50279e-11
-0.0290732 -0.352239 9.2894e-12
-2.50279e-11 9.2894e-12 -0.0550308

-1.15477 -0.0384343 1.65573e-11
-0.0384343 -0.255738 -2.15618e-11
1.65573e-11 -2.15618e-11 -0.0451772

-0.94311 -0.137712 2.46419e-11
-0.137712 0.266636 -2.80117e-11
2.46419e-11 -2.80117e-11 -0.0353152

-0.209672 -0.345798 -3.65767e-11
-0.345798 0.698532 -4.05244e-11
-3.65767e-11 -4.05244e-11 -0.121296

-1.03816 -0.352317 -1.50164e-11
-0.352317 -1.04217 -2.23085e-11
-1.50164e-11 -2.23085e-11 -0.118099

-1.22782 0.204125 -4.12013e-11
0.204125 -1.77834 -9.25357e-12
-4.12013e-11 -9.25357e-12 -0.0922884

0.31796 0.681576 1.77099e-11
0.681576 0.531147 -2.01177e-11
1.77099e-11 -2.01177e-11 -0.339638

0.320581 -0.685139 -6.85344e-11
-0.685139 0.533566 1.32822e-11
-6.85344e-11 1.32822e-11 -0.337756

-0.019515 0.459254 2.92618e-11
0.459254 0.895194 1.07799e-11
2.92618e-11 1.07799e-11 -0.378142

-0.0168806 -0.457117 -7.69886e-12
-0.457117 0.898884 -3.85983e-11
-7.69886e-12 -3.85983e-11 -0.376381

-1.45905 -0.357482 -1.17449e-11
-0.357482 -0.825513 3.48471e-11
-1.17449e-11 3.48471e-11 -0.0940553

-1.06782 -0.321873 7.31512e-12
-0.321873 -1.07778 7.12583e-11
7.31512e-12 7.12583e-11 0.0154025

-0.191468 -0.781913 3.77348e-11
-0.781913 0.714927 -6.67053e-11
3.77348e-11 -6.67053e-11 -0.163164

-0.199362 0.78931 4.2736e-11
0.78931 0.702505 -4.2161e-11
4.2736e-11 -4.2161e-11 -0.168083

1.8297 -0.441007 -2.88897e-11
-0.441007 -5.7053 3.63833e-11
-2.88897e-11 3.63833e-11 -3.90777

1.0527 -0.0400846 -7.66159e-11
-0.0400846 -1.50861 5.12177e-11
-7.66159e-11 5.12177e-11 -3.13451

0.38669 0.477186 2.23304e-11
0.477186 0.908503 -3.57112e-11
2.23304e-11 -3.57112e-11 -0.295387

0.409317 -0.467076 -4.00422e-11
-0.467076 0.908527 1.85766e-11
-4.00422e-11 1.85766e-11 -0.289611

-0.00470051 0.250276 -2.34859e-11
0.250276 0.677001 -1.86732e-11
-2.34859e-11 -1.86732e-11 -0.647705

-0.00253541 -0.249532 6.9688e-11
-0.249532 0.675563 -2.54106e-11
6.9688e-11 -2.54106e-11 -0.647154

-3.32977 -0.570447 -6.3516e-12
-0.570447 -1.42931 -3.33086e-11
-6.3516e-12 -3.33086e-11 -1.02218

-3.22944 0.573899 -7.12233e-12
0.573899 -1.52993 1.69433e-11
-7.12233e-12 1.69433e-11 -1.01653

-0.866082 -3.20142 1.38384e-11
-3.20142 -5.20596 8.04747e-11
1.38384e-11 8.04747e-11 -5.31462

-8.86646 0.159223 1.17464e-11
0.159223 -6.04476 -2.9808e-12
1.17464e-11 -2.9808e-12 -7.51027

-0.192902 0.0922252 -2.81058e-11
0.0922252 0.441689 -9.62656e-13
-2.81058e-11 -9.62656e-13 -1.22709

0.120501 -0.286282 -2.2331e-11
-0.286282 0.0399423 4.78372e-11
-2.2331e-11 4.78372e-11 -1.61069

-0.194927 -0.0902995 -1.54039e-12
-0.0902995 0.450195 -1.06849e-11
-1.54039e-12 -1.06849e-11 -1.22585

0.122315 0.288093 1.02799e-10
0.288093 0.0453123 3.4746e-11
1.02799e-10 3.4746e-11 -1.60914

1.08763 1.95117 2.65643e-11
1.95117 -0.29369 -1.44405e-11
2.65643e-11 -1.44405e-11 -3.38733

-8.84381 -0.139792 -1.44421e-11
-0.139792 -6.0632 -2.76263e-11
-1.44421e-11 -2.76263e-11 -7.50729

-0.000581893 0.000384052 -2.64887e-10
0.000384052 -0.000253033 -1.43905e-10
-2.64887e-10 -1.43905e-10 -1.70407

0.32382 -0.303642 1.30123e-10
-0.303642 -0.0549243 3.52279e-10
1.30123e-10 3.52279e-10 -2.1215

0.324284 0.30596 3.98869e-10
0.30596 -0.0481664 1.32774e-11
3.98869e-10 1.32774e-11 -2.11964

0.0054784 0.00361378 -1.27428e-10
0.00361378 0.00238424 1.63348e-10
-1.27428e-10 1.63348e-10 -1.70247

0.371783 -0.199913 8.08459e-12
-0.199913 -0.08334 6.18918e-11
8.08459e-12 6.18918e-11 -1.33776

0.309899 -0.74132 -1.46301e-11
-0.74132 0.302524 2.98452e-12
-1.46301e-11 2.98452e-12 -0.742296

-0.335454 -0.220352 1.73206e-11
-0.220352 0.467758 1.77684e-10
1.73206e-11 1.77684e-10 -1.83742

0.375467 0.204937 1.309e-11
0.204937 -0.0810752 1.0973e-11
1.309e-11 1.0973e-11 -1.33695

-0.331788 0.22249 -2.19539e-11
0.22249 0.473682 -2.40921e-10
-2.19539e-11 -2.40921e-10 -1.83534

0.310779 0.745782 4.92822e-11
0.745782 0.305359 6.73272e-13
4.92822e-11 6.73272e-13 -0.742378

0.173442 0.255108 4.50464e-11
0.255108 0.569697 -5.77589e-12
4.50464e-11 -5.77589e-12 -0.857245

-0.0338978 0.513858 -1.2322e-11
0.513858 0.106501 -3.93674e-11
-1.2322e-11 -3.93674e-11 -1.30777

0.172116 -0.253573 -8.85295e-12
-0.253573 0.569353 -6.17949e-11
-8.85295e-12 -6.17949e-11 -0.857111

-0.0347285 -0.510431 -1.23187e-11
-0.510431 0.10419 -3.417e-11
-1.23187e-11 -3.417e-11 -1.30825

-2.11842 3.54679 1.47301e-11
3.54679 5.89227 6.16307e-12
1.47301e-11 6.16307e-12 1.32759

-0.895155 0.574449 -2.12132e-12
0.574449 1.93124 -6.16351e-12
-2.12132e-12 -6.16351e-12 -0.343563

-6.86343 1.00011 -1.86756e-11
1.00011 3.63404 2.04177e-11
-1.86756e-11 2.04177e-11 -0.961379

5.53896 1.81956 2.35963e-11
1.81956 -5.50787 4.23677e-11
2.35963e-11 4.23677e-11 0.0653468

7.72905 0.522889 -1.7718e-11
0.522889 -3.07275 2.08044e-11
-1.7718e-11 2.08044e-11 1.20641

-5.68706 -0.394633 -2.21432e-11
-0.394633 -1.55355 1.25292e-12
-2.21432e-11 1.25292e-12 -2.71316

-11.5196 1.51873 -1.86761e-11
1.51873 2.30221 1.77206e-11
-1.86761e-11 1.77206e-11 -3.37065

7.90227 -0.503696 -1.66116e-11
-0.503696 -2.05234 1.54064e-11
-1.66116e-11 1.54064e-11 1.33481

5.0061 0.4109 -6.88257e-12
0.4109 -8.06895 1.34788e-11
-6.88257e-12 1.34788e-11 -1.01973

2.34116 3.18436 -4.88335e-11
3.18436 9.28519 -2.15776e-11
-4.88335e-11 -2.15776e-11 4.53992

5.08179 -5.14992 -1.16568e-11
-5.14992 10.6008 2.94797e-11
-1.16568e-11 2.94797e-11 5.40317

10.0769 3.20763 -3.77572e-11
3.20763 3.45319 -1.46392e-11
-3.77572e-11 -1.46392e-11 5.0498

-3.29256 -5.87833 -3.56108e-12
-5.87833 0.287525 2.86902e-11
-3.56108e-12 2.86902e-11 -2.16076

-5.36468 -2.055 -7.33642e-11
-2.055 0.462926 -5.00326e-12
-7.33642e-11 -5.00326e-12 -2.74044

-5.8947 3.04842 1.97369e-11
3.04842 3.68736 1.42528e-11
1.97369e-11 1.42528e-11 -0.0450682

-8.62286 3.53687 2.86921e-11
3.53687 2.33318 1.27092e-11
2.86921e-11 1.27092e-11 -0.958796

-11.5762 -1.68301 1.11656e-11
-1.68301 2.54071 -5.23841e-11
1.11656e-11 -5.23841e-11 -3.40459

-6.5115 -4.40139 3.50435e-11
-4.40139 -0.541212 -4.62304e-12
3.50435e-11 -4.62304e-12 -2.83486

3.98725 -3.13486 -2.22506e-11
-3.13486 -6.04971 -1.23174e-11
-2.22506e-11 -1.23174e-11 -0.0561378

0.701826 1.00594 -4.43045e-11
1.00594 10.4626 -1.34885e-11
-4.43045e-11 -1.34885e-11 3.68113

3.10464 -2.00881 -3.13984e-11
-2.00881 10.2643 -1.94493e-11
-3.13984e-11 -1.94493e-11 3.8095

10.3924 0.754621 -9.64429e-12
0.754621 2.69558 -3.37091e-11
-9.64429e-12 -3.37091e-11 4.1885

-1.40302 4.11088 1.14547e-11
4.11088 3.47811 8.85499e-12
1.14547e-11 8.85499e-12 1.00838

7.50583 -2.82546 -1.3095e-11
-2.82546 -1.21498 2.33078e-11
-1.3095e-11 2.33078e-11 1.68547

-0.0531557 4.51491 -6.77532e-13
4.51491 0.794597 1.55974e-11
-6.77532e-13 1.55974e-11 0.480452

2.54294 3.19854 3.9084e-11
3.19854 4.80273 -2.35048e-11
3.9084e-11 -2.35048e-11 1.59367

6.15729 -0.96689 1.5986e-11
-0.96689 -5.88803 7.31581e-12
1.5986e-11 7.31581e-12 -0.0396059

8.84347 2.16021 -5.20015e-11
2.16021 13.8214 2.6191e-11
-5.20015e-11 2.6191e-11 8.80133

4.09187 1.08293 -2.771e-11
1.08293 -7.95663 -8.08823e-12
-2.771e-11 -8.08823e-12 -0.981807

13.6815 2.01478 2.46585e-11
2.01478 10.0557 2.9859e-11
2.46585e-11 2.9859e-11 9.31281

-3.01928 -2.00348 1.05921e-11
-2.00348 -1.15245 -1.02057e-11
1.05921e-11 -1.02057e-11 -2.80365

-6.43706 0.254846 5.19872e-11
0.254846 1.37027 3.84552e-12
5.19872e-11 3.84552e-12 -3.58119

-7.5041 -2.14773 -8.56636e-11
-2.14773 -11.114 -1.3433e-12
-8.56636e-11 -1.3433e-12 -11.6632

-9.64326 5.19687 -3.17513e-11
5.19687 -9.09902 3.84281e-12
-3.17513e-11 3.84281e-12 -11.4588

11.0197 -1.37043 9.63081e-12
-1.37043 3.46573 4.6611e-11
9.63081e-12 4.6611e-11 4.37449

-3.73519 4.78942 1.73372e-12
4.78942 -0.648635 2.31079e-11
1.73372e-12 2.31079e-11 -0.628885

-4.34173 2.73846 1.9619e-11
2.73846 -5.16885 -9.628e-12
1.9619e-11 -9.628e-12 -4.18866

-3.14867 -0.771396 -4.54881e-12
-0.771396 -4.23386 1.52102e-11
-4.54881e-12 1.52102e-11 -4.26568

5.16427 0.413982 1.66836e-11
0.413982 -8.77909 5.38987e-12
1.66836e-11 5.38987e-12 -0.941276

0.867461 4.51208 -1.71417e-11
4.51208 4.3435 -5.77464e-12
-1.71417e-11 -5.77464e-12 1.24674

6.61775 -3.57586 -9.24638e-12
-3.57586 1.98691 -6.74016e-12
-9.24638e-12 -6.74016e-12 1.95734

6.03555 -0.0422879 -1.6923e-11
-0.0422879 -9.03454 -5.00703e-12
-1.6923e-11 -5.00703e-12 -0.721655

0.362562 -6.15014 7.51177e-12
-6.15014 6.175 1.19369e-11
7.51177e-12 1.19369e-11 1.34943

0.565287 -5.36205 -1.85835e-11
-5.36205 6.45636 -3.52496e-11
-1.85835e-11 -3.52496e-11 1.3842

-1.42903 2.71522 3.33128e-11
2.71522 0.802047 -3.27397e-12
3.33128e-11 -3.27397e-12 -0.352317

5.71457 -6.15725 7.90153e-12
-6.15725 3.81997 -1.13652e-11
7.90153e-12 -1.13652e-11 2.51425

27.1136 -6.13669 -9.67187e-11
-6.13669 26.644 2.89177e-11
-9.67187e-11 2.89177e-11 26.6532

26.9685 -6.50333 -6.24287e-11
-6.50333 28.6596 -3.33202e-11
-6.24287e-11 -3.33202e-11 27.4549

-5.94993 -7.14407 -5.34347e-11
-7.14407 1.68341 2.02269e-11
-5.34347e-11 2.02269e-11 -1.73913

17.2961 -2.42837 -4.52787e-11
-2.42837 16.7902 -4.91193e-11
-4.52787e-11 -4.91193e-11 18.3129

15.7119 -1.98964 -1.92676e-11
-1.98964 17.0501 3.73741e-11
-1.92676e-11 3.73741e-11 17.6048

0.294527 3.1029 -1.54143e-12
3.1029 -5.91468 -6.93097e-12
-1.54143e-12 -6.93097e-12 -2.83454

-1.01843 -4.10619 -4.08301e-11
-4.10619 -5.36873 -3.81141e-11
-4.08301e-11 -3.81141e-11 -3.96632

2.74005 -2.14422 9.63082e-13
-2.14422 -7.82456 8.47237e-12
9.63082e-13 8.47237e-12 -0.527808

-0.0904358 4.17652 -2.00175e-11
4.17652 -8.46275 7.70325e-12
-2.00175e-11 7.70325e-12 -3.40506

-1.91253 -5.75944 -2.77183e-11
-5.75944 -6.17635 5.73849e-11
-2.77183e-11 5.73849e-11 -4.39045

-1.59373 3.15746 -2.23311e-11
3.15746 3.19068 1.94465e-11
-2.23311e-11 1.94465e-11 0.202602

-4.80226 -1.99369 -3.75731e-11
-1.99369 -10.9797 8.03661e-12
-3.75731e-11 8.03661e-12 -9.25754

-7.57895 2.68046 5.17499e-12
2.68046 -9.29476 1.31587e-11
5.17499e-12 1.31587e-11 -9.31358

1.02305 4.89134 1.23241e-11
4.89134 -5.55146 -1.65656e-11
1.23241e-11 -1.65656e-11 -1.40339

-0.773483 -6.22042 -1.98273e-11
-6.22042 -5.01974 -1.75651e-11
-1.98273e-11 -1.75651e-11 -1.98298

10.4899 -4.24906 -3.09196e-11
-4.24906 4.65639 1.88753e-11
-3.09196e-11 1.88753e-11 5.52109

-7.88837 -1.21403 -1.15739e-12
-1.21403 -4.45187 -3.61984e-11
-1.15739e-12 -3.61984e-11 -6.40507

-10.5443 -0.199757 -3.92833e-11
-0.199757 0.235096 -3.69654e-11
-3.92833e-11 -3.69654e-11 -8.01268

-1.82436 -5.19507 -2.50111e-12
-5.19507 3.37262 -1.11022e-15
-2.50111e-12 -1.11022e-15 0.89067

8.76567 -1.791 1.86836e-11
-1.791 14.0231 -3.91078e-11
1.86836e-11 -3.91078e-11 9.4285

13.9784 -1.67575 1.86858e-11
-1.67575 9.04307 1.17552e-11
1.86858e-11 1.17552e-11 9.58179

-3.44417 2.01318 -1.1555e-11
2.01318 1.90023 -1.48283e-11
-1.1555e-11 -1.48283e-11 -0.62311

-8.63663 3.03179 9.24077e-12
3.03179 2.91638 4.23617e-12
9.24077e-12 4.23617e-12 -1.05084

-2.63346 3.95644 -1.56172e-12
3.95644 -14.1632 -6.94097e-12
-1.56172e-12 -6.94097e-12 -11.486

-3.12972 1.17593 1.33969e-10
1.17593 0.943291 -9.05025e-11
1.33969e-10 -9.05025e-11 -12.7361

-8.80704 4.56152 1.89666e-11
4.56152 -1.96237 5.00618e-12
1.89666e-11 5.00618e-12 -1.77995

2.71491 3.60977 2.15741e-11
3.60977 -6.55946 1.48217e-11
2.15741e-11 1.48217e-11 -0.726356

1.71049 -5.49566 -1.46393e-11
-5.49566 -6.04751 -1.03981e-11
-1.46393e-11 -1.03981e-11 -1.01121

-7.12092 6.26042 9.82229e-12
6.26042 -1.97292 3.69788e-11
9.82229e-12 3.69788e-11 -1.53725

-9.98453 -4.76045 6.54723e-12
-4.76045 0.303693 -2.2341e-11
6.54723e-12 -2.2341e-11 -2.53018

10.8616 -0.45123 2.16692e-11
-0.45123 1.53555 -3.89651e-13
2.16692e-11 -3.89651e-13 4.14277

6.59405 -1.82132 -8.10182e-12
-1.82132 -3.51304 -3.27398e-11
-8.10182e-12 -3.27398e-11 1.16798

8.16517 2.23623 2.41744e-11
2.23623 -0.397313 -6.93445e-12
2.41744e-11 -6.93445e-12 2.27604

-2.89897 2.48217 4.12373e-11
2.48217 -7.703 4.62208e-12
4.12373e-11 4.62208e-12 -3.8205

-19.9532 1.6897 -5.35816e-12
1.6897 -8.83458 -3.15789e-11
-5.35816e-12 -3.15789e-11 -15.4345

-14.2817 -1.2445 3.25386e-11
-1.2445 -13.5872 3.36959e-11
3.25386e-11 3.36959e-11 -15.3955

5.6402 3.59177 1.47371e-11
3.59177 7.71817 -7.89339e-12
1.47371e-11 -7.89339e-12 4.29949

1.81181 -4.61704 1.45397e-11
-4.61704 -0.0239042 -2.79293e-11
1.45397e-11 -2.79293e-11 0.17819

3.85997 2.49908 -1.88796e-11
2.49908 -4.10626 -2.56117e-11
-1.88796e-11 -2.56117e-11 0.192026

-10.0265 2.78463 2.8858e-12
2.78463 -0.918479 3.25665e-15
2.8858e-12 3.25665e-15 -9.96266

-10.4203 -1.86437 -1.55955e-11
-1.86437 -6.78732 -4.2937e-11
-1.55955e-11 -4.2937e-11 -8.7107

-2.20394 -0.681356 6.16166e-12
-0.681356 -8.27077 -1.07832e-11
6.16166e-12 -1.07832e-11 -4.23495

-1.76146 -3.59169 2.55161e-11
-3.59169 2.77366 5.00341e-12
2.55161e-11 5.00341e-12 -0.509954

-7.12645 -1.16173 -7.8009e-12
-1.16173 3.84991 -1.30983e-11
-7.8009e-12 -1.30983e-11 -1.14205

2.54713 0.796644 6.93164e-12
0.796644 -10.6151 -1.32892e-11
6.93164e-12 -1.32892e-11 -1.0989

2.20163 -2.50353 3.46552e-12
-2.50353 -10.2496 -1.11733e-11
3.46552e-12 -1.11733e-11 -1.2753

7.93992 -5.10195 -2.03178e-11
-5.10195 5.76036 2.46557e-11
-2.03178e-11 2.46557e-11 4.66041

1.75455 3.14896 -4.82485e-11
3.14896 -10.6808 -2.79151e-11
-4.82485e-11 -2.79151e-11 -1.99865

1.21829 -4.89719 5.08896e-11
-4.89719 -8.61334 -3.04348e-11
5.08896e-11 -3.04348e-11 -2.25725

3.84949 -4.36146 -2.86915e-11
-4.36146 -4.53293 6.16684e-12
-2.86915e-11 6.16684e-12 0.0646954

-1.65887 -4.34493 -1.75235e-11
-4.34493 5.40032 -1.19429e-11
-1.75235e-11 -1.19429e-11 1.28896

1.5065 1.89408 -1.38608e-11
1.89408 -7.6497 1.65601e-11
-1.38608e-11 1.65601e-11 -1.0565

1.74547 -3.51266 1.84911e-11
-3.51266 -7.52917 -1.5896e-11
1.84911e-11 -1.5896e-11 -1.30153

4.69514 -1.14922 1.86376e-11
-1.14922 -3.52934 2.54196e-11
1.86376e-11 2.54196e-11 -0.0298479

0.622574 5.4763 -1.88802e-11
5.4763 -2.08691 -1.25144e-11
-1.88802e-11 -1.25144e-11 -0.510586

4.67453 3.63227 1.66582e-11
3.63227 2.2056 -1.54035e-11
1.66582e-11 -1.54035e-11 1.95416

-8.761 5.44074 -9.24945e-12
5.44074 -3.81918 -4.89182e-11
-9.24945e-12 -4.89182e-11 -2.07466

-3.17868 4.0459 7.89561e-12
4.0459 -0.199695 -1.34537e-12
7.89561e-12 -1.34537e-12 -0.833805

7.44528 2.02127 2.86984e-11
2.02127 -2.22576 -1.61832e-11
2.86984e-11 -1.61832e-11 1.76437

-0.774421 -2.70781 -2.38032e-13
-2.70781 -4.07023 -4.3907e-11
-2.38032e-13 -4.3907e-11 -1.67679

4.43628 1.69183 -8.56959e-12
1.69183 -3.44339 -6.31678e-11
-8.56959e-12 -6.31678e-11 0.211242

1.52868 4.3484 3.07857e-12
4.3484 3.09603 -1.84934e-11
3.07857e-12 -1.84934e-11 1.72199

0.510217 4.10759 5.00585e-12
4.10759 -1.38313 -2.31105e-11
5.00585e-12 -2.31105e-11 0.0919999

-9.5309 0.0484066 -6.16265e-12
0.0484066 4.70288 3.54359e-11
-6.16265e-12 3.54359e-11 -1.20646

-4.89488 -1.77086 1.94489e-11
-1.77086 2.22247 1.36742e-11
1.94489e-11 1.36742e-11 -1.07117

9.09248 -5.12159 -2.82105e-11
-5.12159 3.30606 8.16731e-11
-2.82105e-11 8.16731e-11 4.88737

-5.10026 -6.98594 -2.58074e-11
-6.98594 1.55839 4.29493e-11
-2.58074e-11 4.29493e-11 -1.33393

2.17762 -6.16159 -3.23525e-11
-6.16159 5.33313 -4.81484e-11
-3.23525e-11 -4.81484e-11 2.36407

4.77761 4.99903 -4.5456e-11
4.99903 4.93646 -4.08343e-11
-4.5456e-11 -4.08343e-11 2.48362

3.7014 -2.28342 -1.95007e-11
-2.28342 -1.56248 -2.91761e-11
-1.95007e-11 -2.91761e-11 0.0811947

3.02491 -0.177966 4.04543e-12
-0.177966 -10.5942 1.07836e-11
4.04543e-12 1.07836e-11 -2.34705

2.07953 0.733855 2.45574e-12
0.733855 -9.5554 -1.03999e-11
2.45574e-12 -1.03999e-11 -2.15485

-3.43562 2.29161 -3.60208e-11
2.29161 6.98406 -2.38815e-11
-3.60208e-11 -2.38815e-11 1.36663

1.04988 -5.50405 2.72512e-11
-5.50405 2.90876 2.30867e-12
2.72512e-11 2.30867e-12 0.547147

-0.794699 -0.75529 4.58425e-11
-0.75529 10.9727 8.47011e-12
4.58425e-11 8.47011e-12 3.94695

1.66547 -0.956609 1.30917e-11
-0.956609 11.185 -3.21753e-11
1.30917e-11 -3.21753e-11 4.21885

10.8569 -1.26549 1.44464e-11
-1.26549 0.687334 9.63019e-12
1.44464e-11 9.63019e-12 4.43524

8.29593 3.64024 7.12245e-12
3.64024 6.7393 1.63746e-11
7.12245e-12 1.63746e-11 4.68701

4.19913 -6.32155 1.02072e-11
-6.32155 0.738403 -2.50349e-11
1.02072e-11 -2.50349e-11 1.8507

-1.72924 -1.5 7.37327e-11
-1.5 -1.42744 -3.19719e-11
7.37327e-11 -3.19719e-11 -11.611

-15.5042 -5.69413 -1.36893e-10
-5.69413 -8.45805 -3.84823e-11
-1.36893e-10 -3.84823e-11 -12.4335

6.67641 -3.74352 6.52967e-11
-3.74352 -2.35866 2.88788e-11
6.52967e-11 2.88788e-11 1.58084

-0.419321 5.05779 1.30948e-11
5.05779 1.25879 1.02077e-11
1.30948e-11 1.02077e-11 0.0446145

2.97594 0.336865 3.08997e-12
0.336865 -7.70374 1.50171e-11
3.08997e-12 1.50171e-11 -0.408289

-0.152927 -4.58767 -3.41835e-11
-4.58767 7.68871 -2.40699e-11
-3.41835e-11 -2.40699e-11 1.66371

-11.839 4.77465 2.78632e-12
4.77465 0.326025 -8.8601e-12
2.78632e-12 -8.8601e-12 -2.64631

-3.51336 1.98714 1.92581e-12
1.98714 -0.699262 -1.50197e-11
1.92581e-12 -1.50197e-11 -1.2839

-5.24044 -6.50507 -2.00248e-11
-6.50507 -2.29357 8.08864e-12
-2.00248e-11 8.08864e-12 -1.31654

-1.75901 4.86974 -1.21267e-11
4.86974 -1.14745 1.86786e-11
-1.21267e-11 1.86786e-11 -0.750807

-6.80112 3.85787 1.80085e-11
3.85787 1.30712 2.65781e-11
1.80085e-11 2.65781e-11 -0.607737

1.83123 -0.459493 2.00323e-11
-0.459493 -16.5979 2.19495e-11
2.00323e-11 2.19495e-11 -2.15966

6.18587 4.75853 7.8962e-12
4.75853 1.08606 1.90665e-11
7.8962e-12 1.90665e-11 2.16733

-5.18323 -7.39202 1.48755e-11
-7.39202 3.5919 -1.69481e-11
1.48755e-11 -1.69481e-11 -0.937006

4.42282 4.28356 1.09724e-11
4.28356 3.32285 -7.30015e-11
1.09724e-11 -7.30015e-11 1.98696

6.62758 -4.2043 6.93282e-12
-4.2043 9.15928 3.19756e-11
6.93282e-12 3.19756e-11 4.83801

-2.28252 -6.05163 2.60001e-11
-6.05163 2.49612 -1.32934e-11
2.60001e-11 -1.32934e-11 -0.389358

0.455693 -2.73121 3.79405e-11
-2.73121 9.78354 -9.64014e-12
3.79405e-11 -9.64014e-12 3.31781

3.73376 1.04224 3.7173e-11
1.04224 9.43818 -3.85324e-11
3.7173e-11 -3.85324e-11 3.53909

9.19643 -2.57113 -1.90218e-13
-2.57113 1.87468 3.35169e-11
-1.90218e-13 3.35169e-11 3.69822

3.14755 -5.51352 2.04244e-11
-5.51352 2.33083 -5.8163e-11
2.04244e-11 -5.8163e-11 1.80312

-4.58806 -0.261406 -1.54096e-11
-0.261406 6.92089 -4.62193e-12
-1.54096e-11 -4.62193e-12 0.74153

0.545043 -0.989215 2.31104e-11
-0.989215 6.07163 3.46634e-11
2.31104e-11 3.46634e-11 1.1608

5.00328 -5.51701 -1.09822e-11
-5.51701 8.38281 2.19562e-11
-1.09822e-11 2.19562e-11 5.03015

6.79878 4.0907 -6.54306e-12
4.0907 8.14905 1.67632e-11
-6.54306e-12 1.67632e-11 4.98417

-0.24592 0.0197512 3.89022e-11
0.0197512 -11.8678 -7.13218e-12
3.89022e-11 -7.13218e-12 -1.72438

-0.20188 -0.978348 -2.69714e-12
-0.978348 -11.0196 -2.42638e-11
-2.69714e-12 -2.42638e-11 -1.75417

-0.150951 4.42051 8.08783e-12
4.42051 0.982622 1.23209e-11
8.08783e-12 1.23209e-11 0.038549

-5.90301 -7.3026 -2.87252e-13
-7.3026 2.3572 1.92542e-12
-2.87252e-13 1.92542e-12 -1.4632

-3.4575 5.01041 1.28102e-11
5.01041 -2.62842 2.0602e-11
1.28102e-11 2.0602e-11 -1.26533

11.4621 2.30275 2.44677e-11
2.30275 6.31615 1.53951e-12
2.44677e-11 1.53951e-12 6.99912

0.103528 2.75069 1.63656e-11
2.75069 6.71046 -2.90859e-11
1.63656e-11 -2.90859e-11 1.59996

1.22056 2.53903 8.08479e-12
2.53903 -7.2113 -1.73233e-11
8.08479e-12 -1.73233e-11 -2.07181

0.440193 -4.42762 -2.34935e-11
-4.42762 -6.96709 -2.81172e-11
-2.34935e-11 -2.81172e-11 -2.84828

2.25685 3.6199 3.35119e-11
3.6199 -3.62825 1.96373e-11
3.35119e-11 1.96373e-11 -0.449947

1.85172 -5.23225 -5.77879e-12
-5.23225 -4.30068 -4.8142e-11
-5.77879e-12 -4.8142e-11 -0.803066

14.5002 -2.61695 -2.52424e-11
-2.61695 9.60273 -1.34845e-11
-2.52424e-11 -1.34845e-11 16.3392

9.46439 -3.06194 -2.44721e-11
-3.06194 15.6359 -1.31004e-11
-2.44721e-11 -1.31004e-11 16.8295

-3.75715 -3.47525 3.0819e-11
-3.47525 6.75589 -1.50315e-11
3.0819e-11 -1.50315e-11 1.24347

-0.214206 4.15204 3.46468e-11
4.15204 -11.2981 -2.77279e-11
3.46468e-11 -2.77279e-11 -6.1858

-1.35054 -5.87193 -3.81303e-11
-5.87193 -6.73835 1.00519e-10
-3.81303e-11 1.00519e-10 -7.5951

3.32514 4.20986 -2.15753e-11
4.20986 -0.78599 -3.56271e-11
-2.15753e-11 -3.56271e-11 0.562968

12.0565 1.70077 2.01291e-11
1.70077 5.94219 -1.6575e-11
2.01291e-11 -1.6575e-11 7.06816

-4.63527 -5.07175 1.92786e-12
-5.07175 3.30946 -2.25337e-11
1.92786e-12 -2.25337e-11 -0.803713

-8.47573 -2.43513 -4.04415e-12
-2.43513 4.14951 5.38895e-12
-4.04415e-12 5.38895e-12 -0.972074

3.58053 -6.04081 1.69517e-11
-6.04081 5.16181 5.64278e-11
1.69517e-11 5.64278e-11 2.22566

-7.51017 -4.89183 -3.66203e-12
-4.89183 -3.53445 -1.65635e-11
-3.66203e-12 -1.65635e-11 -1.88703

2.60047 -5.68431 5.38791e-12
-5.68431 -1.4879 -5.62403e-11
5.38791e-12 -5.62403e-11 0.424389

-12.0731 7.40308 -1.04042e-11
7.40308 -1.73461 -2.96608e-11
-1.04042e-11 -2.96608e-11 -2.10366

-3.93777 1.80315 -1.80979e-11
1.80315 -1.73714 -6.44936e-12
-1.80979e-11 -6.44936e-12 -2.40859

-5.25693 3.10473 -1.0786e-11
3.10473 -0.489425 -3.46589e-12
-1.0786e-11 -3.46589e-12 -2.87056

-3.74242 -5.44543 9.63155e-13
-5.44543 -0.892381 2.61851e-11
9.63155e-13 2.61851e-11 -0.573708

-4.72611 5.3148 1.87822e-11
5.3148 -0.403979 1.88711e-11
1.87822e-11 1.88711e-11 -0.576885

6.91095 3.53694 2.52315e-11
3.53694 0.555216 2.65838e-11
2.52315e-11 2.65838e-11 2.36683

5.83431 -0.00975794 3.2759e-12
-0.00975794 -3.255 1.54008e-11
3.2759e-12 1.54008e-11 1.05768

-0.506214 3.66769 -1.00147e-11
3.66769 -0.716409 -2.73426e-11
-1.00147e-11 -2.73426e-11 -0.285699

-3.23196 -5.88145 -2.24354e-11
-5.88145 5.22473 1.02079e-11
-2.24354e-11 1.02079e-11 0.113994

-5.70633 0.892238 -6.88505e-11
0.892238 7.10443 4.24327e-12
-6.88505e-11 4.24327e-12 0.671041

1.98639 5.4957 1.09885e-11
5.4957 -2.80998 3.71643e-11
1.09885e-11 3.71643e-11 -0.278864

-1.13036 0.1534 6.55046e-12
0.1534 5.66417 1.86818e-11
6.55046e-12 1.86818e-11 0.854599

-11.5435 -4.0974 5.77555e-12
-4.0974 -0.0511629 1.96438e-11
5.77555e-12 1.96438e-11 -2.52647

14.5168 -3.46082 3.79507e-11
-3.46082 16.5092 9.51668e-11
3.79507e-11 9.51668e-11 13.7114

16.6965 -3.5384 -4.78716e-11
-3.5384 14.3286 -2.69133e-12
-4.78716e-11 -2.69133e-12 13.7234

4.41982 1.21385 -4.28515e-11
1.21385 -6.20065 8.09453e-12
-4.28515e-11 8.09453e-12 0.0381728

-0.187017 -6.47769 6.35055e-12
-6.47769 -3.21494 -3.77493e-11
6.35055e-12 -3.77493e-11 -0.707682

-1.02269 3.67506 -2.92961e-11
3.67506 -14.1908 -8.0667e-11
-2.92961e-11 -8.0667e-11 -10.3978

1.01919 -1.03363 1.53258e-10
-1.03363 -6.83366 -1.77142e-11
1.53258e-10 -1.77142e-11 -12.0265

-5.89161 -4.56466 -1.35155e-12
-4.56466 0.919103 2.42665e-11
-1.35155e-12 2.42665e-11 -0.599119

-8.56699 -1.38431 9.65272e-12
-1.38431 -6.2817 -8.6691e-12
9.65272e-12 -8.6691e-12 -7.63685

-8.71882 4.7855 4.74331e-11
4.7855 -3.42298 3.81331e-11
4.74331e-11 3.81331e-11 -6.70435

6.72905 0.430229 3.3246e-12
0.430229 -6.72678 3.58134e-11
3.3246e-12 3.58134e-11 -0.0277111

-5.65528 -7.92269 3.43719e-11
-7.92269 3.41545 8.27616e-12
3.43719e-11 8.27616e-12 -0.898516

12.2704 2.66322 2.40809e-11
2.66322 12.4893 2.27337e-11
2.40809e-11 2.27337e-11 10.6615

11.0611 2.56767 -3.23647e-11
2.56767 11.1218 -8.96209e-12
-3.23647e-11 -8.96209e-12 9.77339

5.68428 -3.08328 -2.88998e-12
-3.08328 12.8681 2.15779e-11
-2.88998e-12 2.15779e-11 7.97754

7.54622 1.5344 1.44544e-11
1.5344 12.787 3.92946e-11
1.44544e-11 3.92946e-11 7.86854

12.8338 -2.61918 -1.05974e-11
-2.61918 6.37537 4.52024e-12
-1.05974e-11 4.52024e-12 8.2296

-11.1506 -7.27338 4.6213e-12
-7.27338 -2.25293 8.85629e-12
4.6213e-12 8.85629e-12 -2.14921

6.66182 0.14652 -1.94506e-11
0.14652 15.0829 5.62543e-11
-1.94506e-11 5.62543e-11 9.94557

15.174 0.217094 1.40645e-11
0.217094 8.01538 1.92894e-12
1.40645e-11 1.92894e-12 10.4645

-7.46279 0.488435 -2.88828e-11
0.488435 0.729927 2.46467e-11
-2.88828e-11 2.46467e-11 -5.19109

-6.07474 -4.17304 -1.21378e-11
-4.17304 -1.52538 2.24358e-11
-1.21378e-11 2.24358e-11 -4.52167

2.66508 1.67439 1.14608e-11
1.67439 -4.38177 -5.39213e-12
1.14608e-11 -5.39213e-12 -0.748931

5.38876 0.278432 9.3903e-12
0.278432 -9.78283 8.4714e-12
9.3903e-12 8.4714e-12 -0.966743

0.665746 -3.93601 5.39058e-12
-3.93601 7.50156 -7.01177e-11
5.39058e-12 -7.01177e-11 3.08366

2.79847 2.51809 -1.69398e-11
2.51809 8.08968 4.79655e-11
-1.69398e-11 4.79655e-11 3.30792

6.53806 0.329795 2.69196e-11
0.329795 -6.6016 -1.15595e-11
2.69196e-11 -1.15595e-11 -0.0832346

-5.39122 -4.00474 3.65781e-12
-4.00474 3.38827 1.15546e-11
3.65781e-12 1.15546e-11 -0.0620718

-0.166713 2.33596 -7.82411e-13
2.33596 -8.70089 -5.41066e-11
-7.82411e-13 -5.41066e-11 -4.18327

-1.10598 -3.23916 5.00851e-12
-3.23916 -6.40595 1.04063e-11
5.00851e-12 1.04063e-11 -5.4001

-1.78881 3.81301 1.10782e-11
3.81301 -2.07424 1.579e-11
1.10782e-11 1.579e-11 -1.08621

-3.23684 -6.69242 1.72344e-11
-6.69242 4.38725 3.07843e-12
1.72344e-11 3.07843e-12 -0.175175

3.19316 1.728 -1.2764e-11
1.728 -7.45375 -6.31664e-11
-1.2764e-11 -6.31664e-11 -1.08823

6.32984 3.49844 4.72378e-12
3.49844 5.18402 2.00328e-11
4.72378e-12 2.00328e-11 4.09237

-2.91495 -7.21839 -1.38649e-11
-7.21839 4.2439 -3.27331e-12
-1.38649e-11 -3.27331e-12 -0.0822988

27.8494 6.40259 5.18152e-11
6.40259 27.9601 -4.52779e-11
5.18152e-11 -4.52779e-11 28.2505

-2.36029 -2.64011 -9.4335e-12
-2.64011 6.12752 -3.46316e-12
-9.4335e-12 -3.46316e-12 0.64572

-4.905 -1.56006 3.36994e-11
-1.56006 7.01659 4.23143e-12
3.36994e-11 4.23143e-12 0.79853

-10.0459 -0.698888 3.10026e-11
-0.698888 2.46022 3.88938e-11
3.10026e-11 3.88938e-11 -6.09967

-6.88093 -3.28255 1.15524e-11
-3.28255 -4.16888 4.94838e-11
1.15524e-11 4.94838e-11 -5.51841

1.63023 1.82776 -4.23665e-12
1.82776 -16.6713 -6.93408e-12
-4.23665e-12 -6.93408e-12 -2.65938

1.45085 -2.7004 3.38938e-11
-2.7004 -14.0743 -6.93379e-12
3.38938e-11 -6.93379e-12 -2.6767

-4.83084 5.51983 -2.07003e-11
5.51983 -4.57971 1.34801e-11
-2.07003e-11 1.34801e-11 -2.98665

-4.89167 -3.53669 4.18747e-12
-3.53669 -3.42664 -1.21317e-11
4.18747e-12 -1.21317e-11 -3.36839

-7.01695 4.24581 4.12335e-11
4.24581 -5.16151 3.6979e-11
4.12335e-11 3.6979e-11 -5.72126

-7.15388 -2.95382 3.17462e-11
-2.95382 -2.65821 2.88437e-12
3.17462e-11 2.88437e-12 -5.76902

-0.78559 4.03855 -2.88929e-11
4.03855 -11.9998 -7.39302e-11
-2.88929e-11 -7.39302e-11 -8.25847

-2.30614 -5.64478 -6.62291e-11
-5.64478 -5.37471 -7.23818e-11
-6.62291e-11 -7.23818e-11 -10.3038

1.22906 4.16762 -5.39465e-12
4.16762 -3.43118 -4.23491e-12
-5.39465e-12 -4.23491e-12 -0.909316

-7.67082 -7.87376 1.63655e-11
-7.87376 -4.16829 -5.27733e-11
1.63655e-11 -5.27733e-11 -2.63402

4.29234 4.35846 -2.61894e-11
4.35846 -2.88516 -3.84944e-12
-2.61894e-11 -3.84944e-12 0.475158

-0.917463 -4.93212 -2.48439e-11
-4.93212 5.39884 1.00172e-11
-2.48439e-11 1.00172e-11 0.583578

-5.55808 -2.97965 1.00154e-11
-2.97965 4.53223 3.65916e-11
1.00154e-11 3.65916e-11 0.0334631

8.89259 -4.38084 5.58383e-12
-4.38084 7.89957 -3.44841e-11
5.58383e-12 -3.44841e-11 5.16911

3.06846 -5.78487 1.75307e-11
-5.78487 -2.98836 1.46273e-11
1.75307e-11 1.46273e-11 0.279036

-5.13049 1.99172 -1.96409e-11
1.99172 5.04348 1.42527e-11
-1.96409e-11 1.42527e-11 0.264195

2.95018 5.79385 1.53964e-11
5.79385 0.245301 -4.98856e-11
1.53964e-11 -4.98856e-11 0.751085

-10.3039 8.59655 1.67992e-11
8.59655 -3.90852 -4.62197e-11
1.67992e-11 -4.62197e-11 -2.98082

-6.77863 -6.98281 -1.53095e-11
-6.98281 0.849776 -1.02057e-11
-1.53095e-11 -1.02057e-11 -2.26654

0.774416 -6.58968 -1.32894e-11
-6.58968 -0.451684 -2.15711e-11
-1.32894e-11 -2.15711e-11 0.431418

3.00162 -0.472201 1.69451e-11
-0.472201 -3.50472 -4.44834e-11
1.69451e-11 -4.44834e-11 -0.959567

-12.6766 -2.17776 1.19173e-10
-2.17776 -8.93419 -7.00974e-11
1.19173e-10 -7.00974e-11 -12.5819

-1.9685 -2.53214 -9.20298e-11
-2.53214 -3.20028 1.96357e-11
-9.20298e-11 1.96357e-11 -12.0847

-7.07024 -2.56413 -3.65898e-11
-2.56413 1.63724 2.0032e-11
-3.65898e-11 2.0032e-11 -1.1418

-1.10973 3.55846 6.40717e-12
3.55846 -4.56622 1.92246e-12
6.40717e-12 1.92246e-12 -1.33188

-0.451804 -0.262193 -6.52304e-12
-0.262193 -6.38625 -3.87764e-13
-6.52304e-12 -3.87764e-13 -3.33344

12.649 -4.48207 2.50311e-12
-4.48207 15.8001 3.19781e-11
2.50311e-12 3.19781e-11 12.6966

15.0931 -4.02612 2.11268e-12
-4.02612 12.3684 4.82259e-12
2.11268e-12 4.82259e-12 12.4842

1.08881 -0.168032 -1.54983e-12
-0.168032 -12.0432 -2.96582e-11
-1.54983e-12 -2.96582e-11 -2.41233

1.30583 -0.833937 -5.39239e-12
-0.833937 -10.5125 2.69473e-12
-5.39239e-12 2.69473e-12 -2.78334

0.784657 0.896595 -9.22096e-12
0.896595 -7.55013 -4.25549e-11
-9.22096e-12 -4.25549e-11 -3.58914

0.416865 2.34017 -3.08735e-11
2.34017 3.82384 1.8107e-11
-3.08735e-11 1.8107e-11 0.653729

6.46458 3.03046 2.90458e-11
3.03046 0.402056 2.84942e-11
2.90458e-11 2.84942e-11 1.89764

0.890494 4.14507 -2.11942e-12
4.14507 -3.2632 -4.00516e-11
-2.11942e-12 -4.00516e-11 -1.07833

-0.552868 -5.42483 -1.17457e-11
-5.42483 -4.49293 -4.58301e-11
-1.17457e-11 -4.58301e-11 -1.82873

-13.7165 -0.687799 -8.76129e-11
-0.687799 -17.1992 -3.97178e-11
-8.76129e-11 -3.97178e-11 -16.874

-12.6619 5.9457 4.86344e-12
5.9457 -4.62484 5.55394e-11
4.86344e-12 5.55394e-11 -14.0027

-7.85257 -4.641 -2.65751e-11
-4.641 0.436517 1.5024e-11
-2.65751e-11 1.5024e-11 -1.13526

3.74494 3.047 -1.91696e-11
3.047 -2.3118 -1.23266e-11
-1.91696e-11 -1.23266e-11 0.353647

0.792794 2.81478 -4.95815e-11
2.81478 -7.3928 8.09604e-12
-4.95815e-11 8.09604e-12 -2.13996

0.458586 -3.7953 2.94693e-11
-3.7953 -5.79365 4.38967e-11
2.94693e-11 4.38967e-11 -2.66167

-2.73183 -6.46888 -6.99949e-11
-6.46888 3.32068 -1.3281e-11
-6.99949e-11 -1.3281e-11 -0.463457

-4.58352 -8.27756 -1.72365e-11
-8.27756 3.69903 1.54098e-11
-1.72365e-11 1.54098e-11 -0.620284

29.018 7.65186 4.2778e-11
7.65186 29.8411 4.93234e-11
4.2778e-11 4.93234e-11 29.0607

-9.29122 5.84425 -1.27552e-11
5.84425 -2.01975 2.67656e-11
-1.27552e-11 2.67656e-11 -3.39472

-6.85866 -5.15978 1.15996e-11
-5.15978 0.920077 2.15669e-11
1.15996e-11 2.15669e-11 -3.03759

-5.13453 -7.11971 9.53084e-12
-7.11971 3.60492 2.77308e-11
9.53084e-12 2.77308e-11 -0.721968

6.36904 -4.84054 5.85564e-11
-4.84054 -0.563273 -3.9968e-13
5.85564e-11 -3.9968e-13 1.74293

-0.773715 -3.19781 -1.30998e-11
-3.19781 0.385232 1.54447e-12
-1.30998e-11 1.54447e-12 -0.988824

-5.27207 5.52548 -2.56115e-11
5.52548 -4.68582 1.46375e-11
-2.56115e-11 1.46375e-11 -2.93254

-5.12934 -4.42711 -1.05871e-12
-4.42711 -0.527936 1.15586e-11
-1.05871e-12 1.15586e-11 -2.75998

3.35417 -0.445065 -1.97153e-12
-0.445065 -7.99882 2.58025e-11
-1.97153e-12 2.58025e-11 -1.45257

-0.611748 1.62518 2.23511e-11
1.62518 -9.02097 2.52164e-11
2.23511e-11 2.52164e-11 -3.31571

-0.349414 -1.5645 1.61711e-11
-1.5645 -4.65258 3.15794e-11
1.61711e-11 3.15794e-11 -3.57976

-11.0546 -2.28636 1.92402e-13
-2.28636 -3.81669 3.49439e-11
1.92402e-13 3.49439e-11 -9.54394

-11.6626 1.74333 -8.28663e-12
1.74333 0.318815 -8.89587e-11
-8.28663e-12 -8.89587e-11 -11.2651

17.7051 0.58676 -4.47025e-11
0.58676 11.68 -3.64104e-11
-4.47025e-11 -3.64104e-11 17.5573

11.9437 0.529677 1.8394e-11
0.529677 17.2813 -1.77284e-11
1.8394e-11 -1.77284e-11 17.3054

-0.197111 5.26894 -1.25188e-11
5.26894 -1.58855 1.3487e-12
-1.25188e-11 1.3487e-12 -0.742371

-3.48917 -5.26452 -1.38628e-11
-5.26452 -3.35176 1.15733e-12
-1.38628e-11 1.15733e-12 -1.57962

-8.08572 -5.04149 -1.09767e-11
-5.04149 -2.20831 -9.62848e-12
-1.09767e-11 -9.62848e-12 -1.62938

17.9689 1.87677 5.81826e-11
1.87677 18.0515 -1.4253e-11
5.81826e-11 -1.4253e-11 19.8691

17.943 2.04557 1.81156e-11
2.04557 18.0218 4.62387e-11
1.81156e-11 4.62387e-11 19.9377

-2.69343 0.887519 1.5424e-12
0.887519 -0.741708 -2.26035e-10
1.5424e-12 -2.26035e-10 -12.163

-3.80528 1.43006 -2.18963e-11
1.43006 -7.50094 1.236e-10
-2.18963e-11 1.236e-10 -10.3252

-3.16491 -4.73419 -3.47102e-11
-4.73419 -0.320711 -1.84863e-11
-3.47102e-11 -1.84863e-11 -1.39215

0.175113 -5.8685 1.30948e-11
-5.8685 1.37134 -7.32481e-12
1.30948e-11 -7.32481e-12 0.662615

1.10345 5.51135 5.19851e-12
5.51135 -3.38991 -4.23638e-11
5.19851e-12 -4.23638e-11 -0.812007

-2.20321 -6.63802 -3.27372e-11
-6.63802 -3.67718 -1.46382e-11
-3.27372e-11 -1.46382e-11 -1.44143

-2.82266 -6.2279 9.05335e-12
-6.2279 -0.69747 4.61786e-12
9.05335e-12 4.61786e-12 -0.472158

2.68642 4.51819 2.04135e-11
4.51819 1.55919 7.88895e-12
2.04135e-11 7.88895e-12 0.850799

5.53809 -2.03846 1.88818e-11
-2.03846 12.8631 1.65667e-11
1.88818e-11 1.65667e-11 7.68467

7.4198 1.21081 5.8098e-13
1.21081 12.6756 5.08558e-11
5.8098e-13 5.08558e-11 7.69949

12.5405 -1.88538 5.68338e-11
-1.88538 7.10147 -1.50425e-11
5.68338e-11 -1.50425e-11 8.08747

0.888209 6.00345 1.52078e-11
6.00345 -0.173728 1.91624e-13
1.52078e-11 1.91624e-13 0.0144015

9.14658 -1.46506 -5.47119e-11
-1.46506 15.6868 -3.6988e-11
-5.47119e-11 -3.6988e-11 10.7385

15.4162 -1.00325 2.34057e-11
-1.00325 8.77983 -1.98373e-11
2.34057e-11 -1.98373e-11 10.6078

0.82446 4.40344 4.17858e-11
4.40344 -4.19347 1.67473e-11
4.17858e-11 1.67473e-11 -1.47601

-2.5627 -6.40603 4.04062e-12
-6.40603 -5.14194 -2.31068e-11
4.04062e-12 -2.31068e-11 -2.52628

0.0440422 5.40941 8.87709e-11
5.40941 -5.06159 -8.67254e-12
8.87709e-11 -8.67254e-12 -1.99757

-3.24671 -6.26693 3.6396e-11
-6.26693 -4.0641 -2.31167e-11
3.6396e-11 -2.31167e-11 -2.91525

18.8535 2.30382 1.13481e-10
2.30382 19.1026 2.75512e-11
1.13481e-10 2.75512e-11 20.7184

18.8925 2.25219 -1.58078e-11
2.25219 19.0108 -7.2063e-11
-1.58078e-11 -7.2063e-11 20.5981

1.21372 4.81759 5.52646e-11
4.81759 -0.664818 -1.34866e-11
5.52646e-11 -1.34866e-11 -0.0789597

-0.480258 -5.94937 -8.28648e-12
-5.94937 -1.95699 -2.31106e-11
-8.28648e-12 -2.31106e-11 -0.47342

-7.47611 -3.78385 2.04078e-11
-3.78385 -4.74251 5.46804e-11
2.04078e-11 5.46804e-11 -6.65196

-8.32689 -1.29694 3.87018e-11
-1.29694 -2.12153 3.67749e-11
3.87018e-11 3.67749e-11 -7.78722

-0.306272 5.49071 1.88627e-11
5.49071 -3.64172 -3.73542e-11
1.88627e-11 -3.73542e-11 -1.72302

-6.84306 -4.90187 1.07845e-11
-4.90187 -1.87667 1.92298e-12
1.07845e-11 1.92298e-12 -2.91576

0.696926 2.8877 -1.53862e-11
2.8877 -11.7947 6.9305e-11
-1.53862e-11 6.9305e-11 -3.98497

-0.564065 -4.46456 2.69888e-12
-4.46456 -9.4727 -3.0798e-12
2.69888e-12 -3.0798e-12 -5.01145

-5.91027 5.03704 3.56262e-11
5.03704 -2.20119 2.50388e-11
3.56262e-11 2.50388e-11 -1.72951

-4.1371 -5.85309 -2.98475e-11
-5.85309 2.16379 -5.96786e-12
-2.98475e-11 -5.96786e-12 -1.26369

-9.54501 -4.06843 1.69674e-11
-4.06843 -8.50277 4.02401e-11
1.69674e-11 4.02401e-11 -10.6723

-10.6709 -3.63556 -3.09976e-11
-3.63556 -2.02457 -1.09707e-11
-3.09976e-11 -1.09707e-11 -8.03183

-0.748401 4.08002 -9.62747e-12
4.08002 -12.925 -2.4834e-11
-9.62747e-12 -2.4834e-11 -6.92554

-0.741892 1.33126 -4.81473e-11
1.33126 -13.2217 -2.1952e-11
-4.81473e-11 -2.1952e-11 -8.83508

-1.97604 -4.41203 -7.70289e-12
-4.41203 -8.2928 4.08214e-11
-7.70289e-12 4.08214e-11 -8.31744

-0.917919 -0.942865 6.00761e-11
-0.942865 -7.90902 1.44779e-10
6.00761e-11 1.44779e-10 -10.5366

-12.2172 -1.01588 -1.25151e-11
-1.01588 0.185791 1.27093e-11
-1.25151e-11 1.27093e-11 -9.51816

-7.52515 7.49434 -1.0264e-12
7.49434 -7.68271 1.5405e-11
-1.0264e-12 1.5405e-11 -9.73635

0.375833 4.48051 7.46402e-11
4.48051 -11.2247 2.80977e-11
7.46402e-11 2.80977e-11 -7.52706

-0.60382 3.70914 2.87984e-10
3.70914 -14.2034 -1.16709e-10
2.87984e-10 -1.16709e-10 -10.6036

1.67266 1.0317 2.46058e-10
1.0317 -1.18349 -1.31229e-11
2.46058e-10 -1.31229e-11 -12.162

-7.89651 -5.20712 1.57482e-11
-5.20712 -3.43362 -2.22205e-10
1.57482e-11 -2.22205e-10 -11.262

1.52553 3.39664 -1.15623e-11
3.39664 -10.4793 -4.73596e-11
-1.15623e-11 -4.73596e-11 -6.07699

0.229568 2.7283 2.19443e-11
2.7283 -5.08942 -3.71575e-11
2.19443e-11 -3.71575e-11 -3.17828

-2.26125 4.39209 -5.69718e-11
4.39209 -12.2227 7.6239e-11
-5.69718e-11 7.6239e-11 -9.21888

-2.71315 -5.01302 -6.55635e-12
-5.01302 -7.40443 -2.96494e-11
-6.55635e-12 -2.96494e-11 -8.95962

-5.44816 -2.51292 3.27219e-11
-2.51292 -1.94683 -3.38948e-11
3.27219e-11 -3.38948e-11 -11.6485

-1.9427 -2.24512 -1.30949e-11
-2.24512 -3.82802 -1.30813e-11
-1.30949e-11 -1.30813e-11 -4.52626

-0.363184 4.42926 -2.34919e-11
4.42926 -8.62409 2.02145e-11
-2.34919e-11 2.02145e-11 -4.58716

-0.589253 2.59964 -1.34706e-11
2.59964 -9.90175 3.92838e-11
-1.34706e-11 3.92838e-11 -6.34724

-3.36273 -5.81501 2.23374e-11
-5.81501 -5.71817 -4.27446e-11
2.23374e-11 -4.27446e-11 -6.23549

-1.42395 -2.82186 -5.23731e-11
-2.82186 -7.04079 -2.84854e-11
-5.23731e-11 -2.84854e-11 -8.27678

VECTORS fluid_flux_TPM float
-9.64397e-05 -0.000289298 -2.78912e-20
-2.97797e-05 0.000237392 2.18279e-20
4.7247e-05 -0.000237549 -1.57646e-20
-0.000215598 -4.1014e-05 -9.70128e-21
-0.000270784 -7.13898e-05 -7.27596e-21
-3.56864e-05 0.000306034 6.4271e-20
5.31576e-05 -0.000306279 -7.03343e-20
-0.000290919 7.30669e-05 1.81899e-20
-9.1076e-05 0.000146711 5.45697e-20
-0.000152902 -0.000355268 -3.63798e-20
-0.000146568 0.000380069 -4.00178e-20
0.000397716 0.000161969 1.45519e-20
0.000210381 0.000203764 -8.48862e-21
-0.000193869 -0.000203077 2.42532e-20
-9.58883e-05 -0.000200722 -3.63798e-20
-2.96202e-05 -0.000190263 -2.54659e-20
3.08386e-05 0.000312895 5.21444e-20
-1.39023e-05 -0.000313058 7.27596e-21
0.000275472 2.76789e-05 -3.63798e-21
-0.000115075 -0.000428687 -6.18456e-20
-0.000116176 0.000438411 -2.18279e-20
0.000477767 0.000110302 3.63798e-20
-0.000184852 -0.000191585 -1.09139e-20
-0.00029823 6.98508e-05 4.24431e-20
-0.000212328 -0.000193019 8.48862e-21
0.000127782 0.000282444 1.21266e-21
-0.000204564 3.86094e-05 2.42532e-20
-0.000309784 -0.000645928 -4.06241e-20
-0.000177622 -8.98795e-05 1.09139e-20
0.000688284 0.000325642 -7.88229e-21
-9.66544e-07 0.00029254 5.09317e-20
1.80293e-05 -0.000292624 -4.48684e-20
-0.000671422 -0.000341148 -2.66785e-20
-0.000673769 0.000328269 -5.6995e-20
-0.000437978 0.000143241 -1.21266e-21
-0.00015565 -0.000125969 9.70128e-21
-0.000272562 -0.000137153 -2.42532e-20
-0.000285397 0.000139604 6.79089e-20
-4.72095e-05 -9.564e-05 3.63798e-20
0.000192366 0.000196369 -1.09139e-20
-0.00028053 0.000187526 4.9719e-20
-8.26102e-05 1.35054e-06 8.00355e-20
-0.000181445 0.000198258 8.48862e-21
-9.79644e-05 0.00028789 -2.06152e-20
4.45528e-05 0.000190238 2.54659e-20
-0.000284132 0.000187215 1.94026e-20
-0.000703345 -0.000703345 -1.33393e-20
0.000728588 0.000728588 -2.54659e-20
6.4535e-05 0.000148541 -4.00178e-20
0.000731207 0.000772896 -5.21444e-20
-0.000746848 -0.00070544 -4.24431e-21
0.000337139 -3.48532e-05 7.27596e-20
0.000336894 3.46628e-05 4.85064e-20
0.000237019 4.19185e-05 -4.48684e-20
0.000321237 -0.000146706 1.12777e-19
0.000320963 0.000146722 -2.42532e-21
0.000121015 0.000197514 1.33393e-20
-0.000282548 -0.000529653 5.21444e-20
-0.0002834 0.000531756 -3.03165e-20
0.000257103 -9.81724e-05 1.04289e-19
0.000256698 9.75991e-05 2.66785e-20
-0.000384969 0.000168451 -2.06152e-20
-0.000306288 0.000483362 2.54659e-20
0.000325767 -0.000487334 -7.88229e-20
0.000187814 -0.000193926 1.09139e-20
-0.000340392 0.000652498 -5.45697e-20
-0.000652411 0.000345635 -4.79001e-20
3.80077e-05 0.000188847 -1.21266e-21
-2.14466e-05 -0.00018835 -1.21266e-20
0.000572071 -0.000236959 2.32831e-19
0.000572237 0.000237028 -1.64922e-19
4.07272e-05 -6.00307e-05 -2.91038e-20
0.000261618 9.03118e-05 1.69772e-20
0.000262181 -9.04397e-05 1.5522e-19
-0.000137717 -9.47042e-05 3.27418e-20
-4.78227e-05 -0.000146054 4.36557e-20
-0.000404859 -8.63786e-05 -1.33393e-20
-0.00034939 -5.11357e-05 -1.45519e-20
-0.000254845 -0.00021529 1.81899e-20
-0.000297936 0.000516025 2.18279e-20
-0.000297216 -0.000514773 -3.51671e-20
-0.00030722 -0.000344571 -1.69772e-20
-0.000225116 0.000133002 1.33393e-20
0.000271298 9.85269e-05 3.63798e-21
-4.64704e-05 0.000546564 -2.06152e-20
5.94359e-05 -0.000552106 -1.64922e-19
-0.000263674 0.000237042 2.42532e-20
2.72809e-05 0.000252077 2.78912e-20
-9.25385e-06 -0.000252039 -1.69772e-20
0.000230646 -3.8455e-05 8.00355e-20
0.000228212 3.59685e-05 9.70128e-21
0.000406349 -0.000279183 -2.54659e-20
0.000327339 5.36636e-05 6.0633e-21
0.000243717 -0.000121498 9.09495e-20
0.000242449 0.00012172 5.21444e-20
0.000274562 -0.000100514 9.21621e-20
0.000120504 -0.000280581 6.0633e-21
0.000219629 -9.62133e-05 1.1399e-19
0.000216298 9.41412e-05 1.57646e-20
-0.000236132 0.000107871 1.05501e-19
0.00013416 8.27757e-05 8.12482e-20
-0.000282967 -0.000197563 -6.0633e-21
-0.000100894 2.39306e-05 -2.78912e-20
-2.58923e-05 5.74959e-05 4.12304e-20
0.000338249 4.78998e-05 2.54659e-20
-0.000231067 0.000138969 1.21266e-19
-0.000243771 -0.000113602 1.57646e-20
-0.000186911 -0.000234062 -2.42532e-20
-0.000215947 -0.000144757 2.18279e-20
4.85029e-06 -0.000259368 -9.70128e-21
1.3084e-05 0.000259453 1.21266e-21
0.000401742 -0.000158441 -4.85064e-21
-0.000137426 9.39319e-05 -7.27596e-20
0.000202471 -0.000286106 -2.30405e-20
0.000203445 0.00028876 -2.54659e-20
-0.000224667 0.000133027 9.33748e-20
-8.89341e-05 0.000144604 4.85064e-20
-9.09955e-05 -0.000149935 3.75924e-20
-4.90427e-05 -0.000269149 -4.85064e-21
-0.000210386 0.000202163 3.03165e-20
4.38856e-05 -0.00037714 -2.42532e-20
6.30452e-05 0.000386314 -3.81988e-20
0.000427088 -2.03744e-05 3.03165e-21
0.000416312 0.000277374 2.42532e-21
0.000287898 -0.000167415 -3.63798e-20
0.000376815 -0.000652758 -2.91038e-20
-0.000375852 0.000651003 1.45519e-20
0.00032948 -5.87118e-05 3.27418e-20
5.7916e-05 0.000145911 -3.63798e-21
0.000240073 -4.54757e-05 7.15469e-20
-4.61791e-05 0.000272833 -1.33393e-20
-6.98304e-05 0.00015273 4.60811e-20
8.32232e-05 -0.000152153 -3.88051e-20
0.000136952 -8.5259e-05 4.85064e-20
0.000102562 -3.07166e-05 4.00178e-20
-4.17384e-05 -0.000146631 9.70128e-21
0.00017831 1.67292e-06 -3.27418e-20
0.0002825 0.000180718 3.75924e-20
-9.58324e-05 -3.06894e-05 -1.10352e-19
0.000282856 0.000184493 2.42532e-21
-0.000297707 0.000370155 -9.70128e-21
-0.000154757 0.000120102 1.21266e-20
0.000117252 -0.000418916 4.24431e-21
0.000123489 0.000418777 -5.21444e-20
0.000466047 -0.00010689 7.88229e-21
0.000288757 -0.000191438 -2.30405e-20
1.09396e-05 0.000302487 1.21266e-20
6.97561e-06 -0.000302056 -4.85064e-21
0.000229068 -0.000383671 -3.39545e-20
0.000225475 0.000367658 -4.12304e-20
0.000145816 -5.19311e-05 -7.27596e-21
0.000146384 5.00897e-05 7.27596e-21
0.000161098 0.000100772 3.39545e-20
9.72078e-05 0.000136873 -5.6995e-20
-0.00021638 -0.00013053 1.09139e-20
-0.000432425 -0.000341051 3.03165e-20
6.79886e-05 0.00027964 1.09139e-20
0.000287772 9.68271e-05 1.81899e-20
0.000288329 -9.72513e-05 1.81899e-19
0.000261138 -0.00010234 7.76102e-20
0.000260648 0.000101691 3.88051e-20
-0.000131913 -0.00127466 -2.66785e-20
0.00130895 0.000201435 -3.63798e-21
6.80039e-05 -0.0002731 3.63798e-21
0.000395711 -0.000262247 1.11565e-19
0.000395504 0.000262862 -3.88051e-20
0.000266734 0.000139428 1.09139e-20
-0.00053999 -3.43634e-05 -1.15203e-20
0.000327804 -5.96898e-05 1.21266e-20
-1.13893e-05 0.000232653 -2.42532e-21
2.84326e-05 -0.000233717 -9.70128e-21
-0.000192644 0.000290149 -6.0633e-21
9.71436e-05 3.16309e-05 5.45697e-20
0.000267846 -0.000140135 4.60811e-20
-3.9895e-05 -6.9425e-05 -5.45697e-20
-0.00019596 0.000160982 3.51671e-20
0.000214012 -0.000160717 -6.30583e-20
0.000160221 -9.90439e-05 4.85064e-20
-0.00015824 -0.000107881 1.21266e-20
-0.00027837 -0.000179259 -2.06152e-20
4.58629e-05 6.40067e-05 3.51671e-20
-9.13237e-05 0.000196194 -4.12304e-20
-4.79374e-05 -0.000272273 2.30405e-20
0.000228381 0.000106372 6.66963e-20
7.0032e-05 0.000274665 1.45519e-20
-8.54269e-05 -0.000132879 7.03343e-20
-0.000342675 0.000626801 -6.48773e-20
-0.000615133 0.000349313 -2.42532e-20
0.000229065 -0.000106975 2.78912e-20
0.00027721 -3.2169e-05 9.58001e-20
0.00057941 0.000254297 -1.38243e-19
0.000579146 -0.000253992 1.64922e-19
5.81935e-05 -0.000148863 1.45519e-20
-0.000380808 -0.00027552 -8.48862e-21
-0.00038954 0.000268728 -3.63798e-20
-0.000162344 -7.20171e-05 1.81899e-20
-3.41023e-05 5.99258e-05 -7.63976e-20
0.000370003 0.000452868 -5.6995e-20
-0.000413381 -0.000340163 -1.81899e-21
0.00036814 -0.000504952 -1.45519e-20
0.000374093 0.000511041 -5.94203e-20
0.000570294 -0.00031425 -1.81899e-20
4.51605e-05 -5.32502e-05 9.70128e-20
-3.77449e-05 -0.000563279 -5.03254e-20
0.000604172 4.38689e-05 -2.66785e-20
0.000310443 0.000408551 4.01235e-36
-0.000293036 -0.000406002 -5.3357e-20
-0.000187552 -0.000151197 4.36557e-20
-8.10567e-05 3.22858e-06 5.45697e-20
0.000217659 -0.000298916 3.63798e-21
0.00021899 0.000303709 -4.9719e-20
-0.000185446 5.40954e-05 2.54659e-20
0.00011448 -0.000192789 -2.42532e-21
0.000303373 -0.000153422 1.47944e-19
0.000302747 0.000153544 1.45519e-20
-0.000226522 -0.000121457 1.21266e-20
-0.00015774 0.000106116 -3.63798e-20
-0.000181155 -8.57107e-05 3.51671e-20
-0.000345241 -0.000194105 2.30405e-20
-4.26242e-05 0.000157693 -1.21266e-21
-0.000721109 0.000721109 -2.33437e-20
-4.3794e-05 0.000279104 -9.70128e-21
6.40129e-05 -0.000281968 2.42532e-21
6.17639e-05 -0.000549088 -9.33748e-20
-4.46932e-05 0.000548869 4.85064e-21
0.000172192 -8.63919e-05 7.63976e-20
0.000172035 8.35297e-05 8.48862e-21
-0.000270176 0.000143946 4.36557e-20
-0.000267159 -0.000139357 3.75924e-20
-0.000473033 -8.63154e-05 -7.76102e-20
-0.000465535 8.81271e-05 -1.09139e-20
0.00054848 0.000256108 -3.88051e-20
0.000548461 -0.000255789 8.73115e-20
0.000174158 1.61071e-05 4.36557e-20
0.000174432 -1.50522e-05 2.42532e-21
0.000277058 9.765e-05 2.78912e-20
-9.26829e-06 0.000247247 -2.78912e-20
2.70473e-05 -0.000241803 1.57646e-20
-0.000391958 0.000271573 -2.42532e-21
0.000276174 -0.000100261 2.91038e-20
-2.28063e-05 -0.000260341 6.0633e-21
0.000236751 0.00014357 7.27596e-21
-0.000173641 -5.4088e-06 -1.39456e-19
-0.000171641 1.36968e-06 0
0.000236145 -0.000145674 -1.45519e-20
-0.000178648 0.000157442 1.01863e-19
0.000308676 0.000534708 7.27596e-21
-0.000303616 -0.000525876 -7.03343e-20
-4.69309e-05 -0.000182291 -4.85064e-21
-0.000227685 -0.000137111 4.9719e-20
-2.55142e-05 -0.000304609 4.12304e-20
0.00038396 -0.000655337 -2.51627e-20
0.000662149 -0.000310277 -1.45519e-20
0.000145163 -0.000119953 8.85242e-20
0.000143217 0.00011743 4.36557e-20
-3.81139e-05 0.000319089 -4.72937e-20
3.86103e-05 0.000251247 4.85064e-21
0.000341599 0.000145799 1.21266e-20
0.000261939 -5.93549e-05 7.03343e-20
0.00026165 5.81992e-05 6.91216e-20
-0.000617101 -4.81965e-09 -1.57646e-20
-0.000617269 3.09454e-09 -9.94381e-20
5.98516e-05 -0.000139239 5.21444e-20
-0.000233865 -0.000142195 1.33393e-20
0.000241855 0.000145761 2.42532e-21
0.000243171 -0.000145823 1.37031e-19
6.66239e-05 0.000178418 -7.27596e-21
3.0077e-05 4.91423e-05 -4.72937e-20
0.000718363 -0.000718363 7.88229e-21
-0.00020285 6.4227e-05 3.88051e-20
-0.000204856 -6.87695e-05 -8.97368e-20
-4.50018e-05 0.000142742 -2.42532e-20
0.000335257 -0.000148167 1.69772e-20
-0.000229847 0.00011719 4.00178e-20
-0.000296661 -3.97537e-05 -1.94026e-20
-0.000298055 3.8871e-05 -4.72937e-20
-0.000178471 8.5789e-05 5.82077e-20
0.000170496 0.00025306 5.09317e-20
0.000171804 -0.000252403 1.04289e-19
0.000127446 0.000718759 2.66785e-20
-0.000113704 -0.000718767 -1.17628e-19
-6.47737e-05 0.00129999 -3.88051e-20
-0.00126997 6.65019e-05 -3.03165e-21
0.00019665 -1.40022e-05 4.85064e-20
0.000197707 1.17904e-05 7.76102e-20
-8.53626e-06 -4.57166e-05 8.12482e-20
0.000705285 -0.000857771 -1.54614e-20
0.000897057 -0.000690568 2.12215e-21
0.000234775 -0.00056684 7.27596e-20
0.000234939 0.000567236 -6.54836e-20
-0.000216003 0.000129 -2.91038e-20
0.000206318 -0.00019667 -6.0633e-21
0.000209499 -8.66458e-05 6.0633e-21
0.000209251 8.54446e-05 1.01863e-19
0.000155537 -0.000129284 2.54659e-20
0.00020483 0.00019856 1.57646e-20
1.3966e-06 -0.000604284 -5.03254e-20
2.35748e-05 0.000556261 -5.8814e-20
0.000645197 5.34283e-06 2.30405e-20
0.000156107 0.000127943 5.45697e-20
7.10922e-05 0.00061292 -4.91127e-20
-0.000599046 -8.08222e-05 -1.87962e-20
0.000262122 -2.78817e-05 1.94026e-20
0.000263258 2.44547e-05 7.63976e-20
0.000255246 -5.13464e-05 7.88229e-20
0.000255587 5.10378e-05 5.6995e-20
-0.000709238 0.000877828 -2.84975e-20
-0.000870538 0.000709175 -2.42532e-20
0.000229136 9.97135e-05 8.24609e-20
0.0002297 -0.000100965 -2.06152e-20
7.97081e-05 0.000421975 1.09139e-20
-6.55088e-05 -0.000419251 -3.39545e-20
0.000197458 8.27444e-05 5.45697e-20
0.000195965 -8.22492e-05 3.39545e-20
0.000300294 -0.000181487 1.81899e-19
0.000299634 0.000181786 1.94026e-20
-0.000175434 -4.34651e-05 3.88051e-20
-0.000171856 4.07467e-05 -9.21621e-20
-0.000280051 -0.000531994 -7.03343e-20
0.000275976 -0.00033 9.94381e-20
0.000330901 -0.000279176 9.94381e-20
0.000275383 0.000331189 7.15469e-20
0.000331021 0.000279706 -3.88051e-20
0.000297124 0.000537706 -1.69772e-20
-0.000613256 9.85021e-06 -5.82077e-20
-0.00061264 -1.15248e-05 4.85064e-21
0.000445024 0.000184346 7.27596e-20
0.00107047 0.000140915 2.59509e-19
0.00107078 -0.000140956 -2.20704e-19
0.000444914 -0.0001843 -3.63798e-20
0.000558627 1.21365e-05 5.6995e-20
0.000395697 0.000120022 5.45697e-20
0.000524152 -0.000147454 1.01863e-19
0.000558598 -1.19672e-05 -8.48862e-20
0.000524131 0.000147589 -2.18279e-20
0.000395727 -0.000119813 4.36557e-20
0.000415044 -0.000117268 5.3357e-20
0.000412476 -0.000118068 3.39545e-20
0.000415065 0.000117359 4.72937e-20
0.000412324 0.000118213 -4.12304e-20
-3.82606e-05 0.000242094 -6.0633e-20
-4.07114e-05 -0.000243306 -1.67347e-19
-0.0002182 3.98585e-05 -3.15291e-20
-0.000278821 7.25328e-05 -1.16415e-19
-4.44897e-05 0.000314518 -5.3357e-20
-4.6896e-05 -0.000315217 -2.88613e-19
-0.000279021 -7.16885e-05 -1.41881e-19
-9.36015e-05 -0.00014677 2.94676e-19
-0.000156623 -0.000352887 -2.08577e-19
0.000160733 0.000363585 -1.39456e-19
0.000369031 0.000167846 -3.63798e-21
0.000204058 -0.000211987 3.03165e-20
0.000209005 0.000208988 4.60811e-20
-0.000224155 0.000134 -7.27596e-20
2.33993e-05 -0.000321784 -1.21266e-19
2.55222e-05 0.000320636 -2.78912e-20
0.000227749 3.56262e-05 -1.46732e-19
-0.000117615 -0.000428006 -2.17066e-19
0.000115878 0.000432244 -1.38243e-19
0.000447566 0.000119594 -3.03165e-20
0.000107469 0.000289802 -7.76102e-20
0.000111072 -0.000285507 -2.59509e-19
-0.00020523 -4.19717e-05 1.69772e-20
-0.000306377 -0.000636748 -8.48862e-20
-0.000181313 9.12323e-05 7.88229e-20
-6.88111e-06 0.000299899 -2.78912e-20
-9.54573e-06 -0.000300701 -2.51021e-19
-0.000676933 -0.00032737 1.81899e-19
-0.000673998 0.000339467 -1.27329e-19
-0.000146511 0.000198059 -8.60988e-20
-0.000177077 0.000209683 -7.88229e-20
-0.000408912 0.000132008 -6.0633e-21
-0.00028877 -0.00013914 3.27418e-19
-0.000276326 0.000135463 -4.9719e-20
-4.7364e-05 9.71508e-05 1.05501e-19
0.00017182 -0.000204536 -2.84975e-19
-8.52177e-05 -2.90415e-06 1.72198e-19
-0.000294177 0.000192151 -7.27596e-21
-0.000193398 -0.000195713 -1.83112e-19
-0.000339737 -5.32246e-05 -9.09495e-20
-0.000309905 6.2347e-05 -7.51849e-20
-0.000106562 -0.000289608 -2.19491e-19
3.11968e-05 -0.000197409 -2.61934e-19
3.37083e-05 0.000196084 -1.21266e-21
-9.62215e-05 0.000291348 -4.85064e-20
0.000177877 0.000206926 -1.11565e-19
-0.000688385 -0.000688306 -6.54836e-20
-0.000677825 0.000677852 1.71591e-19
6.07759e-05 -0.000157731 2.42532e-20
6.09684e-05 0.000152897 2.00618e-36
0.000103959 0.000204707 -6.91216e-20
-0.000679812 0.000739763 1.96451e-19
-0.000717076 -0.000689691 -3.0559e-19
0.000353075 -6.45844e-05 -1.83112e-19
0.000350078 6.99892e-05 -1.09139e-20
0.000166138 5.84512e-05 -1.1399e-19
0.000330772 -0.000221427 -2.26767e-19
0.000328308 0.000223215 -2.54659e-20
0.00010459 -0.000204249 -2.57084e-19
-0.000286549 -0.000529268 3.33481e-19
-0.000286347 0.000525208 1.83112e-19
0.000242843 -0.000139671 -2.29193e-19
0.00024295 0.000141969 -5.01544e-37
-0.000320188 -0.000496702 -6.03905e-19
-0.000319154 0.000496785 -3.27418e-20
0.000333622 0.000629715 -1.90994e-19
0.000632294 0.000333902 1.26117e-19
2.77019e-05 0.000194823 -3.39545e-20
2.51688e-05 -0.000196128 -1.64922e-19
0.000692066 -0.000286613 -2.42532e-20
0.000684357 0.000283472 7.76102e-20
-0.000281188 -0.000195892 -1.51582e-19
0.000230195 0.000126469 -3.88051e-20
0.000230268 -0.000123963 -1.58858e-19
-0.000258202 0.000215401 1.45519e-20
-0.000394396 -8.90965e-05 -9.33748e-20
-0.000296981 0.000514419 1.20053e-19
-0.000298292 -0.000516558 1.15203e-19
-0.00022186 -0.000137022 -2.18279e-20
0.000222753 0.000120154 -9.58001e-20
-0.000315232 -0.000342862 -3.20142e-19
-5.43063e-05 -0.000561358 -6.00267e-19
-5.21483e-05 0.000561725 -3.63798e-21
-0.000267068 -0.000236484 4.46259e-19
2.17406e-05 0.000256947 -8.00355e-20
1.95909e-05 -0.000256664 -3.63798e-20
0.000165614 -5.8153e-05 -1.45519e-19
0.000162753 5.6164e-05 -1.29755e-19
0.000372159 -0.000283972 -1.28542e-19
0.000280086 6.18969e-05 -8.60988e-20
0.000199337 0.000188788 2.42532e-21
0.000201038 -0.000187233 -2.6436e-19
0.000226412 -0.000120824 -1.38243e-19
0.00015101 -0.000134714 -1.90388e-19
0.000146917 0.000133508 -3.51671e-20
-0.000240333 -0.000107278 1.15203e-19
-0.000252294 0.000198701 -1.45519e-19
0.00012719 9.76917e-05 -7.15469e-20
0.000123302 -9.47366e-05 -3.79562e-19
-3.86915e-05 -6.57349e-05 -2.92251e-19
-3.6354e-05 6.42716e-05 -3.51671e-20
0.000300408 5.11761e-05 -8.85242e-20
-0.000423714 0.000412978 -5.57823e-20
-0.000234035 -0.000139738 2.54659e-19
-0.000241996 0.000114718 -6.54836e-20
-0.000576171 9.42957e-05 7.09406e-20
-0.000224316 0.000136919 -1.33393e-20
2.4984e-06 -0.000265544 -1.01863e-19
6.27186e-06 0.000264985 -6.91216e-20
-0.000197653 -0.00023687 -2.6436e-19
0.00036734 -0.000157684 -4.72937e-20
-0.000139642 -9.58657e-05 4.85064e-20
-0.000139973 0.000103702 -1.51582e-19
0.000182081 -0.000289673 -2.18279e-19
-0.00019177 0.000309773 -1.26117e-19
-0.000230387 -0.000136361 9.45875e-20
-9.29448e-05 -0.000146125 3.61373e-19
-9.49977e-05 0.000156212 1.35818e-19
5.42926e-05 0.000278807 -8.36735e-20
-0.000209549 -0.000198956 -5.94203e-20
3.24278e-05 -0.000375648 -6.97279e-20
-4.89859e-05 0.000386976 -1.37031e-19
0.000392088 -4.16606e-05 1.69772e-20
0.000256989 -0.000175019 -1.10352e-19
-0.000385251 0.00066736 -1.09139e-19
-0.000384522 -0.000666079 -6.22094e-19
-0.000276246 -0.000166278 -8.97368e-20
0.000290116 -6.26934e-05 -6.0633e-20
-0.000438404 -0.000347644 -1.44306e-19
4.40554e-05 -0.000154748 -2.8255e-19
4.57452e-05 0.000156784 -4.12304e-20
0.000170335 -6.16692e-05 -1.47944e-19
-5.58118e-05 -0.000272364 -1.70985e-19
-8.26636e-05 -0.000161062 -2.94676e-19
-8.03084e-05 0.000159554 3.63798e-21
0.000260652 0.000366773 -4.85064e-20
0.000386836 0.000260996 -1.16415e-19
-0.00055272 -2.47521e-05 -2.24342e-20
9.50006e-05 -1.81953e-05 -6.4271e-20
9.06705e-05 2.24692e-05 -3.22567e-19
7.88981e-05 4.85261e-06 -8.36735e-20
-9.86161e-05 2.7106e-05 1.23691e-19
-9.09031e-05 -2.62531e-05 -7.15469e-20
-0.000159909 -0.000119806 -5.45697e-20
0.000106831 -0.000415611 -1.23691e-19
-9.77964e-05 0.000414772 -6.18456e-20
0.000424525 -0.000110117 -2.48595e-20
0.000258229 -0.000196929 -1.43094e-19
4.41098e-06 0.000302417 -6.54836e-20
5.78942e-07 -0.000304071 1.21266e-21
-0.000198124 0.000396589 -2.34043e-19
0.000206278 -0.000373109 -1.21266e-19
2.99556e-05 7.90868e-05 -1.11565e-19
2.73967e-05 -8.01055e-05 -1.00651e-19
0.000146228 -0.000110054 -3.44395e-19
0.000149331 0.000112501 -8.60988e-20
9.95898e-05 -0.000143872 1.22479e-19
9.51953e-05 0.000140986 -1.21266e-21
-0.000215579 0.000131921 -5.45697e-20
5.38616e-05 -0.000282822 -1.64922e-19
0.000273746 0.000141203 -2.66785e-20
0.000275729 -0.000138703 -1.79474e-19
0.000237993 -0.000153933 -1.96451e-19
0.00023005 -0.000126451 -2.78912e-19
0.000230016 0.000128571 -1.69772e-20
-0.00013387 -0.00124287 -1.83112e-19
0.000183908 0.00028657 -1.22479e-19
-0.00128058 0.00015021 9.09495e-21
-4.7328e-05 0.000284713 -4.9719e-20
0.000440994 -0.000398431 -1.79474e-19
0.00043618 0.000398092 7.76102e-20
0.000239881 0.000156143 -4.9719e-20
0.000280611 -6.8239e-05 -8.00355e-20
0.00026158 0.000182317 -1.3218e-19
-1.78282e-05 -0.000237869 -1.69772e-20
-1.62686e-05 0.000237874 -8.24609e-20
-0.000206591 0.000167822 -1.45519e-20
-0.000208172 -0.00016928 -3.15291e-19
4.13605e-05 7.13047e-05 -6.0633e-21
3.39321e-05 -7.23242e-05 -3.85626e-19
-9.71408e-05 -0.000197935 -5.3357e-20
5.58314e-05 0.000274549 -1.21266e-20
0.000209603 -0.000129412 -2.80124e-19
0.000211084 0.000131318 -2.54659e-20
0.000262756 0.00019964 -1.20053e-19
-9.19002e-05 0.000199875 -8.36735e-20
5.58143e-05 -0.000278066 -1.33393e-19
0.000335912 0.000608641 -1.01863e-19
0.000617425 0.000335298 1.95238e-19
-0.000383215 0.000286795 -1.79474e-19
0.000229527 -4.04532e-05 -1.09139e-19
0.000717313 -0.000347384 -1.21266e-20
0.000710548 0.00034652 1.38243e-19
-0.000392543 -0.000267808 5.57823e-20
-0.000384828 0.000274162 -1.84324e-19
-0.000163014 6.98384e-05 -4.12304e-20
-3.81469e-05 6.21684e-05 -4.36557e-20
-3.85461e-05 -6.10736e-05 8.97368e-20
-0.000322569 0.000430854 -4.48684e-20
-0.000405115 -0.00034632 -1.74623e-19
0.000347191 -0.000496001 -1.8675e-19
-0.000315369 0.000515648 -1.05501e-19
0.00051976 -0.000302799 -1.27329e-20
-0.000353895 -0.000191367 -1.79474e-19
-4.28529e-05 -0.000555699 -2.23736e-19
-0.000526265 4.81354e-06 9.03431e-20
0.000304767 -0.00041813 -1.37031e-19
0.000311116 0.000417956 3.75924e-20
-0.000188735 0.000149238 -9.09495e-20
-8.26722e-05 -5.98149e-06 1.3218e-19
-0.000187548 0.000306625 -1.30967e-19
0.000198356 -0.000305331 -2.08577e-19
-0.000188035 -5.56317e-05 7.15469e-20
0.000300472 -0.000232818 -1.5037e-19
0.000297554 0.000234733 1.21266e-21
-0.000231138 0.00012144 -1.45519e-20
-0.000162436 -0.000109539 -5.45697e-20
-0.000143685 0.00010545 -1.30967e-19
-0.000185559 8.62227e-05 -3.63798e-20
-4.72583e-05 -0.00016056 -2.42532e-21
-4.22436e-05 0.000172225 -5.21444e-20
0.000712896 0.000712866 2.71029e-19
-5.2353e-05 -0.000281458 -1.94026e-20
-4.76144e-05 0.000284093 -1.35818e-19
-5.4063e-05 -0.000561673 -5.48122e-19
-5.1646e-05 0.000562376 2.78912e-20
7.97137e-05 -0.000148466 -1.5037e-19
8.05924e-05 0.000145097 -8.12482e-20
-0.000273057 -0.000143624 1.92813e-19
-0.000268412 0.000138691 -7.76102e-20
-0.000476252 8.81083e-05 -3.63798e-21
-0.000469134 -8.77046e-05 -3.58947e-19
0.000630297 0.000351221 3.63798e-20
0.000639229 -0.000351955 -3.15291e-19
0.000170004 -1.85486e-06 -8.48862e-20
0.000164356 6.40464e-06 -3.63798e-19
0.000248607 0.000116191 -7.76102e-20
-1.63247e-05 -0.000248216 4.9719e-20
0.000213616 -0.00015831 -2.63147e-19
-1.43424e-05 0.000250713 -8.73115e-20
0.000245434 -0.000117835 -1.1399e-19
2.87525e-05 0.000258353 -4.85064e-20
0.00021568 0.000160719 -7.76102e-20
-0.000172477 3.0982e-06 1.01863e-19
-0.000177676 -3.77269e-06 -1.22479e-19
-0.0001834 -0.000158161 3.66223e-19
0.000312355 -0.000541147 -5.2872e-19
0.000314281 0.000544389 5.3357e-20
-0.000230191 0.000134627 -7.63976e-20
-3.27716e-05 0.000303213 1.79474e-19
0.000362157 -0.000638037 -4.06241e-20
0.000628609 -0.000298658 -6.15425e-20
5.03998e-05 -0.000184864 -2.52233e-19
4.89789e-05 0.000182292 -6.0633e-21
-4.28809e-05 -0.000318053 3.66223e-19
2.57459e-05 -0.000255658 -1.87962e-19
0.000303596 0.000159403 -1.17628e-19
0.00025036 -7.98062e-05 -2.35256e-19
0.000250271 8.36835e-05 -3.51671e-20
-0.000620431 -2.42473e-08 1.67347e-19
-0.000620122 6.31623e-08 -2.95889e-19
-0.000231806 0.000135881 -2.30405e-20
0.000198535 0.000221368 -1.81899e-20
0.000200306 -0.000219825 -2.92251e-19
6.33085e-05 0.000182294 -9.09495e-20
6.24745e-05 -0.000182046 7.76102e-20
2.77212e-05 -4.99389e-05 5.09317e-20
3.09852e-05 5.4058e-05 -9.09495e-20
0.000691118 -0.000691165 -3.42576e-20
-0.000205637 7.04193e-05 9.45875e-20
-0.000206538 -6.38209e-05 -2.00089e-19
-4.95338e-05 -0.000146248 8.12482e-20
-4.68226e-05 0.000148823 -1.00651e-19
0.000296347 -0.000159194 -7.76102e-20
-0.000232405 -0.000116789 2.44957e-19
-0.000300389 -3.90057e-05 1.5037e-19
-0.000298723 4.96924e-05 -1.12777e-19
-0.000181938 -8.51873e-05 2.58297e-19
9.19542e-05 -0.000391457 -2.48595e-19
9.10236e-05 0.000391247 1.03076e-19
0.000125523 0.000736102 -4.00178e-20
0.000122171 -0.000734283 -6.57261e-19
5.75662e-05 0.00123447 -1.03682e-19
0.00124435 8.63351e-05 6.36646e-20
0.000188943 2.86914e-05 -7.76102e-20
0.000186874 -2.37249e-05 -3.45608e-19
0.000674264 -0.000839978 -1.21569e-19
0.000820484 -0.00067121 -5.60855e-20
0.000300741 -0.000725817 -4.72937e-20
0.000298649 0.000720772 1.45519e-19
-0.000218787 -0.000128598 4.85064e-21
0.000201542 0.000109025 -8.60988e-20
0.000199785 -0.000106118 -3.54097e-19
0.00018749 0.000208605 -8.12482e-20
0.000185426 -0.000206924 -3.22567e-19
-7.98736e-06 -0.000592038 -2.26161e-19
-1.43164e-05 0.00054606 -4.12304e-20
0.000566643 -1.76402e-05 8.85242e-20
0.000143233 0.000143783 -6.18456e-20
0.000140394 -0.000141808 -3.39545e-19
-5.926e-05 0.000604025 -2.69817e-19
0.000596777 -4.35334e-05 8.24609e-20
0.000267351 -3.92745e-05 -3.29843e-19
0.00026795 4.39563e-05 -3.88051e-20
0.000254309 -8.44716e-05 -2.47383e-19
0.000254907 8.91597e-05 -4.48684e-20
0.00069926 0.000860237 1.08533e-19
0.000864077 0.000699934 2.13428e-19
0.000212727 0.000117051 -5.94203e-20
0.000211329 -0.000114401 -3.57735e-19
7.3483e-05 -0.000431581 -3.38332e-19
7.65365e-05 0.000431613 4.36557e-20
0.000189358 8.44132e-05 -2.874e-19
0.000193274 -7.44663e-05 -6.4271e-20
0.000295384 -0.00027919 -2.32831e-19
0.000292568 0.000279996 3.88051e-20
-0.000175286 -4.0817e-05 9.33748e-20
-0.000187036 4.56893e-05 -1.44306e-19
0.000273405 0.000527092 8.12482e-20
0.000403592 0.000406606 4.60811e-20
0.000276049 -0.000528595 -6.30583e-20
0.000407178 -0.000407263 -9.70128e-21
0.00029151 -0.000546556 -3.10441e-19
-0.000617116 -8.51726e-06 -2.06152e-20
-0.000615538 1.14811e-05 -5.49335e-19
0.000297635 0.00054871 1.16415e-19
0.000489957 -0.000202976 2.66785e-20
0.00128049 -0.000168532 1.64922e-19
0.00129498 0.000170449 4.85064e-20
0.000502333 0.000208023 3.88051e-20
0.000633483 1.4562e-05 3.03165e-20
0.000431377 -0.00011925 -2.18279e-20
0.000594869 0.000193384 5.09317e-20
0.000644294 -7.22139e-06 -1.87962e-19
0.000603864 -0.000194306 -1.16415e-19
0.000435951 0.000130763 -1.3218e-19
0.000461184 -0.000178964 -2.60722e-19
0.000466721 -0.00017724 -2.07365e-19
0.000455964 0.000181993 -1.33393e-20
0.000461489 0.000180272 4.85064e-21
-0.000102267 -0.000288698 -1.34605e-19
-4.1147e-05 0.000242179 -7.76102e-20
3.98346e-05 -0.000242641 -1.64922e-19
-0.0002184 -4.03525e-05 -2.74061e-19
-0.000272886 -7.03425e-05 -1.85537e-19
-4.73228e-05 0.000313967 -4.36557e-20
4.60599e-05 -0.000315047 -2.89826e-19
-0.000292901 7.32495e-05 -1.63709e-19
-9.38989e-05 0.00014714 -3.9654e-19
-0.000158997 -0.000353761 -2.21917e-19
-0.000153825 0.000374626 -1.8675e-19
0.000368156 -0.000159462 -5.82077e-20
0.000203466 0.000211467 -9.33748e-20
-0.000206165 -0.00021127 -3.88051e-20
-0.000101736 -0.000203589 -1.01863e-19
-3.30416e-05 -0.000194931 -2.03727e-19
2.29825e-05 0.000321161 -8.24609e-20
-2.45631e-05 -0.000322251 -5.21444e-20
0.000228826 3.35505e-05 6.0633e-20
-0.000122496 -0.000424611 -1.21266e-19
-0.000123335 0.000433161 -1.35818e-19
0.000435959 -0.000115777 -1.40669e-19
-0.000190004 -0.000191728 -1.51582e-19
-0.0002999 7.01709e-05 -8.48862e-21
-0.000216042 -0.000193087 -1.97664e-19
0.00011094 0.000284665 5.6995e-20
-0.00020692 3.8942e-05 -2.32831e-19
-0.000317736 -0.000647869 -1.67347e-19
-0.000180357 -9.05128e-05 -3.0074e-19
0.000649212 -0.000319188 -3.03165e-20
-1.05737e-05 0.000299684 -1.57646e-20
9.1301e-06 -0.000300691 -1.90388e-19
-0.000675615 0.000326876 -1.96451e-19
-0.000673938 -0.000339137 2.29193e-19
-0.000438444 0.000142929 -1.29755e-19
-0.000159225 -0.000125867 -9.09495e-20
-0.000288035 0.000138871 2.15853e-19
-0.000276379 -0.000136074 -1.63709e-19
-4.72445e-05 -9.63982e-05 -4.75363e-19
0.000170826 0.000204842 1.18841e-19
-0.000282408 0.000186456 6.18456e-20
-8.54612e-05 2.30306e-06 -4.69299e-19
-0.000185703 0.00019767 -1.03076e-19
-0.000103325 0.000286122 -8.48862e-20
3.23475e-05 0.000196152 1.33393e-20
-0.000286056 0.000186141 9.21621e-20
-0.000684278 -0.00068428 1.92813e-19
0.000692803 -0.000692862 -1.49157e-19
6.05373e-05 0.000157344 -1.95238e-19
0.000695315 -0.000735898 -1.14596e-19
-0.000746475 -0.000687284 8.12482e-20
0.000351988 -6.80147e-05 9.09495e-20
0.000351259 6.84181e-05 9.09495e-20
0.000163107 5.72337e-05 1.35818e-19
0.000329924 -0.000223276 5.21444e-20
0.000329169 0.000223857 2.66785e-20
0.000104468 0.000203521 5.57823e-20
-0.000285941 0.000528448 -9.45875e-20
-0.000286301 -0.000524827 2.42532e-20
0.000243148 -0.000141455 5.82077e-20
0.000242514 0.000141507 8.12482e-20
-0.00038473 0.000168473 -2.03727e-19
0.000319278 -0.000496246 -3.01952e-19
-0.000323045 0.000496636 -1.21266e-21
0.000169724 -0.000201661 9.70128e-21
-0.000334156 0.000628098 -3.15291e-19
-0.000649652 0.000343993 -3.10441e-19
2.52345e-05 0.00019464 1.81899e-20
-2.83224e-05 -0.000193827 -1.66134e-19
0.00068922 -0.000285532 4.85064e-20
0.000689283 0.000285557 1.45519e-20
3.68778e-05 -6.54945e-05 -2.18279e-19
0.000229627 0.000128554 4.48684e-20
0.000230258 -0.000124387 2.42532e-20
-0.000139435 -9.53751e-05 -7.63976e-20
-6.01529e-05 -0.00015426 -2.42532e-21
-0.000405697 -8.4104e-05 -3.65617e-19
0.000283954 6.31213e-05 2.42532e-20
-0.000351966 -4.99662e-05 -2.23736e-19
-0.000258475 -0.000215027 -1.63709e-19
-0.000296861 -0.000514112 3.15291e-20
-0.000297756 0.000515661 -1.35818e-19
-0.000312227 -0.000343142 -2.08577e-19
-0.000227761 0.000132686 3.63798e-20
0.000224785 -0.000119979 4.85064e-20
5.37208e-05 -0.000560806 -3.39545e-19
-5.51226e-05 0.000561816 3.51671e-20
-0.000266296 0.000236369 6.54836e-20
1.91643e-05 0.00025588 -7.76102e-20
-1.96717e-05 -0.000258031 -2.78912e-20
0.00016477 -5.82487e-05 8.97368e-20
0.000159107 5.47172e-05 1.10352e-19
0.000371618 0.000285218 -1.30967e-19
0.000200289 -0.000188403 -2.06152e-20
0.000198264 0.000190183 9.94381e-20
0.000221766 0.000121489 -1.21266e-21
0.000105246 -0.000284673 -2.42532e-20
0.000149836 -0.000135583 3.27418e-20
0.000144755 0.000133463 7.39722e-20
-0.000238383 0.000107974 -1.01863e-19
0.000125756 9.58328e-05 8.48862e-21
-0.000286727 -0.000196695 -1.5522e-19
-0.000102266 2.43975e-05 -1.22479e-19
-3.8144e-05 6.33307e-05 1.33393e-20
0.000299237 -5.24595e-05 -6.91216e-20
-0.000233563 0.000138719 1.07927e-19
-0.000246694 -0.000113255 -2.20704e-19
-0.00019199 -0.000232694 -2.76486e-19
-0.000219731 -0.000143905 -1.96451e-19
-4.94216e-06 -0.000265685 -5.3357e-20
2.39801e-06 0.000264591 -9.94381e-20
0.000366462 0.000158441 -8.67052e-20
-0.000139512 9.47323e-05 -2.54659e-20
0.000183876 -0.00029098 -7.15469e-20
0.000181189 0.000290827 1.16415e-19
-0.000227103 0.000132722 1.45519e-20
-9.27838e-05 0.000146044 -4.1958e-19
-9.51179e-05 -0.000155753 -2.8255e-19
-5.8552e-05 -0.000270114 -1.15203e-19
-0.000213132 0.000201372 3.03165e-20
2.74728e-05 -0.000375977 -1.04895e-19
5.01105e-05 0.00038274 -8.97368e-20
0.000388135 2.18984e-05 -1.15203e-19
0.000386431 -0.000279872 -8.12482e-20
0.00025645 0.000176632 7.27596e-21
-0.000384575 0.000666276 -5.94203e-20
0.000384322 -0.000665668 -7.15469e-20
0.000289153 6.01639e-05 -8.60988e-20
4.48265e-05 0.000154752 4.48684e-20
0.000170236 -6.22441e-05 1.46732e-19
-5.52695e-05 0.000272149 -1.04289e-19
8.08424e-05 -0.000160809 -2.77699e-19
-8.19284e-05 0.000158241 7.27596e-21
0.000128126 -9.69242e-05 -6.0633e-21
9.33247e-05 -2.06349e-05 6.0633e-20
-4.60782e-05 -0.000147989 -1.7341e-19
7.81228e-05 3.22838e-06 1.1399e-19
0.000256055 -0.000185411 -4.24431e-20
-9.88199e-05 -2.72099e-05 -6.54836e-20
0.000257033 -0.000195759 6.0633e-21
-0.000299329 0.000365084 -1.03076e-19
-0.000158101 0.000120188 1.81899e-20
0.000101658 -0.000418222 -9.88318e-20
0.000105807 0.000412654 1.39456e-20
0.000430338 0.000107934 -1.30967e-19
0.000257765 0.000197606 8.12482e-20
4.80729e-07 0.000303071 -6.30583e-20
-3.01379e-06 -0.000304419 -6.66963e-20
0.000204345 -0.00036625 -2.30405e-20
0.000203791 0.000375436 -2.91038e-20
2.66916e-05 -8.14577e-05 6.18456e-20
2.86691e-05 8.04691e-05 9.82254e-20
0.000147027 0.000110043 4.48684e-20
9.93511e-05 0.000143485 -2.2798e-19
-0.000219283 -0.000130378 -2.91038e-20
-0.000435037 -0.000334586 -3.20748e-19
5.36813e-05 0.000281979 4.60811e-20
0.000273988 0.000140807 7.63976e-20
0.000274834 -0.000140509 1.45519e-20
0.000237747 0.000155285 9.09495e-20
0.000229956 -0.000127844 -4.24431e-20
0.000229664 0.000128134 3.63798e-20
-0.00011138 -0.00125721 -2.07365e-19
0.00124824 -0.000189481 -1.41881e-19
5.40948e-05 -0.000277383 -1.07927e-19
0.000439097 -0.00039965 -1.16415e-19
0.000438538 0.000400945 5.21444e-20
-0.00054118 -3.19544e-05 -4.42621e-19
-1.81514e-05 0.000237136 -1.44306e-19
1.59495e-05 -0.000240713 -2.54659e-20
-0.000196568 0.000286827 -3.75924e-20
8.62126e-05 2.61305e-05 -6.54836e-20
-3.78382e-05 -7.42022e-05 -1.6856e-19
-0.000210124 0.000166629 -1.21266e-21
0.000207356 -0.000169097 -3.38332e-19
0.000146325 -0.000107706 -2.42532e-20
-0.000161557 -0.000109581 -9.94381e-20
0.000238145 -0.000154508 -8.48862e-21
-0.000281709 -0.000176713 -2.07365e-19
0.000271522 -6.763e-05 2.66785e-20
3.88861e-05 7.03202e-05 1.81899e-20
-9.69372e-05 0.000197922 -1.09139e-19
-5.67206e-05 -0.00027529 -8.73115e-20
0.00020967 0.000131037 8.12482e-20
5.56951e-05 0.000277075 -3.39545e-20
-9.85618e-05 -0.000140802 -5.94203e-20
-0.000334026 0.000630024 -2.42532e-19
-0.000611135 0.000347792 -1.23994e-19
0.00022907 -4.27219e-05 1.16415e-19
0.000210238 -0.000130693 -5.45697e-20
0.000715165 -0.000347996 -5.09317e-20
0.000715486 0.000348642 5.6995e-20
4.50249e-05 -0.000157173 -7.27596e-21
-0.000391694 0.000267405 2.06152e-20
-0.000384014 -0.00027367 -9.33748e-20
-0.000164361 -7.1812e-05 -4.1958e-19
-3.86724e-05 6.10789e-05 -1.18841e-19
0.000353928 -0.000437426 -1.75836e-20
-0.00042404 -0.000334072 -1.62496e-19
0.000360664 -0.000517065 -4.72937e-20
0.000332781 0.000487927 7.88229e-21
0.000534951 0.000311569 -1.88569e-19
3.29122e-05 -6.0909e-05 -5.94203e-20
-1.6316e-05 -0.000556285 -1.58858e-19
0.000567583 -3.72191e-05 -1.59465e-19
0.000304227 0.000417702 -1.57646e-20
-0.000306756 -0.000417128 -1.41881e-19
-0.000190902 -0.000150668 -5.57823e-20
-8.23301e-05 6.08826e-06 -5.02041e-19
0.000195494 0.000304584 6.18456e-20
0.000198111 -0.000302945 -9.82254e-20
-0.000187528 5.46492e-05 -3.72286e-19
9.94108e-05 -0.000199618 -1.57646e-20
0.000299234 -0.000234817 -9.70128e-20
0.000298126 0.000235465 2.91038e-20
-0.000229856 -0.000120919 -7.88229e-20
-0.000160807 0.000107507 -8.00355e-20
-0.000184544 -8.55727e-05 -2.49808e-19
-0.000350424 -0.000191969 -2.94676e-19
-4.70451e-05 0.000158475 -1.34605e-19
-0.000716528 0.000716537 1.67044e-19
-5.20429e-05 0.000280632 -6.54836e-20
5.03926e-05 -0.000285609 -5.57823e-20
5.35329e-05 -0.00056105 -2.74061e-19
-5.52563e-05 0.000561642 3.15291e-20
7.88931e-05 -0.000149935 3.75924e-20
7.82847e-05 0.000144605 5.21444e-20
-0.000272174 0.000143397 7.39722e-20
-0.000270085 -0.000138641 -6.54836e-20
-0.00047527 -8.79062e-05 1.45519e-20
-0.000468729 8.98396e-05 -6.0633e-21
0.000635395 -0.000352665 -1.03076e-19
0.000635081 0.000353348 5.6995e-20
0.000171424 8.95465e-06 3.15291e-20
0.000168524 -4.24517e-06 8.60988e-20
0.000247348 -0.000116671 -2.30405e-20
-1.6585e-05 0.000247915 -1.12777e-19
0.000213259 0.000159705 1.28542e-19
1.48706e-05 -0.000247012 -2.30405e-20
-0.00039152 0.000268653 3.63798e-20
0.000245821 0.000117502 3.15291e-20
-2.96186e-05 -0.000262422 -8.73115e-20
-0.000172212 -3.35683e-06 5.82077e-20
-0.000173078 1.80892e-06 -1.27329e-19
-0.000181565 0.000157046 -3.15291e-20
0.000312181 0.000540727 1.67347e-19
-0.00031254 -0.000541468 -1.51582e-19
-5.92874e-05 -0.000189373 2.06152e-20
-0.000231019 -0.000136586 -8.60988e-20
-3.28171e-05 -0.00030293 -2.59509e-19
0.000214563 -0.00015773 1.21266e-20
0.00034804 0.000649518 1.08836e-19
0.000624958 0.000307684 -6.88184e-20
4.95818e-05 -0.000186339 2.42532e-20
4.6407e-05 0.000181135 4.85064e-20
-4.28009e-05 0.000317679 -1.81899e-19
2.58169e-05 0.000254808 1.21266e-20
0.000301045 -0.000158587 -1.69772e-20
0.00025054 -8.2116e-05 3.27418e-20
0.000249953 8.22668e-05 6.79089e-20
-0.000619208 3.9431e-08 -1.67347e-19
-0.000620125 -3.8904e-08 3.52884e-19
4.68491e-05 -0.000146581 -2.30405e-20
-0.000236927 -0.000141447 -1.62496e-19
0.000197526 0.0002222 8.48862e-20
0.000199536 -0.000221506 -2.06152e-20
6.22092e-05 0.00018127 -1.80686e-19
2.77568e-05 4.99157e-05 -2.00089e-19
0.000698013 0.000698015 1.57646e-19
-0.000205177 -7.0258e-05 7.15469e-20
-0.000204883 6.58559e-05 -1.28542e-19
-4.90759e-05 0.000145704 -1.7341e-19
0.000300817 0.000158825 2.42532e-21
-0.000232346 0.000116971 5.57823e-20
-0.000299849 3.91054e-05 8.48862e-20
-0.000299568 -3.9115e-05 6.0633e-21
-0.00018139 8.61497e-05 -1.80686e-19
9.11024e-05 -0.000392732 -2.78912e-20
8.92607e-05 0.000394153 5.82077e-20
0.000121455 0.000734414 6.66963e-20
-0.000123051 -0.000733925 -1.22479e-19
-9.56267e-05 0.00125814 -2.36469e-20
-0.0012594 6.94852e-05 2.73758e-19
0.00018782 2.65006e-05 6.66963e-20
0.000186741 -2.69545e-05 2.30405e-20
-2.13701e-05 -5.32933e-05 -2.42532e-21
0.000683082 0.000863419 2.08881e-19
0.00085051 0.000674228 2.42532e-20
0.000300605 0.000725576 -3.63798e-20
0.000300318 -0.000724898 1.21266e-21
-0.000218318 0.000128937 3.27418e-20
0.000187312 -0.000204275 -1.81899e-20
0.000200584 0.000107933 3.39545e-20
0.000201057 -0.000107869 -1.81899e-20
0.000140926 -0.000142582 -2.42532e-21
0.000185587 0.000207431 1.5037e-19
-8.1723e-06 -0.000566542 -1.42488e-19
5.40697e-06 0.000575237 -2.36469e-20
0.000603729 -3.65391e-06 -1.21872e-19
0.000140983 0.000142937 4.72937e-20
2.41755e-05 0.000593616 -7.27596e-20
-0.000597093 -7.59385e-05 -3.54703e-19
0.000267783 -4.4135e-05 6.54836e-20
0.000267931 4.19811e-05 9.21621e-20
0.000255068 -8.75336e-05 1.18841e-19
0.000254693 8.78656e-05 6.0633e-20
-0.000704542 0.000875271 -1.97057e-19
-0.00086447 0.000704754 2.86491e-19
0.00021143 0.000115718 7.03343e-20
0.000211822 -0.000115499 -8.36735e-20
7.26666e-05 0.000431164 4.9719e-20
-7.4271e-05 -0.000430672 -1.37031e-19
0.000195871 7.88838e-05 1.04289e-19
0.000192189 -7.81116e-05 7.27596e-20
0.000294207 -0.000280629 -1.04289e-19
0.000293047 0.000281674 5.21444e-20
-0.000174319 4.09657e-05 1.21266e-21
-0.000178115 -4.28283e-05 -3.51671e-20
0.000273993 0.000531764 8.48862e-21
0.000406237 0.000409382 -2.42532e-21
0.000274921 -0.000529663 1.09139e-20
0.000406097 -0.00040827 -9.09495e-20
-0.000293424 -0.000546431 -1.70985e-19
-0.000616113 -1.00271e-05 2.44957e-19
-0.000615885 8.55397e-06 -1.41881e-19
0.000290964 0.000546231 1.94026e-20
0.000495848 0.000205402 1.72198e-19
0.00128962 0.000169679 7.03343e-20
0.000495355 -0.000205193 5.6995e-20
0.00128974 -0.000169689 7.03343e-20
0.000639265 -1.19878e-05 1.58858e-19
0.000434312 0.000123721 1.60071e-19
0.000599874 -0.000194388 1.21266e-20
0.000638845 1.23088e-05 1.20053e-19
0.000433702 -0.000123527 1.61284e-19
0.000599466 0.00019465 5.82077e-20
0.000459209 -0.000181441 9.70128e-20
0.000464656 -0.000179744 5.94203e-20
0.000458628 0.000182001 1.81899e-20
0.000464187 0.00018027 9.94381e-20
-0.000106333 -0.000293301 -1.12777e-19
-4.00013e-05 0.000242556 -4.72937e-20
4.21228e-05 -0.000241402 -9.33748e-20
-0.000218203 3.97896e-05 2.54659e-20
-0.000278851 7.24753e-05 -4.9719e-20
-4.62482e-05 0.000315192 -2.4617e-19
4.8351e-05 -0.000313803 -1.05501e-19
-0.00027905 -7.18465e-05 -7.63976e-20
-9.35796e-05 -0.000146815 1.5037e-19
-0.000157543 -0.000354079 -3.74712e-19
0.000160005 0.000362899 -9.70128e-20
0.000368556 0.000166868 -1.57646e-20
-0.000204268 -0.000210839 -2.14641e-19
0.000204521 0.000212373 2.25555e-19
-0.000224243 0.000134278 1.97664e-19
-9.93426e-05 -0.000201526 -8.97368e-20
-3.3866e-05 -0.000194338 -9.09495e-20
-2.2419e-05 -0.000321961 -1.916e-19
2.41986e-05 0.000322074 4.60811e-20
0.000227547 3.39682e-05 7.03343e-20
-0.000121309 -0.000426118 -3.28631e-19
0.000114878 0.000431969 -1.1399e-19
0.00044751 0.000118366 3.27418e-20
0.00010579 0.000289245 2.66785e-20
-0.000195427 -0.000196691 -1.66134e-19
-0.000205177 -4.20929e-05 -4.12304e-20
-0.000306931 -0.000635825 -2.77699e-19
-0.000181289 9.11518e-05 1.09139e-19
-9.10991e-06 0.000300758 -8.00355e-20
1.22524e-05 -0.000299772 -1.66134e-19
-0.0006756 -0.000327464 -6.4271e-20
-0.000674006 0.000339229 1.61284e-19
-0.000146656 0.000198295 1.21266e-20
-0.000177425 0.000209995 -7.27596e-20
-0.000409034 0.000131921 -3.63798e-21
-0.000288522 -0.000139808 7.63976e-20
-0.000276193 0.000135336 2.42532e-19
-4.73569e-05 9.70773e-05 2.43745e-19
-8.52017e-05 -2.97464e-06 2.47383e-19
-0.000294276 0.000192208 1.79474e-19
-0.000339773 -5.33838e-05 -9.45875e-20
-0.000310019 6.22601e-05 -6.0633e-21
3.06552e-05 0.000196359 -2.97102e-19
-9.67038e-05 0.000291529 -2.18279e-19
0.000176691 0.000205799 -4.48684e-20
-0.000688491 -0.000688466 -4.85064e-20
-0.000677902 0.000677871 -9.58001e-20
6.10879e-05 0.000158017 1.21266e-19
0.000102292 0.000204385 -1.21266e-19
-0.000679878 0.000739413 -1.81899e-21
-0.000717264 -0.000689856 -2.89826e-19
0.000350606 -6.96633e-05 -3.75924e-20
0.000352789 6.4698e-05 -4.85064e-21
0.000166204 5.66892e-05 7.15469e-20
0.00032885 -0.000222788 -1.33393e-20
0.000330453 0.000221767 1.21266e-20
-0.000286146 -0.000528941 5.82077e-20
-0.000286302 0.000525 -5.57823e-20
0.000243291 -0.000142096 -1.00651e-19
0.000242738 0.000139439 -5.09317e-20
-0.000319927 0.000496695 -7.63976e-20
0.000326445 -0.000497751 1.21266e-21
0.000169338 -0.000202171 -9.94381e-20
0.000333025 0.00062925 -1.01257e-19
0.000632111 0.00033313 -6.48773e-20
2.58716e-05 0.000195354 -1.95238e-19
-2.61235e-05 -0.000192526 -1.00651e-19
0.00068418 -0.000283399 -3.15291e-20
0.000692552 0.000286816 -1.1399e-19
-0.000280977 -0.000195259 -1.47944e-19
3.69437e-05 -6.18091e-05 -4.48684e-20
0.000230033 0.000124729 -6.66963e-20
0.000230673 -0.000125565 -1.21266e-21
-0.000141445 -9.63261e-05 3.75924e-20
-5.79954e-05 -0.000153719 -1.90388e-19
-0.000258062 0.000215299 1.66134e-19
-0.000394507 -8.9308e-05 -5.3357e-20
-0.000296935 0.000514212 -6.4271e-20
-0.000297975 -0.000516138 -8.60988e-20
-0.000222109 -0.000136941 -1.18841e-19
0.000222551 0.000118378 -7.27596e-21
-0.000315665 -0.00034314 -3.20142e-19
5.63111e-05 -0.00056346 -6.79089e-20
-5.4006e-05 0.000561361 -2.2798e-19
-0.000266965 -0.000236507 1.33393e-20
2.03779e-05 0.000257677 -2.18279e-20
-1.75057e-05 -0.000257433 -1.27329e-19
0.000162556 5.42245e-05 1.94026e-20
0.000165946 -6.00402e-05 8.48862e-20
0.00037279 -0.000280148 -1.16415e-19
0.000280096 6.03502e-05 9.82254e-20
0.000201009 -0.000188394 1.57646e-20
0.00019956 0.00018755 -2.54659e-20
0.000226684 -0.000122319 2.42532e-21
0.000106106 -0.000283586 -1.66134e-19
0.000151401 -0.000136324 2.42532e-21
0.000146673 0.000131769 -2.54659e-20
-0.00024023 -0.000107309 8.12482e-20
-0.000252581 0.000198731 1.1399e-19
0.000123063 9.52169e-05 -2.52233e-19
-0.00010519 2.55261e-05 -1.45519e-20
-3.87826e-05 6.57259e-05 -2.57084e-19
0.00030008 4.98096e-05 7.63976e-20
-0.000423922 0.000412861 -3.57735e-20
-0.000234068 -0.000139763 1.21266e-19
-0.000242016 0.000114699 1.17628e-19
-0.000576366 9.41833e-05 -4.85064e-21
-0.00022439 0.000136961 1.83112e-19
-3.33239e-06 -0.000264798 -8.60988e-20
4.97918e-06 0.000265677 6.0633e-21
-0.000199191 -0.00023671 -2.49808e-19
0.000368149 -0.000158651 -7.15469e-20
-0.000139817 0.000104223 1.09139e-20
0.000182874 -0.000287269 -1.06714e-19
-0.000192075 0.000309777 -1.81899e-20
-0.000230349 -0.000136298 7.27596e-21
-9.29177e-05 -0.000146165 1.72198e-19
-9.49704e-05 0.000156108 2.19491e-19
-5.71934e-05 -0.000272021 -1.44306e-19
5.32329e-05 0.000278375 -7.27596e-21
3.32108e-05 -0.0003757 -1.09746e-19
-4.95829e-05 0.000386804 1.09139e-20
0.00039211 -4.26882e-05 3.57735e-20
0.000260636 -0.000174326 -2.30405e-20
0.000385554 -0.000667861 -1.29755e-19
-0.000384591 0.000666198 -6.4271e-20
-0.000276193 -0.000166589 -1.5037e-19
0.000290238 -6.41144e-05 -4.60811e-20
-0.000438624 -0.000347796 -2.22523e-19
4.31181e-05 0.000155669 -2.31618e-19
0.000170406 -6.33619e-05 8.12482e-20
8.06236e-05 -0.000156493 3.63798e-21
-8.26361e-05 0.000160796 -2.02514e-19
0.000259746 0.000366088 -1.89175e-19
0.000386348 0.000259973 -1.57646e-19
0.00012958 -9.82219e-05 -1.10352e-19
-0.000552939 -2.49283e-05 -1.1399e-19
9.04281e-05 -2.23032e-05 -2.6921e-19
-4.41056e-05 -0.000158394 -4.48684e-20
7.90108e-05 2.01506e-06 1.09139e-20
-9.15502e-05 -2.3606e-05 3.88051e-20
-0.000209503 -0.000199889 -4.72937e-20
0.000102903 -0.000415383 -5.21444e-20
-9.84403e-05 0.000414623 -4.48684e-20
0.000424751 -0.000111564 -1.33393e-20
0.000261588 -0.0002009 -3.63798e-21
3.1449e-06 0.000302554 8.85242e-20
-1.38414e-06 -0.000303907 -6.0633e-20
0.000209054 -0.000376659 -1.06714e-19
-0.000198536 0.000396488 1.45519e-20
2.94382e-05 7.71923e-05 4.85064e-21
2.81263e-05 -8.19402e-05 3.63798e-21
0.000147033 0.000111253 -1.98876e-19
0.000100115 0.000144439 1.01863e-19
-0.000215387 0.000132131 1.84324e-19
0.000275157 0.000138635 -3.27418e-20
0.000274535 -0.000141174 -1.69772e-20
0.000230392 -0.000128778 -8.97368e-20
0.000229912 0.00012615 -8.73115e-20
-0.00013353 -0.00124344 -9.51938e-20
0.00018273 0.000285594 -1.03076e-19
-0.00128081 0.000150046 -3.12866e-19
-0.00016195 -0.000120545 -1.21266e-21
5.59732e-05 -0.000276443 -1.29755e-19
-4.81101e-05 0.000284936 -1.41881e-19
0.000436596 -0.000396898 -6.79089e-20
0.000440838 0.000399584 -7.27596e-21
0.000239269 0.000154319 -1.23691e-19
0.000280629 -6.97219e-05 3.15291e-20
0.00026079 0.000181092 -1.11565e-19
-1.69734e-05 0.000238934 -7.51849e-20
1.76681e-05 -0.00024033 -1.44306e-19
8.81456e-05 2.34188e-05 -9.82254e-20
0.00023882 -0.000155505 1.45519e-20
-4.27981e-05 -7.11605e-05 -2.91038e-20
-0.000207814 0.000168993 -1.46732e-19
0.000212627 -0.000165131 -3.15291e-20
0.000147255 -0.000108692 -1.04289e-19
-0.000164291 -0.000111783 -1.45519e-20
3.37298e-05 7.22909e-05 -2.60722e-19
5.45645e-05 0.000274691 6.66963e-20
-5.64848e-05 -0.000274023 -2.54659e-20
0.000209956 0.000129045 -1.23691e-19
0.000261954 0.000198258 -1.46732e-19
-9.23983e-05 0.00020047 -2.01301e-19
-9.56193e-05 -0.000140539 -1.62496e-19
0.000335332 0.000608026 -2.06152e-20
0.000617014 0.000334545 -2.48595e-20
-0.000383455 0.000286786 7.51849e-20
0.000210862 -0.000131601 -2.91038e-20
0.000229789 -4.20732e-05 4.72937e-20
0.000717984 0.00034803 -1.29755e-19
0.000710145 -0.000345903 -8.97368e-20
4.67611e-05 -0.000157768 -1.01863e-19
-0.000391943 -0.00026804 7.76102e-20
-0.000384575 0.00027388 1.09139e-19
-0.000163006 6.97786e-05 9.82254e-20
-4.09042e-05 6.12827e-05 -4.36557e-20
-0.000322864 0.000430726 -5.3357e-20
-0.000405313 -0.000346469 -2.03727e-19
0.000347188 -0.000497117 -3.81988e-20
-0.000315674 0.00051543 5.6995e-20
0.000520064 -0.00030327 -1.04289e-19
-0.000354285 -0.000191826 -1.40669e-19
3.60749e-05 -6.16166e-05 -9.33748e-20
-4.24663e-05 -0.000556213 -2.62541e-19
-0.000526447 4.68157e-06 -2.01301e-19
0.000305153 0.00041836 1.75836e-19
-0.00030517 -0.000417339 -1.5037e-19
-0.000188688 0.000149227 2.6436e-19
-8.26588e-05 -6.04858e-06 3.01952e-19
-0.000187981 0.000306724 -2.42532e-20
0.000198829 -0.000300725 -1.12777e-19
-0.000188029 -5.57143e-05 9.58001e-20
0.000100338 -0.000199576 -1.7341e-19
0.000298525 -0.000234191 1.09139e-20
0.000299724 0.000233273 5.3357e-20
-0.000231045 0.000121583 3.0559e-19
-0.00014384 0.000106117 -6.30583e-20
-0.00018551 8.6172e-05 1.24904e-19
-4.26171e-05 0.000172753 -1.57646e-19
0.000712402 0.000712432 4.85064e-20
5.2091e-05 -0.00028507 -1.28542e-19
-4.83504e-05 0.000284416 -5.6995e-20
-5.36441e-05 0.00056183 -2.35256e-19
5.70617e-05 -0.000562487 -1.85537e-19
8.06296e-05 -0.000150534 3.88051e-20
7.98648e-05 0.000142937 -3.51671e-20
-0.00027382 -0.000144002 1.72198e-19
-0.000267991 0.000138682 2.75274e-19
-0.000475291 8.64182e-05 1.20053e-19
-0.000469042 -8.85984e-05 2.43745e-19
0.000630454 -0.00035057 -1.06714e-19
0.000639436 0.000352628 -9.09495e-20
0.000172535 6.41218e-06 -9.33748e-20
0.000164184 -6.2268e-06 -2.63147e-19
0.000247972 0.000114483 -1.94026e-20
-1.51474e-05 0.000251109 -1.66134e-19
1.66083e-05 -0.000246519 -1.30967e-19
0.000246395 -0.00011922 -9.70128e-21
-2.74003e-05 -0.000260213 -8.12482e-20
2.69096e-05 0.00025815 -9.82254e-20
0.000214481 0.000159004 -1.17628e-19
-0.000173149 2.42881e-07 -2.06152e-20
-0.000174907 -2.0082e-06 1.05501e-19
0.00021432 -0.000159786 4.48684e-20
-0.000183319 -0.0001582 1.5037e-19
0.000312543 0.000541472 1.34605e-19
-0.000312589 -0.000541482 -7.03343e-20
-5.7118e-05 -0.000189302 -1.74623e-19
-0.000230108 0.000134627 3.52884e-19
-3.27654e-05 0.000303068 2.18279e-20
0.000362108 -0.00063876 -1.12171e-20
0.000628679 -0.000299132 -1.09139e-20
5.20214e-05 -0.000186062 3.88051e-20
4.75331e-05 0.000180971 -9.94381e-20
-4.28665e-05 -0.000318035 5.94203e-20
0.000303258 0.000157935 1.45519e-20
0.00025057 -8.36438e-05 -4.00178e-20
0.000250228 7.98514e-05 -6.54836e-20
-0.000619083 -6.18872e-08 -1.58858e-19
-0.000620167 2.45088e-08 2.30405e-19
4.86771e-05 -0.000146643 -1.40669e-19
-0.000231792 0.000135934 2.58297e-19
0.000198757 0.000220052 -6.79089e-20
0.000200278 -0.000221056 1.21266e-20
6.30771e-05 0.000183031 -8.85242e-20
3.23548e-05 5.26907e-05 -4.85064e-20
0.000691568 -0.000691556 1.98573e-19
-0.000208821 6.89923e-05 1.1399e-19
-0.00020499 -6.459e-05 1.44306e-19
-4.71608e-05 0.000149525 -1.16415e-19
0.000296422 -0.000159781 -2.42532e-21
-0.000232581 -0.000116714 1.60071e-19
-0.000303427 -3.2463e-05 1.8675e-19
-0.00029815 5.01352e-05 1.5522e-19
-0.000181929 -8.52288e-05 1.21266e-19
9.01125e-05 0.000392659 -6.91216e-20
9.30545e-05 -0.000389991 1.05501e-19
0.000122506 0.000734458 4.48684e-20
-0.000121011 -0.000736052 -1.63709e-19
5.70971e-05 0.00123389 -1.2551e-19
0.00124427 8.57185e-05 -1.26117e-19
0.000187451 -2.91384e-05 -9.45875e-20
0.000186914 2.38815e-05 -2.15853e-19
-1.91703e-05 -5.38681e-05 -1.49157e-19
0.000674622 -0.000841194 1.39153e-19
0.000820532 -0.000671677 8.2764e-20
0.000301119 0.000726729 -2.49808e-19
0.000298349 -0.00072006 6.30583e-20
-0.000218566 -0.000128807 7.88229e-20
0.000187922 -0.000204927 -4.36557e-20
0.000201605 -0.000109129 -8.00355e-20
0.000199797 0.000106073 -1.79474e-19
0.000141825 -0.000143761 -7.39722e-20
0.000185976 0.000207421 -1.06714e-19
-1.49315e-05 0.000545824 9.58001e-20
-7.19096e-06 -0.000593222 -1.14596e-19
0.000566849 -1.86307e-05 -4.18368e-20
0.0001411 0.000141684 -1.60071e-19
-5.96936e-05 0.00060355 -7.03343e-20
0.000596619 -4.42085e-05 -1.49763e-19
0.000267527 -4.6111e-05 -3.51671e-20
0.000267233 3.94081e-05 -1.35818e-19
0.000254984 -8.89247e-05 -2.30405e-20
0.000254204 8.45487e-05 -8.12482e-20
0.000698771 0.000859709 5.5176e-20
0.000863849 0.000699487 -6.0633e-20
0.000211625 0.000114561 -1.84324e-19
0.000212426 -0.000116799 -9.09495e-20
7.38277e-05 0.000431813 5.21444e-20
-7.19228e-05 -0.000430912 -1.45519e-19
0.000196591 7.52277e-05 -9.21621e-20
0.000189226 -8.43332e-05 -2.53446e-19
0.000293579 -0.000279303 1.81899e-20
0.000294593 0.000279812 -1.45519e-20
-0.000175722 -4.15263e-05 9.45875e-20
-0.000186928 4.61488e-05 6.4271e-20
-0.000291814 -0.000546874 -1.3218e-19
-0.000615346 -9.64081e-06 -9.94381e-20
-0.000615819 1.08523e-05 2.6921e-19
0.000291891 0.00054683 1.8675e-19
0.00027531 0.000530618 -1.43094e-19
0.000407518 0.000408286 -1.21266e-21
0.000274336 -0.000525018 1.61284e-19
0.000403402 -0.00040557 4.36557e-20
0.000490313 0.000203128 -4.12304e-20
0.000502343 -0.000208026 -9.58001e-20
0.00129589 -0.000170568 -9.21621e-20
0.00128016 0.000168494 -1.79474e-19
0.000633737 -1.42532e-05 -5.94203e-20
0.000431776 0.000119462 -1.09139e-20
0.000644438 7.42048e-06 -7.76102e-20
0.000435893 -0.000130697 -2.04939e-19
0.000603986 0.000194602 -4.85064e-20
0.000595113 -0.000193125 -8.24609e-20
0.000456341 -0.000181507 -4.12304e-20
0.000461822 -0.0001798 -4.60811e-20
0.000461153 0.000179347 -3.75924e-20
0.000466652 0.000177635 -3.63798e-20
-3.86623e-05 0.000241114 -9.94381e-20
2.98761e-05 -0.000265781 2.91038e-20
-0.000216366 -4.22872e-05 -1.22479e-19
-0.000271108 -7.4575e-05 -1.47944e-19
-4.47495e-05 0.000311838 -2.01301e-19
2.70694e-05 -0.000298447 4.12304e-20
-0.000289547 6.95397e-05 -1.96451e-19
-9.00062e-05 0.000144798 -2.2798e-19
-0.000153326 0.000376394 -1.5037e-19
-0.000146607 -0.000367676 7.03343e-20
0.000375901 0.000151093 -1.06714e-19
0.000211652 -0.000198946 -4.00178e-20
0.000202697 0.000210231 -7.27596e-20
-0.000210841 -0.000142653 1.57646e-20
5.91349e-05 -0.000291663 2.30405e-20
2.42383e-05 0.000318676 2.30405e-20
0.000225927 -5.31415e-05 -6.4271e-20
-0.000100997 -0.000453886 3.03165e-20
-0.00012267 0.000435256 -2.54659e-19
0.000448422 0.000104377 1.74623e-19
-0.000300149 6.48759e-05 -2.04939e-19
0.000113981 0.00028303 -1.47944e-19
0.000142135 -0.000322597 -3.03165e-20
-0.000204174 3.53232e-05 -2.53446e-19
-0.000308344 -0.000668943 7.27596e-21
-0.000174669 -9.20622e-05 -2.91038e-20
0.00066789 0.000317059 -9.33748e-20
-8.47048e-06 0.000297741 -1.22479e-19
5.36121e-05 -0.000288129 2.30405e-20
-0.000672944 0.000327143 -9.70128e-20
-0.000654749 -0.000338881 -7.27596e-21
-0.000440256 0.000138445 -2.02514e-19
-0.000136002 -0.000201943 -2.18279e-20
-0.000264008 -0.000139852 3.15291e-20
-0.000284959 0.000138587 -9.33748e-20
-4.47563e-05 -9.77944e-05 -3.63798e-21
0.000176092 0.00020026 -1.78261e-19
0.000193828 -0.000253677 -5.3357e-20
-0.000282168 0.000184455 -1.75836e-19
-8.15033e-05 -1.10424e-06 -1.21266e-19
-0.000181357 -0.000216496 6.18456e-20
-0.000185652 0.000197204 -6.4271e-20
-7.99344e-05 -0.000299334 5.45697e-20
-0.000102544 0.000286446 -9.09495e-20
8.95273e-05 -0.000238853 2.54659e-20
3.31043e-05 0.000194945 -1.52795e-19
-0.000287945 0.000183956 -1.37031e-19
-0.000718495 -0.000718569 1.94026e-20
0.000713812 0.000713936 -1.37031e-19
7.62875e-05 -0.000147701 -6.30583e-20
6.08773e-05 0.000156519 -1.74623e-19
0.000716692 0.000762896 -1.36424e-19
-0.000751256 -0.000720153 -4.72937e-20
0.000345468 6.03955e-05 -1.33393e-19
0.000278069 -0.000151564 8.85242e-20
0.000161298 -7.64398e-05 -1.17628e-19
0.000323856 0.000212325 -2.51021e-19
0.00026479 -0.000245114 1.60071e-19
0.000107497 0.000201617 -9.21621e-20
0.000136368 -0.000250381 -6.18456e-20
-0.000274736 -0.000525033 1.70985e-19
-0.000282732 0.00053059 -1.70985e-19
0.000240026 0.000131215 -3.06803e-19
0.000219967 -0.000185024 1.01863e-19
-0.000388503 0.000163059 -1.6856e-19
-0.000315752 0.000491129 -4.46259e-19
-0.000140532 -0.000401414 -3.63798e-20
-0.000345177 0.000646009 -1.97057e-19
-0.000656731 0.000340743 -2.04333e-19
2.74853e-05 0.00019375 -1.62496e-19
7.2515e-05 -0.000235239 1.69772e-20
0.000675144 0.000279757 3.61373e-19
0.000531594 -0.000220076 -2.37681e-19
0.000228828 0.000111197 -2.34043e-19
0.000216238 -0.000153223 5.45697e-20
-0.000406851 -9.30436e-05 -1.64922e-19
0.000288181 -8.65251e-05 -1.45519e-20
-0.000346766 -5.48642e-05 -1.38243e-19
-0.000246585 -0.000216674 5.09317e-20
-0.000297322 0.000514801 -1.87962e-19
-0.000292638 -0.000506873 3.88051e-20
-0.000306304 -0.000356265 1.94026e-20
-0.000227347 0.000130519 -1.34605e-19
0.000225229 0.000108298 -1.24904e-19
4.53311e-06 -0.000436695 -5.57823e-20
-5.30153e-05 0.000555037 -2.30405e-19
-0.000263361 0.000235461 -1.95238e-19
5.73601e-05 -0.000261376 2.42532e-21
2.05169e-05 0.000254975 -1.46732e-19
0.000163064 4.28175e-05 -2.49808e-19
0.000149878 -6.92568e-05 -1.16415e-19
0.000390789 -0.000321433 1.57646e-19
0.000196082 0.000173183 -4.00178e-19
0.000172452 -0.000199058 8.97368e-20
0.000217792 -0.00015462 -3.27418e-20
0.000147668 0.000122493 -3.11654e-19
0.000133714 -0.00015801 3.39545e-20
-0.000236226 0.000105639 -2.89826e-19
0.000123198 9.13206e-05 -2.30405e-19
0.000148979 -0.000174704 -1.21266e-21
-0.000284272 -0.000201342 -5.45697e-20
4.43953e-05 -0.000153831 1.33393e-20
-3.63799e-05 6.40095e-05 -2.12215e-19
0.000303689 3.73357e-05 -1.33393e-20
-0.000231662 0.000137007 -1.84324e-19
-0.000240685 -0.000118374 -7.88229e-20
-0.000182677 -0.000245724 1.81899e-20
-0.00021123 -0.000152911 5.45697e-20
3.94269e-05 -0.000270696 2.30405e-20
4.46609e-06 0.000263313 -1.52795e-19
0.000385075 -0.000181294 1.05501e-19
-0.000138419 9.44567e-05 8.12482e-20
-0.000127605 -0.000110351 -7.39722e-20
0.000202821 -0.000328221 1.81899e-20
0.000186185 0.000284472 -2.13428e-19
-0.000224823 0.000130657 -1.92813e-19
-8.8106e-05 0.00014293 -1.30967e-19
-8.72909e-05 -0.000150541 -1.09139e-20
-0.000212381 0.00020081 -6.4271e-20
4.80503e-05 -0.000402156 3.51671e-20
5.27499e-05 0.000384275 -2.37681e-19
0.000398931 -3.81444e-05 2.60722e-20
0.000394287 0.000272318 -1.54008e-19
0.000271262 -0.000208761 2.30405e-20
-0.000309565 -0.000536305 -7.63976e-20
-0.000380398 0.000658836 -1.72198e-19
0.000295247 -8.25048e-05 2.42532e-20
4.62065e-05 0.000151486 -1.43094e-19
9.59984e-05 -0.000217375 -2.06152e-20
0.000168643 4.68961e-05 -1.28542e-19
-3.57463e-05 -0.000286957 1.45519e-20
-5.37497e-05 0.000272262 -1.97664e-19
-8.01167e-05 0.00015881 -2.12215e-19
2.28106e-05 -0.000200635 7.27596e-21
9.13159e-05 -2.32253e-05 -1.60071e-19
0.000129509 -0.000104808 4.24431e-20
7.59992e-05 -1.44525e-05 -3.0559e-19
0.000261582 0.00017499 -4.9719e-20
-8.09979e-05 1.78873e-05 -4.12304e-20
-9.793e-05 -2.68445e-05 2.06152e-19
0.000262729 0.000190219 -1.01863e-19
-0.000301506 0.000366668 -7.76102e-20
-0.000157264 0.000119513 1.09139e-20
0.000131206 -0.00044681 -6.97279e-20
0.000111361 0.000415758 -1.61284e-19
0.000445659 -0.00013338 6.0633e-21
0.000273369 -0.000242316 7.63976e-20
2.48397e-06 0.000303043 -2.15853e-19
3.6655e-05 -0.00032645 -9.70128e-21
0.00022565 -0.000410227 1.24904e-19
0.000212506 0.000363917 -2.65572e-19
2.73591e-05 6.5619e-05 -3.61373e-19
2.51454e-05 -9.39e-05 -1.62496e-19
0.000147158 0.000107331 -1.70985e-19
0.000166605 -0.000186477 7.27596e-21
0.000103271 -0.000138317 -4.12304e-20
9.91878e-05 0.000142843 -9.33748e-20
-0.00020201 -0.000139714 6.18456e-20
-0.000432131 -0.000353191 -9.76191e-20
8.04926e-05 -0.00031971 -3.63798e-20
5.7365e-05 0.00028037 -2.48595e-19
0.000269304 0.000130342 -3.26205e-19
0.000224781 -0.000184916 1.61284e-19
0.000237909 -0.000202555 5.45697e-20
0.000228151 0.00011895 -2.31618e-19
0.000214024 -0.000178841 7.27596e-20
-0.000133198 -0.00130381 1.0732e-19
0.00129384 0.00018769 3.21355e-19
0.000430175 0.000387164 -2.40107e-19
0.000337446 -0.000374698 1.23691e-19
0.000239036 0.000146906 -1.39456e-19
-0.000541583 -4.11927e-05 -1.55827e-19
5.47574e-06 -0.000235319 -2.18279e-20
-1.70736e-05 0.000236092 -1.35818e-19
-0.000196574 0.00028677 -6.54836e-20
-0.000204827 0.000166968 -3.03165e-19
-7.4017e-05 -0.000206974 -1.69772e-20
-0.000281022 -0.000191287 -8.36735e-20
0.000274889 5.30963e-05 -1.21266e-20
3.52029e-05 7.05093e-05 -1.96451e-19
9.73069e-05 -0.000158629 7.27596e-21
-7.72024e-05 -0.000205958 3.63798e-21
-9.6098e-05 0.000197532 -5.3357e-20
0.000209705 0.00012162 -2.15853e-19
0.000210961 -0.000179287 -1.09139e-20
5.89747e-05 0.000276451 -1.18841e-19
8.75689e-05 -0.000302473 -5.09317e-20
-0.00034738 0.000621175 -2.5284e-19
-0.000619041 0.000344462 -3.48033e-19
0.00022977 2.66186e-05 -7.76102e-20
0.000699262 0.000337821 3.08016e-19
0.000571396 -0.000315835 -2.47383e-19
-0.000389101 0.000267702 -1.38243e-19
-0.000369255 -0.000274396 4.36557e-20
-0.000159922 -7.48198e-05 -1.16415e-19
-3.00373e-05 -6.74643e-05 -3.39545e-20
-3.80662e-05 6.10405e-05 1.22479e-19
0.000354955 0.000442183 -2.40713e-19
-0.0004156 -0.000352418 -9.39811e-20
0.000366073 -0.000532666 1.09746e-19
0.000359416 0.000505674 -1.51582e-19
0.000556659 -0.000337206 1.64315e-19
-3.81717e-05 -0.000585053 8.06419e-20
0.000584727 2.89899e-05 9.03431e-20
0.000302224 0.000413985 -1.64922e-19
0.000292089 -0.000363536 -4.24431e-20
-0.000181748 -0.000154914 3.51671e-20
-7.89285e-05 2.00874e-06 -2.54659e-20
0.000217718 -0.000342545 -4.85064e-21
0.000205282 0.000302605 -1.47944e-19
-0.000184396 5.16629e-05 -2.38894e-19
0.000292006 0.0002243 -2.72848e-19
0.000236454 -0.000255718 2.24342e-19
-0.000221766 -0.000128271 1.05501e-19
-0.000159865 0.000107319 9.94381e-20
-0.000134057 -0.00011343 -4.48684e-20
-0.000175245 -9.13823e-05 -3.27418e-20
-0.000344442 -0.000205371 -1.3218e-19
-4.63317e-05 0.000158192 6.91216e-20
-2.70675e-05 -0.000170829 -1.45519e-20
-0.00071993 0.000719818 -2.6921e-19
-5.06828e-05 0.000280326 -2.77699e-19
-3.17906e-05 -0.000297213 -2.06152e-20
-5.24933e-05 0.000555714 -2.8255e-19
2.39868e-05 -0.000461915 1.09139e-20
7.56273e-05 0.000128941 -3.61373e-19
7.00075e-05 -0.00015187 -5.94203e-20
-0.000253797 -0.000144016 8.00355e-20
-0.00027026 0.000142781 -6.79089e-20
-0.000451989 8.06186e-05 2.30405e-20
-0.000472581 -8.72373e-05 -7.76102e-20
0.000624315 0.000342202 1.81899e-19
0.000461309 -0.000322304 -1.916e-19
0.000162834 -7.6275e-06 -2.91038e-19
0.000171697 -0.000113999 4.00178e-20
0.000249419 0.000104753 -8.12482e-20
8.39999e-06 -0.000255427 -2.42532e-20
-1.53792e-05 0.000247757 -1.95238e-19
0.000228636 -0.00020423 3.88051e-20
-0.000395637 0.000268199 -1.34605e-19
0.000249262 -0.0001494 -3.63798e-21
0.000217463 0.000149857 -1.3218e-19
-0.000170915 -3.13121e-06 1.00651e-19
-0.000161097 -5.35698e-06 2.78912e-20
-0.000178285 0.00015582 -2.25555e-19
0.000309249 0.000535844 5.3357e-20
0.000271482 -0.000470155 -8.00355e-20
-0.000221304 -0.000142217 8.73115e-20
-2.23116e-05 -0.00030401 6.4271e-20
0.000381112 -0.000675335 3.39545e-19
0.00065732 -0.000332853 2.01908e-19
4.17049e-05 0.00017107 -3.77137e-19
3.59173e-05 -0.000190953 5.09317e-20
-3.71963e-05 0.000317735 -1.97664e-19
7.30671e-05 -0.000291667 -4.48684e-20
2.80595e-05 0.000253408 -1.38243e-19
0.000305572 0.000148649 -1.69772e-20
0.000247063 7.52141e-05 -1.96451e-19
0.00022309 -0.000160121 9.58001e-20
-0.000600974 -2.53192e-08 -3.63798e-21
-0.000616462 -5.81151e-08 -2.66785e-20
-0.000228474 -0.000147455 5.82077e-20
0.000195241 0.000209999 -3.48033e-19
0.000171475 -0.000241682 2.12215e-19
6.25675e-05 0.000180736 -6.66963e-20
7.91699e-05 -0.000184079 -3.88051e-20
4.43217e-05 -5.87206e-05 -8.36735e-20
2.81048e-05 4.99264e-05 3.51671e-20
0.000725386 -0.000725272 3.18626e-19
-0.000191699 5.69491e-05 1.33393e-20
-0.000203687 -6.96469e-05 -3.51671e-20
-4.83855e-05 0.000145269 4.24431e-20
-3.10887e-05 -0.000150734 -6.91216e-20
0.000308423 -0.000193841 4.85064e-21
-0.000230509 0.00011641 -1.60071e-19
-0.000285862 -5.31058e-05 2.18279e-20
-0.000297785 3.9037e-05 -3.63798e-21
-0.000178104 8.33831e-05 -2.78912e-19
8.36947e-05 0.000379829 -4.24431e-19
7.19346e-05 -0.000369798 1.04289e-19
0.000121546 0.000726434 -9.45875e-20
0.000145999 -0.000597614 -7.63976e-20
-7.24968e-05 0.00128553 -5.56004e-19
-0.00127953 5.91288e-05 -1.2066e-19
0.000185852 2.13406e-05 -2.32831e-19
0.000188813 -0.00013019 5.21444e-20
0.000710722 -0.000882623 2.11306e-19
0.000884947 -0.000700445 5.02647e-19
0.000251462 -0.000606664 -1.69772e-20
0.000292863 0.000707016 -4.12304e-19
-0.000216744 0.000128152 -8.00355e-20
0.000198266 0.000100599 -2.20704e-19
0.00019574 -0.000174346 1.09139e-20
0.000187078 0.000202191 -1.6856e-19
0.000199408 -0.000254655 -2.91038e-20
5.1901e-06 -0.000630174 3.51671e-20
1.42058e-05 0.000550183 -1.67347e-19
0.0006278 -1.10008e-05 1.21872e-19
0.000141791 0.000136542 -2.31618e-19
0.000163594 -0.000202879 -5.3357e-20
6.1747e-05 0.000606882 -1.87962e-19
-0.000602863 -8.94032e-05 -1.40062e-19
0.000263141 3.62792e-05 -1.41881e-19
0.000231779 -0.000138487 2.00089e-19
0.000250672 7.94795e-05 -2.41319e-19
0.000224919 -0.00016228 1.64922e-19
-0.000708709 0.000868575 -3.87445e-19
-0.000876609 0.000707329 -2.44351e-19
0.000211051 0.000109773 -2.83762e-19
0.000210326 -0.000184814 -1.33393e-20
0.000110026 -0.000374137 -1.94026e-20
7.34476e-05 0.000427276 -1.8675e-19
0.000187314 -8.39945e-05 -2.61934e-19
0.000186724 -6.70654e-05 1.24904e-19
0.000287264 0.000267474 -3.91689e-19
0.000233742 -0.000280434 2.65572e-19
-0.000171414 -5.49248e-05 1.09139e-20
-0.000173092 4.08923e-05 -4.85064e-21
0.000281368 -0.000467589 -5.3357e-20
-0.000594568 -1.59759e-05 -8.48862e-21
-0.000612922 9.01482e-06 -6.4271e-20
0.000289097 0.000541071 -2.89826e-19
0.000266784 0.000516209 -3.63798e-19
0.000396807 0.00039588 -1.98876e-19
0.000218314 -0.000478781 1.63709e-19
0.000328067 -0.000377151 1.21266e-20
0.000491803 -0.000203609 1.3218e-19
0.00126342 -0.000166097 1.23934e-18
0.000994662 0.000131211 -3.54097e-19
0.000285462 0.00011834 1.94026e-20
0.000629709 5.52407e-06 4.85064e-21
0.000426682 -0.000128968 -2.34043e-19
0.000590004 0.000189202 3.37119e-19
0.00043866 -0.000113818 4.00178e-20
0.000426815 -0.000168721 -1.33393e-19
0.000327892 -4.04919e-05 1.38243e-19
0.000451208 0.000172289 -1.62496e-19
0.000455322 0.000171008 -2.01301e-19
0.000342545 -0.000219754 1.58858e-19
0.000355906 -0.000215589 -2.42532e-21
3.91503e-05 8.68431e-06 -1.33393e-20
3.26474e-05 1.91028e-05 -4.72937e-20
8.97251e-05 -2.126e-06 1.8675e-19
3.14625e-05 -4.43758e-06 5.45697e-20
3.18616e-05 -4.21794e-06 5.94203e-20
2.84252e-05 6.8171e-05 -4.85064e-20
9.42772e-05 -5.51216e-05 1.47944e-19
3.04217e-05 6.11076e-06 6.79089e-20
8.23555e-05 6.94293e-05 9.70128e-21
3.39937e-05 3.68535e-06 2.30405e-20
3.42632e-05 -3.32499e-06 -1.03076e-19
2.9346e-05 3.90635e-08 -1.35818e-19
0.000184073 -4.78979e-06 2.42532e-20
-1.85913e-05 -3.40088e-05 1.33393e-19
3.92379e-05 2.25639e-05 7.27596e-20
6.44212e-05 2.13575e-05 1.5037e-19
7.83615e-05 5.94604e-05 5.21444e-20
4.11378e-05 -7.05206e-05 1.5037e-19
2.45697e-05 2.30887e-06 8.24609e-20
3.56898e-05 3.92512e-07 7.27596e-20
3.58151e-05 -3.45015e-07 -9.94381e-20
2.76633e-05 1.12498e-06 -8.73115e-20
2.92353e-05 1.9644e-05 -2.78912e-20
2.31104e-05 2.89515e-06 3.63798e-21
1.26287e-05 1.87767e-05 2.78912e-20
3.11001e-05 5.07474e-06 -1.72198e-19
3.45147e-05 4.47772e-06 2.54659e-20
3.19448e-05 -1.10599e-07 8.85242e-20
3.96673e-05 -4.12875e-05 8.12482e-20
2.77211e-05 -8.76211e-07 -1.916e-19
6.79663e-05 5.28055e-05 -1.21266e-20
7.61934e-05 -4.80895e-05 1.33393e-19
-0.000346131 -0.000175984 1.69772e-20
-0.000346923 0.000166604 -7.27596e-21
2.73988e-05 6.43164e-07 1.69772e-20
1.69617e-05 2.39023e-05 5.45697e-20
-6.63603e-05 -2.11389e-05 1.45519e-20
-7.70347e-05 2.47693e-05 -2.42532e-20
0.000103678 -4.41142e-05 4.36557e-20
3.17769e-05 4.17258e-06 -1.96451e-19
2.20842e-05 -3.92873e-06 -1.94026e-20
8.64152e-05 -2.45388e-07 1.45519e-20
2.93365e-05 -1.89655e-05 -1.12777e-19
3.88835e-05 -8.71337e-06 -1.43094e-19
2.10052e-05 1.57952e-05 -1.84324e-19
2.75905e-05 -3.45372e-06 -1.01863e-19
3.90866e-05 -6.26306e-06 1.05501e-19
3.33554e-05 -1.26769e-05 -1.1399e-19
0.000107159 -3.39224e-05 -6.0633e-21
3.40325e-05 -1.23993e-06 -1.5522e-19
2.63254e-05 -6.87872e-06 1.15203e-19
5.33998e-05 -2.89389e-06 -2.42532e-20
5.34272e-05 2.86897e-06 -4.60811e-20
1.74578e-05 4.94217e-06 1.33393e-19
5.00388e-05 -2.65434e-05 4.60811e-20
5.00599e-05 2.65632e-05 -3.39545e-20
3.14405e-05 9.34533e-06 -1.26117e-19
-8.96699e-05 -0.000329999 8.60988e-20
-9.00808e-05 0.000331188 2.91038e-20
3.66728e-05 -1.21557e-05 9.70128e-21
3.66473e-05 1.21526e-05 -1.30967e-19
2.75098e-05 6.9596e-07 3.63798e-21
0.000253481 -0.00017169 8.97368e-20
-6.12593e-05 0.000141467 -1.47944e-19
3.17725e-05 -4.16279e-06 2.42532e-21
3.21625e-05 -3.72378e-07 -4.9719e-20
2.6713e-05 1.22386e-06 1.57646e-20
3.35434e-05 1.84611e-05 -5.57823e-20
5.87845e-05 2.00387e-05 2.12215e-19
0.000102163 -4.23207e-05 -2.42532e-21
0.000102237 4.23513e-05 -4.85064e-21
9.8134e-05 8.37622e-05 1.77048e-19
3.04538e-05 -1.09585e-05 -4.01235e-36
3.03663e-05 1.13237e-05 -6.30583e-20
3.06401e-06 5.16371e-05 4.24431e-20
1.35837e-05 -2.14493e-05 1.09139e-19
2.75654e-05 -5.11373e-07 7.51849e-20
2.46539e-05 -2.36104e-06 5.94203e-20
-4.75137e-05 -0.000104276 9.82254e-20
-0.000152343 0.000263807 -4.36557e-20
-0.000153293 -0.000265454 8.36735e-20
2.8146e-05 4.09051e-06 3.15291e-20
1.53206e-05 2.72587e-06 0
2.434e-05 6.20938e-06 -1.94026e-20
3.95786e-05 0.00016601 -9.70128e-21
7.58742e-05 -0.000214863 5.09317e-20
-5.64278e-05 0.000117221 2.30405e-20
7.54703e-05 9.9649e-06 2.91038e-20
4.49583e-05 -2.03811e-05 1.6856e-19
1.94166e-05 -6.52496e-06 1.1399e-19
1.90687e-05 6.03042e-06 1.35818e-19
2.96105e-05 -1.89643e-06 -7.03343e-20
2.46761e-05 2.36216e-06 4.60811e-20
2.7559e-05 -2.2378e-05 8.24609e-20
2.74529e-05 2.26021e-05 4.85064e-21
2.46915e-05 -6.26987e-06 -4.85064e-21
3.12039e-05 -4.89487e-06 1.33393e-19
1.82555e-05 -1.2613e-05 1.04289e-19
1.77666e-05 1.23878e-05 2.42532e-20
2.38912e-05 2.7782e-05 3.03165e-20
2.80653e-05 1.29836e-07 -2.74061e-19
2.41849e-05 6.04912e-06 6.0633e-20
2.49521e-05 0.000122135 2.42532e-20
1.26429e-05 3.72752e-08 -2.42532e-19
2.7314e-05 9.68749e-07 -1.69772e-20
-1.61286e-05 2.90495e-05 3.15291e-20
2.37481e-05 -2.43105e-05 7.88229e-20
2.84953e-05 4.41138e-06 5.94203e-20
1.41729e-05 -1.83937e-06 4.48684e-20
4.95821e-05 -2.27845e-05 1.77048e-19
4.53228e-05 2.56285e-05 2.78912e-20
2.95426e-05 -1.18637e-07 -1.26117e-19
2.7725e-06 -5.25299e-05 -2.78912e-20
3.14708e-05 -2.26562e-06 4.85064e-21
3.15231e-05 2.05697e-06 -1.45519e-19
1.23982e-05 2.56577e-06 3.51671e-20
6.80125e-05 8.35304e-05 -2.42532e-21
6.95786e-05 -8.63926e-05 5.3357e-20
3.91158e-05 8.66966e-06 6.54836e-20
1.12233e-05 -1.65206e-05 -4.85064e-20
3.43403e-05 -4.51107e-08 1.18841e-19
3.45259e-05 2.97606e-08 -9.58001e-20
2.71999e-05 -6.97934e-08 -1.28542e-19
2.96198e-05 1.73763e-06 -1.62496e-19
3.02336e-05 -2.48437e-06 -1.06714e-19
-0.000126224 0.000218565 -4.12304e-20
0.000134749 -0.000233546 7.27596e-20
2.7235e-05 -1.27289e-06 -5.82077e-20
2.46283e-05 3.77325e-06 -2.23129e-19
1.78169e-05 -5.33379e-06 1.38243e-19
3.94187e-05 -8.86898e-06 -1.15203e-19
2.5144e-06 2.19946e-05 -2.78912e-19
0.000122238 3.14891e-05 1.33393e-19
2.82727e-05 -3.57572e-07 2.42532e-21
2.49824e-05 -1.09407e-05 -2.44957e-19
5.86917e-05 4.19967e-05 7.63976e-20
8.68997e-06 6.91568e-08 2.23129e-19
3.01537e-05 2.12333e-06 -1.18841e-19
2.65863e-05 -0.000123862 -3.88051e-20
3.0299e-05 3.66436e-06 -9.45875e-20
2.76714e-05 -3.75713e-06 -1.23691e-19
1.87223e-05 -2.75816e-05 -3.39545e-20
3.52503e-05 -5.63376e-07 1.5522e-19
3.53557e-05 4.75499e-07 -1.30967e-19
2.78374e-05 -1.48542e-06 -1.06714e-19
3.02729e-05 -3.5799e-06 -7.76102e-20
4.63747e-05 4.52707e-06 -5.6995e-20
4.8656e-05 -4.16511e-06 1.87962e-19
3.2422e-05 -2.39542e-07 3.63798e-20
3.26118e-05 3.22278e-07 -1.94026e-19
3.12323e-06 -9.11283e-06 1.916e-19
2.92123e-06 8.81647e-06 2.76486e-19
3.0001e-05 1.42322e-06 -2.52233e-19
0.000130209 -4.21536e-05 -3.63798e-20
-2.62337e-05 2.06574e-05 8.85242e-20
2.69078e-05 -7.99888e-07 8.85242e-20
3.73065e-05 5.36642e-06 -8.97368e-20
4.03917e-05 -1.20462e-05 8.00355e-20
4.04115e-05 1.20593e-05 -1.04289e-19
3.08735e-05 -6.16751e-06 2.91038e-20
3.08109e-05 6.10656e-06 -1.33393e-19
3.37393e-05 -9.15682e-07 8.36735e-20
2.11794e-05 -1.61951e-06 -1.43094e-19
3.69918e-05 -5.72026e-06 1.64922e-19
6.56132e-05 -5.4259e-05 3.15291e-20
6.56587e-05 5.42905e-05 -8.73115e-20
2.99806e-05 3.99751e-06 -1.18841e-19
2.66882e-05 -1.73763e-07 1.06714e-19
2.46971e-05 -2.75352e-06 2.91038e-20
6.24467e-05 3.42166e-06 -3.39545e-20
3.18931e-05 -2.67325e-05 2.07365e-19
2.74623e-05 -3.5979e-06 -1.12777e-19
2.43606e-05 1.11279e-05 2.42532e-21
2.99692e-05 -4.03926e-06 -9.94381e-20
5.34218e-05 7.85527e-05 4.72937e-20
-2.08969e-05 2.35235e-05 -2.74061e-19
0.000185416 2.73478e-05 1.79474e-19
2.99893e-05 -1.37477e-06 -4.85064e-21
1.21576e-05 5.74758e-05 5.6995e-20
2.28774e-05 8.43859e-07 1.05501e-19
1.81151e-05 5.34554e-07 -2.59509e-19
3.99896e-05 -2.39696e-05 -7.51849e-20
4.24682e-05 -8.08286e-07 1.40669e-19
3.21947e-05 5.9059e-06 -1.62496e-19
3.55604e-05 9.61864e-06 -7.51849e-20
-1.83186e-06 -1.60457e-05 5.57823e-20
3.24662e-05 3.04874e-06 -2.54659e-20
3.10992e-05 1.6564e-06 1.21266e-21
3.22291e-05 -5.97171e-06 -6.0633e-20
2.4825e-05 -2.82308e-06 2.66785e-20
0.000104631 -4.82608e-05 5.82077e-20
0.000104704 4.8289e-05 -3.15291e-20
2.40623e-05 -4.26859e-06 8.97368e-20
-0.000153467 -0.000132474 2.42532e-20
-0.000159825 0.000127409 -1.69772e-20
5.79836e-05 -1.98754e-05 4.24431e-20
5.39932e-05 -8.36207e-05 4.85064e-21
3.23535e-05 -2.72754e-06 -1.72198e-19
3.20962e-05 -5.57635e-07 1.12777e-19
3.26357e-05 -4.25969e-07 9.70128e-21
3.2565e-05 2.77075e-07 -1.90388e-19
2.8114e-05 1.20185e-06 -1.5037e-19
1.84038e-05 1.39939e-06 3.88051e-20
3.39255e-05 4.91282e-07 4.60811e-20
2.79512e-05 -1.05583e-07 -1.33393e-19
0.000242865 0.000115584 2.91038e-20
-5.66118e-05 -0.00011181 6.54836e-20
2.36153e-05 -3.65356e-05 6.30583e-20
8.80022e-05 1.673e-06 -2.30405e-20
3.29246e-05 3.40498e-06 -1.57646e-19
3.28516e-05 -3.43038e-06 1.16415e-19
5.1066e-05 1.78834e-05 1.21266e-20
3.15629e-05 -1.01231e-05 1.18841e-19
4.40164e-05 -2.88074e-05 6.79089e-20
4.40428e-05 2.88163e-05 -6.30583e-20
-8.82372e-06 5.08157e-06 5.94203e-20
1.21979e-05 -5.81835e-05 -3.75924e-20
2.48585e-05 -2.38159e-05 7.03343e-20
2.86427e-05 2.12397e-06 6.79089e-20
5.75571e-05 -3.78587e-05 -8.60988e-20
3.73507e-05 1.01737e-05 6.91216e-20
4.41512e-05 3.57692e-06 -8.73115e-20
3.56267e-05 -8.75382e-06 1.916e-19
4.70041e-05 0.000175641 -3.63798e-20
9.94156e-05 -0.000184346 1.16415e-19
9.52849e-06 -1.74802e-05 1.38243e-19
9.49921e-06 1.73906e-05 2.06152e-19
-6.73936e-05 -2.07175e-05 2.06152e-20
-6.87089e-05 2.71443e-05 -9.70128e-21
-0.000216612 0.000138634 3.15291e-20
-0.000221968 -0.000136932 -8.24609e-20
9.61727e-05 -4.87553e-05 -1.45519e-20
9.62463e-05 4.87836e-05 -2.18279e-20
3.25583e-05 9.47444e-06 -1.69772e-20
3.25117e-05 -9.29868e-06 -2.30405e-19
2.96331e-05 5.4039e-06 -7.76102e-20
6.03045e-05 -1.13279e-05 -6.91216e-20
3.5075e-05 -8.15428e-06 2.32831e-19
2.78027e-05 -3.61978e-06 -6.91216e-20
2.96667e-05 -5.48818e-06 -8.48862e-20
5.85337e-05 6.81972e-06 1.7341e-19
3.05809e-05 3.91462e-06 -9.70128e-20
-3.26331e-05 -0.00010462 -9.70128e-21
-3.29572e-05 0.000103668 -2.42532e-21
3.06619e-05 -3.9183e-06 -1.18841e-19
2.3024e-05 4.28462e-05 2.42532e-20
0.000135125 0.000234209 2.42532e-21
-8.65373e-05 -0.000149845 -1.45519e-20
1.34029e-05 -1.41123e-05 1.28542e-19
-1.10155e-05 -2.43817e-05 5.3357e-20
0.00010176 -0.000162411 5.3357e-20
3.22583e-05 3.15953e-06 -2.06152e-20
3.07726e-05 1.31665e-06 -6.0633e-20
5.85816e-06 -2.20372e-05 7.03343e-20
5.8625e-06 2.16683e-05 8.48862e-20
9.37308e-05 0.000171837 3.63798e-21
3.34425e-05 8.03991e-06 -9.70128e-20
2.74091e-05 3.74479e-06 -6.0633e-20
3.80053e-05 -1.45543e-06 -2.42532e-20
3.80002e-05 1.38137e-06 -1.69772e-19
-0.000318185 -1.21443e-08 4.85064e-20
-0.000318153 1.24621e-08 -5.3357e-20
2.30359e-05 -1.02292e-05 1.43094e-19
1.60571e-05 -2.10863e-06 7.63976e-20
2.74793e-05 -2.59347e-05 8.24609e-20
2.73702e-05 2.59572e-05 -5.57823e-20
0.000107575 -2.79518e-05 -5.3357e-20
9.34208e-05 -9.02452e-05 -7.15469e-20
3.74849e-05 1.07223e-05 -5.21444e-20
-4.24499e-05 0.000122791 -1.45519e-20
-4.27747e-05 -0.00012521 -4.48684e-20
5.65388e-05 -4.42667e-05 -4.24431e-20
2.7388e-05 -3.64062e-06 -7.03343e-20
-1.39864e-05 -9.16035e-06 3.27418e-20
-9.32245e-05 6.6515e-05 1.57646e-20
-9.3562e-05 -6.65568e-05 -2.42532e-20
2.30612e-05 2.80998e-05 -1.21266e-21
1.20839e-05 -5.29825e-05 4.85064e-20
1.21716e-05 5.30282e-05 -2.18279e-20
0.000118102 0.000251495 6.54836e-20
1.2076e-05 -0.00025004 4.85064e-20
3.4201e-05 -1.35154e-06 -8.24609e-20
2.07775e-05 1.30693e-06 1.64922e-19
3.31686e-05 5.48693e-06 -7.51849e-20
3.33042e-05 -5.72283e-06 -2.6436e-19
1.40905e-05 2.00516e-06 4.12304e-20
3.65246e-05 4.7152e-07 3.39545e-20
2.60592e-05 8.94658e-06 -7.39722e-20
4.31597e-05 0.000104199 1.45519e-20
4.31313e-05 -0.000104131 6.54836e-20
-2.76781e-05 -2.08398e-05 2.42532e-21
3.0619e-05 -3.9916e-06 -5.82077e-20
3.47013e-05 -3.17476e-06 -7.03343e-20
3.46882e-05 3.10332e-06 -2.11003e-19
2.97606e-05 -2.85241e-06 -4.36557e-20
3.05558e-05 3.95785e-06 -1.79474e-19
3.43562e-05 3.99896e-08 8.24609e-20
3.45273e-05 2.4011e-08 -1.15203e-19
2.78335e-05 4.91017e-09 -1.28542e-19
2.975e-05 2.78994e-06 -1.81899e-19
3.40432e-05 -5.53322e-07 -8.60988e-20
2.687e-05 -3.06999e-08 1.10352e-19
4.3765e-05 3.23944e-06 -8.00355e-20
4.39126e-05 -3.67218e-06 -2.06152e-19
4.12518e-05 -5.33978e-06 -8.48862e-20
4.13226e-05 5.30613e-06 -1.38243e-19
3.65981e-05 2.19076e-07 -1.81899e-20
2.57125e-05 9.24564e-06 8.12482e-20
3.26759e-05 1.65912e-06 -1.96451e-19
3.26764e-05 -1.73923e-06 -4.60811e-20
9.76154e-05 0.00012402 -4.85064e-21
3.34837e-05 -0.000117068 1.04289e-19
3.5388e-05 1.75703e-05 -8.97368e-20
3.51567e-05 -1.7556e-05 -1.74623e-19
4.32516e-05 -3.57814e-05 7.03343e-20
4.32657e-05 3.58678e-05 -6.54836e-20
-5.45977e-06 -6.5249e-05 2.42532e-20
-5.91987e-06 6.38439e-05 9.70128e-21
0.000233244 0.000208756 1.94026e-20
-0.00034 -5.59863e-05 -5.09317e-20
4.00239e-05 7.37734e-05 2.91038e-20
5.92768e-05 5.59574e-05 2.42532e-21
3.99701e-05 -7.3753e-05 4.36557e-20
5.92364e-05 -5.59246e-05 6.30583e-20
-5.17619e-05 -0.000158878 6.30583e-20
-0.00034023 5.48956e-05 5.57823e-20
7.86225e-05 -3.25645e-05 -3.39545e-20
0.000191317 -2.51809e-05 5.09317e-20
0.000191179 2.51627e-05 -4.36557e-20
7.85507e-05 3.25348e-05 -4.85064e-20
9.80788e-05 -3.07074e-06 -2.42532e-20
6.71299e-05 -2.35665e-05 -8.48862e-20
9.14731e-05 2.75149e-05 -2.66785e-20
9.79999e-05 3.05183e-06 -1.26117e-19
9.14019e-05 -2.74977e-05 -2.42532e-21
6.70804e-05 2.3528e-05 -1.43094e-19
7.07322e-05 -2.12306e-05 -8.48862e-20
6.94038e-05 -2.16442e-05 -1.69772e-20
7.0785e-05 2.12324e-05 -8.00355e-20
6.94526e-05 2.16473e-05 -5.57823e-20
-0.000100905 -0.000287764 -1.7341e-19
3.05207e-05 0.000265916 2.42532e-21
4.03595e-05 -0.000240829 -2.91038e-19
-0.000215613 -3.72806e-05 -6.0633e-20
-0.000270121 -6.72797e-05 -1.33393e-20
2.77079e-05 0.000298654 3.63798e-21
4.6478e-05 -0.000312052 -4.82639e-19
-0.000290462 7.87097e-05 5.09317e-20
-8.86395e-05 0.000148463 -1.06714e-19
-0.000159409 -0.000351861 -8.73115e-20
-0.000142592 0.000395564 -1.56433e-19
0.000382114 0.00018713 -6.79089e-20
0.000211796 0.000199627 5.09317e-20
-0.000202506 -0.000209528 -6.03905e-19
-0.000100367 -0.000202422 -1.67347e-19
-3.22616e-05 -0.000193622 -2.02514e-19
-2.31434e-05 -0.000319139 -5.35996e-19
5.96775e-05 0.000292102 6.0633e-20
0.0002303 -1.58538e-05 1.81899e-20
-0.00012146 -0.00042553 1.33393e-20
-0.000108009 0.000461942 -1.5037e-19
0.000449599 0.000143641 -2.30405e-20
-0.000188748 -0.000190669 -1.01863e-19
-0.00029563 7.6437e-05 4.9719e-20
-0.000214229 -0.000191999 -1.11565e-19
0.000142952 0.000321766 -2.29193e-19
-0.000201567 4.32337e-05 7.27596e-21
-0.000314612 -0.000639361 -1.00044e-19
-0.000176974 -8.76535e-05 -9.45875e-20
0.000672012 0.000351845 -1.63709e-20
5.39648e-05 0.000288447 4.85064e-20
1.00609e-05 -0.000297895 -6.4756e-19
-0.000657184 0.000326368 3.15291e-20
-0.00067096 -0.000340077 -2.00089e-19
-0.000439326 0.000151911 9.09495e-20
-0.000157645 -0.000125065 -1.62496e-19
-0.000272378 -0.000136037 -2.99527e-19
-0.000276985 0.000142963 -3.39545e-20
-4.58434e-05 -9.34515e-05 -5.3357e-20
0.000194599 0.000252911 -2.19491e-19
-0.000277482 0.000197044 3.27418e-20
-8.02298e-05 3.97301e-06 -8.00355e-20
-0.00017458 0.000208631 -5.57823e-20
-8.68622e-05 0.000302801 -5.45697e-20
9.03085e-05 0.000238712 -6.91216e-20
-0.000280517 0.000196783 7.63976e-20
-0.000699908 -0.000699776 3.03165e-20
0.000729801 0.000729703 -1.05501e-19
7.66319e-05 0.000148458 5.82077e-20
0.000733888 0.000798982 -8.97368e-20
-0.000752395 -0.000702307 -1.57039e-19
0.000277473 0.0001517 8.24609e-20
0.000345435 -6.07342e-05 -4.65661e-19
0.000161062 -4.07983e-05 -5.3357e-20
0.000264245 0.000244891 7.88229e-20
0.000323821 -0.000212673 -4.26856e-19
0.000137235 0.000250139 -1.20053e-19
-0.00027579 0.000527108 3.15291e-20
-0.000282082 -0.000528566 -2.81337e-19
0.000219437 0.00018522 8.24609e-20
0.000240488 -0.000131329 -1.89175e-19
-0.00038463 0.000177917 6.79089e-20
-0.000140098 0.000401471 2.30405e-20
0.000316554 -0.000491253 -4.99616e-19
0.000171972 -0.000197622 -6.0633e-20
-0.000341371 0.000675006 -3.35907e-19
-0.000656317 0.000357939 7.76102e-20
7.34896e-05 0.000235139 -4.12304e-20
-2.72006e-05 -0.000192439 -2.11003e-19
0.000530429 0.00021959 -6.0633e-20
0.0006752 -0.00027978 -2.49808e-19
3.71055e-05 -6.52371e-05 -3.51671e-19
0.0002157 0.000150064 4.24431e-20
0.000229386 -0.000115118 -1.37031e-19
-0.000137915 -9.49312e-05 -2.71636e-19
-5.88424e-05 -0.000153439 -6.14818e-19
-0.00040576 -8.08956e-05 1.10352e-19
0.000288043 -4.68331e-05 4.00178e-20
-0.000351367 -4.63415e-05 4.85064e-21
-0.000254789 -0.000213609 -2.93464e-19
-0.000296704 -0.000513733 -1.38243e-19
-0.000293348 0.000508109 6.0633e-20
-0.00031078 -0.000341362 -1.74623e-19
-0.00021921 0.000139702 5.6995e-20
0.000220241 0.00015372 2.42532e-20
5.39093e-05 -0.000555094 -9.70128e-21
4.76145e-06 0.000436703 5.94203e-20
-0.000255844 0.000237772 -6.79089e-20
5.79217e-05 0.000262138 2.91038e-20
-1.83014e-05 -0.000255611 -4.1958e-19
0.00015564 7.34434e-05 3.63798e-20
0.000157401 -3.84946e-05 -6.18456e-20
0.000384508 -0.000276004 -1.24904e-19
0.00017315 0.00019675 6.79089e-20
0.000195123 -0.000175915 -1.43094e-19
0.000222795 -0.000109193 -1.01863e-19
0.000106977 -0.000281288 -4.72937e-20
0.000138784 0.000160786 9.21621e-20
0.000142511 -0.000120139 -1.17628e-19
-0.000232784 0.000111732 2.42532e-20
0.000149358 0.000174755 -8.85242e-20
-0.000285129 -0.000195203 -1.94026e-19
-0.000101012 2.39481e-05 -1.92813e-19
4.49378e-05 0.00015324 -6.66963e-20
0.000304786 7.65943e-05 -2.42532e-20
-0.000224106 0.000143418 4.60811e-20
-0.000244321 -0.000111238 -8.24609e-20
-0.00019071 -0.000231085 -1.6856e-19
-0.000217954 -0.000142279 -1.10352e-19
-3.40972e-06 -0.00026335 -2.65572e-19
4.06347e-05 0.000271121 2.54659e-20
0.000379181 -0.000144714 -2.60722e-20
-0.00012757 0.000101465 1.12777e-19
0.000185696 -0.00028397 -1.03076e-19
0.000203258 0.000325034 -2.08577e-19
-0.000220054 0.000139656 4.60811e-20
-8.52223e-05 0.000145103 -1.15203e-19
-9.02087e-05 -0.000148459 -1.75836e-19
-5.66372e-05 -0.000268948 -1.66134e-19
-0.000203689 0.000212561 5.3357e-20
3.37903e-05 -0.000375197 -1.09139e-20
6.75592e-05 0.000410891 -1.83112e-19
0.000398957 -2.09581e-06 -5.45697e-21
0.000401183 0.000312692 -3.51671e-20
0.000265996 -0.000164525 -1.1399e-19
0.000380104 -0.000658575 3.40757e-19
-0.000309622 0.000536403 7.15469e-20
0.000294608 -4.30997e-05 -2.78912e-20
9.68218e-05 0.000217094 -1.21266e-19
0.000168453 8.28067e-05 3.63798e-20
-3.42875e-05 0.00028751 -1.06714e-19
8.06118e-05 -0.000159578 -5.06892e-19
2.30609e-05 0.000200677 -4.48684e-20
0.00012663 -9.32827e-05 -2.43745e-19
0.000130338 0.000106473 8.48862e-21
-4.51345e-05 -0.000147257 -1.66134e-19
7.59516e-05 1.42089e-05 -1.45519e-19
0.000269662 0.000216268 -1.49157e-19
-8.59595e-05 -2.32286e-05 1.3218e-19
0.000271525 0.000240938 -1.20053e-19
-0.000294512 0.000385609 1.33393e-20
-0.000145964 0.000127399 8.12482e-20
0.000104816 -0.000415648 5.63887e-20
0.000133231 0.000446157 -2.4617e-19
0.000443833 -9.36025e-05 -1.81899e-20
0.000267251 -0.000194564 -1.17628e-19
-1.45511e-06 -0.000302659 -7.63976e-20
3.78673e-05 0.000326783 -5.3357e-20
0.000213452 -0.000376853 -7.03343e-20
0.000227283 0.000400357 -2.13428e-19
2.68303e-05 9.51131e-05 -6.91216e-20
2.55335e-05 -6.45196e-05 -8.60988e-20
0.000166859 0.000186444 -1.75836e-19
0.000103237 0.000138955 6.4271e-20
-0.000217063 -0.000129525 -2.04939e-19
-0.000435621 -0.000336371 -1.24298e-19
8.24683e-05 0.000318933 -2.21917e-19
0.000224418 0.00018507 9.70128e-20
0.000269362 -0.000130688 -2.52233e-19
0.000213197 0.000178778 2.78912e-20
0.000229015 -0.000119396 -1.78261e-19
-0.000138782 -0.00126102 5.57823e-20
0.00129412 0.000217547 9.09495e-21
5.70432e-05 -0.000274169 1.21266e-20
0.000336722 0.000374107 1.01863e-19
0.000430167 -0.000387467 -3.92902e-19
0.000236797 0.000201796 -1.34605e-19
-0.000543848 -2.77355e-05 3.15291e-20
5.77086e-06 0.000235947 4.24431e-20
1.75727e-05 -0.000238174 -3.33481e-19
-0.000186077 0.000303024 3.75924e-20
8.66354e-05 2.41853e-05 -3.28631e-19
0.000240228 -0.000147507 -1.44306e-19
-3.70982e-05 -7.38789e-05 -2.60722e-19
-7.35741e-05 0.000207004 8.48862e-21
0.000205929 -0.000167796 -6.6575e-19
0.000146495 -0.000105054 -2.02514e-19
-0.000159935 -0.000109069 -2.30405e-19
-0.000280056 -0.000175005 -6.4271e-20
0.000274761 9.30328e-05 7.51849e-20
9.94017e-05 0.000158178 -2.42532e-21
-7.9812e-05 0.000205346 3.39545e-20
-5.4983e-05 -0.000273625 -2.32831e-19
0.000210534 0.000179164 -9.82254e-20
8.91627e-05 0.000302626 -9.21621e-20
-9.95154e-05 -0.000139188 -6.93641e-19
-0.000344211 0.000643057 -1.17628e-19
-0.000620756 0.000361444 1.16415e-19
0.000225209 6.39668e-05 3.75924e-20
0.000210494 -0.000122078 -1.60071e-19
0.000570217 0.000315315 -7.27596e-20
0.000699393 -0.000338024 -4.80213e-19
4.63788e-05 -0.000153932 -1.96451e-19
-0.000377665 0.000267802 -3.88051e-20
-0.000380751 -0.000274559 -1.90388e-19
-0.000161056 -6.90446e-05 -7.03343e-20
-2.43643e-05 6.71774e-05 1.03076e-19
0.000367041 0.000473841 -1.17022e-19
-0.000417518 -0.000335527 -8.18545e-20
0.000353911 -0.000499362 5.45697e-21
0.000371677 0.000539642 -1.00044e-19
0.00055351 -0.000303175 7.51849e-20
3.64365e-05 -5.77736e-05 -5.57823e-19
-4.56111e-05 -0.000557647 3.81988e-20
0.000587563 5.95288e-05 -6.0633e-20
-0.000301821 -0.000412765 -4.91127e-19
0.000292081 0.000363903 9.33748e-20
-0.000187411 -0.000149439 -1.75836e-19
-7.94966e-05 4.85934e-06 -8.00355e-20
0.000202882 -0.000298459 -8.85242e-20
0.000220304 0.000341216 -2.55871e-19
-0.000184197 5.73028e-05 -3.63798e-20
0.000101177 -0.000196702 -1.03076e-19
0.000236048 0.000255502 3.27418e-20
0.000291977 -0.00022458 -3.37119e-19
-0.000227342 -0.000120328 -1.87962e-19
-0.000148783 0.00011419 1.03076e-19
-0.000180918 -8.29997e-05 -1.04289e-19
-0.00034894 -0.000190295 -5.6995e-20
-3.11642e-05 0.00016688 8.73115e-20
-0.000733429 0.000733528 5.63887e-20
-3.04482e-05 0.000297602 -5.94203e-20
5.28216e-05 -0.000283547 3.88051e-20
5.39087e-05 -0.000555095 -3.18929e-19
2.43601e-05 0.00046211 5.09317e-20
7.04678e-05 0.000152336 -1.94026e-20
7.49397e-05 -0.00012839 -1.69772e-19
-0.000267513 -0.000138022 -2.4617e-19
-0.000260471 0.000147673 -7.39722e-20
-0.000465445 8.88931e-05 -2.26767e-19
-0.000459279 -7.9185e-05 -4.12304e-20
0.000460192 0.000321781 1.23691e-19
0.000624261 -0.000342415 -5.52973e-19
0.000170604 0.000115246 8.85242e-20
0.000163208 8.73989e-06 -3.49246e-19
0.000249691 0.000149398 -9.70128e-21
9.3905e-06 0.000260837 3.63798e-21
1.65512e-05 -0.000244135 -1.23691e-19
-0.000391805 0.000283859 9.33748e-20
0.000249484 -0.000104772 -1.20053e-19
-2.85024e-05 -0.000261054 -2.47383e-19
0.000228835 0.000202886 -1.7341e-19
-0.000171348 1.51806e-06 -1.97664e-19
-0.000163226 1.87966e-06 1.06714e-19
0.000217038 -0.000151579 -1.54008e-19
-0.000173944 0.000161093 -5.21444e-20
0.000271597 0.000470354 7.27596e-20
-0.000308835 -0.000534924 -3.51671e-20
-5.8026e-05 -0.000186584 -4.52322e-19
-0.000228435 -0.000135038 -1.60071e-19
-2.46873e-05 -0.000303235 -2.75274e-19
0.000369127 -0.000644053 -6.21488e-20
0.00064735 -0.000299131 6.45741e-20
3.6207e-05 0.000194906 -1.33393e-20
4.14552e-05 -0.000166759 -2.03727e-19
-3.48096e-05 0.00031816 -6.54836e-20
7.40396e-05 0.000291357 -5.21444e-20
0.000306798 0.000194022 -1.10352e-19
0.000222561 0.000160301 6.66963e-20
0.000247364 -7.62104e-05 -2.37681e-19
-0.000600862 2.32845e-08 -8.73115e-20
-0.00061697 5.88423e-08 -9.21621e-20
4.81256e-05 -0.000143794 -3.69861e-19
-0.000234382 -0.00013993 -1.22479e-19
0.000172142 0.000241324 3.63798e-20
0.00019432 -0.000210559 -2.0979e-19
7.91831e-05 0.000184903 3.63798e-20
4.00244e-05 5.63555e-05 5.3357e-20
0.000705128 -0.000705237 -1.5613e-19
-0.000202873 6.50057e-05 -1.80686e-19
-0.000194644 -6.18833e-05 2.78912e-20
-3.40536e-05 0.00014872 5.57823e-20
0.000306986 -0.000147899 -7.63976e-20
-0.000222951 0.000122778 2.42532e-21
-0.000296808 -3.91173e-05 -2.06152e-19
-0.000287591 4.54767e-05 -1.81899e-20
-0.000173769 8.91277e-05 -4.00178e-20
7.12894e-05 0.000369108 8.73115e-20
8.44019e-05 -0.000380275 -2.13428e-19
0.000146181 0.000597744 3.63798e-20
-0.000120769 -0.000725946 2.78912e-19
-6.68063e-05 0.00132942 -8.06419e-20
-0.00127912 7.49203e-05 -8.67052e-20
0.000188716 0.000130772 -3.88051e-20
0.000184998 -2.36204e-05 -1.77048e-19
-2.06286e-05 -4.97637e-05 -6.30583e-19
0.000691857 -0.000847335 -5.45697e-21
0.000881709 -0.000677817 -1.81293e-19
0.000292959 -0.00070725 -1.62496e-19
0.000250984 0.000605508 2.42532e-20
-0.000207114 0.000136286 2.66785e-20
0.000188658 -0.000200099 -1.03076e-19
0.000195554 0.000174359 -4.9719e-20
0.000198762 -0.000101481 -1.70985e-19
0.000141472 -0.00013747 -1.24904e-19
0.000199324 0.000253741 -2.18279e-19
-7.77208e-06 -0.000597296 -1.63709e-19
2.73537e-05 0.000584088 -1.26117e-19
0.00062508 2.46849e-05 4.42621e-20
0.000163922 0.000202443 -2.08577e-19
7.03601e-05 0.000635363 -2.15247e-19
-0.000602318 -7.37242e-05 1.33393e-20
0.000231109 0.000138955 2.18279e-20
0.000262107 -3.99839e-05 -2.99527e-19
0.000224347 0.000162411 1.03076e-19
0.000250417 -7.9863e-05 -2.98314e-19
-0.00072077 0.000900964 -1.6856e-19
-0.000876698 0.000722126 7.94292e-20
0.000209911 0.000184657 -7.03343e-20
0.000211702 -0.00011066 -1.62496e-19
0.000110244 0.000374491 5.94203e-20
-7.25137e-05 -0.000426124 -1.46732e-19
0.000185939 6.73508e-05 6.18456e-20
0.000189579 8.41372e-05 -3.31056e-19
0.000233412 0.00027957 5.94203e-20
0.000287159 -0.000268368 -2.67998e-19
-0.000176278 -4.28093e-05 -2.18279e-19
-0.00016262 4.7328e-05 5.94203e-20
-0.000595352 1.41422e-05 -9.09495e-20
0.000281373 0.000467816 9.33748e-20
0.000217709 0.000478121 1.40669e-19
0.000327406 0.000376543 1.16415e-19
0.000267044 -0.000516323 -9.45875e-20
0.000396889 -0.00039616 -1.09139e-19
-0.000288684 -0.000540154 -1.89175e-19
-0.000612607 -1.08035e-05 -1.97664e-19
0.000284517 -0.000117949 7.39722e-20
0.000992483 -0.000130931 9.70128e-20
0.00126353 0.000166111 -5.89353e-19
0.000491567 0.000203511 -2.74061e-19
0.00043751 0.000113898 1.17628e-19
0.000327066 4.07856e-05 1.18841e-19
0.000425747 0.000168418 5.57823e-20
0.000629586 -5.79369e-06 -3.72286e-19
0.000589921 -0.000189287 -4.00178e-19
0.000426602 0.00012867 -4.63236e-19
0.000341682 0.000219607 1.04289e-19
0.000355133 0.000215414 1.18841e-19
0.000451128 -0.000172578 -4.62023e-19
0.000455318 -0.000171273 -5.50547e-19
VECTORS seepage_velocity_TPM float
-2.90089e-05 -8.70203e-05 -8.38954e-21
-8.96188e-06 7.14405e-05 6.56921e-21
1.42182e-05 -7.14861e-05 -4.74416e-21
-6.48573e-05 -1.2338e-05 -2.91838e-21
-8.14478e-05 -2.1473e-05 -2.18829e-21
-1.07402e-05 9.21043e-05 1.93429e-20
1.5998e-05 -9.21763e-05 -2.11677e-20
-8.75069e-05 2.19781e-05 5.47156e-21
-2.74068e-05 4.41485e-05 1.64211e-20
-4.59675e-05 -0.000106805 -1.09369e-20
-4.40611e-05 0.000114256 -1.20303e-20
0.000119571 4.8695e-05 4.37506e-21
6.3324e-05 6.13321e-05 -2.55519e-21
-5.83557e-05 -6.11273e-05 7.30032e-21
-2.88463e-05 -6.03837e-05 -1.09443e-20
-8.91276e-06 -5.72503e-05 -7.66297e-21
9.28091e-06 9.41661e-05 1.56928e-20
-4.18397e-06 -9.42165e-05 2.18975e-21
8.28911e-05 8.32875e-06 -1.09491e-21
-3.46044e-05 -0.000128911 -1.85977e-20
-3.49353e-05 0.000131834 -6.56343e-21
0.000143678 3.31709e-05 1.09408e-20
-5.56006e-05 -5.76258e-05 -3.28292e-21
-8.96883e-05 2.10066e-05 1.27642e-20
-6.38761e-05 -5.80672e-05 2.55369e-21
3.8439e-05 8.49642e-05 3.65032e-22
-6.15399e-05 1.1615e-05 7.29623e-21
-9.31187e-05 -0.000194161 -1.22114e-20
-5.34458e-05 -2.70445e-05 3.28394e-21
0.000206895 9.78862e-05 -2.36927e-21
-2.90945e-07 8.80592e-05 1.53312e-20
5.42708e-06 -8.80843e-05 -1.35063e-20
-0.000202156 -0.000102715 -8.03267e-21
-0.000202864 9.88377e-05 -1.71605e-20
-0.000131695 4.3071e-05 -3.64642e-22
-4.68296e-05 -3.78996e-05 2.91884e-21
-8.20404e-05 -4.12827e-05 -7.30038e-21
-8.5905e-05 4.20212e-05 2.04404e-20
-1.42064e-05 -2.87803e-05 1.09476e-20
5.78653e-05 5.90696e-05 -3.28296e-21
-8.43753e-05 5.64025e-05 1.49541e-20
-2.48576e-05 4.06381e-07 2.40828e-20
-5.4575e-05 5.96319e-05 2.55322e-21
-2.94676e-05 8.6597e-05 -6.20089e-21
1.34069e-05 5.72464e-05 7.66333e-21
-8.54443e-05 5.62995e-05 5.83485e-21
-0.000211176 -0.000211176 -4.00531e-21
0.000218752 0.000218752 -7.6462e-21
1.94216e-05 4.4703e-05 -1.20433e-20
0.000219661 0.000232185 -1.56653e-20
-0.000224358 -0.000211919 -1.27511e-21
0.000101498 -1.04927e-05 2.19046e-20
0.000101424 1.04354e-05 1.46031e-20
7.13338e-05 1.26159e-05 -1.35035e-20
9.67091e-05 -4.41661e-05 3.39516e-20
9.66264e-05 4.4171e-05 -7.30138e-22
3.64076e-05 5.94225e-05 4.01325e-21
-8.50637e-05 -0.000159457 1.56986e-20
-8.53201e-05 0.00016009 -9.12692e-21
7.73842e-05 -2.95485e-05 3.13895e-20
7.72625e-05 2.93759e-05 8.02981e-21
-0.000115723 5.06371e-05 -6.19654e-21
-9.22119e-05 0.000145522 7.66646e-21
9.80748e-05 -0.000146716 -2.37299e-20
5.64965e-05 -5.83352e-05 3.28302e-21
-0.000102311 0.000196119 -1.64017e-20
-0.000196088 0.000103884 -1.43969e-20
1.14364e-05 5.68237e-05 -3.64867e-22
-6.45299e-06 -5.6672e-05 -3.64873e-21
0.00017228 -7.13605e-05 7.01172e-20
0.00017233 7.13812e-05 -4.96664e-20
1.22559e-05 -1.80648e-05 -8.75811e-21
7.87334e-05 2.71791e-05 5.10943e-21
7.89025e-05 -2.72175e-05 4.67131e-20
-4.14407e-05 -2.84976e-05 9.85251e-21
-1.43927e-05 -4.39565e-05 1.31388e-20
-0.000121726 -2.59709e-05 -4.01088e-21
-0.000105073 -1.53782e-05 -4.37651e-21
-7.66961e-05 -6.4792e-05 5.47427e-21
-8.97029e-05 0.000155366 6.57195e-21
-8.94865e-05 -0.000154989 -1.05882e-20
-9.23783e-05 -0.000103609 -5.10473e-21
-6.77168e-05 4.00082e-05 4.01256e-21
8.16387e-05 2.96486e-05 1.09482e-21
-1.39911e-05 0.000164557 -6.20664e-21
1.78946e-05 -0.000166224 -4.96535e-20
-7.93555e-05 7.13404e-05 7.29907e-21
8.20969e-06 7.58579e-05 8.39342e-21
-2.78482e-06 -7.58477e-05 -5.10917e-21
6.94244e-05 -1.1575e-05 2.40904e-20
6.86923e-05 1.08266e-05 2.92014e-21
0.000122191 -8.39514e-05 -7.65737e-21
9.8482e-05 1.6145e-05 1.8242e-21
7.33661e-05 -3.65745e-05 2.73785e-20
7.29844e-05 3.66415e-05 1.5697e-20
8.26211e-05 -3.02467e-05 2.77336e-20
3.62503e-05 -8.44052e-05 1.82407e-21
6.61092e-05 -2.89605e-05 3.43109e-20
6.51067e-05 2.8337e-05 4.74547e-21
-7.10435e-05 3.24545e-05 3.17415e-20
4.03749e-05 2.4911e-05 2.44513e-20
-8.51094e-05 -5.94221e-05 -1.82383e-21
-3.03622e-05 7.20146e-06 -8.39324e-21
-7.79222e-06 1.73032e-05 1.24082e-20
0.00010174 1.44076e-05 7.65965e-21
-6.95242e-05 4.18135e-05 3.64871e-20
-7.33393e-05 -3.41777e-05 4.74311e-21
-5.62098e-05 -7.03894e-05 -7.29365e-21
-6.49571e-05 -4.35429e-05 6.5658e-21
1.45933e-06 -7.80373e-05 -2.91893e-21
3.93666e-06 7.80632e-05 3.65093e-22
0.000120786 -4.76362e-05 -1.45828e-21
-4.13532e-05 2.82653e-05 -2.18943e-20
6.08964e-05 -8.60512e-05 -6.92998e-21
6.11891e-05 8.68487e-05 -7.65932e-21
-6.75936e-05 4.00226e-05 2.80932e-20
-2.67642e-05 4.35179e-05 1.45977e-20
-2.73845e-05 -4.51219e-05 1.13132e-20
-1.47498e-05 -8.09478e-05 -1.4588e-21
-6.32918e-05 6.08179e-05 9.12049e-21
1.31946e-05 -0.000113391 -7.29172e-21
1.8955e-05 0.000116148 -1.14843e-20
0.000128414 -6.12605e-06 9.11398e-22
0.000125187 8.34075e-05 7.29575e-22
8.6588e-05 -5.03516e-05 -1.09418e-20
0.00011346 -0.000196547 -8.76311e-21
-0.00011317 0.00019602 4.38168e-21
9.91052e-05 -1.76601e-05 9.84848e-21
1.74268e-05 4.39044e-05 -1.09459e-21
7.22527e-05 -1.36864e-05 2.15328e-20
-1.38887e-05 8.20563e-05 -4.01204e-21
-2.10165e-05 4.59664e-05 1.38687e-20
2.50459e-05 -4.57901e-05 -1.16783e-20
4.12155e-05 -2.56584e-05 1.45979e-20
3.08669e-05 -9.24446e-06 1.20437e-20
-1.25581e-05 -4.4118e-05 2.91903e-21
5.3682e-05 5.03649e-07 -9.85741e-21
8.49632e-05 5.43517e-05 1.13061e-20
-2.88389e-05 -9.23538e-06 -3.32083e-20
8.5082e-05 5.54947e-05 7.29502e-22
-8.95116e-05 0.000111294 -2.91685e-21
-4.65612e-05 3.61348e-05 3.64838e-21
3.52618e-05 -0.000125983 1.27652e-21
3.71373e-05 0.00012594 -1.56813e-20
0.000140161 -3.21464e-05 2.37045e-21
8.68568e-05 -5.75837e-05 -6.93061e-21
3.29117e-06 9.10027e-05 3.64815e-21
2.09859e-06 -9.08728e-05 -1.45894e-21
6.88696e-05 -0.000115351 -1.02085e-20
6.77899e-05 0.000110538 -1.23959e-20
4.38965e-05 -1.56334e-05 -2.19048e-21
4.40676e-05 1.50791e-05 2.1903e-21
4.84766e-05 3.03236e-05 1.02174e-20
2.92545e-05 4.11917e-05 -1.71525e-20
-6.51066e-05 -3.9275e-05 3.28387e-21
-0.000129986 -0.000102519 9.11344e-21
2.04491e-05 8.41081e-05 3.28264e-21
8.66264e-05 2.91473e-05 5.47541e-21
8.67941e-05 -2.92751e-05 5.47562e-20
7.85925e-05 -3.08003e-05 2.33575e-20
7.84449e-05 3.06049e-05 1.16788e-20
-3.96357e-05 -0.000382993 -8.01619e-21
0.000393297 6.05245e-05 -1.09296e-21
2.04538e-05 -8.21413e-05 1.09427e-21
0.000119156 -7.89674e-05 3.35942e-20
0.000119094 7.91525e-05 -1.1685e-20
8.02554e-05 4.19513e-05 3.28409e-21
-0.000162318 -1.03294e-05 -3.46281e-21
9.86219e-05 -1.79581e-05 3.64852e-21
-3.42687e-06 7.00019e-05 -7.29598e-22
8.55528e-06 -7.03245e-05 -2.91902e-21
-5.79335e-05 8.72562e-05 -1.82338e-21
2.92364e-05 9.51967e-06 1.64233e-20
8.059e-05 -4.21641e-05 1.38651e-20
-1.20052e-05 -2.08914e-05 -1.64212e-20
-5.89851e-05 4.84565e-05 1.05856e-20
6.44165e-05 -4.8375e-05 -1.89805e-20
4.82129e-05 -2.98038e-05 1.45962e-20
-4.76128e-05 -3.24602e-05 3.6488e-21
-8.37123e-05 -5.39074e-05 -6.19961e-21
1.38024e-05 1.92628e-05 1.05835e-20
-2.74734e-05 5.90223e-05 -1.24037e-20
-1.44197e-05 -8.19004e-05 6.93089e-21
6.8722e-05 3.20083e-05 2.00695e-20
2.10666e-05 8.26228e-05 4.37752e-21
-2.57106e-05 -3.9992e-05 2.11681e-20
-0.000102958 0.000188324 -1.94927e-20
-0.000184817 0.000104952 -7.28698e-21
6.89278e-05 -3.21897e-05 8.39277e-21
8.3414e-05 -9.6798e-06 2.88272e-20
0.000174496 7.65846e-05 -4.16336e-20
0.000174417 -7.64929e-05 4.96681e-20
1.75106e-05 -4.47935e-05 4.3787e-21
-0.000114633 -8.29389e-05 -2.5551e-21
-0.000117263 8.08948e-05 -1.09514e-20
-4.88447e-05 -2.16679e-05 5.47272e-21
-1.02621e-05 1.80329e-05 -2.29897e-20
0.000111188 0.00013609 -1.71274e-20
-0.000124222 -0.00010222 -5.46615e-22
0.000110659 -0.000151784 -4.37388e-21
0.000112453 0.000153619 -1.78617e-20
0.000171428 -9.44626e-05 -5.4679e-21
1.35911e-05 -1.60257e-05 2.9196e-20
-1.13427e-05 -0.00016927 -1.51234e-20
0.000181564 1.31834e-05 -8.01701e-21
9.34538e-05 0.000122987 2.89166e-25
-8.82152e-05 -0.000122222 -1.60626e-20
-5.64402e-05 -4.54998e-05 1.31374e-20
-2.43912e-05 9.71529e-07 1.64208e-20
6.54508e-05 -8.9885e-05 1.09377e-21
6.58502e-05 9.13253e-05 -1.49506e-20
-5.57957e-05 1.62759e-05 7.66191e-21
3.44421e-05 -5.80019e-05 -7.29721e-22
9.13437e-05 -4.61945e-05 4.45452e-20
9.11552e-05 4.62311e-05 4.38157e-21
-6.81643e-05 -3.65484e-05 3.64902e-21
-4.74621e-05 3.19291e-05 -1.09462e-20
-5.45074e-05 -2.57893e-05 1.05815e-20
-0.000103799 -5.83586e-05 6.92717e-21
-1.28247e-05 4.74464e-05 -3.64872e-22
-0.000216488 0.000216488 -7.00837e-21
-1.31734e-05 8.39551e-05 -2.91833e-21
1.92558e-05 -8.48191e-05 7.29746e-22
1.85931e-05 -0.000165295 -2.81094e-20
-1.34542e-05 0.000165229 1.46022e-21
5.18434e-05 -2.60108e-05 2.30017e-20
5.17962e-05 2.5149e-05 2.55573e-21
-8.13085e-05 4.33202e-05 1.3138e-20
-8.03989e-05 -4.1938e-05 1.13129e-20
-0.000142396 -2.59833e-05 -2.33629e-20
-0.000140139 2.65286e-05 -3.28559e-21
0.000165168 7.71238e-05 -1.16857e-20
0.000165162 -7.70277e-05 2.62928e-20
5.24199e-05 4.84808e-06 1.314e-20
5.25024e-05 -4.53056e-06 7.29944e-22
8.33562e-05 2.93792e-05 8.39147e-21
-2.78847e-06 7.43869e-05 -8.39128e-21
8.13786e-06 -7.27524e-05 4.74316e-21
-0.000117847 8.16519e-05 -7.28858e-22
8.30904e-05 -3.01648e-05 8.75637e-21
-6.86145e-06 -7.83256e-05 1.8242e-21
7.12244e-05 4.3192e-05 2.18881e-21
-5.22572e-05 -1.62778e-06 -4.19693e-20
-5.16555e-05 4.12206e-07 2.34985e-26
7.10418e-05 -4.38246e-05 -4.37758e-21
-5.37626e-05 4.73808e-05 3.06549e-20
9.29391e-05 0.000160995 2.19061e-21
-9.1416e-05 -0.000158336 -2.1177e-20
-1.41234e-05 -5.48587e-05 -1.45962e-21
-6.85039e-05 -4.12527e-05 1.49591e-20
-7.6797e-06 -9.16864e-05 1.24101e-20
0.000115376 -0.000196922 -7.56137e-21
0.000198971 -9.32359e-05 -4.37282e-21
4.37046e-05 -3.61143e-05 2.6652e-20
4.31185e-05 3.5355e-05 1.31434e-20
-1.14723e-05 9.6046e-05 -1.42354e-20
1.16168e-05 7.55934e-05 1.45931e-21
0.000102761 4.38595e-05 3.64788e-21
7.88417e-05 -1.78654e-05 2.11703e-20
7.87545e-05 1.75175e-05 2.08049e-20
-0.000185797 -1.4511e-09 -4.74642e-21
-0.00018585 9.31719e-10 -2.99393e-20
1.80105e-05 -4.18997e-05 1.56913e-20
-7.03595e-05 -4.27802e-05 4.01318e-21
7.28099e-05 4.38809e-05 7.30042e-22
7.3206e-05 -4.38998e-05 4.12526e-20
2.00489e-05 5.36905e-05 -2.18952e-21
9.05087e-06 1.47881e-05 -1.42318e-20
0.000215671 -0.000215671 2.36663e-21
-6.10543e-05 1.93312e-05 1.16796e-20
-6.16582e-05 -2.06984e-05 -2.70091e-20
-1.3541e-05 4.29511e-05 -7.29782e-21
0.000100855 -4.4573e-05 5.10742e-21
-6.91671e-05 3.52656e-05 1.20423e-20
-8.92833e-05 -1.19643e-05 -5.83947e-21
-8.97031e-05 1.16987e-05 -1.42336e-20
-5.3701e-05 2.58135e-05 1.75141e-20
5.13367e-05 7.61966e-05 1.53356e-20
5.17304e-05 -7.5999e-05 3.14015e-20
3.83749e-05 0.000216424 8.03313e-21
-3.42372e-05 -0.000216427 -3.54187e-20
-1.94617e-05 0.000390591 -1.16596e-20
-0.000381555 1.99802e-05 -9.10823e-22
5.91864e-05 -4.21428e-06 1.45991e-20
5.95046e-05 3.54859e-06 2.33586e-20
-2.56894e-06 -1.37581e-05 2.44512e-20
0.000211855 -0.000257659 -4.6444e-21
0.000269462 -0.000207436 6.37566e-22
7.07044e-05 -0.000170709 2.19121e-20
7.07538e-05 0.000170828 -1.97208e-20
-6.49937e-05 3.8815e-05 -8.75733e-21
6.20726e-05 -5.91699e-05 -1.82414e-21
6.30492e-05 -2.60762e-05 1.82478e-21
6.29746e-05 2.57147e-05 3.06558e-20
4.68003e-05 -3.89009e-05 7.66265e-21
6.16245e-05 5.97382e-05 4.7428e-21
4.19817e-07 -0.000181648 -1.51278e-20
7.08641e-06 0.000167208 -1.76792e-20
0.000193952 1.6061e-06 6.92635e-21
4.69715e-05 3.84972e-05 1.64198e-20
2.13635e-05 0.000184185 -1.47586e-20
-0.000180012 -2.42869e-05 -5.64832e-21
7.88987e-05 -8.39241e-06 5.84024e-21
7.92409e-05 7.36088e-06 2.29957e-20
7.6833e-05 -1.54561e-05 2.37269e-20
7.69358e-05 1.53632e-05 1.71563e-20
-0.000213029 0.000263667 -8.55972e-21
-0.000261474 0.000213007 -7.28474e-21
6.89536e-05 3.00067e-05 2.4815e-20
6.91237e-05 -3.03833e-05 -6.20369e-21
2.39961e-05 0.000127036 3.28573e-21
-1.97216e-05 -0.000126217 -1.02222e-20
5.94386e-05 2.49077e-05 1.64267e-20
5.89891e-05 -2.47586e-05 1.02211e-20
9.04101e-05 -5.46405e-05 5.47649e-20
9.02114e-05 5.47307e-05 5.84163e-21
-5.27935e-05 -1.308e-05 1.16777e-20
-5.1717e-05 1.2262e-05 -2.77346e-20
-8.43167e-05 -0.000160171 -2.11762e-20
8.31081e-05 -9.9377e-05 2.9945e-20
9.96477e-05 -8.40711e-05 2.99445e-20
8.29295e-05 9.97349e-05 2.15458e-20
9.96836e-05 8.42306e-05 -1.16858e-20
8.94558e-05 0.000161889 -5.11128e-21
-0.00018463 2.96555e-06 -1.75241e-20
-0.000184444 -3.46972e-06 1.4602e-21
0.000134009 5.55115e-05 2.19097e-20
0.000322444 4.24461e-05 7.81686e-20
0.000322538 -4.24584e-05 -6.64799e-20
0.000133975 -5.54976e-05 -1.09549e-20
0.000168212 3.65452e-06 1.71623e-20
0.000119134 3.61355e-05 1.64293e-20
0.000157843 -4.44042e-05 3.0675e-20
0.000168204 -3.60352e-06 -2.55607e-20
0.000157836 4.44447e-05 -6.57318e-21
0.000119143 -3.60726e-05 1.31435e-20
0.000124961 -3.53069e-05 1.60645e-20
0.000124205 -3.55524e-05 1.02243e-20
0.000124967 3.53343e-05 1.42391e-20
0.000124159 3.55961e-05 -1.24154e-20
-1.15134e-05 7.28511e-05 -1.82457e-20
-1.22504e-05 -7.3213e-05 -5.03559e-20
-6.56381e-05 1.19901e-05 -9.48446e-21
-8.38637e-05 2.18164e-05 -3.50152e-20
-1.3389e-05 9.46529e-05 -1.60574e-20
-1.41136e-05 -9.4866e-05 -8.68601e-20
-8.39244e-05 -2.15626e-05 -4.26752e-20
-2.81649e-05 -4.41636e-05 8.86691e-20
-4.70863e-05 -0.00010609 -6.27064e-20
4.8322e-05 0.000109306 -4.19249e-20
0.000110939 5.04585e-05 -1.09386e-21
6.14208e-05 -6.38072e-05 9.1252e-21
6.29076e-05 6.29026e-05 1.38699e-20
-6.7436e-05 4.03133e-05 -2.18898e-20
7.04209e-06 -9.68418e-05 -3.64954e-20
7.68065e-06 9.64922e-05 -8.39338e-21
6.85146e-05 1.07176e-05 -4.41421e-20
-3.53665e-05 -0.0001287 -6.52712e-20
3.48444e-05 0.000129975 -4.15691e-20
0.000134578 3.59606e-05 -9.11606e-21
3.23255e-05 8.71696e-05 -2.33444e-20
3.34085e-05 -8.58756e-05 -7.80559e-20
-6.17374e-05 -1.2626e-05 5.10733e-21
-9.20932e-05 -0.000191399 -2.55154e-20
-5.45534e-05 2.74499e-05 2.37162e-20
-2.07124e-06 9.02705e-05 -8.39526e-21
-2.87338e-06 -9.05146e-05 -7.55605e-20
-0.000203849 -9.8583e-05 5.47764e-20
-0.000202947 0.000102217 -3.834e-20
-4.40746e-05 5.95816e-05 -2.59013e-20
-5.32605e-05 6.30675e-05 -2.3708e-20
-0.000122949 3.96912e-05 -1.82319e-21
-8.69229e-05 -4.18827e-05 9.8556e-20
-8.31736e-05 4.07741e-05 -1.49649e-20
-1.42513e-05 2.92317e-05 3.17443e-20
5.16777e-05 -6.15176e-05 -8.57105e-20
-2.56394e-05 -8.7377e-07 5.18093e-20
-8.84761e-05 5.7791e-05 -2.18848e-21
-5.81677e-05 -5.8864e-05 -5.50731e-20
-0.000102172 -1.60067e-05 -2.73519e-20
-9.31968e-05 1.87494e-05 -2.261e-20
-3.20523e-05 -8.71095e-05 -6.6019e-20
9.38656e-06 -5.93969e-05 -7.88118e-20
1.01427e-05 5.90007e-05 -3.64806e-22
-2.89424e-05 8.76344e-05 -1.45899e-20
5.3502e-05 6.22393e-05 -3.35569e-20
-0.000206824 -0.0002068 -1.96745e-20
-0.000203651 0.000203659 5.15547e-20
1.82894e-05 -4.7466e-05 7.29859e-21
1.83477e-05 4.60127e-05 3.10216e-25
3.12736e-05 6.15811e-05 -2.07934e-20
-0.000204247 0.000222259 5.90233e-20
-0.000215449 -0.000207221 -9.1816e-20
0.000106273 -1.94395e-05 -5.51155e-20
0.000105375 2.10671e-05 -3.28507e-21
4.99869e-05 1.75865e-05 -3.42966e-20
9.95606e-05 -6.66484e-05 -6.82559e-20
9.88174e-05 6.71854e-05 -7.66504e-21
3.14627e-05 -6.14418e-05 -7.73354e-20
-8.62768e-05 -0.000159357 1.00407e-19
-8.62108e-05 0.000158125 5.51295e-20
7.30768e-05 -4.20302e-05 -6.8969e-20
7.31105e-05 4.27225e-05 4.50565e-28
-9.64031e-05 -0.000149548 -1.81825e-19
-9.60816e-05 0.000149557 -9.85694e-21
0.000100275 0.000189269 -5.74052e-20
0.000190044 0.000100359 3.79058e-20
8.33489e-06 5.86179e-05 -1.02162e-20
7.57246e-06 -5.90084e-05 -4.96197e-20
0.000208438 -8.63229e-05 -7.30463e-21
0.000206075 8.53599e-05 2.33702e-20
-8.45714e-05 -5.89175e-05 -4.55904e-20
6.92602e-05 3.80517e-05 -1.16755e-20
6.92815e-05 -3.7297e-05 -4.77965e-20
-7.77054e-05 6.48246e-05 4.37961e-21
-0.000118584 -2.67889e-05 -2.80755e-20
-8.94353e-05 0.000154916 3.6154e-20
-8.9842e-05 -0.000155581 3.46974e-20
-6.67361e-05 -4.12166e-05 -6.56552e-21
6.70168e-05 3.61491e-05 -2.88222e-20
-9.47851e-05 -0.000103093 -9.6262e-20
-1.63529e-05 -0.000169038 -1.80754e-19
-1.57001e-05 0.000169116 -1.09504e-21
-8.03801e-05 -7.11752e-05 1.34312e-19
6.54214e-06 7.73198e-05 -2.4084e-20
5.89506e-06 -7.72323e-05 -1.09471e-20
4.98327e-05 -1.7498e-05 -4.37861e-20
4.89723e-05 1.68997e-05 -3.9043e-20
0.0001119 -8.53843e-05 -3.865e-20
8.42486e-05 1.86183e-05 -2.58983e-20
5.99887e-05 5.68141e-05 7.29923e-22
6.05006e-05 -5.63459e-05 -7.95566e-20
6.81162e-05 -3.63502e-05 -4.15908e-20
4.54418e-05 -4.05379e-05 -5.72912e-20
4.42109e-05 4.0176e-05 -1.05825e-20
-7.23051e-05 -3.22751e-05 3.46593e-20
-7.58669e-05 5.97512e-05 -4.37588e-20
3.82726e-05 2.93963e-05 -2.15291e-20
3.71e-05 -2.8505e-05 -1.14205e-19
-1.16418e-05 -1.97789e-05 -8.79349e-20
-1.09398e-05 1.93409e-05 -1.05827e-20
9.03447e-05 1.53907e-05 -2.66228e-20
-0.000127368 0.000124141 -1.67691e-20
-7.0418e-05 -4.20452e-05 7.66238e-20
-7.28029e-05 3.4512e-05 -1.97004e-20
-0.000173198 2.83455e-05 2.13246e-20
-6.74736e-05 4.1185e-05 -4.01253e-21
7.51685e-07 -7.98934e-05 -3.06476e-20
1.88696e-06 7.97238e-05 -2.07959e-20
-5.94391e-05 -7.12326e-05 -7.94992e-20
0.000110436 -4.74057e-05 -1.42185e-20
-4.20178e-05 -2.88457e-05 1.45956e-20
-4.21185e-05 3.12044e-05 -4.56118e-20
5.47577e-05 -8.71144e-05 -6.56438e-20
-5.76714e-05 9.31589e-05 -3.79272e-20
-6.93122e-05 -4.10244e-05 2.84572e-20
-2.79694e-05 -4.39725e-05 1.08746e-19
-2.85863e-05 4.70068e-05 4.08699e-20
1.63286e-05 8.38518e-05 -2.51651e-20
-6.30375e-05 -5.98509e-05 -1.7875e-20
9.74958e-06 -0.000112941 -2.0964e-20
-1.4728e-05 0.000116348 -4.11993e-20
0.000117881 -1.25253e-05 5.10374e-21
7.72817e-05 -5.26318e-05 -3.31849e-20
-0.000115999 0.000200942 -3.28617e-20
-0.000115829 -0.000200642 -1.87392e-19
-8.30739e-05 -5.00039e-05 -2.6986e-20
8.72508e-05 -1.88547e-05 -1.8235e-20
-0.000131785 -0.000104502 -4.33789e-20
1.32539e-05 -4.65553e-05 -8.50042e-20
1.37634e-05 4.71718e-05 -1.24049e-20
5.12493e-05 -1.85547e-05 -4.45126e-20
-1.67848e-05 -8.19106e-05 -5.14217e-20
-2.48754e-05 -4.84675e-05 -8.86752e-20
-2.41684e-05 4.80169e-05 1.09496e-21
7.83723e-05 0.00011028 -1.45848e-20
0.000116312 7.84753e-05 -3.50033e-20
-0.000166152 -7.44066e-06 -6.7444e-21
2.85884e-05 -5.4755e-06 -1.9341e-20
2.72812e-05 6.76057e-06 -9.70548e-20
2.37419e-05 1.46024e-06 -2.51788e-20
-2.9673e-05 8.15606e-06 3.72181e-20
-2.73549e-05 -7.90019e-06 -2.15302e-20
-4.81084e-05 -3.60436e-05 -1.64172e-20
3.21247e-05 -0.000124976 -3.71946e-20
-2.94084e-05 0.000124726 -1.85978e-20
0.000127653 -3.31117e-05 -7.47537e-21
7.76627e-05 -5.92266e-05 -4.3036e-20
1.32695e-06 9.0976e-05 -1.96996e-20
1.74156e-07 -9.14701e-05 3.64382e-22
-5.95651e-05 0.000119232 -7.03638e-20
6.20149e-05 -0.000112171 -3.64573e-20
9.01443e-06 2.37993e-05 -3.35728e-20
8.24432e-06 -2.41057e-05 -3.02882e-20
4.39937e-05 -3.31104e-05 -1.03614e-19
4.49309e-05 3.38495e-05 -2.59055e-20
2.99685e-05 -4.32938e-05 3.68562e-20
2.86481e-05 4.24284e-05 -3.64543e-22
-6.48631e-05 3.9692e-05 -1.64186e-20
1.61986e-05 -8.50574e-05 -4.95996e-20
8.23874e-05 4.24969e-05 -8.02931e-21
8.29814e-05 -4.17429e-05 -5.4013e-20
7.15947e-05 -4.63071e-05 -5.90978e-20
6.92209e-05 -3.80484e-05 -8.39233e-20
6.92134e-05 3.86879e-05 -5.10857e-21
-4.02149e-05 -0.000373362 -5.50075e-20
5.53076e-05 8.61817e-05 -3.68336e-20
-0.000384705 4.51254e-05 2.73221e-21
-1.4234e-05 8.56282e-05 -1.49532e-20
0.000132768 -0.000119954 -5.40333e-20
0.000131316 0.00011985 2.33655e-20
7.2165e-05 4.69736e-05 -1.49571e-20
8.4406e-05 -2.05258e-05 -2.40742e-20
7.86627e-05 5.48265e-05 -3.97492e-20
-5.36407e-06 -7.1569e-05 -5.10829e-21
-4.89479e-06 7.15702e-05 -2.48101e-20
-6.21819e-05 5.05129e-05 -4.37998e-21
-6.26587e-05 -5.09526e-05 -9.49015e-20
1.24462e-05 2.14569e-05 -1.82455e-21
1.02092e-05 -2.17603e-05 -1.16024e-19
-2.92219e-05 -5.95427e-05 -1.60506e-20
1.67937e-05 8.25824e-05 -3.64747e-21
6.30596e-05 -3.89337e-05 -8.42758e-20
6.35068e-05 3.95083e-05 -7.66164e-21
7.9028e-05 6.00448e-05 -3.6108e-20
-2.76459e-05 6.01274e-05 -2.51712e-20
1.67885e-05 -8.36404e-05 -4.01237e-20
0.000100949 0.00018291 -3.06126e-20
0.000185549 0.000100764 5.86727e-20
-0.000115217 8.62278e-05 -5.39602e-20
6.90489e-05 -1.21696e-05 -3.28325e-20
0.000216012 -0.000104612 -3.65178e-21
0.000213968 0.000104348 4.16294e-20
-0.00011818 -8.06268e-05 1.67939e-20
-0.000115842 8.25293e-05 -5.54859e-20
-4.90422e-05 2.10107e-05 -1.24037e-20
-1.14789e-05 1.87074e-05 -1.31365e-20
-1.15976e-05 -1.83756e-05 2.69998e-20
-9.69456e-05 0.00012949 -1.34861e-20
-0.000121753 -0.000104083 -5.2481e-20
0.000104358 -0.000149087 -5.61326e-20
-9.47978e-05 0.000155 -3.17131e-20
0.00015623 -9.10154e-05 -3.82694e-21
-0.000106402 -5.75364e-05 -5.39603e-20
-1.28789e-05 -0.000167009 -6.72411e-20
-0.000158162 1.44665e-06 2.71514e-20
9.17513e-05 -0.00012588 -4.12537e-20
9.36535e-05 0.000125815 1.13161e-20
-5.67923e-05 4.49074e-05 -2.73675e-20
-2.48736e-05 -1.79965e-06 3.9769e-20
-5.63915e-05 9.21951e-05 -3.93789e-20
5.96413e-05 -9.18064e-05 -6.27147e-20
-5.65715e-05 -1.67372e-05 2.15254e-20
9.04506e-05 -7.00846e-05 -4.52655e-20
8.95728e-05 7.06617e-05 3.65027e-22
-6.95509e-05 3.6542e-05 -4.37869e-21
-4.88715e-05 -3.29567e-05 -1.64179e-20
-4.32308e-05 3.17269e-05 -3.94045e-20
-5.58296e-05 2.59421e-05 -1.09456e-20
-1.42177e-05 -4.83047e-05 -7.29318e-22
-1.27097e-05 5.18169e-05 -1.56888e-20
0.000214173 0.000214164 8.14248e-20
-1.57473e-05 -8.46599e-05 -5.83582e-21
-1.43221e-05 8.54532e-05 -4.08531e-20
-1.62766e-05 -0.000169101 -1.65021e-19
-1.55469e-05 0.00016929 8.39602e-21
2.39896e-05 -4.46803e-05 -4.52535e-20
2.42543e-05 4.36668e-05 -2.44516e-20
-8.21779e-05 -4.32242e-05 5.80276e-20
-8.07746e-05 4.1737e-05 -2.33559e-20
-0.000143377 2.65253e-05 -1.09512e-21
-0.000141227 -2.64025e-05 -1.08057e-19
0.000189778 0.00010575 1.09538e-20
0.00019249 -0.000105984 -9.49432e-20
5.1163e-05 -5.58222e-07 -2.55467e-20
4.94567e-05 1.92723e-06 -1.09471e-19
7.47827e-05 3.4951e-05 -2.33456e-20
-4.91103e-06 -7.46718e-05 1.49575e-20
6.42534e-05 -4.7618e-05 -7.91523e-20
-4.31489e-06 7.54266e-05 -2.62675e-20
7.38273e-05 -3.54452e-05 -3.42886e-20
8.65014e-06 7.77251e-05 -1.4593e-20
6.48768e-05 4.83444e-05 -2.33449e-20
-5.19035e-05 9.32342e-07 3.06537e-20
-5.34711e-05 -1.13538e-06 -3.68598e-20
-5.51906e-05 -4.75954e-05 1.10208e-19
9.40872e-05 -0.000163003 -1.5926e-19
9.46246e-05 0.000163906 1.60649e-20
-6.9257e-05 4.05049e-05 -2.29856e-20
-9.86386e-06 9.12635e-05 5.40194e-20
0.000108839 -0.000191749 -1.2209e-20
0.000188915 -8.97554e-05 -1.84953e-20
1.51686e-05 -5.56378e-05 -7.59136e-20
1.47412e-05 5.48646e-05 -1.8247e-21
-1.29076e-05 -9.57377e-05 1.10238e-19
7.74531e-06 -7.69112e-05 -5.65455e-20
9.1314e-05 4.79445e-05 -3.53795e-20
7.53396e-05 -2.40157e-05 -7.07942e-20
7.53179e-05 2.51842e-05 -1.05834e-20
-0.000186885 -7.30369e-09 5.0408e-20
-0.000186722 1.90185e-08 -8.90934e-20
-6.97367e-05 4.08786e-05 -6.93159e-21
5.97544e-05 6.66267e-05 -5.47472e-21
6.02874e-05 -6.6162e-05 -8.79605e-20
1.90505e-05 5.4855e-05 -2.73681e-20
1.87986e-05 -5.47778e-05 2.33529e-20
8.34091e-06 -1.50259e-05 1.53247e-20
9.32394e-06 1.62669e-05 -2.73681e-20
0.000207642 -0.000207656 -1.02926e-20
-6.18916e-05 2.11944e-05 2.84683e-20
-6.21634e-05 -1.92087e-05 -6.02223e-20
-1.49036e-05 -4.40028e-05 2.4446e-20
-1.40885e-05 4.47795e-05 -3.02849e-20
8.91342e-05 -4.78819e-05 -2.33434e-20
-6.99339e-05 -3.51434e-05 7.37113e-20
-9.0406e-05 -1.17393e-05 4.52557e-20
-8.99027e-05 1.49553e-05 -3.39412e-20
-5.47427e-05 -2.56317e-05 7.77181e-20
2.76798e-05 -0.000117835 -7.48312e-20
2.73993e-05 0.000117771 3.10272e-20
3.77954e-05 0.000221642 -1.20494e-20
3.67912e-05 -0.000221127 -1.97932e-19
1.72943e-05 0.000370865 -3.11487e-20
0.000373822 2.59363e-05 1.91261e-20
5.68595e-05 8.63424e-06 -2.33556e-20
5.62313e-05 -7.13893e-06 -1.03995e-19
0.000202572 -0.000252358 -3.6524e-20
0.000246501 -0.000201654 -1.68499e-20
9.05556e-05 -0.00021855 -1.42404e-20
8.99315e-05 0.000217045 4.38199e-20
-6.58315e-05 -3.86941e-05 1.45955e-21
6.06452e-05 3.28062e-05 -2.59076e-20
6.01141e-05 -3.19302e-05 -1.06546e-19
5.64012e-05 6.27529e-05 -2.4441e-20
5.57785e-05 -6.22455e-05 -9.70327e-20
-2.40089e-06 -0.000177959 -6.79802e-20
-4.3034e-06 0.000164142 -1.23937e-20
0.000170327 -5.30244e-06 2.66094e-20
4.30925e-05 4.3258e-05 -1.86067e-20
4.22362e-05 -4.26618e-05 -1.02149e-19
-1.78102e-05 0.000181536 -8.10916e-20
0.000179357 -1.30836e-05 2.47831e-20
8.04556e-05 -1.18191e-05 -9.92617e-20
8.06412e-05 1.32289e-05 -1.16787e-20
7.65365e-05 -2.54225e-05 -7.44519e-20
7.67184e-05 2.6834e-05 -1.35039e-20
0.000210072 0.000258433 3.2605e-20
0.000259587 0.000210275 6.41186e-20
6.40073e-05 3.52193e-05 -1.7879e-20
6.35829e-05 -3.44199e-05 -1.07632e-19
2.21241e-05 -0.00012994 -1.01864e-19
2.30406e-05 0.000129933 1.31421e-20
5.69884e-05 2.54047e-05 -8.64949e-20
5.81712e-05 -2.24127e-05 -1.9344e-20
8.89075e-05 -8.40331e-05 -7.00794e-20
8.80614e-05 8.42772e-05 1.168e-20
-5.2746e-05 -1.22824e-05 2.80979e-20
-5.62829e-05 1.37488e-05 -4.34247e-20
8.23112e-05 0.000158686 2.44604e-20
0.000121515 0.000122422 1.38741e-20
8.31058e-05 -0.000159136 -1.89835e-20
0.000122591 -0.000122617 -2.92077e-21
8.77738e-05 -0.000164568 -9.34745e-20
-0.000185818 -2.5646e-06 -6.20695e-21
-0.000185317 3.45655e-06 -1.65386e-19
8.96076e-05 0.000165198 3.50486e-20
0.000147512 -6.11103e-05 8.03226e-21
0.000385654 -5.0758e-05 4.96705e-20
0.000390137 5.13512e-05 1.46135e-20
0.000151265 6.26405e-05 1.16855e-20
0.000190723 4.38418e-06 9.12735e-21
0.000129857 -3.58977e-05 -6.57089e-21
0.00017911 5.82263e-05 1.53352e-20
0.000193989 -2.17426e-06 -5.65925e-20
0.000181856 -5.85158e-05 -3.50588e-20
0.00013123 3.93624e-05 -3.97887e-20
0.000138836 -5.38756e-05 -7.84881e-20
0.000140513 -5.33608e-05 -6.24304e-20
0.000137257 5.47845e-05 -4.01541e-21
0.00013894 5.42743e-05 1.46039e-21
-3.07601e-05 -8.68357e-05 -4.0487e-20
-1.23818e-05 7.28756e-05 -2.3354e-20
1.19865e-05 -7.30121e-05 -4.96259e-20
-6.56984e-05 -1.21387e-05 -8.24425e-20
-8.20767e-05 -2.11571e-05 -5.58046e-20
-1.42417e-05 9.44876e-05 -1.3138e-20
1.38615e-05 -9.48117e-05 -8.72217e-20
-8.81e-05 2.20323e-05 -4.9241e-20
-2.82546e-05 4.42752e-05 -1.1932e-19
-4.78003e-05 -0.000106353 -6.67162e-20
-4.62438e-05 0.000112622 -5.61415e-20
0.000110678 -4.79388e-05 -1.74989e-20
6.12396e-05 6.36476e-05 -2.81039e-20
-6.20544e-05 -6.35908e-05 -1.16804e-20
-3.06039e-05 -6.12428e-05 -3.06421e-20
-9.94155e-06 -5.86509e-05 -6.12973e-20
6.91644e-06 9.66512e-05 -2.4816e-20
-7.39208e-06 -9.69792e-05 -1.56923e-20
6.88386e-05 1.00931e-05 1.82406e-20
-3.68345e-05 -0.00012768 -3.64646e-20
-3.70862e-05 0.00013025 -4.08397e-20
0.000131089 -3.48133e-05 -4.2298e-20
-5.71474e-05 -5.76657e-05 -4.55912e-20
-9.01902e-05 2.11028e-05 -2.55332e-21
-6.49904e-05 -5.8085e-05 -5.94614e-20
3.33694e-05 8.56241e-05 1.71435e-20
-6.22459e-05 1.17146e-05 -7.00408e-20
-9.55086e-05 -0.000194744 -5.03028e-20
-5.42674e-05 -2.72343e-05 -9.04891e-20
0.000195142 -9.59426e-05 -9.11315e-21
-3.18271e-06 9.02055e-05 -4.7449e-21
2.74818e-06 -9.05085e-05 -5.73074e-20
-0.000203453 9.84344e-05 -5.91591e-20
-0.000202947 -0.000102126 6.90183e-20
-0.000131831 4.29758e-05 -3.90134e-20
-4.79028e-05 -3.78669e-05 -2.7362e-20
-8.67015e-05 4.18018e-05 6.49743e-20
-8.31912e-05 -4.09587e-05 -4.92775e-20
-1.42157e-05 -2.90059e-05 -1.43035e-19
5.13806e-05 6.16118e-05 3.57445e-20
-8.49364e-05 5.60783e-05 1.86002e-20
-2.57131e-05 6.92933e-07 -1.412e-19
-5.58529e-05 5.94522e-05 -3.10015e-20
-3.10785e-05 8.6061e-05 -2.55324e-20
9.73317e-06 5.9021e-05 4.01373e-21
-8.60216e-05 5.59757e-05 2.77143e-20
-0.00020559 -0.000205591 5.793e-20
0.000208155 -0.000208173 -4.48145e-20
1.82172e-05 4.7349e-05 -5.87523e-20
0.000208911 -0.000221105 -3.44307e-20
-0.000224277 -0.000206493 2.441e-20
0.000105948 -2.04724e-05 2.73756e-20
0.000105729 2.05938e-05 2.73754e-20
4.9075e-05 1.72203e-05 4.08641e-20
9.93021e-05 -6.72028e-05 1.56946e-20
9.90752e-05 6.73777e-05 8.02976e-21
3.14268e-05 6.12247e-05 1.67809e-20
-8.60943e-05 0.000159111 -2.84791e-20
-8.62022e-05 -0.00015802 7.30263e-21
7.31688e-05 -4.25671e-05 1.75164e-20
7.29783e-05 4.25828e-05 2.44495e-20
-0.000115656 5.06459e-05 -6.12424e-20
9.61228e-05 -0.000149401 -9.09064e-20
-9.72545e-05 0.000149515 -3.65458e-22
5.10498e-05 -6.06558e-05 2.9185e-21
-0.000100433 0.00018878 -9.47637e-20
-0.000195255 0.000103388 -9.33047e-20
7.59244e-06 5.85624e-05 5.47286e-21
-8.52122e-06 -5.83158e-05 -4.99844e-20
0.00020753 -8.59761e-05 1.46057e-20
0.000207553 8.59854e-05 4.38177e-21
1.10961e-05 -1.97065e-05 -6.56773e-20
6.9089e-05 3.86787e-05 1.34999e-20
6.92781e-05 -3.74245e-05 7.29708e-21
-4.19552e-05 -2.86977e-05 -2.29875e-20
-1.81023e-05 -4.64227e-05 -7.30131e-22
-0.000121978 -2.52869e-05 -1.09926e-19
8.54121e-05 1.89866e-05 7.29603e-21
-0.000105847 -1.50263e-05 -6.72835e-20
-7.77912e-05 -6.4715e-05 -4.92704e-20
-8.94108e-05 -0.000154844 9.49633e-21
-8.96808e-05 0.000155311 -4.09073e-20
-9.38817e-05 -0.000103177 -6.27157e-20
-6.85113e-05 3.99123e-05 1.09433e-20
6.76278e-05 -3.60965e-05 1.45936e-20
1.61755e-05 -0.00016886 -1.02238e-19
-1.65957e-05 0.000169146 1.05877e-20
-8.01483e-05 7.1141e-05 1.97095e-20
5.76666e-06 7.69959e-05 -2.33538e-20
-5.91947e-06 -7.76449e-05 -8.39282e-21
4.95787e-05 -1.75268e-05 2.70014e-20
4.7875e-05 1.64643e-05 3.32047e-20
0.000111739 8.576e-05 -3.93787e-20
6.02746e-05 -5.66975e-05 -6.20385e-21
5.96654e-05 5.72335e-05 2.99246e-20
6.672e-05 3.65508e-05 -3.648e-22
3.16572e-05 -8.56274e-05 -7.29495e-21
4.50888e-05 -4.07999e-05 9.8527e-21
4.35603e-05 4.01622e-05 2.22601e-20
-7.1719e-05 3.24846e-05 -3.06462e-20
3.78405e-05 2.88365e-05 2.55427e-21
-8.62364e-05 -5.91584e-05 -4.6684e-20
-3.07712e-05 7.34107e-06 -3.6853e-20
-1.14783e-05 1.90574e-05 4.01397e-21
8.99927e-05 -1.57767e-05 -2.07875e-20
-7.02762e-05 4.17391e-05 3.2474e-20
-7.4217e-05 -3.40724e-05 -6.63982e-20
-5.77363e-05 -6.99769e-05 -8.31465e-20
-6.60943e-05 -4.32863e-05 -5.90914e-20
-1.48691e-06 -7.99344e-05 -1.60533e-20
7.2147e-07 7.96055e-05 -2.99172e-20
0.000110172 4.76334e-05 -2.6067e-20
-4.19785e-05 2.85045e-05 -7.66263e-21
5.52986e-05 -8.75088e-05 -2.15166e-20
5.44903e-05 8.74626e-05 3.50107e-20
-6.83234e-05 3.99291e-05 4.37818e-21
-2.79212e-05 4.39488e-05 -1.26263e-19
-2.86236e-05 -4.68704e-05 -8.50267e-20
-1.76089e-05 -8.12337e-05 -3.46458e-20
-6.41152e-05 6.05775e-05 9.12023e-21
8.25986e-06 -0.00011304 -3.15372e-20
1.5066e-05 0.000115073 -2.69795e-20
0.000116694 6.58382e-06 -3.46358e-20
0.000116192 -8.4152e-05 -2.44298e-20
7.71203e-05 5.31173e-05 2.18821e-21
-0.00011581 0.00020064 -1.78936e-20
0.000115745 -0.000200476 -2.15474e-20
8.69612e-05 1.8094e-05 -2.58938e-20
1.34868e-05 4.65596e-05 1.34995e-20
5.12197e-05 -1.87277e-05 4.41478e-20
-1.66218e-05 8.18463e-05 -3.1364e-20
2.43268e-05 -4.839e-05 -8.35643e-20
-2.46558e-05 4.76218e-05 2.18967e-21
3.85537e-05 -2.9165e-05 -1.82444e-21
2.80834e-05 -6.20949e-06 1.82458e-20
-1.38625e-05 -4.4522e-05 -5.21701e-20
2.35084e-05 9.71471e-07 3.43014e-20
7.70009e-05 -5.57566e-05 -1.27634e-20
-2.97344e-05 -8.18732e-06 -1.97036e-20
7.73057e-05 -5.88766e-05 1.82362e-21
-8.99983e-05 0.000109769 -3.09913e-20
-4.75649e-05 3.61586e-05 5.47255e-21
3.05694e-05 -0.000125763 -2.97196e-20
3.18172e-05 0.000124089 4.19354e-21
0.000129402 3.24555e-05 -3.93822e-20
7.75255e-05 5.94319e-05 2.44364e-20
1.44614e-07 9.11708e-05 -1.89693e-20
-9.06614e-07 -9.15761e-05 -2.00637e-20
6.1435e-05 -0.00011011 -6.92683e-21
6.1268e-05 0.000112872 -8.74934e-21
8.03215e-06 -2.45126e-05 1.86109e-20
8.62726e-06 2.42152e-05 2.95585e-20
4.42371e-05 3.31094e-05 1.34997e-20
2.98955e-05 4.31758e-05 -6.86011e-20
-6.59794e-05 -3.92289e-05 -8.757e-21
-0.000130772 -0.000100577 -9.64172e-20
1.61448e-05 8.4806e-05 1.38591e-20
8.24591e-05 4.23773e-05 2.29926e-20
8.27139e-05 -4.22876e-05 4.37949e-21
7.15225e-05 4.6715e-05 2.73606e-20
6.91949e-05 -3.8469e-05 -1.27715e-20
6.91071e-05 3.85563e-05 1.0947e-20
-3.34608e-05 -0.00037769 -6.22965e-20
0.000374972 -5.692e-05 -4.26211e-20
1.62692e-05 -8.34238e-05 -3.24592e-20
0.000132192 -0.000120317 -3.50475e-20
0.000132025 0.000120707 1.56984e-20
-0.000162679 -9.6055e-06 -1.33052e-19
-5.4612e-06 7.13472e-05 -4.34176e-20
4.79885e-06 -7.24249e-05 -7.66193e-21
-5.91126e-05 8.62554e-05 -1.13049e-20
2.59432e-05 7.86325e-06 -1.97054e-20
-1.13845e-05 -2.23255e-05 -5.07152e-20
-6.32456e-05 5.01537e-05 -3.64872e-22
6.24102e-05 -5.08951e-05 -1.01832e-19
4.40262e-05 -3.24065e-05 -7.29753e-21
-4.86073e-05 -3.29692e-05 -2.99179e-20
7.16422e-05 -4.64813e-05 -2.55362e-21
-8.47146e-05 -5.31404e-05 -6.23574e-20
8.16727e-05 -2.03428e-05 8.0251e-21
1.17014e-05 2.11604e-05 5.4736e-21
-2.91605e-05 5.95386e-05 -3.28313e-20
-1.70608e-05 -8.28037e-05 -2.62622e-20
6.30808e-05 3.94233e-05 2.44439e-20
1.67528e-05 8.33426e-05 -1.02134e-20
-2.96616e-05 -4.23737e-05 -1.78825e-20
-0.00010038 0.000189332 -7.28844e-20
-0.000183655 0.000104516 -3.72623e-20
6.89116e-05 -1.28521e-05 3.50215e-20
6.32514e-05 -3.93198e-05 -1.64177e-20
0.000215353 -0.00010479 -1.53367e-20
0.000215452 0.000104985 1.71627e-20
1.35466e-05 -4.72886e-05 -2.18928e-21
-0.000117925 8.05057e-05 6.20611e-21
-0.000115612 -8.23913e-05 -2.81115e-20
-4.94479e-05 -2.16047e-05 -1.26231e-19
-1.16355e-05 1.83769e-05 -3.57558e-20
0.000106368 -0.000131463 -5.28427e-21
-0.000127442 -0.000100403 -4.88376e-20
0.000108412 -0.000155424 -1.4216e-20
0.000100028 0.000146662 2.3689e-21
0.000160794 9.36504e-05 -5.66797e-20
9.90379e-06 -1.83285e-05 -1.78805e-20
-4.90359e-06 -0.000167186 -4.77431e-20
0.000170581 -1.11858e-05 -4.79255e-20
9.15822e-05 0.000125742 -4.74541e-21
-9.23441e-05 -0.00012557 -4.27109e-20
-5.74454e-05 -4.53385e-05 -1.67859e-20
-2.47711e-05 1.83181e-06 -1.51052e-19
5.8782e-05 9.15836e-05 1.85962e-20
5.9569e-05 -9.10911e-05 -2.95349e-20
-5.64196e-05 1.64417e-05 -1.12006e-19
2.99059e-05 -6.00514e-05 -4.74234e-21
9.00772e-05 -7.0686e-05 -2.92033e-20
8.97436e-05 7.0881e-05 8.76099e-21
-6.91649e-05 -3.63853e-05 -2.37181e-20
-4.83813e-05 3.23452e-05 -2.408e-20
-5.55253e-05 -2.5747e-05 -7.51615e-20
-0.000105358 -5.7717e-05 -8.85969e-20
-1.41535e-05 4.76774e-05 -4.04961e-20
-0.000215264 0.000215267 5.01842e-20
-1.56539e-05 8.4411e-05 -1.96967e-20
1.51577e-05 -8.59092e-05 -1.67787e-20
1.61156e-05 -0.000168899 -8.25035e-20
-1.66344e-05 0.000169077 9.49156e-21
2.37426e-05 -4.51225e-05 1.13133e-20
2.35595e-05 4.35184e-05 1.56926e-20
-8.19122e-05 4.3156e-05 2.22626e-20
-8.12812e-05 -4.17234e-05 -1.97073e-20
-0.000143082 -2.64645e-05 4.38053e-21
-0.000141112 2.70465e-05 -1.82503e-21
0.000191307 -0.000106181 -3.10346e-20
0.000191214 0.000106388 1.71604e-20
5.1589e-05 2.69485e-06 9.4888e-21
5.07165e-05 -1.27756e-06 2.5911e-20
7.44036e-05 -3.50954e-05 -6.93075e-21
-4.98937e-06 7.45815e-05 -3.39274e-20
6.41477e-05 4.80387e-05 3.86651e-20
4.47375e-06 -7.43126e-05 -6.93153e-21
-0.000117715 8.07735e-05 1.09385e-20
7.3944e-05 3.53452e-05 9.48398e-21
-8.9103e-06 -7.89455e-05 -2.62662e-20
-5.18235e-05 -1.01017e-06 1.75164e-20
-5.2084e-05 5.44357e-07 -3.8317e-20
-5.46381e-05 4.72598e-05 -9.48801e-21
9.4022e-05 0.000162855 5.04013e-20
-9.41055e-05 -0.000163036 -4.56413e-20
-1.78406e-05 -5.69857e-05 6.20339e-21
-6.95078e-05 -4.10953e-05 -2.59047e-20
-9.87814e-06 -9.11838e-05 -7.81139e-20
6.45402e-05 -4.74448e-05 3.64766e-21
0.000104598 0.000195202 3.27082e-20
0.000187816 9.24672e-05 -2.06827e-20
1.49226e-05 -5.60823e-05 7.29951e-21
1.3967e-05 5.45159e-05 1.45988e-20
-1.28836e-05 9.56253e-05 -5.47532e-20
7.7669e-06 7.66577e-05 3.64805e-21
9.05472e-05 -4.76992e-05 -5.10648e-21
7.53977e-05 -2.4712e-05 9.85358e-21
7.52212e-05 2.47575e-05 2.04368e-20
-0.000186517 1.18773e-08 -5.04078e-20
-0.000186792 -1.17185e-08 1.06295e-19
1.40965e-05 -4.41051e-05 -6.93264e-21
-7.12769e-05 -4.25528e-05 -4.8885e-20
5.945e-05 6.68764e-05 2.55484e-20
6.0055e-05 -6.66674e-05 -6.2047e-21
1.87184e-05 5.45431e-05 -5.43676e-20
8.35158e-06 1.50188e-05 -6.02035e-20
0.000209711 0.000209712 4.73633e-20
-6.17534e-05 -2.1146e-05 2.1534e-20
-6.16647e-05 1.9821e-05 -3.86879e-20
-1.47657e-05 4.38386e-05 -5.21748e-20
9.04801e-05 4.77714e-05 7.29707e-22
-6.99164e-05 3.51984e-05 1.67859e-20
-9.02434e-05 1.17693e-05 2.55479e-20
-9.01585e-05 -1.17721e-05 1.82461e-21
-5.45784e-05 2.59215e-05 -5.43668e-20
2.74227e-05 -0.000118216 -8.39562e-21
2.68683e-05 0.000118644 1.7521e-20
3.6572e-05 0.000221143 2.00832e-20
-3.70534e-05 -0.000221001 -3.6881e-20
-2.87273e-05 0.00037796 -7.10378e-21
-0.000378348 2.08747e-05 8.2241e-20
5.65203e-05 7.97479e-06 2.00709e-20
5.61957e-05 -8.11136e-06 6.93357e-21
-6.43058e-06 -1.60367e-05 -7.29741e-22
0.000205216 0.000259394 6.27538e-20
0.000255521 0.00020256 7.28596e-21
9.05201e-05 0.00021849 -1.0955e-20
9.04329e-05 -0.000218284 3.65208e-22
-6.569e-05 3.87959e-05 9.85133e-21
5.63474e-05 -6.145e-05 -5.47181e-21
6.03564e-05 3.24773e-05 1.0217e-20
6.04984e-05 -3.24581e-05 -5.47333e-21
4.2398e-05 -4.28964e-05 -7.29668e-22
5.58284e-05 6.23996e-05 4.52342e-20
-2.45652e-06 -0.000170298 -4.28303e-20
1.62529e-06 0.000172911 -7.10845e-21
0.000181472 -1.09831e-06 -3.66327e-20
4.24152e-05 4.3003e-05 1.42282e-20
7.26569e-06 0.000178405 -2.18673e-20
-0.000179448 -2.28222e-05 -1.06601e-19
8.05895e-05 -1.32825e-05 1.97076e-20
8.06344e-05 1.26343e-05 2.77364e-20
7.67654e-05 -2.63441e-05 3.57664e-20
7.66527e-05 2.64441e-05 1.82481e-20
-0.000211659 0.00026295 -5.92005e-20
-0.000259703 0.000211721 8.60671e-20
6.36163e-05 3.48179e-05 2.11625e-20
6.37341e-05 -3.4752e-05 -2.51761e-20
2.18769e-05 0.000129806 1.49684e-20
-2.23591e-05 -0.000129652 -4.12527e-20
5.89514e-05 2.37417e-05 3.1388e-20
5.78434e-05 -2.35093e-05 2.18985e-20
8.85536e-05 -8.44669e-05 -3.13901e-20
8.82043e-05 8.47813e-05 1.56951e-20
-5.2455e-05 1.23272e-05 3.64724e-22
-5.35972e-05 -1.28876e-05 -1.05823e-20
8.24873e-05 0.000160091 2.55568e-21
0.000122309 0.000123256 -7.3036e-22
8.27668e-05 -0.000159458 3.28566e-21
0.000122267 -0.000122921 -2.73828e-20
-8.83407e-05 -0.000164513 -5.14781e-20
-0.000185516 -3.01923e-06 7.37583e-20
-0.000185447 2.57566e-06 -4.27216e-20
8.76048e-05 0.000164462 5.84203e-21
0.000149281 6.18388e-05 5.18421e-20
0.000388378 5.11e-05 2.11817e-20
0.000149133 -6.17762e-05 1.7159e-20
0.000388421 -5.1104e-05 2.1182e-20
0.000192459 -3.60909e-06 4.78264e-20
0.000130738 3.7243e-05 4.8185e-20
0.000180609 -5.85261e-05 3.65108e-21
0.000192333 3.70574e-06 3.61435e-20
0.000130554 -3.71844e-05 4.85501e-20
0.000180489 5.86055e-05 1.75253e-20
0.000138231 -5.46171e-05 2.92027e-20
0.000139891 -5.41145e-05 1.78892e-20
0.000138056 5.47859e-05 5.47542e-21
0.00013975 5.42729e-05 2.99373e-20
-3.19835e-05 -8.82209e-05 -3.39216e-20
-1.20368e-05 7.29873e-05 -1.42316e-20
1.26755e-05 -7.26424e-05 -2.80983e-20
-6.56393e-05 1.19694e-05 7.66047e-21
-8.38723e-05 2.17989e-05 -1.49539e-20
-1.39186e-05 9.48585e-05 -7.40861e-20
1.4551e-05 -9.44372e-05 -3.175e-20
-8.39336e-05 -2.16102e-05 -2.29789e-20
-2.81575e-05 -4.41757e-05 4.52454e-20
-4.73639e-05 -0.000106451 -1.12654e-19
4.81021e-05 0.000109098 -2.91645e-20
0.000110796 5.01642e-05 -4.73865e-21
-6.14826e-05 -6.34603e-05 -6.46047e-20
6.15599e-05 6.39235e-05 6.78915e-20
-6.74606e-05 4.03958e-05 5.94647e-20
-2.98842e-05 -6.06228e-05 -2.69948e-20
-1.019e-05 -5.84748e-05 -2.73658e-20
-6.74681e-06 -9.68915e-05 -5.76606e-20
7.28264e-06 9.6929e-05 1.38685e-20
6.84533e-05 1.02187e-05 2.11586e-20
-3.64777e-05 -0.000128134 -9.88194e-20
3.45428e-05 0.00012989 -3.42755e-20
0.00013456 3.55909e-05 9.84525e-21
3.18197e-05 8.69997e-05 8.02464e-21
-5.87796e-05 -5.91598e-05 -4.99687e-20
-6.17214e-05 -1.26624e-05 -1.24024e-20
-9.22606e-05 -0.000191123 -8.34743e-20
-5.45473e-05 2.74263e-05 3.28386e-20
-2.74219e-06 9.05318e-05 -2.40915e-20
3.68802e-06 -9.0232e-05 -5.0007e-20
-0.000203431 -9.86031e-05 -1.93529e-20
-0.000202967 0.000102154 4.85682e-20
-4.41176e-05 5.96519e-05 3.64793e-21
-5.33635e-05 6.31594e-05 -2.18834e-20
-0.000122985 3.96649e-05 -1.09423e-21
-8.68463e-05 -4.20826e-05 2.29957e-20
-8.31355e-05 4.07368e-05 7.30027e-20
-1.42495e-05 2.92101e-05 7.33416e-20
-2.56348e-05 -8.94986e-07 7.44308e-20
-8.85051e-05 5.78078e-05 5.39778e-20
-0.000102183 -1.60546e-05 -2.84461e-20
-9.32315e-05 1.87234e-05 -1.82361e-21
9.22361e-06 5.9081e-05 -8.93923e-20
-2.90869e-05 8.7687e-05 -6.56549e-20
5.31426e-05 6.18972e-05 -1.34947e-20
-0.000206861 -0.000206853 -1.45732e-20
-0.00020367 0.000203661 -2.87825e-20
1.83832e-05 4.75521e-05 3.64932e-20
3.0771e-05 6.14824e-05 -3.64794e-20
-0.000204264 0.000222151 -5.4596e-22
-0.000215507 -0.000207273 -8.708e-20
0.000105534 -2.0969e-05 -1.13154e-20
0.000106187 1.94737e-05 -1.45981e-21
5.00064e-05 1.70563e-05 2.15265e-20
9.89805e-05 -6.7057e-05 -4.01491e-21
9.94646e-05 6.67506e-05 3.65009e-21
-8.61506e-05 -0.000159249 1.75243e-20
-8.62025e-05 0.000158072 -1.67952e-20
7.32129e-05 -4.27606e-05 -3.02884e-20
7.30453e-05 4.19602e-05 -1.53264e-20
-9.63244e-05 0.000149546 -2.30019e-20
9.82763e-05 -0.000149848 3.65216e-22
5.09342e-05 -6.08097e-05 -2.99094e-20
0.000100094 0.000189128 -3.04345e-20
0.000189988 0.000100126 -1.94992e-20
7.78389e-06 5.87756e-05 -5.8741e-20
-7.85991e-06 -5.79264e-05 -3.02832e-20
0.000206018 -8.53364e-05 -9.49394e-21
0.000208585 8.6384e-05 -3.43318e-20
-8.45092e-05 -5.8728e-05 -4.44973e-20
1.1117e-05 -1.85995e-05 -1.35017e-20
6.92112e-05 3.75278e-05 -2.00673e-20
6.94039e-05 -3.77795e-05 -3.65059e-22
-4.25619e-05 -2.89852e-05 1.13118e-20
-1.74533e-05 -4.62607e-05 -5.72956e-20
-7.76666e-05 6.47963e-05 4.99994e-20
-0.000118618 -2.68526e-05 -1.6043e-20
-8.94332e-05 0.000154874 -1.93577e-20
-8.97351e-05 -0.000155435 -2.59284e-20
-6.68117e-05 -4.11928e-05 -3.57474e-20
6.69547e-05 3.56142e-05 -2.18922e-21
-9.49157e-05 -0.000103177 -9.62616e-20
1.69533e-05 -0.000169638 -2.04449e-20
-1.62625e-05 0.000169039 -6.86496e-20
-8.03454e-05 -7.11788e-05 4.0141e-21
6.13186e-06 7.7537e-05 -6.56846e-21
-5.2678e-06 -7.74665e-05 -3.83162e-20
4.89127e-05 1.6316e-05 5.83817e-21
4.99328e-05 -1.8066e-05 2.5542e-20
0.000112091 -8.42354e-05 -3.50036e-20
8.42509e-05 1.81529e-05 2.95457e-20
6.04919e-05 -5.66956e-05 4.74411e-21
6.00558e-05 5.64414e-05 -7.66376e-21
6.81996e-05 -3.68007e-05 7.29981e-22
3.19161e-05 -8.53014e-05 -4.99726e-20
4.55602e-05 -4.10232e-05 7.29811e-22
4.41366e-05 3.9652e-05 -7.66313e-21
-7.22736e-05 -3.2284e-05 2.44441e-20
-7.5952e-05 5.97592e-05 3.4277e-20
3.70281e-05 2.86495e-05 -7.58935e-20
-3.16547e-05 7.68149e-06 -4.3791e-21
-1.16693e-05 1.97762e-05 -7.73537e-20
9.02457e-05 1.49797e-05 2.29758e-20
-0.00012743 0.000124105 -1.07521e-20
-7.04264e-05 -4.20521e-05 3.64867e-20
-7.28093e-05 3.45066e-05 3.53881e-20
-0.000173256 2.83116e-05 -1.45704e-21
-6.74961e-05 4.11974e-05 5.50805e-20
-1.00259e-06 -7.96673e-05 -2.59041e-20
1.49807e-06 7.99335e-05 1.8244e-21
-5.99021e-05 -7.11851e-05 -7.51239e-20
0.00011068 -4.76969e-05 -2.15099e-20
-4.20702e-05 3.13602e-05 3.28399e-21
5.49975e-05 -8.63934e-05 -3.20929e-20
-5.77627e-05 9.31593e-05 -5.47004e-21
-6.93013e-05 -4.10056e-05 2.18933e-21
-2.79606e-05 -4.39835e-05 5.18172e-20
-2.85789e-05 4.69766e-05 6.60503e-20
-1.72007e-05 -8.18091e-05 -4.33993e-20
1.60094e-05 8.37193e-05 -2.18783e-21
9.98512e-06 -0.000112958 -3.29962e-20
-1.49074e-05 0.000116295 3.28094e-21
0.000117888 -1.28342e-05 1.07554e-20
7.83797e-05 -5.24242e-05 -6.92849e-21
0.000116089 -0.000201091 -3.90687e-20
-0.00011585 0.000200678 -1.93602e-20
-8.30578e-05 -5.00975e-05 -4.52201e-20
8.72881e-05 -1.92822e-05 -1.38586e-20
-0.000131852 -0.000104549 -6.68905e-20
1.29719e-05 4.68325e-05 -6.96818e-20
5.12709e-05 -1.9064e-05 2.44454e-20
2.42629e-05 -4.7095e-05 1.09485e-21
-2.48672e-05 4.83874e-05 -6.09412e-20
7.80988e-05 0.000110073 -5.688e-20
0.000116164 7.81662e-05 -4.73997e-20
3.89919e-05 -2.95559e-05 -3.32059e-20
-0.000166218 -7.49363e-06 -3.42652e-20
2.72082e-05 -6.71064e-06 -8.10007e-20
-1.32698e-05 -4.76552e-05 -1.34996e-20
2.37758e-05 6.06369e-07 3.28419e-21
-2.75468e-05 -7.10286e-06 1.16764e-20
-6.30237e-05 -6.01315e-05 -1.42268e-20
3.09442e-05 -0.000124912 -1.56808e-20
-2.96014e-05 0.000124679 -1.34928e-20
0.000127723 -3.35473e-05 -4.01107e-21
7.86761e-05 -6.04232e-05 -1.09393e-21
9.46041e-07 9.10136e-05 2.66305e-20
-4.16391e-07 -9.14243e-05 -1.82399e-20
6.28507e-05 -0.00011324 -3.20827e-20
-5.96881e-05 0.0001192 4.37495e-21
8.85869e-06 2.32291e-05 1.45964e-21
8.46391e-06 -2.46579e-05 1.09476e-21
4.42359e-05 3.34711e-05 -5.98334e-20
3.01266e-05 4.34647e-05 3.0653e-20
-6.48059e-05 3.97557e-05 5.54594e-20
8.28093e-05 4.17224e-05 -9.85365e-21
8.26247e-05 -4.2488e-05 -5.10947e-21
6.93266e-05 -3.87502e-05 -2.70025e-20
6.91794e-05 3.7958e-05 -2.62716e-20
-4.01131e-05 -0.000373536 -2.8597e-20
5.49523e-05 8.58864e-05 -3.0998e-20
-0.000384775 4.50762e-05 -9.399e-20
-4.87238e-05 -3.62669e-05 -3.64828e-22
1.68343e-05 -8.31421e-05 -3.90246e-20
-1.44688e-05 8.56927e-05 -4.26699e-20
0.000131441 -0.00011949 -2.04447e-20
0.000132721 0.000120301 -2.19044e-21
7.19786e-05 4.64234e-05 -3.72097e-20
8.44123e-05 -2.09721e-05 9.48375e-21
7.8424e-05 5.44577e-05 -3.35493e-20
-5.10688e-06 7.18893e-05 -2.26212e-20
5.31593e-06 -7.231e-05 -4.34186e-20
2.65255e-05 7.0474e-06 -2.95588e-20
7.18456e-05 -4.67816e-05 4.37765e-21
-1.28786e-05 -2.14132e-05 -8.75776e-21
-6.25512e-05 5.0866e-05 -4.41656e-20
6.39978e-05 -4.97023e-05 -9.48984e-21
4.43064e-05 -3.27035e-05 -3.13787e-20
-4.94317e-05 -3.36329e-05 -4.37816e-21
1.01483e-05 2.17502e-05 -7.84437e-20
1.64124e-05 8.26243e-05 2.00616e-20
-1.699e-05 -8.24234e-05 -7.65981e-21
6.31655e-05 3.88233e-05 -3.72128e-20
7.8784e-05 5.96272e-05 -4.413e-20
-2.77953e-05 6.03053e-05 -6.05557e-20
-2.8776e-05 -4.22944e-05 -4.89024e-20
0.000100774 0.000182724 -6.19559e-21
0.000185425 0.000100537 -7.47122e-21
-0.000115288 8.62244e-05 2.26052e-20
6.34399e-05 -3.95934e-05 -8.75624e-21
6.91279e-05 -1.2657e-05 1.42277e-20
0.000216215 0.000104806 -3.90745e-20
0.000213845 -0.000104161 -2.70223e-20
1.40692e-05 -4.74682e-05 -3.0648e-20
-0.000117985 -8.06873e-05 2.33626e-20
-0.000115781 8.24545e-05 3.28573e-20
-4.90402e-05 2.09928e-05 2.95512e-20
-1.23071e-05 1.84385e-05 -1.31349e-20
-9.70328e-05 0.00012945 -1.60356e-20
-0.000121814 -0.000104129 -6.1229e-20
0.000104358 -0.000149423 -1.14813e-20
-9.48885e-05 0.000154933 1.71318e-20
0.000156322 -9.11578e-05 -3.13473e-20
-0.000106521 -5.76751e-05 -4.22937e-20
1.08556e-05 -1.85416e-05 -2.80983e-20
-1.27629e-05 -0.000167165 -7.8905e-20
-0.000158217 1.40699e-06 -6.04983e-20
9.18673e-05 0.000125949 5.29357e-20
-9.18641e-05 -0.00012563 -4.52652e-20
-5.67787e-05 4.49045e-05 7.95492e-20
-2.48695e-05 -1.81983e-06 9.08481e-20
-5.65205e-05 9.22231e-05 -7.29216e-21
5.97853e-05 -9.04241e-05 -3.39109e-20
-5.65693e-05 -1.67618e-05 2.88221e-20
3.01849e-05 -6.00389e-05 -5.21675e-20
8.9865e-05 -7.04986e-05 3.28527e-21
9.02252e-05 7.02216e-05 1.6062e-20
-6.95223e-05 3.65848e-05 9.19531e-20
-4.32752e-05 3.1926e-05 -1.89715e-20
-5.58154e-05 2.59271e-05 3.75807e-20
-1.28214e-05 5.19733e-05 -4.74281e-20
0.000214028 0.000214037 1.45729e-20
1.56687e-05 -8.57475e-05 -3.86647e-20
-1.45435e-05 8.55503e-05 -1.71435e-20
-1.61505e-05 0.000169148 -7.08278e-20
1.71771e-05 -0.000169324 -5.58516e-20
2.42655e-05 -4.53031e-05 1.16784e-20
2.40351e-05 4.30166e-05 -1.05837e-20
-8.24042e-05 -4.33362e-05 5.18217e-20
-8.06507e-05 4.17357e-05 8.28422e-20
-0.000143081 2.60153e-05 3.61408e-20
-0.000141206 -2.66728e-05 7.33798e-20
0.000189824 -0.000105553 -3.21306e-20
0.000192553 0.000106187 -2.73875e-20
5.19244e-05 1.92974e-06 -2.81011e-20
4.94048e-05 -1.87371e-06 -7.91839e-20
7.45906e-05 3.44368e-05 -5.83634e-21
-4.55686e-06 7.55423e-05 -4.99788e-20
4.99663e-06 -7.41656e-05 -3.94018e-20
7.41178e-05 -3.58625e-05 -2.91845e-21
-8.24323e-06 -7.82837e-05 -2.44432e-20
8.09537e-06 7.76606e-05 -2.95503e-20
6.45139e-05 4.78269e-05 -3.53815e-20
-5.2109e-05 7.30947e-08 -6.20406e-21
-5.26347e-05 -6.04327e-07 3.17486e-20
6.44675e-05 -4.80637e-05 1.34964e-20
-5.51656e-05 -4.76065e-05 4.52504e-20
9.41436e-05 0.000163101 4.05456e-20
-9.41158e-05 -0.000163032 -2.11765e-20
-1.71879e-05 -5.69645e-05 -5.25473e-20
-6.92331e-05 4.05055e-05 1.06173e-19
-9.86258e-06 9.12253e-05 6.57024e-21
0.000108825 -0.000191967 -3.3713e-21
0.000188937 -8.98982e-05 -3.28032e-21
1.5657e-05 -5.59996e-05 1.16793e-20
1.43058e-05 5.44658e-05 -2.99275e-20
-1.29025e-05 -9.57262e-05 1.78852e-20
9.12103e-05 4.75019e-05 4.37671e-21
7.54078e-05 -2.51722e-05 -1.20431e-20
7.52998e-05 2.40293e-05 -1.97056e-20
-0.00018641 -1.86347e-08 -4.78333e-20
-0.000186805 7.38247e-09 6.9402e-20
1.46466e-05 -4.41239e-05 -4.23263e-20
-6.97321e-05 4.08944e-05 7.77061e-20
5.9821e-05 6.62303e-05 -2.04389e-20
6.02792e-05 -6.65326e-05 3.64986e-21
1.898e-05 5.50743e-05 -2.66368e-20
9.7351e-06 1.58539e-05 -1.45948e-20
0.000207774 -0.00020777 5.9659e-20
-6.28509e-05 2.07653e-05 3.43087e-20
-6.16968e-05 -1.94399e-05 4.34326e-20
-1.41896e-05 4.49887e-05 -3.50265e-20
8.91586e-05 -4.80594e-05 -7.293e-22
-6.99877e-05 -3.51213e-05 4.81684e-20
-9.13211e-05 -9.77024e-06 5.62053e-20
-8.97309e-05 1.50886e-05 4.67149e-20
-5.47395e-05 -2.5644e-05 3.64872e-20
2.71253e-05 0.000118197 -2.08068e-20
2.80107e-05 -0.000117393 3.17573e-20
3.68922e-05 0.000221179 1.35121e-20
-3.64366e-05 -0.000221627 -4.92933e-20
1.71532e-05 0.000370687 -3.77065e-20
0.000373798 2.57511e-05 -3.78876e-20
5.64103e-05 -8.76871e-06 -2.84644e-20
5.62434e-05 7.18606e-06 -6.49513e-20
-5.76873e-06 -1.621e-05 -4.48844e-20
0.000202679 -0.000252723 4.18061e-20
0.000246514 -0.000201793 2.48646e-20
9.06697e-05 0.000218825 -7.52196e-20
8.98403e-05 -0.000216828 1.89885e-20
-6.57644e-05 -3.87566e-05 2.37171e-20
5.65312e-05 -6.16466e-05 -1.31327e-20
6.06641e-05 -3.28376e-05 -2.4083e-20
6.01178e-05 3.19167e-05 -5.40024e-20
4.2669e-05 -4.32516e-05 -2.22551e-20
5.59439e-05 6.23947e-05 -3.21009e-20
-4.4882e-06 0.000164067 2.87961e-20
-2.16155e-06 -0.000178318 -3.44468e-20
0.000170389 -5.60019e-06 -1.25754e-20
4.24487e-05 4.26245e-05 -4.81562e-20
-1.79404e-05 0.000181391 -2.11383e-20
0.000179309 -1.32865e-05 -4.50099e-20
8.05136e-05 -1.38774e-05 -1.05836e-20
8.042e-05 1.18593e-05 -4.08725e-20
7.67416e-05 -2.67633e-05 -6.93433e-21
7.65048e-05 2.54457e-05 -2.44523e-20
0.000209926 0.000258275 1.65761e-20
0.000259521 0.000210142 -1.82156e-20
6.36718e-05 3.44682e-05 -5.54579e-20
6.39167e-05 -3.51435e-05 -2.73657e-20
2.22279e-05 0.000130009 1.56996e-20
-2.16518e-05 -0.000129722 -4.38073e-20
5.91695e-05 2.26419e-05 -2.77388e-20
5.69486e-05 -2.53806e-05 -7.62759e-20
8.83658e-05 -8.40687e-05 5.47507e-21
8.86693e-05 8.42202e-05 -4.3797e-21
-5.28791e-05 -1.24963e-05 2.84636e-20
-5.62482e-05 1.38866e-05 1.93397e-20
-8.78552e-05 -0.000164645 -3.97946e-20
-0.00018526 -2.90253e-06 -2.99379e-20
-0.000185427 3.26769e-06 8.10615e-20
8.78885e-05 0.000164651 5.623e-20
8.28831e-05 0.000159744 -4.30786e-20
0.000122694 0.000122925 -3.6512e-22
8.25917e-05 -0.000158062 4.85562e-20
0.000121457 -0.00012211 1.31441e-20
0.000147619 6.11558e-05 -1.24132e-20
0.000151267 -6.26417e-05 -2.88474e-20
0.000390411 -5.13871e-05 -2.77656e-20
0.000385547 5.07455e-05 -5.40521e-20
0.000190799 -4.29122e-06 -1.78898e-20
0.000129978 3.59617e-05 -3.28546e-21
0.000194032 2.23421e-06 -2.33672e-20
0.000131213 -3.93425e-05 -6.16909e-20
0.000181893 5.86052e-05 -1.46079e-20
0.000179181 -5.81475e-05 -2.48279e-20
0.00013737 -5.46381e-05 -1.24114e-20
0.00013904 -5.41321e-05 -1.38736e-20
0.000138826 5.3991e-05 -1.13168e-20
0.000140493 5.34797e-05 -1.09528e-20
-1.1634e-05 7.25543e-05 -2.99223e-20
8.99262e-06 -7.99993e-05 8.76036e-21
-6.50892e-05 -1.27212e-05 -3.68452e-20
-8.15468e-05 -2.24315e-05 -4.45004e-20
-1.34677e-05 9.38503e-05 -6.05834e-20
8.14877e-06 -8.98422e-05 1.24118e-20
-8.70946e-05 2.09172e-05 -5.90918e-20
-2.7085e-05 4.35733e-05 -6.86042e-20
-4.60947e-05 0.000113156 -4.52057e-20
-4.40807e-05 -0.00011055 2.1148e-20
0.000113012 4.54249e-05 -3.20823e-20
6.37152e-05 -5.98903e-05 -1.20471e-20
6.10116e-05 6.32793e-05 -2.19001e-20
-6.34372e-05 -4.29211e-05 4.74333e-21
1.77997e-05 -8.77913e-05 6.93536e-21
7.29459e-06 9.59066e-05 6.93456e-21
6.79728e-05 -1.59882e-05 -1.93366e-20
-3.03735e-05 -0.000136501 9.11747e-21
-3.68865e-05 0.000130881 -7.65753e-20
0.000134844 3.13869e-05 5.25103e-20
-9.02673e-05 1.95109e-05 -6.16337e-20
3.42847e-05 8.51336e-05 -4.45002e-20
4.27629e-05 -9.70569e-05 -9.12129e-21
-6.14228e-05 1.06265e-05 -7.62459e-20
-9.26928e-05 -0.000201094 2.18727e-21
-5.2558e-05 -2.77016e-05 -8.75725e-21
0.000200764 9.53062e-05 -2.80682e-20
-2.54974e-06 8.96243e-05 -3.68681e-20
1.61408e-05 -8.67462e-05 6.93669e-21
-0.000202619 9.85008e-05 -2.92098e-20
-0.000197142 -0.000102035 -2.19064e-21
-0.000132381 4.16294e-05 -6.08946e-20
-4.09169e-05 -6.07554e-05 -6.56696e-21
-7.94682e-05 -4.20964e-05 9.49031e-21
-8.57705e-05 4.17137e-05 -2.81049e-20
-1.34683e-05 -2.94288e-05 -1.09473e-21
5.29639e-05 6.0233e-05 -5.36159e-20
5.83111e-05 -7.63158e-05 -1.60521e-20
-8.48674e-05 5.54783e-05 -5.28858e-20
-2.45245e-05 -3.32267e-07 -3.64889e-20
-5.45546e-05 -6.51249e-05 1.86041e-20
-5.58382e-05 5.93127e-05 -1.93304e-20
-2.40463e-05 -9.00472e-05 1.64161e-20
-3.0844e-05 8.61592e-05 -2.7356e-20
2.69479e-05 -7.18954e-05 7.66557e-21
9.9608e-06 5.86572e-05 -4.59746e-20
-8.65911e-05 5.53195e-05 -4.12079e-20
-0.000215881 -0.000215903 5.82967e-21
0.00021447 0.000214507 -4.11708e-20
2.29616e-05 -4.44562e-05 -1.89796e-20
1.83198e-05 4.71013e-05 -5.25494e-20
0.000215332 0.000229214 -4.09884e-20
-0.000225726 -0.00021638 -1.42094e-20
0.000103993 1.81804e-05 -4.01541e-20
8.37226e-05 -4.56337e-05 2.66535e-20
4.85316e-05 -2.29993e-05 -3.53922e-20
9.74855e-05 6.39129e-05 -7.55609e-20
7.97175e-05 -7.37938e-05 4.8191e-20
3.23382e-05 6.0652e-05 -2.77249e-20
4.10336e-05 -7.53407e-05 -1.86097e-20
-8.2713e-05 -0.000158069 5.14771e-20
-8.51184e-05 0.000159738 -5.1476e-20
7.2233e-05 3.94874e-05 -9.23287e-20
6.62087e-05 -5.56912e-05 3.066e-20
-0.000116794 4.902e-05 -5.06739e-20
-9.5068e-05 0.000147871 -1.34362e-19
-4.23195e-05 -0.000120881 -1.09555e-20
-0.000103748 0.000194167 -5.92285e-20
-0.000197391 0.000102416 -6.14154e-20
8.26956e-06 5.8294e-05 -4.88905e-20
2.18242e-05 -7.07978e-05 5.10944e-21
0.000203396 8.42805e-05 1.08868e-19
0.000160121 -6.62888e-05 -7.15918e-20
6.88523e-05 3.34581e-05 -7.04215e-20
6.50713e-05 -4.61086e-05 1.64216e-20
-0.000122332 -2.79764e-05 -4.95885e-20
8.66895e-05 -2.60281e-05 -4.37766e-21
-0.000104287 -1.65e-05 -4.15753e-20
-7.42122e-05 -6.521e-05 1.53285e-20
-8.95193e-05 0.000154999 -5.65926e-20
-8.81102e-05 -0.000152614 1.1684e-20
-9.21096e-05 -0.000107133 5.83485e-21
-6.83869e-05 3.92606e-05 -4.04898e-20
6.77622e-05 3.25824e-05 -3.75784e-20
1.36506e-06 -0.000131502 -1.67977e-20
-1.59642e-05 0.000167135 -6.93801e-20
-7.9262e-05 7.0865e-05 -5.87594e-20
1.72638e-05 -7.86671e-05 7.29983e-22
6.17377e-06 7.67249e-05 -4.41533e-20
4.90661e-05 1.28838e-05 -7.51677e-20
4.51004e-05 -2.08403e-05 -3.50308e-20
0.000117518 -9.66613e-05 4.74067e-20
5.90117e-05 5.21201e-05 -1.20435e-19
5.19036e-05 -5.99114e-05 2.70084e-20
6.55305e-05 -4.65228e-05 -9.8516e-21
4.44362e-05 3.68606e-05 -9.37831e-20
4.02401e-05 -4.75516e-05 1.02185e-20
-7.10714e-05 3.17827e-05 -8.71978e-20
3.70699e-05 2.74781e-05 -6.93284e-20
4.48465e-05 -5.25904e-05 -3.64812e-22
-8.55063e-05 -6.0562e-05 -1.6414e-20
1.33649e-05 -4.63097e-05 4.01557e-21
-1.09465e-05 1.92601e-05 -6.38544e-20
9.13363e-05 1.12289e-05 -4.01211e-21
-6.97031e-05 4.1223e-05 -5.54599e-20
-7.24132e-05 -3.56144e-05 -2.3715e-20
-5.49406e-05 -7.39023e-05 5.47061e-21
-6.35418e-05 -4.59983e-05 1.6416e-20
1.18646e-05 -8.14597e-05 6.9338e-21
1.34372e-06 7.92232e-05 -4.59711e-20
0.00011578 -5.45095e-05 3.17212e-20
-4.16492e-05 2.84212e-05 2.4447e-20
-3.84004e-05 -3.32081e-05 -2.22604e-20
6.10073e-05 -9.8727e-05 5.47143e-21
5.59944e-05 8.55536e-05 -6.41875e-20
-6.76392e-05 3.9309e-05 -5.8009e-20
-2.65149e-05 4.30139e-05 -3.94138e-20
-2.627e-05 -4.53049e-05 -3.28441e-21
-6.38899e-05 6.04091e-05 -1.93344e-20
1.44487e-05 -0.000120928 1.05746e-20
1.58599e-05 0.000115537 -7.14615e-20
0.000119947 -1.14689e-05 7.83931e-21
0.000118557 8.18823e-05 -4.63074e-20
8.15875e-05 -6.27891e-05 6.92997e-21
-9.32248e-05 -0.000161507 -2.30068e-20
-0.000114587 0.000198461 -5.18712e-20
8.88029e-05 -2.48154e-05 7.2946e-21
1.39013e-05 4.5575e-05 -4.30502e-20
2.88918e-05 -6.54215e-05 -6.20422e-21
5.07411e-05 1.411e-05 -3.86758e-20
-1.07523e-05 -8.63146e-05 4.37706e-21
-1.6165e-05 8.18816e-05 -5.94469e-20
-2.41094e-05 4.77904e-05 -6.38617e-20
6.86783e-06 -6.04072e-05 2.19041e-21
2.74764e-05 -6.98834e-06 -4.81644e-20
3.89895e-05 -3.15531e-05 1.27777e-20
2.28674e-05 -4.34861e-06 -9.19491e-20
7.86661e-05 5.26251e-05 -1.49519e-20
-2.43767e-05 5.38327e-06 -1.24084e-20
-2.94659e-05 -8.07717e-06 6.20284e-20
7.9019e-05 5.72109e-05 -3.06364e-20
-9.06552e-05 0.000110248 -2.33353e-20
-4.73131e-05 3.59557e-05 3.28349e-21
3.94615e-05 -0.000134383 -2.09711e-20
3.34876e-05 0.000125024 -4.85006e-20
0.000134021 -4.01107e-05 1.82389e-21
8.22323e-05 -7.28913e-05 2.29812e-20
7.47236e-07 9.11624e-05 -6.49331e-20
1.10289e-05 -9.8224e-05 -2.91902e-21
6.78495e-05 -0.000123349 3.75569e-20
6.38904e-05 0.000109412 -7.98445e-20
8.23258e-06 1.97453e-05 -1.0874e-19
7.56651e-06 -2.82555e-05 -4.88968e-20
4.42752e-05 3.22926e-05 -5.14442e-20
5.01443e-05 -5.61254e-05 2.18995e-21
3.10827e-05 -4.16312e-05 -1.24095e-20
2.98475e-05 4.29841e-05 -2.80983e-20
-6.07844e-05 -4.20398e-05 1.86091e-20
-0.000129908 -0.000106176 -2.93461e-20
2.42128e-05 -9.61715e-05 -1.09434e-20
1.72526e-05 8.43218e-05 -7.47651e-20
8.10538e-05 3.92297e-05 -9.81798e-20
6.76639e-05 -5.56637e-05 4.85497e-20
7.15841e-05 -6.09465e-05 1.64197e-20
6.86522e-05 3.57929e-05 -6.96958e-20
6.4412e-05 -5.38236e-05 2.18976e-20
-4.00158e-05 -0.000391697 3.2242e-20
0.000388691 5.6385e-05 9.654e-20
0.000129528 0.000116577 -7.22972e-20
0.000101612 -0.000112829 3.72459e-20
7.19115e-05 4.41952e-05 -4.19543e-20
-0.000162808 -1.23831e-05 -4.68437e-20
1.64779e-06 -7.08133e-05 -6.56845e-21
-5.13705e-06 7.10346e-05 -4.08648e-20
-5.9115e-05 8.62394e-05 -1.96928e-20
-6.16523e-05 5.02569e-05 -9.1252e-20
-2.22855e-05 -6.2317e-05 -5.11162e-21
-8.45135e-05 -5.75271e-05 -2.51638e-20
8.26887e-05 1.59717e-05 -3.6481e-21
1.05918e-05 2.12148e-05 -5.91082e-20
2.92968e-05 -4.77594e-05 2.19086e-21
-2.32277e-05 -6.19661e-05 1.09467e-21
-2.89084e-05 5.9422e-05 -1.60506e-20
6.30931e-05 3.65914e-05 -6.49428e-20
6.34843e-05 -5.39526e-05 -3.28434e-21
1.77396e-05 8.31566e-05 -3.57472e-20
2.63459e-05 -9.10016e-05 -1.53231e-20
-0.000104396 0.000186678 -7.59836e-20
-0.000186037 0.000103519 -1.04592e-19
6.91255e-05 8.0081e-06 -2.33489e-20
0.00021063 0.000101758 9.27797e-20
0.0001721 -9.51272e-05 -7.45099e-20
-0.000117138 8.05911e-05 -4.1618e-20
-0.000111159 -8.26034e-05 1.3142e-20
-4.81167e-05 -2.25115e-05 -3.50264e-20
-9.03965e-06 -2.03032e-05 -1.02184e-20
-1.1453e-05 1.83653e-05 3.68503e-20
0.000106681 0.000132897 -7.23466e-20
-0.000124916 -0.000105925 -2.82478e-20
0.000110046 -0.000160126 3.29907e-20
0.00010804 0.000152004 -4.55654e-20
0.000167332 -0.000101364 4.93932e-20
-1.14732e-05 -0.000175848 2.42386e-20
0.000175742 8.71304e-06 2.71531e-20
9.09858e-05 0.000124632 -4.96507e-20
8.79419e-05 -0.000109453 -1.27787e-20
-5.46947e-05 -4.66193e-05 1.05832e-20
-2.3751e-05 6.04464e-07 -7.66302e-21
6.54743e-05 -0.000103013 -1.4586e-21
6.17253e-05 9.09893e-05 -4.44853e-20
-5.54802e-05 1.55441e-05 -7.18771e-20
8.791e-05 6.75269e-05 -8.21425e-20
7.11931e-05 -7.69931e-05 6.75461e-20
-6.67363e-05 -3.86007e-05 3.17486e-20
-4.80974e-05 3.22884e-05 2.99174e-20
-4.03387e-05 -3.41321e-05 -1.35016e-20
-5.27303e-05 -2.74965e-05 -9.85166e-21
-0.000103567 -6.17514e-05 -3.97442e-20
-1.3939e-05 4.75926e-05 2.07956e-20
-8.14472e-06 -5.14032e-05 -4.37908e-21
-0.000216296 0.000216262 -8.08821e-20
-1.52451e-05 8.43205e-05 -8.35301e-20
-9.56386e-06 -8.94133e-05 -6.20223e-21
-1.58041e-05 0.000167308 -8.50669e-20
7.22226e-06 -0.00013908 3.28625e-21
2.27587e-05 3.88026e-05 -1.08749e-19
2.10679e-05 -4.57035e-05 -1.78816e-20
-7.63808e-05 -4.33418e-05 2.40867e-20
-8.1334e-05 4.29695e-05 -2.04368e-20
-0.000136066 2.42693e-05 6.93615e-21
-0.000142258 -2.62604e-05 -2.33623e-20
0.000188023 0.00010306 5.47821e-20
0.000138934 -9.70694e-05 -5.7705e-20
4.90011e-05 -2.29532e-06 -8.75815e-20
5.1699e-05 -3.43259e-05 1.20495e-20
7.50302e-05 3.15117e-05 -2.44412e-20
2.5275e-06 -7.68565e-05 -7.29755e-21
-4.62666e-06 7.4535e-05 -5.87349e-20
6.87873e-05 -6.14444e-05 1.16749e-20
-0.000118956 8.06393e-05 -4.04718e-20
7.49918e-05 -4.49479e-05 -1.09443e-21
6.54133e-05 4.50773e-05 -3.97603e-20
-5.1431e-05 -9.42233e-07 3.02873e-20
-4.8485e-05 -1.61228e-06 8.39446e-21
-5.36521e-05 4.68917e-05 -6.7877e-20
9.31516e-05 0.000161406 1.60726e-20
8.17579e-05 -0.000141589 -2.41031e-20
-6.65873e-05 -4.27912e-05 2.6271e-20
-6.71584e-06 -9.15076e-05 1.93455e-20
0.000114548 -0.000202981 1.02054e-19
0.000197561 -0.000100041 6.0685e-20
1.2552e-05 5.14872e-05 -1.13508e-19
1.08105e-05 -5.74737e-05 1.53295e-20
-1.11962e-05 9.56393e-05 -5.94973e-20
2.19876e-05 -8.77694e-05 -1.35019e-20
8.44148e-06 7.6236e-05 -4.15899e-20
9.19106e-05 4.47109e-05 -5.10631e-21
7.43522e-05 2.26353e-05 -5.91209e-20
6.7155e-05 -4.81997e-05 2.88381e-20
-0.000180952 -7.62355e-09 -1.09539e-21
-0.000185655 -1.7502e-08 -8.03456e-21
-6.87405e-05 -4.43644e-05 1.75131e-20
5.87652e-05 6.32075e-05 -1.04754e-19
5.16168e-05 -7.27502e-05 6.38803e-20
1.88268e-05 5.43842e-05 -2.00693e-20
2.3827e-05 -5.54006e-05 -1.16787e-20
1.33389e-05 -1.76723e-05 -2.5182e-20
8.4563e-06 1.50221e-05 1.05811e-20
0.00021796 -0.000217926 9.5739e-20
-5.77011e-05 1.71416e-05 4.01512e-21
-6.13023e-05 -2.09612e-05 -1.05842e-20
-1.4558e-05 4.37079e-05 1.27699e-20
-9.35556e-06 -4.53604e-05 -2.0801e-20
9.27784e-05 -5.83103e-05 1.459e-21
-6.93629e-05 3.50292e-05 -4.81674e-20
-8.60358e-05 -1.59833e-05 6.56954e-21
-8.96174e-05 1.1748e-05 -1.09482e-21
-5.35904e-05 2.50895e-05 -8.39226e-20
2.51954e-05 0.000114344 -1.2777e-19
2.16555e-05 -0.000111326 3.13956e-20
3.66031e-05 0.000218763 -2.84845e-20
4.39682e-05 -0.000179974 -2.30076e-20
-2.17799e-05 0.000386205 -1.67037e-19
-0.000384414 1.77643e-05 -3.62503e-20
5.59264e-05 6.42178e-06 -7.0063e-20
5.68387e-05 -3.91912e-05 1.56974e-20
0.000213542 -0.000265191 6.34889e-20
0.000265886 -0.000210452 1.51022e-19
7.5746e-05 -0.000182741 -5.11389e-21
8.82228e-05 0.000212984 -1.24204e-19
-6.52149e-05 3.85589e-05 -2.40814e-20
5.96599e-05 3.02711e-05 -6.64114e-20
5.89172e-05 -5.24778e-05 3.2852e-21
5.62781e-05 6.08246e-05 -5.07074e-20
6.00009e-05 -7.66244e-05 -8.75727e-21
1.56028e-06 -0.000189448 1.05716e-20
4.27016e-06 0.000165381 -5.03034e-20
0.000188723 -3.30696e-06 3.66361e-20
4.26578e-05 4.10787e-05 -6.96827e-20
4.92314e-05 -6.10538e-05 -1.60574e-20
1.85578e-05 0.000182396 -5.64917e-20
-0.000181191 -2.68702e-05 -4.20959e-20
7.91941e-05 1.09185e-05 -4.27003e-20
6.97807e-05 -4.16937e-05 6.02399e-20
7.54456e-05 2.39212e-05 -7.26306e-20
6.77128e-05 -4.8855e-05 4.96504e-20
-0.000212918 0.000260947 -1.164e-19
-0.000263363 0.000212505 -7.34118e-20
6.3502e-05 3.3029e-05 -8.53798e-20
6.33009e-05 -5.56227e-05 -4.01452e-21
3.31291e-05 -0.000112653 -5.8421e-21
2.21135e-05 0.000128644 -5.62265e-20
5.63761e-05 -2.52799e-05 -7.88347e-20
5.62228e-05 -2.01935e-05 3.76086e-20
8.64718e-05 8.05146e-05 -1.17906e-19
7.0367e-05 -8.44233e-05 7.99493e-20
-5.15862e-05 -1.65294e-05 3.28457e-21
-5.2085e-05 1.23049e-05 -1.45955e-21
8.4725e-05 -0.0001408 -1.60666e-20
-0.000179009 -4.80993e-06 -2.55572e-21
-0.000184542 2.71424e-06 -1.93509e-20
8.70471e-05 0.000162916 -8.72663e-20
8.03281e-05 0.00015543 -1.09539e-19
0.000119503 0.000119224 -5.98938e-20
6.57352e-05 -0.000144163 4.92934e-20
9.88002e-05 -0.000113582 3.65168e-21
0.000148104 -6.13158e-05 3.98063e-20
0.000380639 -5.00412e-05 3.73384e-19
0.000299613 3.95234e-05 -1.06661e-19
8.59816e-05 3.56441e-05 5.84408e-21
0.000189611 1.66335e-06 1.46139e-21
0.000128453 -3.88258e-05 -7.04587e-20
0.000177707 5.69866e-05 1.01539e-19
0.000132116 -3.42797e-05 1.20524e-20
0.000128552 -5.0817e-05 -4.01766e-20
9.87415e-05 -1.21937e-05 4.16303e-20
0.00013584 5.18692e-05 -4.89212e-20
0.000137105 5.14933e-05 -6.06148e-20
0.000103146 -6.61713e-05 4.78345e-20
0.000107179 -6.49235e-05 -7.30408e-22
1.17915e-05 2.61558e-06 -4.01759e-21
9.83484e-06 5.75461e-06 -1.42471e-20
2.70258e-05 -6.40367e-07 5.62504e-20
9.47489e-06 -1.33637e-06 1.64336e-20
9.59551e-06 -1.27029e-06 1.78952e-20
8.56308e-06 2.05365e-05 -1.46126e-20
2.83963e-05 -1.66027e-05 4.45609e-20
9.16181e-06 1.84032e-06 2.04514e-20
2.47989e-05 2.09065e-05 2.92135e-21
1.02389e-05 1.11002e-06 6.93986e-21
1.03201e-05 -1.00149e-06 -3.10465e-20
8.84045e-06 1.17678e-08 -4.0915e-20
5.54423e-05 -1.44267e-06 7.30494e-21
-5.60097e-06 -1.02458e-05 4.0187e-20
1.18175e-05 6.79569e-06 2.19134e-20
1.9401e-05 6.43197e-06 4.52851e-20
2.36031e-05 1.79099e-05 1.57063e-20
1.23926e-05 -2.1244e-05 4.52982e-20
7.40231e-06 6.9561e-07 2.48436e-20
1.075e-05 1.18227e-07 2.19157e-20
1.07878e-05 -1.03921e-07 -2.99515e-20
8.33371e-06 3.38906e-07 -2.6303e-20
8.80502e-06 5.91633e-06 -8.40017e-21
6.96007e-06 8.71921e-07 1.09562e-21
3.80336e-06 5.65493e-06 8.39991e-21
9.36877e-06 1.52875e-06 -5.18738e-20
1.03941e-05 1.34847e-06 7.6691e-21
9.62194e-06 -3.33129e-08 2.66639e-20
1.19448e-05 -1.24327e-05 2.44659e-20
8.35075e-06 -2.63951e-07 -5.7718e-20
2.04747e-05 1.59075e-05 -3.65308e-21
2.29525e-05 -1.44865e-05 4.01831e-20
-0.000104252 -5.30052e-05 5.11342e-21
-0.000104491 5.01801e-05 -2.19148e-21
8.25195e-06 1.93708e-07 5.1132e-21
5.10815e-06 7.19838e-06 1.64341e-20
-1.99854e-05 -6.36629e-06 4.38252e-21
-2.32001e-05 7.45962e-06 -7.3042e-21
3.12193e-05 -1.32835e-05 1.31456e-20
9.57288e-06 1.257e-06 -5.91814e-20
6.65118e-06 -1.18323e-06 -5.84354e-21
2.60209e-05 -7.38898e-08 4.38181e-21
8.83553e-06 -5.71201e-06 -3.39662e-20
1.17111e-05 -2.62433e-06 -4.30977e-20
6.32803e-06 4.75846e-06 -5.55296e-20
8.30964e-06 -1.04018e-06 -3.0679e-20
1.17731e-05 -1.88647e-06 3.17777e-20
1.00475e-05 -3.81862e-06 -3.43368e-20
3.22713e-05 -1.02159e-05 -1.82599e-21
1.02515e-05 -3.735e-07 -4.67565e-20
7.92927e-06 -2.07188e-06 3.46992e-20
1.60893e-05 -8.71929e-07 -7.30748e-21
1.60976e-05 8.64419e-07 -1.38842e-20
5.25973e-06 1.48899e-06 4.01889e-20
1.50767e-05 -7.99754e-06 1.38843e-20
1.50831e-05 8.0035e-06 -1.02305e-20
9.4715e-06 2.81529e-06 -3.79928e-20
-2.70051e-05 -9.93827e-05 2.59295e-20
-2.71288e-05 9.97408e-05 8.76491e-21
1.10491e-05 -3.66237e-06 2.9229e-21
1.10414e-05 3.66144e-06 -3.94589e-20
8.28554e-06 2.09612e-07 1.09569e-21
7.63504e-05 -5.17143e-05 2.70293e-20
-1.84566e-05 4.26222e-05 -4.45739e-20
9.57157e-06 -1.25405e-06 7.30613e-22
9.68756e-06 -1.12163e-07 -1.49757e-20
8.04579e-06 3.68619e-07 4.74819e-21
1.0105e-05 5.56141e-06 -1.68045e-20
1.77048e-05 6.03529e-06 6.39153e-20
3.0785e-05 -1.27526e-05 -7.30828e-22
3.08073e-05 1.27618e-05 -1.46165e-21
2.95523e-05 2.52244e-05 5.33169e-20
9.17521e-06 -3.3016e-06 3.06716e-26
9.14887e-06 3.41164e-06 -1.89984e-20
9.2268e-07 1.55497e-05 1.27811e-20
4.09232e-06 -6.46195e-06 3.28801e-20
8.30207e-06 -1.54014e-07 2.2644e-20
7.42496e-06 -7.11071e-07 1.78955e-20
-1.43084e-05 -3.1402e-05 2.95798e-20
-4.58835e-05 7.94547e-05 -1.31484e-20
-4.61695e-05 -7.99503e-05 2.52011e-20
8.47728e-06 1.23202e-06 9.49623e-21
4.61397e-06 8.20928e-07 -2.16863e-27
7.33309e-06 1.87074e-06 -5.84553e-21
1.19245e-05 5.00167e-05 -2.92291e-21
2.28569e-05 -6.4727e-05 1.53431e-20
-1.69929e-05 3.53004e-05 6.93846e-21
2.27328e-05 3.00158e-06 8.76654e-21
1.35432e-05 -6.13959e-06 5.07767e-20
5.85e-06 -1.96589e-06 3.43438e-20
5.74518e-06 1.81689e-06 4.09203e-20
8.92012e-06 -5.71296e-07 -2.11881e-20
7.43418e-06 7.11649e-07 1.38829e-20
8.30336e-06 -6.74236e-06 2.4845e-20
8.27141e-06 6.8099e-06 1.46148e-21
7.43899e-06 -1.88897e-06 -1.46137e-21
9.40006e-06 -1.47456e-06 4.01839e-20
5.50016e-06 -3.80016e-06 3.1421e-20
5.35288e-06 3.7323e-06 7.30723e-21
7.1948e-06 8.36648e-06 9.12977e-21
8.45544e-06 3.91165e-08 -8.25684e-20
7.2839e-06 1.82185e-06 1.82611e-20
7.51373e-06 3.67782e-05 7.30342e-21
3.80891e-06 1.12298e-08 -7.30674e-20
8.2287e-06 2.91849e-07 -5.11461e-21
-4.85708e-06 8.74817e-06 9.49489e-21
7.15177e-06 -7.32115e-06 2.37376e-20
8.58217e-06 1.32861e-06 1.78961e-20
4.26832e-06 -5.53946e-07 1.35126e-20
1.49349e-05 -6.86302e-06 5.33296e-20
1.36522e-05 7.71988e-06 8.40144e-21
8.89969e-06 -3.57392e-08 -3.79926e-20
8.34895e-07 -1.58185e-05 -8.39897e-21
9.48052e-06 -6.82516e-07 1.46121e-21
9.49627e-06 6.19659e-07 -4.38374e-20
3.73385e-06 7.72708e-07 1.05909e-20
2.04785e-05 2.5151e-05 -7.30238e-22
2.09501e-05 -2.60128e-05 1.60659e-20
1.17818e-05 2.61132e-06 1.97238e-20
3.38008e-06 -4.97547e-06 -1.46085e-20
1.03439e-05 -1.35882e-08 3.5797e-20
1.03999e-05 8.96446e-09 -2.88569e-20
8.19407e-06 -2.10255e-08 -3.87238e-20
8.92288e-06 5.23456e-07 -4.89516e-20
9.1081e-06 -7.48434e-07 -3.21484e-20
-3.80331e-05 6.58566e-05 -1.24233e-20
4.05994e-05 -7.03668e-05 2.19222e-20
8.20493e-06 -3.83477e-07 -1.75359e-20
7.41958e-06 1.13674e-06 -6.72204e-20
5.36793e-06 -1.60698e-06 4.16503e-20
1.1873e-05 -2.67135e-06 -3.46992e-20
7.57521e-07 6.6264e-06 -8.40287e-20
3.68096e-05 9.48231e-06 4.01686e-20
8.51794e-06 -1.07729e-07 7.3068e-22
7.52666e-06 -3.29618e-06 -7.38003e-20
1.76758e-05 1.26479e-05 2.30081e-20
2.61822e-06 2.08364e-08 6.72271e-20
9.084e-06 6.39666e-07 -3.58015e-20
8.00583e-06 -3.7298e-05 -1.16852e-20
9.1278e-06 1.10392e-06 -2.84952e-20
8.33433e-06 -1.13161e-06 -3.72545e-20
5.63839e-06 -8.30644e-06 -1.02257e-20
1.06184e-05 -1.69705e-07 4.67568e-20
1.06501e-05 1.43234e-07 -3.9451e-20
8.38622e-06 -4.47494e-07 -3.21483e-20
9.11994e-06 -1.07847e-06 -2.33807e-20
1.39691e-05 1.36366e-06 -1.71682e-20
1.46562e-05 -1.25462e-06 5.66182e-20
9.76678e-06 -7.21594e-08 1.0959e-20
9.82398e-06 9.70829e-08 -5.84482e-20
9.41006e-07 -2.74563e-06 5.77276e-20
8.80143e-07 2.65633e-06 8.33032e-20
9.03835e-06 4.28773e-07 -7.599e-20
3.92092e-05 -1.26935e-05 -1.0955e-20
-7.90019e-06 6.2209e-06 2.66588e-20
8.10435e-06 -2.40918e-07 2.66626e-20
1.1238e-05 1.61655e-06 -2.70318e-20
1.21698e-05 -3.62946e-06 2.41143e-20
1.21758e-05 3.6334e-06 -3.14216e-20
9.30162e-06 -1.85816e-06 8.76846e-21
9.28276e-06 1.8398e-06 -4.01887e-20
1.01628e-05 -2.75818e-07 2.52038e-20
6.38002e-06 -4.87856e-07 -4.31052e-20
1.11432e-05 -1.72314e-06 4.968e-20
1.97702e-05 -1.6349e-05 9.50018e-21
1.97839e-05 1.63585e-05 -2.63082e-20
9.03226e-06 1.20433e-06 -3.58032e-20
8.03807e-06 -5.23347e-08 3.21407e-20
7.44051e-06 -8.29555e-07 8.76815e-21
1.88083e-05 1.03057e-06 -1.02267e-20
9.60764e-06 -8.05304e-06 6.24676e-20
8.27115e-06 -1.08362e-06 -3.39665e-20
7.33933e-06 3.35259e-06 7.30686e-22
9.02883e-06 -1.21691e-06 -2.99577e-20
1.60854e-05 2.36523e-05 1.42403e-20
-6.2957e-06 7.087e-06 -8.25674e-20
5.58448e-05 8.23682e-06 5.40553e-20
9.03485e-06 -4.14176e-07 -1.46132e-21
3.66128e-06 1.73088e-05 1.71639e-20
6.89007e-06 2.54148e-07 3.17743e-20
5.45765e-06 1.61049e-07 -7.81842e-20
1.20439e-05 -7.21906e-06 -2.26439e-20
1.27916e-05 -2.43459e-07 4.237e-20
9.69949e-06 1.77931e-06 -4.89562e-20
1.07119e-05 2.89743e-06 -2.2648e-20
-5.51894e-07 -4.83419e-06 1.68058e-20
9.77889e-06 9.18288e-07 -7.67036e-21
9.36697e-06 4.98903e-07 3.65238e-22
9.70985e-06 -1.79913e-06 -1.82672e-20
7.47921e-06 -8.50531e-07 8.03763e-21
3.15282e-05 -1.45423e-05 1.75396e-20
3.15502e-05 1.45508e-05 -9.5006e-21
7.24906e-06 -1.28596e-06 2.70343e-20
-4.62183e-05 -3.9896e-05 7.30413e-21
-4.81332e-05 3.83707e-05 -5.1129e-21
1.74613e-05 -5.98532e-06 1.27815e-20
1.62574e-05 -2.51782e-05 1.46044e-21
9.74602e-06 -8.21631e-07 -5.1872e-20
9.66727e-06 -1.67958e-07 3.39682e-20
9.83085e-06 -1.28315e-07 2.92228e-21
9.80956e-06 8.34634e-08 -5.73505e-20
8.46917e-06 3.62051e-07 -4.5298e-20
5.54466e-06 4.21604e-07 1.16911e-20
1.02188e-05 1.4798e-07 1.38802e-20
8.42006e-06 -3.18059e-08 -4.01834e-20
7.31524e-05 3.48147e-05 8.76595e-21
-1.70559e-05 -3.3686e-05 1.97288e-20
7.11187e-06 -1.10029e-05 1.89903e-20
2.64961e-05 5.03716e-07 -6.93709e-21
9.91816e-06 1.02571e-06 -4.74889e-20
9.89619e-06 -1.03337e-06 3.50688e-20
1.53777e-05 5.3853e-06 3.65178e-21
9.50836e-06 -3.04959e-06 3.58009e-20
1.32624e-05 -8.67983e-06 2.04613e-20
1.32703e-05 8.68252e-06 -1.89998e-20
-2.65736e-06 1.53037e-06 1.78951e-20
3.67339e-06 -1.75219e-05 -1.1321e-20
7.48594e-06 -7.17197e-06 2.11806e-20
8.62669e-06 6.39704e-07 2.0453e-20
1.7334e-05 -1.14016e-05 -2.59297e-20
1.12502e-05 3.06436e-06 2.08197e-20
1.32986e-05 1.07739e-06 -2.62987e-20
1.07318e-05 -2.6369e-06 5.77155e-20
1.41604e-05 5.29131e-05 -1.09597e-20
2.9949e-05 -5.55345e-05 3.50702e-20
2.87089e-06 -5.26673e-06 4.16521e-20
2.86207e-06 5.23972e-06 6.21128e-20
-2.02955e-05 -6.23906e-06 6.20826e-21
-2.06916e-05 8.17448e-06 -2.92154e-21
-6.52339e-05 4.17505e-05 9.49511e-21
-6.68465e-05 -4.12376e-05 -2.48335e-20
2.89789e-05 -1.4691e-05 -4.38479e-21
2.90011e-05 1.46995e-05 -6.5772e-21
9.80942e-06 2.85454e-06 -5.11505e-21
9.79539e-06 -2.80158e-06 -6.94183e-20
8.9276e-06 1.62804e-06 -2.33817e-20
1.81635e-05 -3.41193e-06 -2.08192e-20
1.05661e-05 -2.45642e-06 7.01385e-20
8.37379e-06 -1.09023e-06 -2.08185e-20
8.93771e-06 -1.65343e-06 -2.55737e-20
1.76301e-05 2.05407e-06 5.22305e-20
9.21291e-06 1.17933e-06 -2.92264e-20
-9.82599e-06 -3.15017e-05 -2.92112e-21
-9.92357e-06 3.12148e-05 -7.30239e-22
9.23731e-06 -1.18044e-06 -3.58023e-20
6.93379e-06 1.29034e-05 7.30394e-21
4.07084e-05 7.05593e-05 7.30749e-22
-2.60759e-05 -4.51521e-05 -4.38487e-21
4.03774e-06 -4.25146e-06 3.87244e-20
-3.31729e-06 -7.3425e-06 1.60683e-20
3.06445e-05 -4.89091e-05 1.60681e-20
9.7172e-06 9.51749e-07 -6.20994e-21
9.26984e-06 3.96624e-07 -1.82649e-20
1.76506e-06 -6.6398e-06 2.11916e-20
1.76637e-06 6.52865e-06 2.55761e-20
2.82266e-05 5.1748e-05 1.09554e-21
1.00743e-05 2.42197e-06 -2.92244e-20
8.25738e-06 1.12817e-06 -1.82665e-20
1.14505e-05 -4.38502e-07 -7.30713e-21
1.14489e-05 4.16189e-07 -5.11501e-20
-9.58301e-05 -3.6576e-09 1.4609e-20
-9.58205e-05 3.75331e-09 -1.60699e-20
6.9399e-06 -3.08168e-06 4.3109e-20
4.8358e-06 -6.35041e-07 2.30081e-20
8.2794e-06 -7.81401e-06 2.48451e-20
8.24654e-06 7.82079e-06 -1.6807e-20
3.23995e-05 -8.41852e-06 -1.607e-20
2.81322e-05 -2.7176e-05 -2.15453e-20
1.12913e-05 3.2298e-06 -1.57072e-20
-1.27834e-05 3.69774e-05 -4.38219e-21
-1.28812e-05 -3.77059e-05 -1.35118e-20
1.70264e-05 -1.33307e-05 -1.27816e-20
8.25103e-06 -1.09679e-06 -2.11892e-20
-4.21215e-06 -2.75873e-06 9.86052e-21
-2.80741e-05 2.00307e-05 4.74749e-21
-2.81757e-05 -2.00432e-05 -7.30365e-21
6.94459e-06 8.46189e-06 -3.65159e-22
3.64092e-06 -1.59638e-05 1.46152e-20
3.66736e-06 1.59776e-05 -6.57682e-21
3.55816e-05 7.57702e-05 1.97289e-20
3.63826e-06 -7.53322e-05 1.4614e-20
1.0302e-05 -4.07109e-07 -2.48388e-20
6.25821e-06 3.93648e-07 4.96746e-20
9.99312e-06 1.65311e-06 -2.26519e-20
1.0034e-05 -1.72419e-06 -7.96469e-20
4.24503e-06 6.04093e-07 1.24215e-20
1.10021e-05 1.42033e-07 1.02279e-20
7.84991e-06 2.69501e-06 -2.22829e-20
1.30052e-05 3.13982e-05 4.38491e-21
1.29967e-05 -3.13775e-05 1.97321e-20
-8.33515e-06 -6.27581e-06 7.3035e-22
9.22437e-06 -1.20252e-06 -1.75358e-20
1.04549e-05 -9.56497e-07 -2.11904e-20
1.04509e-05 9.34974e-07 -6.35712e-20
8.96592e-06 -8.5934e-07 -1.31521e-20
9.20531e-06 1.19235e-06 -5.40687e-20
1.03488e-05 1.20457e-08 2.4839e-20
1.04004e-05 7.23266e-09 -3.47017e-20
8.38475e-06 1.47917e-09 -3.87228e-20
8.96273e-06 8.40521e-07 -5.48004e-20
1.02543e-05 -1.66669e-07 -2.59343e-20
8.09303e-06 -9.24656e-09 3.32371e-20
1.31859e-05 9.76008e-07 -2.41139e-20
1.32304e-05 -1.10639e-06 -6.21114e-20
1.24289e-05 -1.60884e-06 -2.55756e-20
1.24502e-05 1.5987e-06 -4.16517e-20
1.10237e-05 6.59879e-08 -5.47899e-21
7.74468e-06 2.78481e-06 2.44722e-20
9.84444e-06 4.99852e-07 -5.91857e-20
9.84457e-06 -5.23987e-07 -1.38831e-20
2.94054e-05 3.73596e-05 -1.46116e-21
1.00877e-05 -3.52691e-05 3.14192e-20
1.06622e-05 5.29384e-06 -2.70372e-20
1.05925e-05 -5.28951e-06 -5.26129e-20
1.30319e-05 -1.07811e-05 2.1192e-20
1.30361e-05 1.08071e-05 -1.97305e-20
-1.64421e-06 -1.96497e-05 7.30382e-21
-1.78277e-06 1.92266e-05 2.92159e-21
7.02562e-05 6.28801e-05 5.84422e-21
-0.000102394 -1.68608e-05 -1.53385e-20
1.20598e-05 2.22289e-05 8.76939e-21
1.78614e-05 1.68611e-05 7.30804e-22
1.20435e-05 -2.22228e-05 1.31541e-20
1.78492e-05 -1.68513e-05 1.90008e-20
-1.55955e-05 -4.78687e-05 1.8999e-20
-0.000102463 1.65323e-05 1.67995e-20
2.36904e-05 -9.81227e-06 -1.02311e-20
5.76498e-05 -7.5878e-06 1.53473e-20
5.76081e-05 7.58231e-06 -1.31548e-20
2.36688e-05 9.80331e-06 -1.46158e-20
2.95524e-05 -9.25254e-07 -7.30779e-21
2.02264e-05 -7.10062e-06 -2.55763e-20
2.7563e-05 8.29091e-06 -8.03887e-21
2.95286e-05 9.19556e-07 -3.80006e-20
2.75416e-05 -8.28572e-06 -7.30801e-22
2.02115e-05 7.08905e-06 -4.31145e-20
2.13121e-05 -6.39693e-06 -2.55768e-20
2.09123e-05 -6.52168e-06 -5.11546e-21
2.1328e-05 6.39749e-06 -2.41153e-20
2.0927e-05 6.52261e-06 -1.68079e-20
-3.03511e-05 -8.65557e-05 -5.21598e-20
9.18663e-06 8.00401e-05 7.29755e-22
1.21447e-05 -7.24686e-05 -8.7577e-20
-6.48621e-05 -1.1215e-05 -1.82399e-20
-8.1249e-05 -2.02369e-05 -4.01249e-21
8.34096e-06 8.99045e-05 1.0953e-21
1.39879e-05 -9.39142e-05 -1.45254e-19
-8.73714e-05 2.3676e-05 1.53202e-20
-2.66739e-05 4.46765e-05 -3.21131e-20
-4.79252e-05 -0.000105785 -2.62494e-20
-4.28716e-05 0.00011893 -4.70333e-20
0.000114887 5.62626e-05 -2.04181e-20
6.37588e-05 6.00953e-05 1.53322e-20
-6.09543e-05 -6.30677e-05 -1.81775e-19
-3.01925e-05 -6.08928e-05 -5.03408e-20
-9.70704e-06 -5.82581e-05 -6.09338e-20
-6.96512e-06 -9.60466e-05 -1.61311e-19
1.79631e-05 8.79235e-05 1.82506e-20
6.92854e-05 -4.7696e-06 5.47219e-21
-3.65234e-05 -0.000127958 4.0121e-21
-3.24818e-05 0.000138921 -4.52219e-20
0.000135202 4.31953e-05 -6.92862e-21
-5.67703e-05 -5.73483e-05 -3.06377e-20
-8.89104e-05 2.29883e-05 1.49532e-20
-6.44456e-05 -5.77582e-05 -3.35614e-20
4.30086e-05 9.68068e-05 -6.8955e-20
-6.06395e-05 1.30064e-05 2.18857e-21
-9.45715e-05 -0.00019219 -3.00735e-20
-5.32513e-05 -2.63748e-05 -2.84613e-20
0.000202013 0.000105768 -4.92097e-21
1.6247e-05 8.68418e-05 1.46036e-20
3.02849e-06 -8.96706e-05 -1.94925e-19
-0.000197875 9.8268e-05 9.49339e-21
-0.000202021 -0.000102395 -6.02451e-20
-0.000132105 4.56793e-05 2.73481e-20
-4.74274e-05 -3.76258e-05 -4.88873e-20
-8.19825e-05 -4.09456e-05 -9.01542e-20
-8.33756e-05 4.30334e-05 -1.02204e-20
-1.37953e-05 -2.81217e-05 -1.60564e-20
5.85432e-05 7.60857e-05 -6.60312e-20
-8.34622e-05 5.9268e-05 9.84853e-21
-2.41415e-05 1.1955e-06 -2.40831e-20
-5.25143e-05 6.2757e-05 -1.67789e-20
-2.61301e-05 9.10892e-05 -1.64148e-20
2.71831e-05 7.18528e-05 -2.08058e-20
-8.43629e-05 5.91805e-05 2.29758e-20
-0.000210295 -0.000210255 9.10916e-21
0.000219283 0.000219254 -3.17002e-20
2.30653e-05 4.46839e-05 1.75198e-20
0.00022051 0.000240069 -2.69629e-20
-0.000226065 -0.000211016 -4.71849e-20
8.35433e-05 4.56747e-05 2.48277e-20
0.000103983 -1.82823e-05 -1.40174e-19
4.846e-05 -1.22753e-05 -1.60541e-20
7.95537e-05 7.37267e-05 2.37303e-20
9.7475e-05 -6.40179e-05 -1.2849e-19
4.12947e-05 7.5268e-05 -3.61244e-20
-8.30305e-05 0.000158693 9.49232e-21
-8.49228e-05 -0.000159129 -8.46981e-20
6.60493e-05 5.57501e-05 2.48202e-20
7.2372e-05 -3.95219e-05 -5.693e-20
-0.000115633 5.34881e-05 2.04157e-20
-4.21891e-05 0.000120899 6.93822e-21
9.53095e-05 -0.000147909 -1.50426e-19
5.17253e-05 -5.94402e-05 -1.82371e-20
-0.00010261 0.000202894 -1.00967e-19
-0.000197271 0.000107586 2.33272e-20
2.21175e-05 7.07676e-05 -1.2409e-20
-8.18382e-06 -5.78989e-05 -6.34847e-20
0.000159771 6.61428e-05 -1.82631e-20
0.000203413 -8.42874e-05 -7.52578e-20
1.11647e-05 -1.96292e-05 -1.05815e-19
6.49091e-05 4.51579e-05 1.27722e-20
6.90207e-05 -3.46381e-05 -4.12316e-20
-4.14972e-05 -2.85639e-05 -8.17324e-20
-1.77077e-05 -4.61749e-05 -1.85019e-19
-0.000122003 -2.43235e-05 3.31801e-20
8.66462e-05 -1.40879e-05 1.20374e-20
-0.000105669 -1.39366e-05 1.45843e-21
-7.66797e-05 -6.42863e-05 -8.8319e-20
-8.93325e-05 -0.000154676 -4.16224e-20
-8.83239e-05 0.000152986 1.82561e-20
-9.34494e-05 -0.000102645 -5.25083e-20
-6.59437e-05 4.20258e-05 1.71455e-20
6.62672e-05 4.62522e-05 7.29721e-21
1.62333e-05 -0.000167152 -2.92089e-21
1.43382e-06 0.000131505 1.7893e-20
-7.70008e-05 7.1562e-05 -2.04385e-20
1.74328e-05 7.88962e-05 8.75937e-21
-5.50713e-06 -7.69167e-05 -1.26258e-19
4.68338e-05 2.21e-05 1.09471e-20
4.73624e-05 -1.15831e-05 -1.86096e-20
0.000115617 -8.29913e-05 -3.75578e-20
5.21136e-05 5.92168e-05 2.04388e-20
5.87231e-05 -5.29423e-05 -4.30647e-20
6.703e-05 -3.28517e-05 -3.06467e-20
3.21784e-05 -8.46108e-05 -1.42258e-20
4.17658e-05 4.8387e-05 2.7735e-20
4.28846e-05 -3.61524e-05 -3.53968e-20
-7.0038e-05 3.36168e-05 7.29703e-21
4.49607e-05 5.26057e-05 -2.6648e-20
-8.57585e-05 -5.87113e-05 -5.83567e-20
-3.03932e-05 7.20566e-06 -5.80148e-20
1.35282e-05 4.61317e-05 -2.00784e-20
9.16705e-05 2.30373e-05 -7.29426e-21
-6.74322e-05 4.31537e-05 1.38654e-20
-7.35042e-05 -3.34661e-05 -2.48086e-20
-5.73519e-05 -6.94938e-05 -5.06908e-20
-6.556e-05 -4.27971e-05 -3.31934e-20
-1.02589e-06 -7.92342e-05 -7.99034e-20
1.22281e-05 8.15878e-05 7.66363e-21
0.000114001 -4.35083e-05 -7.83932e-21
-3.83898e-05 3.05341e-05 3.39383e-20
5.58477e-05 -8.54032e-05 -3.09998e-20
6.11386e-05 9.77682e-05 -6.27385e-20
-6.62079e-05 4.20185e-05 1.38643e-20
-2.56475e-05 4.36686e-05 -3.467e-20
-2.71477e-05 -4.46776e-05 -5.29167e-20
-1.70333e-05 -8.08847e-05 -4.99648e-20
-6.12801e-05 6.39492e-05 1.60525e-20
1.01595e-05 -0.000112808 -3.2804e-21
2.03149e-05 0.000123554 -5.50616e-20
0.000119955 -6.30149e-07 -1.64055e-21
0.000120642 9.40313e-05 -1.05759e-20
7.9994e-05 -4.94784e-05 -3.42807e-20
0.000114499 -0.000198382 1.02646e-19
-9.3242e-05 0.000161537 2.15461e-20
8.86062e-05 -1.29627e-05 -8.38827e-21
2.91396e-05 6.53368e-05 -3.64959e-20
5.06846e-05 2.49152e-05 1.0946e-20
-1.03134e-05 8.64805e-05 -3.20984e-20
2.42582e-05 -4.8021e-05 -1.52537e-19
6.9432e-06 6.04199e-05 -1.3509e-20
3.8103e-05 -2.80687e-05 -7.33424e-20
3.92391e-05 3.20545e-05 2.55574e-21
-1.35787e-05 -4.43023e-05 -4.99818e-20
2.28531e-05 4.27531e-06 -4.37854e-20
8.11056e-05 6.50463e-05 -4.48614e-20
-2.58699e-05 -6.99077e-06 3.97801e-20
8.16781e-05 7.24769e-05 -3.61137e-20
-8.85581e-05 0.00011595 4.01068e-21
-4.39185e-05 3.83326e-05 2.44464e-20
3.15199e-05 -0.000124992 1.69578e-20
4.00704e-05 0.000134186 -7.40376e-20
0.000133467 -2.81476e-05 -5.47011e-21
8.03793e-05 -5.85176e-05 -3.53783e-20
-4.37731e-07 -9.1047e-05 -2.29828e-20
1.13937e-05 9.83241e-05 -1.60544e-20
6.41744e-05 -0.000113301 -2.11464e-20
6.83413e-05 0.000120382 -6.41754e-20
8.07354e-06 2.86207e-05 -2.07996e-20
7.68322e-06 -1.94144e-05 -2.59077e-20
5.02207e-05 5.61155e-05 -5.2922e-20
3.10726e-05 4.18231e-05 1.93445e-20
-6.531e-05 -3.89716e-05 -6.16625e-20
-0.000130953 -0.000101117 -3.73647e-20
2.48071e-05 9.59377e-05 -6.67542e-20
6.75547e-05 5.57101e-05 2.92028e-20
8.10713e-05 -3.9334e-05 -7.59162e-20
6.41631e-05 5.38046e-05 8.39442e-21
6.89125e-05 -3.59273e-05 -5.36401e-20
-4.16915e-05 -0.000378822 1.67576e-20
0.000388777 6.53548e-05 2.73276e-21
1.71559e-05 -8.24569e-05 3.64709e-21
0.000101394 0.000112651 3.06733e-20
0.000129525 -0.000116668 -1.18305e-19
7.12498e-05 6.07182e-05 -4.05014e-20
-0.000163487 -8.33761e-06 9.47827e-21
1.73659e-06 7.10021e-05 1.27723e-20
5.28729e-06 -7.16618e-05 -1.00339e-19
-5.59626e-05 9.11342e-05 1.13056e-20
2.60681e-05 7.27723e-06 -9.88831e-20
7.227e-05 -4.43759e-05 -4.34131e-20
-1.11619e-05 -2.22282e-05 -7.84445e-20
-2.21521e-05 6.23259e-05 2.55608e-21
6.19842e-05 -5.05061e-05 -2.0039e-19
4.40759e-05 -3.16076e-05 -6.09308e-20
-4.81187e-05 -3.28149e-05 -6.93212e-20
-8.42204e-05 -5.26288e-05 -1.93282e-20
8.26521e-05 2.79856e-05 2.26168e-20
2.99275e-05 4.76238e-05 -7.30212e-22
-2.40127e-05 6.17816e-05 1.02159e-20
-1.65385e-05 -8.23045e-05 -7.00346e-20
6.33559e-05 5.39159e-05 -2.95587e-20
2.68254e-05 9.10478e-05 -2.77274e-20
-2.99461e-05 -4.18845e-05 -2.0873e-19
-0.000103448 0.000193261 -3.53518e-20
-0.000186557 0.000108626 3.49857e-20
6.77565e-05 1.92451e-05 1.13103e-20
6.33305e-05 -3.6729e-05 -4.81599e-20
0.000171745 9.49708e-05 -2.19148e-20
0.000210669 -0.000101819 -1.44649e-19
1.39534e-05 -4.63117e-05 -5.9104e-20
-0.000113691 8.06185e-05 -1.16817e-20
-0.000114624 -8.2655e-05 -5.73154e-20
-4.84571e-05 -2.07736e-05 -2.11616e-20
-7.33235e-06 2.02168e-05 3.10204e-20
0.000110321 0.000142422 -3.51728e-20
-0.000125486 -0.000100844 -2.46017e-20
0.000106381 -0.000150102 1.6403e-21
0.000111735 0.000162229 -3.00756e-20
0.000166379 -9.1131e-05 2.25991e-20
1.09629e-05 -1.73827e-05 -1.67836e-19
-1.37083e-05 -0.000167599 1.14799e-20
0.000176597 1.78919e-05 -1.82235e-20
-9.08649e-05 -0.000124265 -1.47856e-19
8.79393e-05 0.000109563 2.81131e-20
-5.63961e-05 -4.49696e-05 -5.29129e-20
-2.39218e-05 1.46225e-06 -2.4084e-20
6.1004e-05 -8.97429e-05 -2.66183e-20
6.62519e-05 0.000102614 -7.69481e-20
-5.54203e-05 1.7241e-05 -1.09457e-20
3.04372e-05 -5.91741e-05 -3.10083e-20
7.10709e-05 7.69282e-05 9.85816e-21
8.79013e-05 -6.76111e-05 -1.01492e-19
-6.84082e-05 -3.62074e-05 -5.65589e-20
-4.47702e-05 3.4361e-05 3.10167e-20
-5.44358e-05 -2.49735e-05 -3.1379e-20
-0.000104914 -5.7215e-05 -1.71363e-20
-9.37744e-06 5.02148e-05 2.62725e-20
-0.000220351 0.000220381 1.69416e-20
-9.15995e-06 8.95296e-05 -1.78755e-20
1.58887e-05 -8.52911e-05 1.16724e-20
1.62302e-05 -0.000167121 -9.6019e-20
7.33468e-06 0.000139139 1.53352e-20
2.12064e-05 4.58436e-05 -5.83876e-21
2.25518e-05 -3.86366e-05 -5.109e-20
-8.05051e-05 -4.1536e-05 -7.40822e-20
-7.83909e-05 4.44435e-05 -2.22626e-20
-0.000140109 2.67588e-05 -6.82618e-20
-0.000138261 -2.38378e-05 -1.24121e-20
0.000138599 9.69125e-05 3.72527e-20
0.000188007 -0.000103124 -1.66537e-19
5.137e-05 3.47013e-05 2.66554e-20
4.91134e-05 2.63006e-06 -1.05097e-19
7.51215e-05 4.49475e-05 -2.91868e-21
2.82553e-06 7.8484e-05 1.09499e-21
4.97928e-06 -7.34458e-05 -3.72115e-20
-0.00011781 8.53523e-05 2.80767e-20
7.50493e-05 -3.15172e-05 -3.61144e-20
-8.57462e-06 -7.85351e-05 -7.44218e-20
6.88475e-05 6.10405e-05 -5.21724e-20
-5.15617e-05 4.56811e-07 -5.94804e-20
-4.91256e-05 5.65717e-07 3.21173e-20
6.52852e-05 -4.55951e-05 -4.63255e-20
-5.23482e-05 4.84807e-05 -1.56929e-20
8.17924e-05 0.000141649 2.19118e-20
-9.30269e-05 -0.000161129 -1.05931e-20
-1.74603e-05 -5.6144e-05 -1.36107e-19
-6.87293e-05 -4.06288e-05 -4.81606e-20
-7.43086e-06 -9.12734e-05 -8.28574e-20
0.000110938 -0.000193565 -1.86775e-20
0.000194554 -8.99009e-05 1.94073e-20
1.08978e-05 5.86638e-05 -4.01497e-21
1.24768e-05 -5.01894e-05 -6.13157e-20
-1.04779e-05 9.57681e-05 -1.97108e-20
2.22803e-05 8.76761e-05 -1.56911e-20
9.22883e-05 5.83639e-05 -3.31947e-20
6.69958e-05 4.82542e-05 2.00771e-20
7.44429e-05 -2.29351e-05 -7.15288e-20
-0.000180915 7.01079e-09 -2.62889e-20
-0.000185807 1.7721e-08 -2.77556e-20
1.44801e-05 -4.32648e-05 -1.11285e-19
-7.05132e-05 -4.20976e-05 -3.68475e-20
5.18178e-05 7.26427e-05 1.09508e-20
5.8488e-05 -6.33759e-05 -6.31446e-20
2.3831e-05 5.56484e-05 1.0949e-20
1.20456e-05 1.69605e-05 1.60581e-20
0.000211863 -0.000211896 -4.6911e-20
-6.10572e-05 1.95643e-05 -5.438e-20
-5.85874e-05 -1.86268e-05 8.39519e-21
-1.02478e-05 4.47542e-05 1.67865e-20
9.23374e-05 -4.44859e-05 -2.29791e-20
-6.70946e-05 3.69488e-05 7.29737e-22
-8.93231e-05 -1.17722e-05 -6.20405e-20
-8.6558e-05 1.36874e-05 -5.4747e-21
-5.22873e-05 2.68187e-05 -1.20417e-20
2.14613e-05 0.000111118 2.62848e-20
2.54084e-05 -0.000114478 -6.42504e-20
4.40229e-05 0.000180013 1.0956e-20
-3.63691e-05 -0.000218616 8.39937e-20
-2.00712e-05 0.000399408 -2.42287e-20
-0.000384291 2.25085e-05 -2.60494e-20
5.68096e-05 3.93666e-05 -1.16814e-20
5.56694e-05 -7.10783e-06 -5.32772e-20
-6.20692e-06 -1.49734e-05 -1.89736e-19
0.000207863 -0.000254576 -1.63939e-21
0.000264906 -0.000203647 -5.44683e-20
8.82519e-05 -0.000213054 -4.89509e-20
7.5602e-05 0.000182393 7.3056e-21
-6.2322e-05 4.10093e-05 8.02778e-21
5.67537e-05 -6.01953e-05 -3.10081e-20
5.88615e-05 5.24818e-05 -1.49653e-20
5.98091e-05 -3.05364e-05 -5.1451e-20
4.25622e-05 -4.1358e-05 -3.75776e-20
5.99756e-05 7.63494e-05 -6.5679e-20
-2.33626e-06 -0.000179545 -4.92103e-20
8.22321e-06 0.000175591 -3.79142e-20
0.000187902 7.42041e-06 1.3305e-20
4.93305e-05 6.09227e-05 -6.27686e-20
2.11479e-05 0.000190969 -6.4696e-20
-0.000181027 -2.21579e-05 4.00939e-21
6.95793e-05 4.18348e-05 6.57178e-21
7.88829e-05 -1.20334e-05 -9.01449e-20
6.75409e-05 4.88945e-05 3.10316e-20
7.53686e-05 -2.40366e-05 -8.97845e-20
-0.000216547 0.000270683 -5.06418e-20
-0.00026339 0.000216951 2.38636e-20
6.31761e-05 5.55753e-05 -2.11681e-20
6.3698e-05 -3.3296e-05 -4.88928e-20
3.31948e-05 0.00011276 1.78915e-20
-2.18324e-05 -0.000128297 -4.41776e-20
5.59866e-05 2.02794e-05 1.8622e-20
5.7058e-05 2.53229e-05 -9.96385e-20
7.02677e-05 8.41635e-05 1.78882e-20
8.64402e-05 -8.07837e-05 -8.0672e-20
-5.30437e-05 -1.28817e-05 -6.56819e-20
-4.89405e-05 1.42434e-05 1.78825e-20
-0.000179246 4.25787e-06 -2.73827e-20
8.47267e-05 0.000140868 2.81168e-20
6.55532e-05 0.000143964 4.23554e-20
9.86013e-05 0.000113399 3.50594e-20
8.04067e-05 -0.000155464 -2.84799e-20
0.000119528 -0.000119308 -3.28686e-20
-8.69231e-05 -0.000162641 -5.69604e-20
-0.000184448 -3.25277e-06 -5.95136e-20
8.5698e-05 -3.5527e-05 2.22809e-20
0.000298958 -3.94395e-05 2.92226e-20
0.000380671 5.00454e-05 -1.77558e-19
0.000148033 6.12863e-05 -8.25317e-20
0.00013177 3.4304e-05 3.54275e-20
9.8493e-05 1.22822e-05 3.5788e-20
0.000128232 5.07261e-05 1.68012e-20
0.000189574 -1.74454e-06 -1.12099e-19
0.000177682 -5.70123e-05 -1.20532e-19
0.000128429 3.87361e-05 -1.39457e-19
0.000102886 6.61276e-05 3.14033e-20
0.000106947 6.48712e-05 3.57883e-20
0.000135816 -5.1956e-05 -1.39096e-19
0.000137103 -5.15729e-05 -1.65778e-19
TENSORS solid_stress_TPM float
60.9633 5.12794 -1.05687e-11
5.12794 67.9867 -5.10436e-12
-1.05687e-11 -5.10436e-12 61.1172

72.1518 3.41096 -2.33603e-11
3.41096 77.932 3.15818e-11
-2.33603e-11 3.15818e-11 73.4799

71.6555 2.73531 -1.32758e-11
2.73531 77.2072 -1.5406e-11
-1.32758e-11 -1.5406e-11 73.0528

71.9865 1.49874 4.81422e-12
1.49874 59.6659 -1.32848e-11
4.81422e-12 -1.32848e-11 64.6218

69.1602 0.594276 5.12356e-11
0.594276 57.5119 -4.99774e-12
5.12356e-11 -4.99774e-12 60.3119

73.0165 3.225 -2.23252e-11
3.225 78.8789 -3.52428e-11
-2.23252e-11 -3.52428e-11 76.6782

72.4936 2.9901 -1.57779e-11
2.9901 78.4257 1.11687e-11
-1.57779e-11 1.11687e-11 76.311

69.8918 -0.751001 4.38207e-11
-0.751001 58.3575 2.56843e-12
4.38207e-11 2.56843e-12 60.9334

80.5367 0.122867 4.38143e-11
0.122867 65.6835 -2.25289e-11
4.38143e-11 -2.25289e-11 73.2932

48.3302 4.98293 -1.89972e-11
4.98293 56.0216 1.18946e-11
-1.89972e-11 1.18946e-11 46.491

47.354 -5.32858 -7.48838e-12
-5.32858 54.9126 6.11718e-12
-7.48838e-12 6.11718e-12 45.0561

55.7839 5.15606 1.33413e-11
5.15606 50.3026 -1.86591e-11
1.33413e-11 -1.86591e-11 47.0161

77.4213 -4.21861 -4.06058e-11
-4.21861 81.077 -1.77163e-11
-4.06058e-11 -1.77163e-11 78.6507

77.9414 -4.77408 -9.36418e-12
-4.77408 82.0877 9.72511e-12
-9.36418e-12 9.72511e-12 79.2153

62.2947 4.84972 1.22613e-12
4.84972 70.5749 -1.8104e-11
1.22613e-12 -1.8104e-11 65.2189

67.3942 5.80674 -1.70432e-11
5.80674 75.5808 -7.12645e-12
-1.70432e-11 -7.12645e-12 71.5169

72.2191 -2.20693 -3.03167e-12
-2.20693 78.0927 -3.12933e-11
-3.03167e-12 -3.12933e-11 76.0363

72.5644 -2.38282 -1.75483e-11
-2.38282 78.4534 -6.93171e-12
-1.75483e-11 -6.93171e-12 76.3241

76.0072 2.21253 4.00586e-11
2.21253 68.7149 -5.77424e-12
4.00586e-11 -5.77424e-12 70.9482

53.3622 1.92798 7.17463e-12
1.92798 63.6178 5.8753e-12
7.17463e-12 5.8753e-12 52.3833

53.1887 -1.84389 -3.20166e-12
-1.84389 63.5846 -1.72875e-11
-3.20166e-12 -1.72875e-11 52.0882

63.5818 1.58153 9.53637e-12
1.58153 56.4543 -3.26713e-11
9.53637e-12 -3.26713e-11 53.368

60.5124 5.72807 3.41964e-12
5.72807 66.0351 7.89665e-12
3.41964e-12 7.89665e-12 60.339

64.131 -2.92958 -4.06923e-11
-2.92958 54.7207 -8.52033e-12
-4.06923e-11 -8.52033e-12 56.0581

66.2569 5.25679 4.06392e-11
5.25679 68.0289 1.30992e-11
4.06392e-11 1.30992e-11 64.9397

62.4237 5.72619 1.86817e-11
5.72619 69.5832 -2.13788e-11
1.86817e-11 -2.13788e-11 62.4898

73.1364 -1.24022 -1.71429e-11
-1.24022 60.0591 2.38829e-11
-1.71429e-11 2.38829e-11 65.4602

46.0463 4.43463 -1.87946e-11
4.43463 54.4915 -2.52687e-12
-1.87946e-11 -2.52687e-12 40.3648

78.1601 0.551191 -4.61263e-11
0.551191 63.8753 1.95397e-11
-4.61263e-11 1.95397e-11 71.375

53.255 4.44492 -2.75969e-11
4.44492 47.771 -1.80755e-11
-2.75969e-11 -1.80755e-11 40.5307

79.7459 0.7008 1.07112e-11
0.7008 82.3664 -9.82074e-12
1.07112e-11 -9.82074e-12 79.7374

79.7203 0.239233 -2.29386e-13
0.239233 82.2329 -5.00614e-12
-2.29386e-13 -5.00614e-12 79.6939

89.2297 2.49681 -3.71613e-11
2.49681 84.6151 1.09726e-11
-3.71613e-11 1.09726e-11 84.866

89.2917 -2.39508 4.35167e-11
-2.39508 84.7268 1.51155e-11
4.35167e-11 1.51155e-11 84.8508

61.7118 -1.85621 -3.09178e-11
-1.85621 51.9017 -1.39415e-11
-3.09178e-11 -1.39415e-11 50.1894

66.7025 5.65093 -1.01149e-11
5.65093 70.9642 -5.35403e-11
-1.01149e-11 -5.35403e-11 68.1354

80.5212 1.03812 -2.50363e-12
1.03812 78.1046 -4.91055e-12
-2.50363e-12 -4.91055e-12 78.696

80.79 -0.943621 2.773e-11
-0.943621 78.5154 -2.89808e-11
2.773e-11 -2.89808e-11 79.1073

81.2916 0.0127938 2.31185e-12
0.0127938 64.9736 9.49452e-12
2.31185e-12 9.49452e-12 73.4837

61.4785 6.19833 -2.1956e-11
6.19833 69.0571 6.93216e-12
-2.1956e-11 6.93216e-12 61.9114

65.2277 -3.79311 -3.44299e-11
-3.79311 59.8775 -3.75181e-12
-3.44299e-11 -3.75181e-12 58.4612

79.8018 -0.365267 2.10904e-11
-0.365267 63.1177 -5.2113e-12
2.10904e-11 -5.2113e-12 71.7974

59.9866 -5.74 3.75556e-11
-5.74 65.816 1.47321e-11
3.75556e-11 1.47321e-11 59.8308

60.9511 -4.91825 -2.3423e-11
-4.91825 68.0693 -2.49415e-11
-2.3423e-11 -2.49415e-11 61.0811

69.0594 6.52945 -2.42159e-11
6.52945 77.2896 -1.40613e-11
-2.42159e-11 -1.40613e-11 72.7514

59.7769 -6.12654 -6.8856e-12
-6.12654 57.4903 8.52348e-12
-6.8856e-12 8.52348e-12 54.2189

17.9177 12.5143 3.52311e-14
12.5143 26.5353 -1.38514e-11
3.52311e-14 -1.38514e-11 13.8319

25.299 12.3663 -4.31299e-12
12.3663 18.5772 2.27969e-11
-4.31299e-12 2.27969e-11 13.5676

71.2485 -5.83587 3.72595e-11
-5.83587 78.5045 5.19866e-12
3.72595e-11 5.19866e-12 75.6557

31.0498 5.25009 -1.35577e-11
5.25009 41.6081 -2.99411e-11
-1.35577e-11 -2.99411e-11 24.726

39.8307 4.70506 3.75285e-11
4.70506 32.157 2.68526e-13
3.75285e-11 2.68526e-13 24.8023

82.0984 -4.10098 1.04943e-11
-4.10098 85.6392 -2.99438e-11
1.04943e-11 -2.99438e-11 83.4794

82.0789 4.08564 4.50586e-11
4.08564 85.593 3.56697e-12
4.50586e-11 3.56697e-12 83.4804

81.1396 0.118542 -9.72511e-12
0.118542 72.0726 3.55851e-11
-9.72511e-12 3.55851e-11 75.7294

82.1096 -3.57452 2.87886e-11
-3.57452 84.5421 6.23575e-13
2.87886e-11 6.23575e-13 83.6187

82.0964 3.56354 7.5288e-11
3.56354 84.5293 6.04674e-11
7.5288e-11 6.04674e-11 83.6289

63.8095 5.72679 2.29628e-11
5.72679 72.4944 -4.56452e-11
2.29628e-11 -4.56452e-11 66.5769

88.035 2.34038 5.31467e-11
2.34038 80.8675 2.31171e-12
5.31467e-11 2.31171e-12 83.1724

88.1029 -2.32298 -1.91791e-13
-2.32298 80.8316 2.40881e-12
-1.91791e-13 2.40881e-12 83.148

77.0112 -4.73228 7.02964e-12
-4.73228 79.476 1.03991e-11
7.02964e-12 1.03991e-11 78.071

76.9875 4.70348 -9.24416e-12
4.70348 79.4736 3.12939e-12
-9.24416e-12 3.12939e-12 78.0969

53.3363 -5.08782 3.64579e-11
-5.08782 46.6474 2.63388e-11
3.64579e-11 2.63388e-11 43.852

81.8057 2.28543 1.31407e-11
2.28543 87.7539 2.52257e-11
1.31407e-11 2.52257e-11 83.3721

81.3974 1.80711 4.44089e-12
1.80711 87.4351 4.04495e-12
4.44089e-12 4.04495e-12 83.036

61.6462 -6.31578 2.98509e-12
-6.31578 69.3726 3.36982e-12
2.98509e-12 3.36982e-12 62.1818

43.3515 -4.1814 5.91941e-12
-4.1814 53.4707 1.06928e-11
5.91941e-12 1.06928e-11 38.1409

52.1017 -4.14437 2.79818e-11
-4.14437 43.3517 2.4554e-11
2.79818e-11 2.4554e-11 37.5846

67.1085 4.98726 3.19904e-11
4.98726 75.7926 -9.82022e-12
3.19904e-11 -9.82022e-12 70.8546

66.2772 4.63682 -2.65195e-13
4.63682 74.4502 -8.08879e-12
-2.65195e-13 -8.08879e-12 70.0942

93.9396 -6.91615 6.62413e-11
-6.91615 89.321 -4.97714e-11
6.62413e-11 -4.97714e-11 90.6877

93.9371 6.91418 2.33357e-10
6.91418 89.333 2.68674e-14
2.33357e-10 2.68674e-14 90.6977

69.554 7.06695 -1.44204e-12
7.06695 77.2118 1.89705e-11
-1.44204e-12 1.89705e-11 73.6533

76.6996 3.47913 -1.02065e-11
3.47913 73.9046 -1.25187e-11
-1.02065e-11 -1.25187e-11 74.9528

76.6704 -3.54003 -1.23248e-11
-3.54003 73.708 5.96974e-12
-1.23248e-11 5.96974e-12 74.7744

69.0017 6.75564 3.7071e-11
6.75564 75.2513 1.67577e-11
3.7071e-11 1.67577e-11 72.651

72.2737 -6.17349 1.80521e-11
-6.17349 79.8064 1.0878e-11
1.80521e-11 1.0878e-11 76.4564

60.2595 -0.0701113 -2.00832e-11
-0.0701113 48.8301 -9.58252e-12
-2.00832e-11 -9.58252e-12 48.8213

64.8393 2.7604 -8.91095e-12
2.7604 54.5086 1.12914e-11
-8.91095e-12 1.12914e-11 55.3867

78.9397 1.12279 -5.58487e-12
1.12279 71.4444 -3.27272e-12
-5.58487e-12 -3.27272e-12 76.1571

86.6235 -1.73063 -1.44433e-11
-1.73063 85.7309 1.02068e-11
-1.44433e-11 1.02068e-11 84.9491

86.6412 1.48979 7.22046e-11
1.48979 85.8676 -3.46578e-12
7.22046e-11 -3.46578e-12 85.0194

55.655 5.11236 4.06441e-11
5.11236 58.2428 2.48518e-11
4.06441e-11 2.48518e-11 50.5452

65.7801 -4.46235 -4.91192e-12
-4.46235 63.5745 -4.04365e-12
-4.91192e-12 -4.04365e-12 63.1105

76.468 2.67788 4.33314e-11
2.67788 70.7779 1.05441e-11
4.33314e-11 1.05441e-11 71.5558

83.6046 1.46084 -7.55035e-11
1.46084 87.7367 -1.34832e-11
-7.55035e-11 -1.34832e-11 84.375

83.5329 1.24433 -4.04877e-11
1.24433 87.6679 -2.69576e-11
-4.04877e-11 -2.69576e-11 84.261

79.4455 -0.823527 2.14727e-11
-0.823527 72.3636 2.28185e-11
2.14727e-11 2.28185e-11 76.8457

71.5092 -1.74353 1.11449e-11
-1.74353 77.2954 7.80013e-12
1.11449e-11 7.80013e-12 72.9504

71.8283 -2.37306 -1.10001e-11
-2.37306 77.8176 3.659e-12
-1.10001e-11 3.659e-12 73.2664

83.1541 -1.64427 3.85218e-12
-1.64427 75.4028 -2.52738e-11
3.85218e-12 -2.52738e-11 79.4274

83.2986 1.66278 -1.23248e-11
1.66278 75.4545 4.69379e-12
-1.23248e-11 4.69379e-12 79.6023

58.1987 -5.07383 -2.21039e-11
-5.07383 58.0443 -2.09447e-11
-2.21039e-11 -2.09447e-11 51.3073

72.9377 0.316486 -1.60806e-11
0.316486 65.1027 -2.48593e-11
-1.60806e-11 -2.48593e-11 65.7024

83.7586 -2.49315 6.21148e-12
-2.49315 79.2689 3.94747e-12
6.21148e-12 3.94747e-12 82.0643

83.7269 2.46968 1.08799e-11
2.46968 79.3338 1.60308e-11
1.08799e-11 1.60308e-11 82.1227

76.4019 -2.77894 -1.60828e-11
-2.77894 70.868 9.19675e-12
-1.60828e-11 9.19675e-12 71.4493

62.7068 -5.75144 8.28212e-12
-5.75144 70.2589 4.71771e-12
8.28212e-12 4.71771e-12 62.9293

83.1773 -1.8514 -7.7988e-12
-1.8514 76.3548 5.87289e-12
-7.7988e-12 5.87289e-12 79.2462

83.3133 1.8683 1.77155e-11
1.8683 76.4082 -1.31888e-11
1.77155e-11 -1.31888e-11 79.4356

73.615 -1.21374 -2.87622e-13
-1.21374 64.1707 -4.02011e-11
-2.87622e-13 -4.02011e-11 67.6244

71.3861 8.07003 -1.57899e-11
8.07003 78.8336 -1.83209e-12
-1.57899e-11 -1.83209e-12 74.8909

63.9332 4.44864 -2.09012e-11
4.44864 61.9422 -5.73962e-11
-2.09012e-11 -5.73962e-11 58.704

69.6456 6.82819 3.56023e-12
6.82819 77.835 -2.33022e-11
3.56023e-12 -2.33022e-11 74.0707

70.9637 7.62453 3.12915e-12
7.62453 79.3968 1.92631e-12
3.12915e-12 1.92631e-12 75.0009

67.2121 3.3024 -1.38729e-11
3.3024 59.9946 -5.61199e-11
-1.38729e-11 -5.61199e-11 59.8504

71.9768 -2.73235 1.17442e-11
-2.73235 67.9553 4.57862e-11
1.17442e-11 4.57862e-11 70.3832

72.6577 1.49502 -1.3578e-11
1.49502 63.9077 -4.60281e-11
-1.3578e-11 -4.60281e-11 66.5689

58.3037 5.62801 -3.47709e-11
5.62801 59.7711 -6.13037e-11
-3.47709e-11 -6.13037e-11 55.5419

64.9559 4.56909 3.91958e-11
4.56909 63.1406 9.29471e-12
3.91958e-11 9.29471e-12 62.5746

65.1431 0.395164 1.43472e-11
0.395164 73.642 -6.74127e-13
1.43472e-11 -6.74127e-13 69.4384

65.2556 0.625462 -4.99977e-11
0.625462 73.7143 3.12951e-11
-4.99977e-11 3.12951e-11 69.4969

56.3583 -5.73851 -3.2028e-11
-5.73851 51.8068 3.48085e-11
-3.2028e-11 3.48085e-11 47.9826

69.0708 -6.80868 -1.80069e-11
-6.80868 75.3809 1.33854e-11
-1.80069e-11 1.33854e-11 72.7698

60.0589 -6.72585 2.46048e-11
-6.72585 64.6412 1.63204e-11
2.46048e-11 1.63204e-11 57.7326

59.9335 6.88899 -2.08507e-11
6.88899 64.4039 -1.61345e-11
-2.08507e-11 -1.61345e-11 57.5798

72.0252 -2.50472 3.80376e-11
-2.50472 65.8833 -6.93194e-12
3.80376e-11 -6.93194e-12 67.218

82.042 -0.374027 -7.31855e-12
-0.374027 66.9339 -3.60937e-12
-7.31855e-12 -3.60937e-12 75.8197

81.9875 0.418468 2.33033e-11
0.418468 66.9432 -3.13038e-12
2.33033e-11 -3.13038e-12 75.6362

56.4528 3.65401 -1.80792e-11
3.65401 65.476 2.52342e-11
-1.80792e-11 2.52342e-11 57.5899

66.2516 -5.52934 1.21299e-11
-5.52934 67.8949 1.46363e-11
1.21299e-11 1.46363e-11 64.7667

47.503 -0.123399 2.58225e-11
-0.123399 60.6163 2.05181e-11
2.58225e-11 2.05181e-11 48.8081

47.3433 0.271589 -6.81615e-11
0.271589 60.6316 1.39172e-11
-6.81615e-11 1.39172e-11 48.6028

60.8011 -0.0445109 1.09814e-11
-0.0445109 49.9094 -1.02815e-11
1.09814e-11 -1.02815e-11 49.6146

58.1269 5.38761 3.95353e-11
5.38761 58.2475 3.37117e-11
3.95353e-11 3.37117e-11 51.2214

61.9599 -6.31752 8.95935e-12
-6.31752 61.2266 -4.91168e-11
8.95935e-12 -4.91168e-11 57.6597

84.8623 -3.09855 2.08825e-12
-3.09855 91.5798 -3.87038e-11
2.08825e-12 -3.87038e-11 86.0709

84.9441 -2.85801 1.22825e-10
-2.85801 91.6204 -2.04154e-11
1.22825e-10 -2.04154e-11 86.1408

67.933 -3.23589 1.85874e-11
-3.23589 60.3599 1.90183e-11
1.85874e-11 1.90183e-11 60.4902

67.6569 7.49788 6.49873e-12
7.49788 75.8723 -1.95467e-11
6.49873e-12 -1.95467e-11 70.3492

81.1217 -0.198444 -2.70588e-11
-0.198444 71.9757 -1.65223e-11
-2.70588e-11 -1.65223e-11 75.6032

56.4612 -3.59579 1.62031e-11
-3.59579 65.8697 -2.53314e-11
1.62031e-11 -2.53314e-11 57.7413

72.4771 6.71184 1.35531e-11
6.71184 80.4006 4.50658e-11
1.35531e-11 4.50658e-11 76.8713

70.9417 6.31706 -7.68015e-13
6.31706 78.8702 1.9644e-11
-7.68015e-13 1.9644e-11 75.8059

71.5167 -8.05452 8.95721e-12
-8.05452 78.9202 -1.45399e-11
8.95721e-12 -1.45399e-11 74.9921

71.6563 7.76661 -6.3561e-12
7.76661 80.7207 -2.27256e-11
-6.3561e-12 -2.27256e-11 75.9995

66.1117 6.55463 -2.72048e-11
6.55463 73.756 -2.53269e-11
-2.72048e-11 -2.53269e-11 68.9999

88.1891 0.0145678 4.39048e-11
0.0145678 79.4452 8.8363e-13
4.39048e-11 8.8363e-13 84.6122

61.8718 6.19974 4.82133e-13
6.19974 60.4934 3.33205e-11
4.82133e-13 3.33205e-11 57.1779

69.6447 -6.88668 1.03057e-11
-6.88668 77.7892 -4.56433e-11
1.03057e-11 -4.56433e-11 74.0603

63.348 5.41819 -4.08322e-11
5.41819 65.8138 -2.22015e-11
-4.08322e-11 -2.22015e-11 60.3333

53.7519 -4.67824 6.69848e-11
-4.67824 56.9931 1.09259e-11
6.69848e-11 1.09259e-11 48.6798

66.7485 -5.72555 1.90662e-13
-5.72555 71.3032 3.09108e-11
1.90662e-13 3.09108e-11 68.2602

55.1954 -3.26416 -1.3206e-11
-3.26416 65.7221 5.35053e-11
-1.3206e-11 5.35053e-11 54.2646

54.8981 3.18196 8.56063e-12
3.18196 65.3713 4.89774e-11
8.56063e-12 4.89774e-11 53.9955

64.5119 -2.24182 7.21201e-13
-2.24182 57.8906 3.26339e-11
7.21201e-13 3.26339e-11 54.6605

63.308 -5.56651 1.15848e-12
-5.56651 65.7903 -1.68561e-11
1.15848e-12 -1.68561e-11 60.1976

64.1416 0.862921 -1.75737e-11
0.862921 72.7492 -2.00323e-11
-1.75737e-11 -2.00323e-11 65.0263

64.0954 -0.0101718 1.45993e-11
-0.0101718 72.6129 -3.07214e-11
1.45993e-11 -3.07214e-11 64.9784

51.8295 -6.42578 -1.62294e-11
-6.42578 55.8773 1.98409e-11
-1.62294e-11 1.98409e-11 47.419

51.6102 6.50514 2.8414e-11
6.50514 56.1959 5.67799e-11
2.8414e-11 5.67799e-11 47.7464

87.2298 -0.573948 1.94493e-11
-0.573948 77.2958 -2.3418e-11
1.94493e-11 -2.3418e-11 83.1671

87.2858 0.601589 2.46494e-11
0.601589 77.3282 1.54766e-11
2.46494e-11 1.54766e-11 83.2337

69.0529 7.06778 -1.00133e-11
7.06778 76.6761 7.99131e-12
-1.00133e-11 7.99131e-12 71.6546

70.8904 -6.42816 -7.51262e-12
-6.42816 79.0049 1.36725e-11
-7.51262e-12 1.36725e-11 75.6812

69.3273 4.68106 3.52408e-11
4.68106 71.7958 -3.29305e-11
3.52408e-11 -3.29305e-11 70.6094

53.4975 5.18425 -1.10812e-11
5.18425 46.7404 -4.23926e-11
-1.10812e-11 -4.23926e-11 42.281

57.3837 4.43484 -1.4566e-11
4.43484 67.7043 -1.89753e-11
-1.4566e-11 -1.89753e-11 58.8026

81.463 3.09856 -1.51166e-11
3.09856 81.1001 -3.80296e-12
-1.51166e-11 -3.80296e-12 81.3058

81.4919 -3.12098 -1.77158e-11
-3.12098 81.1227 2.44555e-11
-1.77158e-11 2.44555e-11 81.2886

77.1306 -4.22608 -7.79998e-12
-4.22608 76.3007 3.67829e-11
-7.79998e-12 3.67829e-11 75.3019

77.0888 4.1929 -1.59814e-11
4.1929 76.2894 1.95457e-11
-1.59814e-11 1.95457e-11 75.3305

33.8671 1.38511 -2.75485e-11
1.38511 50.506 1.54359e-11
-2.75485e-11 1.54359e-11 26.9542

48.6589 1.43372 -2.88084e-11
1.43372 35.445 1.40773e-11
-2.88084e-11 1.40773e-11 26.9179

57.2554 -4.20786 -3.92375e-12
-4.20786 67.9476 -2.11816e-12
-3.92375e-12 -2.11816e-12 59.0182

88.4239 -3.35981 -6.95089e-11
-3.35981 89.3114 4.70825e-11
-6.95089e-11 4.70825e-11 88.4841

88.4013 3.37073 -8.02885e-11
3.37073 89.3052 -2.47474e-11
-8.02885e-11 -2.47474e-11 88.4861

70.652 5.15424 -3.83841e-13
5.15424 70.8785 1.55049e-11
-3.83841e-13 1.55049e-11 68.2595

55.2621 2.82444 -4.26728e-11
2.82444 44.1917 -7.27437e-12
-4.26728e-11 -7.27437e-12 41.9726

72.9607 -0.537883 -2.19578e-11
-0.537883 65.1545 -1.54088e-11
-2.19578e-11 -1.54088e-11 65.7234

66.3058 -3.69934 -2.97347e-12
-3.69934 74.3543 1.31919e-11
-2.97347e-12 1.31919e-11 70.1067

67.1949 -4.04726 4.26067e-12
-4.04726 75.3132 1.99326e-11
4.26067e-12 1.99326e-11 70.8179

58.1032 -6.12263 -7.7592e-12
-6.12263 60.3585 7.46881e-11
-7.7592e-12 7.46881e-11 54.9888

71.7187 -7.79945 1.40586e-11
-7.79945 80.8551 -2.00302e-11
1.40586e-11 -2.00302e-11 76.0873

70.6393 -5.20984 -1.79113e-11
-5.20984 70.9459 3.45699e-11
-1.79113e-11 3.45699e-11 68.1835

68.5502 7.46969 -2.90752e-11
7.46969 77.1068 1.73309e-11
-2.90752e-11 1.73309e-11 73.501

77.8004 5.39976 9.52042e-12
5.39976 82.1467 9.24335e-12
9.52042e-12 9.24335e-12 79.3645

77.2624 4.90434 -1.33074e-11
4.90434 80.9145 3.31221e-11
-1.33074e-11 3.31221e-11 78.7345

69.1205 -7.09884 1.14101e-11
-7.09884 76.9379 -5.68397e-12
1.14101e-11 -5.68397e-12 71.8488

67.3967 6.40715 -2.85024e-11
6.40715 74.2087 6.64424e-12
-2.85024e-11 6.64424e-12 69.9508

62.1334 4.43649 -2.11372e-11
4.43649 55.4095 3.61618e-11
-2.11372e-11 3.61618e-11 54.5677

70.9437 8.22079 -2.12793e-11
8.22079 79.5832 -1.56019e-11
-2.12793e-11 -1.56019e-11 75.2982

62.419 -5.02474 -2.82614e-11
-5.02474 70.9811 -3.753e-12
-2.82614e-11 -3.753e-12 65.4737

59.2794 1.95712 -1.19662e-11
1.95712 69.5832 -2.97589e-11
-1.19662e-11 -2.97589e-11 62.0854

71.2061 5.97022 9.24594e-12
5.97022 73.83 2.2532e-11
9.24594e-12 2.2532e-11 71.4993

60.4034 2.51475 -2.63377e-11
2.51475 70.3292 -3.03375e-11
-2.63377e-11 -3.03375e-11 62.8542

72.5112 -6.97647 -2.67195e-11
-6.97647 80.5865 3.71695e-11
-2.67195e-11 3.71695e-11 76.7573

38.5742 -5.99563 -1.7638e-11
-5.99563 39.2376 -3.04879e-11
-1.7638e-11 -3.04879e-11 29.9323

38.7526 -6.06117 6.10051e-11
-6.06117 38.785 2.95059e-11
6.10051e-11 2.95059e-11 29.8115

71.2059 -6.0057 -2.02219e-11
-6.0057 73.834 5.12296e-11
-2.02219e-11 5.12296e-11 71.4671

75.8846 -2.27056 -6.73994e-12
-2.27056 68.6583 9.32269e-12
-6.73994e-12 9.32269e-12 70.8152

94.3021 7.11955 1.40743e-10
7.11955 91.0929 2.90394e-12
1.40743e-10 2.90394e-12 91.1276

94.3046 -7.12019 1.22069e-10
-7.12019 91.0953 7.64159e-11
1.22069e-10 7.64159e-11 91.121

67.8985 -7.45202 -4.0925e-12
-7.45202 76.2723 -4.04447e-12
-4.0925e-12 -4.04447e-12 70.7649

80.7913 1.56552 4.91001e-11
1.56552 82.1297 3.17957e-12
4.91001e-11 3.17957e-12 81.5174

80.8927 -1.43917 -6.54696e-11
-1.43917 82.2308 6.61446e-11
-6.54696e-11 6.61446e-11 81.5548

76.9992 0.0983865 -2.07055e-11
0.0983865 62.1288 -5.52521e-14
-2.07055e-11 -5.52521e-14 68.5065

68.5107 -7.50583 1.83909e-11
-7.50583 77.2032 -1.20386e-11
1.83909e-11 -1.20386e-11 73.4704

42.5015 7.30603 -1.05517e-11
7.30603 43.1437 -9.166e-12
-1.05517e-11 -9.166e-12 34.889

41.7509 6.91996 -8.38411e-12
6.91996 43.1389 -3.08521e-11
-8.38411e-12 -3.08521e-11 34.9173

45.0551 -5.19936 2.27428e-11
-5.19936 54.6152 -4.96589e-11
2.27428e-11 -4.96589e-11 40.8685

45.9624 5.45182 -2.86646e-11
5.45182 55.4322 -1.30524e-11
-2.86646e-11 -1.30524e-11 41.7505

53.9743 -4.32531 6.28579e-11
-4.32531 46.8535 -5.06072e-11
6.28579e-11 -5.06072e-11 41.1417

70.9738 -8.25619 2.07964e-11
-8.25619 79.8273 4.61845e-12
2.07964e-11 4.61845e-12 75.3636

35.6517 1.91573 -1.43544e-11
1.91573 50.3016 -2.57228e-11
-1.43544e-11 -2.57228e-11 35.0454

49.5963 2.44636 -1.00657e-11
2.44636 37.9713 1.38094e-11
-1.00657e-11 1.38094e-11 35.5714

80.0892 -2.54956 -3.28289e-11
-2.54956 84.2846 -2.94628e-11
-3.28289e-11 -2.94628e-11 81.5244

80.6045 -3.08638 -1.17965e-12
-3.08638 84.6807 5.68061e-11
-1.17965e-12 5.68061e-11 81.8846

78.1834 0.972515 1.92593e-11
0.972515 70.2192 2.46022e-11
1.92593e-11 2.46022e-11 73.0172

81.0643 0.0602411 7.31922e-12
0.0602411 63.5706 -1.17958e-12
7.31922e-12 -1.17958e-12 73.1805

53.3336 -4.71749 -1.97423e-11
-4.71749 61.7395 -2.54863e-12
-1.97423e-11 -2.54863e-12 52.27

53.0286 4.61381 4.22304e-11
4.61381 61.5051 2.5143e-11
4.22304e-11 2.5143e-11 52.0608

77.0669 -0.000301425 -2.97581e-11
-0.000301425 62.0075 1.56144e-11
-2.97581e-11 1.56144e-11 68.7198

64.0343 -5.69488 2.14008e-11
-5.69488 72.9431 -2.61964e-11
2.14008e-11 -2.61964e-11 66.9787

87.1342 -2.44316 -3.75566e-12
-2.44316 86.5832 -6.34441e-11
-3.75566e-12 -6.34441e-11 86.5654

87.0823 2.43828 -9.91599e-12
2.43828 86.5595 5.97386e-11
-9.91599e-12 5.97386e-11 86.5613

72.7593 3.35968 -1.89679e-11
3.35968 73.3513 8.76077e-12
-1.89679e-11 8.76077e-12 72.0926

67.199 -6.37883 -4.12124e-11
-6.37883 74.189 4.72133e-12
-4.12124e-11 4.72133e-12 69.8688

76.5507 0.970985 3.37995e-11
0.970985 64.3099 -3.9572e-11
3.37995e-11 -3.9572e-11 70.5029

54.3583 5.32497 5.12859e-11
5.32497 53.368 8.23859e-12
5.12859e-11 8.23859e-12 48.2421

66.1785 -6.55181 -2.88854e-12
-6.55181 73.7987 -6.25877e-12
-2.88854e-12 -6.25877e-12 69.076

19.869 -11.5127 -2.78879e-11
-11.5127 20.2787 1.92436e-11
-2.78879e-11 1.92436e-11 11.2322

59.5945 -1.57015 3.26204e-11
-1.57015 69.3701 4.23498e-12
3.26204e-11 4.23498e-12 62.1267

60.4871 -2.15092 -1.67315e-11
-2.15092 69.9568 -3.88101e-11
-1.67315e-11 -3.88101e-11 62.7106

80.7573 -0.507995 2.34435e-12
-0.507995 83.7842 -2.50422e-12
2.34435e-12 -2.50422e-12 81.9381

80.8473 -0.292017 -2.07976e-11
-0.292017 83.7331 5.87307e-11
-2.07976e-11 5.87307e-11 81.957

88.9945 -1.78728 -8.85751e-12
-1.78728 81.5384 3.69204e-11
-8.85751e-12 3.69204e-11 86.2322

88.9902 1.79027 4.62149e-12
1.79027 81.5673 -2.10586e-11
4.62149e-12 -2.10586e-11 86.2809

74.3977 -3.51627 3.15832e-11
-3.51627 75.1928 -4.03415e-11
3.15832e-11 -4.03415e-11 75.6191

74.1956 3.62816 -1.07857e-11
3.62816 74.4026 -1.17474e-11
-1.07857e-11 -1.17474e-11 75.1087

80.0239 -3.11921 -5.62284e-11
-3.11921 83.4266 4.88163e-11
-5.62284e-11 4.88163e-11 81.1552

79.9403 3.24678 3.21571e-11
3.24678 83.3834 -9.33741e-12
3.21571e-11 -9.33741e-12 81.1165

90.7975 4.85272 -2.65684e-11
4.85272 90.4155 2.98438e-12
-2.65684e-11 2.98438e-12 89.5911

90.8017 -4.84551 2.57975e-11
-4.84551 90.4193 9.38633e-11
2.57975e-11 9.38633e-11 89.584

74.9457 -8.00223 3.74551e-11
-8.00223 82.0183 -1.95512e-11
3.74551e-11 -1.95512e-11 78.7019

74.9748 8.02981 7.69991e-12
8.02981 81.9429 -4.2268e-11
7.69991e-12 -4.2268e-11 78.7195

70.2005 4.78519 -1.90656e-11
4.78519 67.965 3.29323e-11
-1.90656e-11 3.29323e-11 67.0269

65.3276 -3.77045 4.28367e-12
-3.77045 72.8159 2.80232e-11
4.28367e-12 2.80232e-11 66.7969

66.1117 -4.70772 1.49248e-11
-4.70772 74.3142 -5.4411e-11
1.49248e-11 -5.4411e-11 67.725

55.5917 -4.76061 5.97651e-11
-4.76061 54.2416 -2.75024e-11
5.97651e-11 -2.75024e-11 47.9664

70.1541 -4.77764 -2.96597e-11
-4.77764 68.0925 7.46521e-12
-2.96597e-11 7.46521e-12 66.9719

65.125 3.55807 -9.43912e-12
3.55807 72.476 -2.43638e-11
-9.43912e-12 -2.43638e-11 66.541

66.3689 6.69894 6.12445e-11
6.69894 68.9275 2.3627e-12
6.12445e-11 2.3627e-12 65.0201

71.5767 -6.93118 -1.78111e-11
-6.93118 78.4636 -2.53224e-11
-1.78111e-11 -2.53224e-11 76.0724

71.6882 6.80384 -1.74329e-11
6.80384 78.4855 -6.81737e-11
-1.74329e-11 -6.81737e-11 76.1458

66.2248 -6.79924 -1.66639e-11
-6.79924 68.8409 5.73041e-11
-1.66639e-11 5.73041e-11 64.8774

78.93 -0.677534 3.17679e-12
-0.677534 71.1156 4.65999e-11
3.17679e-12 4.65999e-11 74.0397

85.256 1.92156 -1.70974e-13
1.92156 88.5548 1.08407e-10
-1.70974e-13 1.08407e-10 85.479

85.4586 1.68832 -1.1081e-10
1.68832 88.4982 -4.23632e-11
-1.1081e-10 -4.23632e-11 85.569

71.5012 -5.96911 1.80523e-11
-5.96911 78.5225 1.12632e-11
1.80523e-11 1.12632e-11 73.9292

70.9132 2.92504 1.19414e-11
2.92504 67.1147 3.16807e-11
1.19414e-11 3.16807e-11 69.321

84.1397 -0.716657 1.61747e-11
-0.716657 74.1325 -1.81971e-11
1.61747e-11 -1.81971e-11 78.937

41.4019 -6.42863 2.11188e-11
-6.42863 42.3897 2.52622e-11
2.11188e-11 2.52622e-11 32.7042

41.7328 -6.27883 -2.16656e-12
-6.27883 42.5935 -4.58532e-11
-2.16656e-12 -4.58532e-11 32.9769

88.564 -2.01789 -3.21575e-11
-2.01789 80.9131 1.96161e-11
-3.21575e-11 1.96161e-11 85.5934

88.4888 2.05154 -1.42489e-11
2.05154 80.9299 -7.19676e-12
-1.42489e-11 -7.19676e-12 85.6123

84.3517 0.589569 -3.8447e-13
0.589569 74.512 1.07367e-11
-3.8447e-13 1.07367e-11 79.1843

66.1027 4.67363 9.60354e-12
4.67363 74.0467 -1.72373e-11
9.60354e-12 -1.72373e-11 67.5983

68.6643 3.68608 -2.06069e-11
3.68608 64.7081 4.18393e-11
-2.06069e-11 4.18393e-11 62.2777

77.1033 -5.32574 3.04262e-11
-5.32574 80.8101 -1.21338e-11
3.04262e-11 -1.21338e-11 78.1873

77.0787 5.28442 -3.42761e-11
5.28442 80.8016 -6.60545e-11
-3.42761e-11 -6.60545e-11 78.2043

88.5034 -0.964606 7.12345e-12
-0.964606 83.3398 4.42009e-11
7.12345e-12 4.42009e-11 85.0661

88.6576 0.975258 -1.69441e-11
0.975258 84.1148 1.07959e-11
-1.69441e-11 1.07959e-11 85.3432

68.7456 -6.84066 -1.04941e-11
-6.84066 77.2762 -1.5984e-11
-1.04941e-11 -1.5984e-11 72.8037

71.5206 2.937 -3.75568e-11
2.937 65.6545 -1.48299e-11
-3.75568e-11 -1.48299e-11 66.3439

84.423 2.04021 2.31082e-11
2.04021 81.905 -4.42368e-11
2.31082e-11 -4.42368e-11 82.9203

84.475 -2.05068 -2.22394e-11
-2.05068 81.9049 2.09415e-11
-2.22394e-11 2.09415e-11 82.9056

70.5015 -5.30879 2.01222e-11
-5.30879 76.9555 1.28063e-11
2.01222e-11 1.28063e-11 72.9987

69.0661 -7.29914 -1.42487e-11
-7.29914 77.2116 -1.29024e-11
-1.42487e-11 -1.29024e-11 73.454

20.549 -11.9371 2.76999e-11
-11.9371 21.1842 -5.57036e-12
2.76999e-11 -5.57036e-12 11.8571

74.3518 4.9777 -3.49492e-11
4.9777 81.3312 -2.21685e-12
-3.49492e-11 -2.21685e-12 78.1215

74.3188 -5.05278 4.6307e-11
-5.05278 81.4068 3.55293e-11
4.6307e-11 3.55293e-11 78.1557

67.0589 -6.32448 -1.52146e-11
-6.32448 75.4817 1.57937e-11
-1.52146e-11 1.57937e-11 71.4993

69.455 -3.97707 2.12802e-11
-3.97707 65.1076 -1.15081e-11
2.12802e-11 -1.15081e-11 62.8751

73.6895 -3.16989 -1.59853e-11
-3.16989 73.8911 1.47312e-11
-1.59853e-11 1.47312e-11 72.8143

74.3718 4.31028 1.41562e-11
4.31028 77.8998 1.88729e-11
1.41562e-11 1.88729e-11 76.336

74.3316 -4.47338 4.26501e-11
-4.47338 78.0916 2.96562e-11
4.26501e-11 2.96562e-11 76.4122

77.1143 -0.647106 1.08818e-11
-0.647106 64.7047 -3.21109e-11
1.08818e-11 -3.21109e-11 71.3521

89.3544 1.58669 -1.96408e-11
1.58669 85.0978 3.83144e-11
-1.96408e-11 3.83144e-11 87.637

89.451 -1.57123 -2.40669e-11
-1.57123 85.1065 6.74757e-13
-2.40669e-11 6.74757e-13 87.6583

85.0445 0.698942 7.60775e-12
0.698942 92.7428 -1.84848e-11
7.60775e-12 -1.84848e-11 85.9015

85.156 0.465283 -4.95586e-11
0.465283 92.7636 -2.92673e-11
-4.95586e-11 -2.92673e-11 85.9519

32.4129 0.501614 7.84058e-13
0.501614 50.015 -1.37052e-11
7.84058e-13 -1.37052e-11 26.2939

47.6845 0.446112 2.37754e-11
0.446112 32.5287 1.88818e-11
2.37754e-11 1.88818e-11 25.846

73.7758 -6.83588 -3.21547e-11
-6.83588 81.0765 -1.52111e-11
-3.21547e-11 -1.52111e-11 76.6906

73.7851 6.81645 -1.74251e-11
6.81645 81.0422 2.99431e-11
-1.74251e-11 2.99431e-11 76.7068

70.4594 -7.77846 -2.38791e-11
-7.77846 79.4618 1.27128e-11
-2.38791e-11 1.27128e-11 74.8206

27.8563 -5.61024 1.84226e-11
-5.61024 40.8177 2.62537e-11
1.84226e-11 2.62537e-11 22.3828

39.7938 -5.36292 -3.72381e-11
-5.36292 29.2585 -9.77796e-12
-3.72381e-11 -9.77796e-12 22.6249

89.3414 -7.14423 -1.11661e-10
-7.14423 94.8874 -3.39729e-11
-1.11661e-10 -3.39729e-11 91.4346

89.3343 7.14303 4.79402e-11
7.14303 94.8896 -5.42916e-11
4.79402e-11 -5.42916e-11 91.4402

69.5015 -4.72239 -6.45225e-12
-4.72239 71.9815 2.14734e-11
-6.45225e-12 2.14734e-11 70.8805

66.6646 -6.56372 -2.08957e-11
-6.56372 71.2296 2.01287e-11
-2.08957e-11 2.01287e-11 66.4434

73.042 -6.90945 -9.62933e-13
-6.90945 78.2534 -7.02949e-12
-9.62933e-13 -7.02949e-12 75.3045

73.0279 6.88252 -3.77471e-11
6.88252 78.2233 -7.74209e-11
-3.77471e-11 -7.74209e-11 75.3129

68.2355 -7.41344 -1.10715e-11
-7.41344 74.6839 -1.87772e-11
-1.10715e-11 -1.87772e-11 70.048

66.6476 6.56573 1.25152e-12
6.56573 71.0142 2.32073e-11
1.25152e-12 2.32073e-11 66.373

44.4632 -2.12881 3.63694e-12
-2.12881 56.7351 -5.53892e-11
3.63694e-12 -5.53892e-11 41.6537

43.8184 2.57785 -4.51603e-11
2.57785 55.8681 -3.9518e-12
-4.51603e-11 -3.9518e-12 41.4427

55.7598 -1.62191 2.96714e-11
-1.62191 47.0161 -2.35505e-11
2.96714e-11 -2.35505e-11 42.1973

68.2151 7.3751 -5.19873e-12
7.3751 74.5677 9.62045e-13
-5.19873e-12 9.62045e-13 69.9724

35.0892 -1.3241 -3.11866e-11
-1.3241 50.5034 5.14433e-11
-3.11866e-11 5.14433e-11 34.5246

49.0579 -1.28237 -4.33431e-13
-1.28237 35.4007 2.82755e-11
-4.33431e-13 2.82755e-11 34.0763

76.7183 -6.75046 9.77263e-11
-6.75046 82.0481 -3.07241e-11
9.77263e-11 -3.07241e-11 79.3359

76.7484 6.71161 1.40581e-11
6.71161 82.0317 2.57092e-11
1.40581e-11 2.57092e-11 79.3646

77.7589 -5.87624 6.3639e-11
-5.87624 83.4525 -1.18497e-11
6.3639e-11 -1.18497e-11 80.4842

77.7652 5.85306 5.54552e-11
5.85306 83.4167 -2.56049e-11
5.54552e-11 -2.56049e-11 80.4971

26.5261 -5.64115 1.75771e-12
-5.64115 39.1983 -8.21417e-12
1.75771e-12 -8.21417e-12 20.7459

38.076 -5.21794 5.59538e-11
-5.21794 26.8827 4.79288e-11
5.59538e-11 4.79288e-11 20.5268

71.891 6.23054 5.5862e-12
6.23054 76.509 -2.93694e-11
5.5862e-12 -2.93694e-11 72.7536

71.9183 -6.28082 -1.70412e-11
-6.28082 76.5943 -1.82698e-12
-1.70412e-11 -1.82698e-12 72.7577

82.3591 -1.00481 6.36874e-11
-1.00481 84.774 -2.86882e-11
6.36874e-11 -2.86882e-11 82.8212

82.4919 -1.33431 -5.06829e-11
-1.33431 85.0223 2.86921e-11
-5.06829e-11 2.86921e-11 82.9641

76.7368 -6.77737 3.94713e-11
-6.77737 85.0724 2.53174e-11
3.94713e-11 2.53174e-11 80.8641

76.7213 6.80847 1.13619e-11
6.80847 85.0216 2.9851e-11
1.13619e-11 2.9851e-11 80.8732

86.2597 -2.66757 1.28075e-11
-2.66757 83.3348 1.78094e-11
1.28075e-11 1.78094e-11 85.5531

86.215 2.66828 -9.53023e-12
2.66828 83.3482 7.22533e-13
-9.53023e-12 7.22533e-13 85.5574

71.1247 5.61 8.47507e-12
5.61 76.6503 3.29334e-11
8.47507e-12 3.29334e-11 73.7865

71.1219 -5.58677 -1.92616e-12
-5.58677 76.9092 2.4073e-12
-1.92616e-12 2.4073e-12 73.8914

81.854 -2.09756 2.17458e-11
-2.09756 90.1094 -2.27237e-11
2.17458e-11 -2.27237e-11 84.1954

91.6721 -3.83015 -5.77608e-11
-3.83015 89.7306 2.73855e-15
-5.77608e-11 2.73855e-15 90.4462

91.2626 -3.93894 1.23224e-11
-3.93894 89.728 -3.31174e-11
1.23224e-11 -3.31174e-11 90.3662

91.6107 3.8514 -3.56201e-11
3.8514 89.7214 9.43183e-12
-3.56201e-11 9.43183e-12 90.4304

91.2451 3.94839 3.77386e-11
3.94839 89.7232 -9.04884e-11
3.77386e-11 -9.04884e-11 90.3676

81.4126 -1.62782 -8.3793e-11
-1.62782 89.941 7.25967e-11
-8.3793e-11 7.25967e-11 83.9058

85.0125 -4.29232 4.23661e-12
-4.29232 84.8506 -2.224e-11
4.23661e-12 -2.224e-11 83.5794

84.8291 4.43947 -2.67654e-11
4.43947 84.9229 -9.62809e-12
-2.67654e-11 -9.62809e-12 83.6184

88.3574 -5.57398 -4.35054e-11
-5.57398 91.4526 -1.46438e-10
-4.35054e-11 -1.46438e-10 88.3454

105.585 -4.15975 1.02742e-09
-4.15975 90.9176 2.01513e-10
1.02742e-09 2.01513e-10 93.1407

105.586 4.15671 4.56901e-10
4.15671 90.931 1.20566e-10
4.56901e-10 1.20566e-10 93.1525

88.3438 5.57674 7.4905e-11
5.57674 91.4449 7.24075e-11
7.4905e-11 7.24075e-11 88.3525

89.3066 -5.91306 1.62739e-11
-5.91306 89.0989 -6.39247e-11
1.62739e-11 -6.39247e-11 87.5607

83.0756 -4.7701 -7.48059e-11
-4.7701 87.8071 -1.174e-11
-7.48059e-11 -1.174e-11 84.591

90.6895 -4.55865 4.66042e-11
-4.55865 90.6758 -1.42768e-10
4.66042e-11 -1.42768e-10 89.6087

89.2971 5.91597 -2.56053e-11
5.91597 89.0731 2.84954e-11
-2.56053e-11 2.84954e-11 87.5654

90.6852 4.56254 -6.68093e-11
4.56254 90.6797 7.75869e-11
-6.68093e-11 7.75869e-11 89.6182

83.073 4.76881 8.76166e-12
4.76881 87.7724 5.68245e-12
8.76166e-12 5.68245e-12 84.5964

83.304 -4.92024 -7.49962e-11
-4.92024 87.9552 9.25033e-12
-7.49962e-11 9.25033e-12 85.4378

88.292 -4.00851 -3.06156e-11
-4.00851 89.8042 1.15569e-11
-3.06156e-11 1.15569e-11 88.275

83.3029 4.91682 1.07809e-11
4.91682 87.9292 -3.177e-11
1.07809e-11 -3.177e-11 85.4442

88.2696 4.0028 -6.91211e-11
4.0028 89.7762 -1.64136e-12
-6.91211e-11 -1.64136e-12 88.2747

71.149 3.22047 -4.62172e-11
3.22047 75.1857 -1.81052e-11
-4.62172e-11 -1.81052e-11 72.7357

67.034 -0.93017 -1.48296e-11
-0.93017 76.8871 -1.50212e-11
-1.48296e-11 -1.50212e-11 72.4696

69.123 -1.03752 2.31119e-12
-1.03752 59.6897 3.08268e-12
2.31119e-12 3.08268e-12 65.3356

66.4409 0.0329688 -1.59872e-11
0.0329688 57.4615 9.0538e-12
-1.59872e-11 9.0538e-12 61.6165

72.1325 3.22938 -3.06197e-11
3.22938 76.9005 -2.69651e-12
-3.06197e-11 -2.69651e-12 75.9895

68.713 -1.40567 -1.96424e-11
-1.40567 82.0095 2.6957e-12
-1.96424e-11 2.6957e-12 76.3978

66.5231 1.81443 -3.2756e-12
1.81443 57.5843 4.2378e-12
-3.2756e-12 4.2378e-12 61.8755

75.4832 2.30958 -1.88684e-11
2.30958 66.2407 3.92865e-11
-1.88684e-11 3.92865e-11 73.0878

47.4813 4.60244 3.44835e-11
4.60244 53.966 2.96641e-11
3.44835e-11 2.96641e-11 49.6633

47.7941 4.45969 3.2361e-11
4.45969 54.0657 -1.48333e-11
3.2361e-11 -1.48333e-11 49.1854

52.939 4.01299 -3.25551e-11
4.01299 47.0807 -9.05357e-12
-3.25551e-11 -9.05357e-12 48.4354

76.5412 2.02497 -5.58479e-12
2.02497 81.8518 8.47085e-12
-5.58479e-12 8.47085e-12 78.7101

77.1377 -3.90527 1.59818e-11
-3.90527 79.3428 3.40832e-11
1.59818e-11 3.40832e-11 78.2998

66.4819 -4.97361 2.96585e-11
-4.97361 67.8685 1.07835e-11
2.96585e-11 1.07835e-11 66.7456

68.498 1.6873 -2.11668e-12
1.6873 82.0455 4.62218e-11
-2.11668e-12 4.62218e-11 76.1658

71.7496 -1.86833 2.83056e-11
-1.86833 76.3415 2.86948e-11
2.83056e-11 2.86948e-11 75.6464

71.6333 1.28582 2.65821e-11
1.28582 60.5314 2.69582e-11
2.65821e-11 2.69582e-11 66.2159

51.4511 2.12184 3.6793e-11
2.12184 60.4296 1.6182e-11
3.6793e-11 1.6182e-11 54.0721

52.7421 1.61608 9.15312e-12
1.61608 59.6802 5.64384e-11
9.15312e-12 5.64384e-11 53.9043

59.2957 1.24041 -5.73039e-11
1.24041 51.6393 -1.29122e-11
-5.73039e-11 -1.29122e-11 53.0092

60.349 4.96028 -1.41549e-11
4.96028 66.0036 1.77193e-11
-1.41549e-11 1.77193e-11 61.7083

58.5807 -2.976 1.08786e-11
-2.976 65.9504 -2.1191e-11
1.08786e-11 -2.1191e-11 61.858

69.7657 2.86083 -9.82755e-12
2.86083 59.7191 5.58648e-12
-9.82755e-12 5.58648e-12 65.8961

44.9424 3.36448 -2.65932e-11
3.36448 49.8189 -5.81767e-11
-2.65932e-11 -5.81767e-11 45.1344

74.8045 -1.28162 7.68126e-13
-1.28162 63.1794 -1.82936e-11
7.68126e-13 -1.82936e-11 71.4078

79.2335 0.865574 -2.44561e-11
0.865574 80.285 -3.34138e-11
-2.44561e-11 -3.34138e-11 79.1855

77.1264 -0.229202 2.52218e-11
-0.229202 84.2901 1.30969e-11
2.52218e-11 1.30969e-11 79.4776

96.3462 5.01322 -8.08849e-12
5.01322 87.6392 -3.38874e-11
-8.08849e-12 -3.38874e-11 86.4705

95.2491 -2.24694 1.20539e-10
-2.24694 83.0101 1.28984e-11
1.20539e-10 1.28984e-11 85.8121

64.334 -5.68276 3.66211e-12
-5.68276 66.9868 -2.73461e-11
3.66211e-12 -2.73461e-11 65.5778

58.9469 -4.78827 -1.00167e-11
-4.78827 64.7344 -4.33391e-11
-1.00167e-11 -4.33391e-11 60.8744

58.2302 -0.0560546 2.45602e-11
-0.0560546 49.6188 -2.48352e-11
2.45602e-11 -2.48352e-11 52.3714

83.3033 3.106 1.84869e-11
3.106 77.7254 -2.34931e-11
1.84869e-11 -2.34931e-11 79.476

82.0273 -0.85296 -4.62445e-12
-0.85296 76.4279 -2.38783e-11
-4.62445e-12 -2.38783e-11 78.9629

75.2557 -0.50387 -1.03992e-11
-0.50387 63.635 9.05172e-12
-1.03992e-11 9.05172e-12 72.8264

57.7956 -3.6374 1.02077e-11
-3.6374 63.7074 -1.54096e-11
1.02077e-11 -1.54096e-11 60.8291

74.0145 0.707844 -8.5704e-12
0.707844 61.787 1.44435e-11
-8.5704e-12 1.44435e-11 71.2405

62.6113 -3.5734 -1.88726e-11
-3.5734 58.7289 3.29389e-11
-1.88726e-11 3.29389e-11 59.0851

59.0786 5.25701 3.65707e-12
5.25701 62.6167 -3.54428e-11
3.65707e-12 -3.54428e-11 60.7153

63.0567 3.9033 1.54058e-11
3.9033 54.7717 -7.65369e-13
1.54058e-11 -7.65369e-13 57.9085

61.7603 -2.25754 -1.82987e-11
-2.25754 54.1746 2.27319e-11
-1.82987e-11 2.27319e-11 57.167

59.2805 4.43266 1.13615e-11
4.43266 65.7199 5.39287e-12
1.13615e-11 5.39287e-12 61.7216

64.1043 -3.29539 3.55921e-12
-3.29539 74.5619 3.96746e-11
3.55921e-12 3.96746e-11 71.3395

67.1023 5.88437 -1.85838e-11
5.88437 74.4005 -1.40596e-11
-1.85838e-11 -1.40596e-11 71.4504

60.4007 -4.1472 4.81522e-12
-4.1472 65.6306 3.65293e-12
4.81522e-12 3.65293e-12 61.7503

59.3636 5.44599 3.25477e-11
5.44599 65.2952 -1.23287e-11
3.25477e-11 -1.23287e-11 61.0583

35.0561 -4.59852 1.15622e-12
-4.59852 35.8225 3.77636e-11
1.15622e-12 3.77636e-11 35.7145

34.6578 5.28404 -9.44378e-12
5.28404 36.5731 -4.54707e-11
-9.44378e-12 -4.54707e-11 35.4561

68.0761 4.51671 -1.2903e-11
4.51671 78.2268 2.31086e-11
-1.2903e-11 2.31086e-11 75.2804

70.9945 -5.27501 2.30862e-12
-5.27501 77.0299 2.54211e-11
2.30862e-12 2.54211e-11 75.4174

61.7506 4.97524 -8.28156e-12
4.97524 69.3037 2.88813e-12
-8.28156e-12 2.88813e-12 65.44

34.8077 1.70077 7.51473e-12
1.70077 35.0052 -1.07901e-11
7.51473e-12 -1.07901e-11 36.387

34.8371 -0.0280933 1.04038e-11
-0.0280933 36.5601 2.61999e-11
1.04038e-11 2.61999e-11 36.9718

77.7486 -3.79343 -1.70441e-11
-3.79343 79.3589 -6.35504e-11
-1.70441e-11 -6.35504e-11 79.3341

78.4838 1.85089 1.24671e-11
1.85089 80.9636 4.85283e-11
1.24671e-11 4.85283e-11 79.6368

75.8556 -0.107789 2.40291e-11
-0.107789 62.8381 1.30909e-11
2.40291e-11 1.30909e-11 69.4813

77.868 -3.53443 -2.07658e-11
-3.53443 79.5285 6.70067e-11
-2.07658e-11 6.70067e-11 79.3348

78.1248 1.2711 -1.49377e-12
1.2711 78.5159 -7.45157e-11
-1.49377e-12 -7.45157e-11 79.0666

59.9987 -3.13191 -2.0413e-11
-3.13191 69.2591 2.96616e-11
-2.0413e-11 2.96616e-11 65.5741

90.2608 4.73988 -6.93097e-12
4.73988 84.8664 8.08957e-12
-6.93097e-12 8.08957e-12 84.1528

90.559 -3.90677 -4.58278e-11
-3.90677 80.4668 -3.81218e-11
-4.58278e-11 -3.81218e-11 83.8073

72.83 -3.79442 -7.94587e-12
-3.79442 72.6188 -2.01987e-12
-7.94587e-12 -2.01987e-12 74.0538

73.1753 2.88987 -4.33771e-11
2.88987 73.4519 -3.35583e-13
-4.33771e-11 -3.35583e-13 74.0923

81.7204 0.301033 -1.35181e-12
0.301033 92.1444 7.72715e-13
-1.35181e-12 7.72715e-13 83.8328

81.2078 2.28865 2.36834e-11
2.28865 86.1234 1.89667e-11
2.36834e-11 1.89667e-11 82.7146

42.7035 1.57403 3.50597e-11
1.57403 47.7276 1.36784e-11
3.50597e-11 1.36784e-11 43.6505

47.4401 1.60971 3.13031e-11
1.60971 42.8598 3.75643e-11
3.13031e-11 3.75643e-11 43.6457

65.7217 4.72354 -1.15567e-11
4.72354 73.2951 -4.58372e-11
-1.15567e-11 -4.58372e-11 70.0307

62.6324 -2.88142 3.19628e-11
-2.88142 73.8036 3.81336e-11
3.19628e-11 3.81336e-11 69.8384

92.4506 -6.21905 7.06764e-11
-6.21905 99.5315 3.46659e-12
7.06764e-11 3.46659e-12 89.3821

93.2096 3.70588 6.83534e-11
3.70588 86.9299 8.02914e-11
6.83534e-11 8.02914e-11 87.0817

62.5355 5.01363 2.44655e-11
5.01363 59.564 3.54448e-11
2.44655e-11 3.54448e-11 60.0211

72.527 1.92779 -6.69413e-12
1.92779 65.9458 -3.08161e-11
-6.69413e-12 -3.08161e-11 70.1721

72.1186 -2.52255 4.67656e-12
-2.52255 65.704 3.82879e-13
4.67656e-12 3.82879e-13 70.0979

79.4697 -2.71045 -1.84868e-11
-2.71045 69.7833 8.66411e-12
-1.84868e-11 8.66411e-12 76.4042

58.0555 1.1463 7.79451e-12
1.1463 49.5877 -1.11677e-11
7.79451e-12 -1.11677e-11 52.4755

99.2143 0.349555 -7.89491e-11
0.349555 86.4373 -5.6796e-11
-7.89491e-11 -5.6796e-11 87.6794

98.6258 -0.70758 -1.34754e-11
-0.70758 95.35 -3.82916e-13
-1.34754e-11 -3.82916e-13 88.8202

65.0941 6.01693 -3.00392e-11
6.01693 62.0182 3.84137e-13
-3.00392e-11 3.84137e-13 64.0366

72.5398 1.59406 1.79165e-11
1.59406 64.0701 -2.52293e-11
1.79165e-11 -2.52293e-11 67.4927

53.9868 4.89928 -8.47219e-12
4.89928 55.8351 -3.46671e-12
-8.47219e-12 -3.46671e-12 52.8533

86.2664 -2.78364 -4.00474e-11
-2.78364 95.0539 -3.65801e-11
-4.00474e-11 -3.65801e-11 85.903

83.3889 1.74156 -5.91137e-11
1.74156 86.3717 -7.31659e-12
-5.91137e-11 -7.31659e-12 83.9383

81.1015 5.05175 1.00157e-11
5.05175 72.9355 2.58047e-11
1.00157e-11 2.58047e-11 77.4614

70.8855 -1.5837 4.40015e-11
-1.5837 74.9073 -1.92705e-12
4.40015e-11 -1.92705e-12 72.537

66.8183 1.12098 8.18572e-12
1.12098 77.0181 2.69593e-11
8.18572e-12 2.69593e-11 72.3139

76.9137 -0.77369 1.57478e-11
-0.77369 64.5592 1.54036e-11
1.57478e-11 1.54036e-11 71.957

77.6515 0.570869 5.00873e-12
0.570869 64.3799 2.30554e-12
5.00873e-12 2.30554e-12 72.1045

55.6107 -3.22679 3.006e-11
-3.22679 53.5922 4.6611e-11
3.006e-11 4.6611e-11 52.3162

68.7858 0.167388 2.93274e-11
0.167388 58.2393 -8.85891e-12
2.93274e-11 -8.85891e-12 62.3

78.8586 0.647676 4.67981e-11
0.647676 69.764 1.92505e-12
4.67981e-11 1.92505e-12 75.4785

77.7785 -1.38439 9.9872e-12
-1.38439 70.5686 3.38893e-11
9.9872e-12 3.38893e-11 75.4833

71.9716 -1.89039 1.54832e-12
-1.89039 63.2895 3.89045e-11
1.54832e-12 3.89045e-11 67.2973

77.6503 -0.890502 1.04016e-11
-0.890502 67.8645 4.31331e-11
1.04016e-11 4.31331e-11 73.1435

78.5979 0.38415 -7.39231e-12
0.38415 68.0743 -3.9474e-11
-7.39231e-12 -3.9474e-11 73.3761

71.5302 3.98474 -3.92912e-11
3.98474 63.5952 -2.65754e-11
-3.92912e-11 -2.65754e-11 68.0709

56.897 -5.28702 9.63533e-12
-5.28702 56.3306 3.06276e-11
9.63533e-12 3.06276e-11 55.4539

68.4324 6.88734 7.60414e-12
6.88734 75.1595 -2.58049e-11
7.60414e-12 -2.58049e-11 72.6319

66.6653 -5.86056 -1.28063e-11
-5.86056 72.0664 -2.77291e-11
-1.28063e-11 -2.77291e-11 72.2072

66.106 -4.37485 3.07149e-11
-4.37485 72.646 -2.04156e-11
3.07149e-11 -2.04156e-11 72.7359

69.357 7.27009 4.24034e-12
7.27009 76.9146 3.46662e-11
4.24034e-12 3.46662e-11 73.6713

63.7686 2.52793 3.02405e-11
2.52793 54.3069 1.86824e-11
3.02405e-11 1.86824e-11 57.9078

49.9172 -3.01821 3.10116e-11
-3.01821 46.3845 -1.46432e-11
3.10116e-11 -1.46432e-11 46.2153

72.9655 5.7467 2.23531e-11
5.7467 66.9577 6.12418e-11
2.23531e-11 6.12418e-11 70.9905

70.5403 -1.92453 1.07874e-11
-1.92453 63.0867 -1.88997e-13
1.07874e-11 -1.88997e-13 67.0529

50.8255 -2.34732 1.69531e-11
-2.34732 46.0221 -2.63953e-11
1.69531e-11 -2.63953e-11 46.5663

64.5749 -4.66816 2.1375e-11
-4.66816 61.7578 -1.61831e-11
2.1375e-11 -1.61831e-11 63.4287

61.5539 0.0312986 -5.46898e-11
0.0312986 75.2134 2.69629e-12
-5.46898e-11 2.69629e-12 69.4738

64.4946 0.724153 1.29042e-11
0.724153 71.4237 1.04012e-11
1.29042e-11 1.04012e-11 69.1093

57.6016 5.98466 -3.8487e-12
5.98466 57.7974 3.85284e-11
-3.8487e-12 3.85284e-11 57.0291

54.0212 -3.46951 2.19575e-11
-3.46951 48.1232 1.11724e-11
2.19575e-11 1.11724e-11 49.6799

69.4634 6.37481 2.8311e-11
6.37481 71.4082 2.38817e-11
2.8311e-11 2.38817e-11 72.628

69.2212 -6.10783 -1.63699e-11
-6.10783 73.4185 8.66677e-12
-1.63699e-11 8.66677e-12 72.3913

56.7491 -4.51413 1.43581e-11
-4.51413 60.4742 -4.08433e-11
1.43581e-11 -4.08433e-11 57.3813

57.3744 -4.97661 -5.76583e-12
-4.97661 60.0066 -2.04167e-11
-5.76583e-12 -2.04167e-11 57.0016

70.914 4.64499 -4.00593e-11
4.64499 64.1195 -3.06201e-11
-4.00593e-11 -3.06201e-11 67.6068

79.563 2.85693 -2.34975e-11
2.85693 65.087 5.00944e-12
-2.34975e-11 5.00944e-12 75.3931

79.3944 -1.94773 -2.61935e-11
-1.94773 63.5034 3.65849e-11
-2.61935e-11 3.65849e-11 75.0935

56.1443 3.69309 -6.45023e-12
3.69309 64.082 4.04536e-12
-6.45023e-12 4.04536e-12 58.7456

65.9855 5.67782 -3.04299e-11
5.67782 64.8909 -4.12182e-11
-3.04299e-11 -4.12182e-11 65.303

46.6215 0.534099 -2.34994e-11
0.534099 58.0441 1.15617e-11
-2.34994e-11 1.15617e-11 51.2954

47.9046 0.29705 -2.38855e-11
0.29705 57.5981 2.71663e-11
-2.38855e-11 2.71663e-11 51.2004

57.4843 0.242855 -2.3981e-11
0.242855 46.7649 5.00801e-11
-2.3981e-11 5.00801e-11 50.5512

58.8014 -4.26727 -7.32199e-12
-4.26727 55.8187 2.04113e-11
-7.32199e-12 2.04113e-11 56.7686

85.1951 -2.92747 -2.90739e-11
-2.92747 90.6164 -2.78236e-11
-2.90739e-11 -2.78236e-11 85.8894

100.864 1.50759 1.23023e-10
1.50759 100.914 1.15657e-11
1.23023e-10 1.15657e-11 90.6185

61.0687 5.12125 1.25226e-11
5.12125 54.4982 3.47307e-12
1.25226e-11 3.47307e-12 56.9434

64.2475 -2.13225 -9.82207e-12
-2.13225 54.5902 -2.65792e-11
-9.82207e-12 -2.65792e-11 58.4941

50.895 3.59618 -3.6624e-12
3.59618 45.5724 -3.69825e-11
-3.6624e-12 -3.69825e-11 46.8936

62.6497 -3.73277 -3.36908e-12
-3.73277 70.2634 1.34795e-11
-3.36908e-12 1.34795e-11 68.3806

65.6916 6.75955 2.02164e-12
6.75955 72.559 -1.13623e-11
2.02164e-12 -1.13623e-11 68.9467

75.8253 -0.0991753 -2.45715e-12
-0.0991753 62.7527 1.88687e-11
-2.45715e-12 1.88687e-11 69.4183

53.9097 3.40229 1.63719e-11
3.40229 63.6644 1.84942e-11
1.63719e-11 1.84942e-11 58.5064

66.4845 -4.52019 4.43858e-11
-4.52019 78.2002 -1.61764e-11
4.43858e-11 -1.61764e-11 75.1968

70.9217 6.34268 2.4555e-11
6.34268 78.1521 2.966e-11
2.4555e-11 2.966e-11 75.6901

53.3344 3.98519 -6.26952e-11
3.98519 55.7301 -1.54177e-11
-6.26952e-11 -1.54177e-11 52.1865

54.8947 4.20215 -3.25509e-11
4.20215 54.1624 -1.48337e-11
-3.25509e-11 -1.48337e-11 51.8147

51.318 3.22797 -2.11896e-11
3.22797 45.9791 -1.53838e-12
-2.11896e-11 -1.53838e-12 47.2025

69.1293 6.9781 5.48735e-12
6.9781 77.8734 5.97065e-12
5.48735e-12 5.97065e-12 73.9963

66.1097 -5.0444 -1.60787e-11
-5.0444 71.2013 -7.70128e-12
-1.60787e-11 -7.70128e-12 72.69

80.1217 0.202931 -2.65787e-11
0.202931 64.7664 8.08786e-12
-2.65787e-11 8.08786e-12 73.6384

68.2705 4.76655 -8.27912e-12
4.76655 71.5244 1.27092e-11
-8.27912e-12 1.27092e-11 73.1277

69.6016 -5.94281 -1.42504e-11
-5.94281 76.4736 -7.12354e-12
-1.42504e-11 -7.12354e-12 73.9034

66.4505 5.77012 -2.23389e-11
5.77012 67.5535 -3.65996e-11
-2.23389e-11 -3.65996e-11 68.1981

51.9013 -1.25005 -1.02072e-11
-1.25005 60.9387 -1.69537e-11
-1.02072e-11 -1.69537e-11 54.7845

53.517 -1.65564 2.88869e-12
-1.65564 60.7273 6.16248e-12
2.88869e-12 6.16248e-12 54.8235

59.7083 -1.01722 3.65633e-12
-1.01722 52.2223 -3.00469e-11
3.65633e-12 -3.00469e-11 53.9356

59.9584 -3.52527 3.26481e-11
-3.52527 59.8973 -1.93068e-12
3.26481e-11 -1.93068e-12 59.0449

63.2408 0.614287 2.56155e-11
0.614287 69.3318 -7.31874e-12
2.56155e-11 -7.31874e-12 64.8432

59.6606 0.202822 -4.06368e-11
0.202822 70.4641 1.50308e-11
-4.06368e-11 1.50308e-11 64.5959

49.8621 -3.94478 -3.15931e-11
-3.94478 53.8364 3.66078e-12
-3.15931e-11 3.66078e-12 49.8183

49.4888 -3.75457 -2.93784e-11
-3.75457 52.7203 2.38849e-11
-2.93784e-11 2.38849e-11 49.6491

80.7516 -0.222483 -5.75384e-12
-0.222483 65.6341 -1.32871e-11
-5.75384e-12 -1.32871e-11 74.0099

80.063 0.24789 -3.86618e-11
0.24789 65.9018 1.00135e-11
-3.86618e-11 1.00135e-11 73.8989

64.9637 -4.66222 -3.37995e-11
-4.66222 69.4953 -1.53677e-12
-3.37995e-11 -1.53677e-12 69.2957

66.4657 6.12472 1.68481e-11
6.12472 73.4744 -4.37167e-11
1.68481e-11 -4.37167e-11 69.8703

66.4573 3.95029 -1.40589e-11
3.95029 77.5262 1.81039e-11
-1.40589e-11 1.81039e-11 74.9216

70.7344 -5.80204 -5.19806e-12
-5.80204 77.464 1.73391e-12
-5.19806e-12 1.73391e-12 75.4345

69.6518 -4.64754 -4.04284e-12
-4.64754 68.9086 1.81029e-11
-4.04284e-12 1.81029e-11 70.3949

54.2006 -2.44136 -7.99646e-12
-2.44136 64.4259 -2.04204e-11
-7.99646e-12 -2.04204e-11 58.8648

77.3987 0.736063 9.41196e-11
0.736063 74.9453 -6.45121e-12
9.41196e-11 -6.45121e-12 76.719

76.3368 -2.32609 8.84822e-11
-2.32609 73.8934 -1.6184e-11
8.84822e-11 -1.6184e-11 76.4268

66.9651 -3.59021 -7.222e-12
-3.59021 64.2316 -1.1551e-11
-7.222e-12 -1.1551e-11 65.5249

72.8598 -3.04842 7.60399e-12
-3.04842 68.8193 -8.8578e-12
7.60399e-12 -8.8578e-12 71.355

73.6128 2.56937 -1.99808e-11
2.56937 70.6842 2.31123e-11
-1.99808e-11 2.31123e-11 71.6843

32.9532 -1.40458 1.57987e-11
-1.40458 27.9136 -2.15826e-11
1.57987e-11 -2.15826e-11 34.8481

57.6962 6.05413 1.7047e-11
6.05413 60.0882 7.51251e-12
1.7047e-11 7.51251e-12 57.2421

29.8809 2.89956 1.59838e-11
2.89956 33.7738 -6.16667e-12
1.59838e-11 -6.16667e-12 35.2641

56.1837 -3.25454 1.32881e-11
-3.25454 63.9909 6.9349e-12
1.32881e-11 6.9349e-12 58.9039

83.1248 -3.1858 9.56204e-11
-3.1858 86.7589 -3.81323e-11
9.56204e-11 -3.81323e-11 83.7172

85.1093 1.27836 -3.44066e-12
1.27836 83.7273 -1.32872e-11
-3.44066e-12 -1.32872e-11 83.4673

67.5033 3.93941 5.68035e-12
3.93941 65.8813 -1.44481e-11
5.68035e-12 -1.44481e-11 65.6921

68.711 -0.213987 1.16972e-11
-0.213987 57.8802 1.19421e-11
1.16972e-11 1.19421e-11 62.2661

59.5049 4.91135 7.12926e-12
4.91135 55.7381 3.81473e-13
7.12926e-12 3.81473e-13 56.4141

63.1253 2.37757 2.69612e-11
2.37757 75.063 2.08034e-11
2.69612e-11 2.08034e-11 70.1648

65.7808 -3.28069 -5.77427e-13
-3.28069 72.3419 -2.812e-11
-5.77427e-13 -2.812e-11 69.8944

77.1011 5.44062 2.5612e-11
5.44062 80.0776 1.81007e-11
2.5612e-11 1.81007e-11 78.5634

76.8659 -3.01258 -2.40684e-11
-3.01258 81.1918 -4.66041e-11
-2.40684e-11 -4.66041e-11 78.8164

68.5107 7.40872 -1.1166e-11
7.40872 76.748 2.48436e-11
-1.1166e-11 2.48436e-11 73.4996

62.6887 -7.02198 -9.92023e-12
-7.02198 72.4569 -1.00135e-11
-9.92023e-12 -1.00135e-11 72.1793

60.5385 3.8421 3.65959e-12
3.8421 68.9973 5.39198e-12
3.65959e-12 5.39198e-12 65.5938

58.8006 1.948 1.02096e-11
1.948 67.2965 6.93371e-12
1.02096e-11 6.93371e-12 62.521

67.5165 -4.31149 -9.14772e-12
-4.31149 66.8195 -9.628e-12
-9.14772e-12 -9.628e-12 68.4191

67.8736 4.56145 5.47917e-11
4.56145 68.3114 2.44617e-11
5.47917e-11 2.44617e-11 68.5197

61.205 4.65055 8.47367e-12
4.65055 61.5621 5.37367e-11
8.47367e-12 5.37367e-11 59.4315

61.8903 -4.55835 -2.6961e-11
-4.55835 69.0312 2.25362e-11
-2.6961e-11 2.25362e-11 65.6022

56.967 -0.8094 4.39138e-11
-0.8094 68.8815 6.35638e-11
4.39138e-11 6.35638e-11 62.8384

40.711 3.28514 3.83307e-11
3.28514 42.9926 6.16796e-12
3.83307e-11 6.16796e-12 40.4253

42.6488 3.39975 4.57507e-11
3.39975 40.8899 2.52427e-11
4.57507e-11 2.52427e-11 40.4257

52.4406 -3.94208 -7.51266e-12
-3.94208 53.7529 6.97316e-11
-7.51266e-12 6.97316e-11 50.9704

71.2107 -1.47738 -1.72385e-11
-1.47738 60.438 1.50286e-11
-1.72385e-11 1.50286e-11 66.1257

90.5356 -4.94572 -1.20872e-10
-4.94572 93.3591 -5.50544e-11
-1.20872e-10 -5.50544e-11 87.6114

94.7316 5.13408 1.87888e-11
5.13408 87.2227 5.98731e-11
1.87888e-11 5.98731e-11 87.2442

84.9946 5.02454 1.8103e-11
5.02454 85.08 3.38863e-11
1.8103e-11 3.38863e-11 82.744

82.4255 -1.31642 -4.39083e-11
-1.31642 79.6612 5.02559e-11
-4.39083e-11 5.02559e-11 81.4917

71.5937 -0.0559136 -3.65678e-12
-0.0559136 61.6333 1.05942e-11
-3.65678e-12 1.05942e-11 68.3741

68.5722 -6.58349 -1.17466e-11
-6.58349 75.7175 -4.8143e-12
-1.17466e-11 -4.8143e-12 73.321

63.9598 6.87765 2.94604e-11
6.87765 72.3083 -3.81328e-11
2.94604e-11 -3.81328e-11 72.2558

42.6955 -3.20255 -2.09928e-11
-3.20255 44.2269 -5.96826e-12
-2.09928e-11 -5.96826e-12 42.093

43.069 4.13145 -2.51073e-12
4.13145 43.1431 -3.56335e-11
-2.51073e-12 -3.56335e-11 42.2501

42.8784 -1.49206 -9.63126e-12
-1.49206 49.5691 9.24742e-12
-9.63126e-12 9.24742e-12 44.969

44.9114 -1.83578 5.0131e-12
-1.83578 50.4646 -1.21387e-11
5.0131e-12 -1.21387e-11 45.7386

50.0058 -1.28392 -4.29621e-11
-1.28392 43.3 1.7916e-11
-4.29621e-11 1.7916e-11 44.9662

53.2096 4.86084 -9.63377e-13
4.86084 52.2758 -1.30988e-11
-9.63377e-13 -1.30988e-11 51.3879

38.8636 1.44857 9.24123e-12
1.44857 47.0693 -6.20333e-11
9.24123e-12 -6.20333e-11 42.1857

46.6007 0.31913 -3.27812e-12
0.31913 39.1513 5.395e-12
-3.27812e-12 5.395e-12 42.1405

80.3907 -0.575056 -1.61683e-11
-0.575056 88.1527 2.46511e-11
-1.61683e-11 2.46511e-11 82.2119

79.9539 -2.11318 -1.1939e-11
-2.11318 82.7128 6.25877e-12
-1.1939e-11 6.25877e-12 81.1869

75.5215 -1.64485 2.54227e-11
-1.64485 68.5331 -2.02208e-11
2.54227e-11 -2.02208e-11 72.7739

75.7533 0.72757 8.47537e-12
0.72757 59.2081 -1.36712e-11
8.47537e-12 -1.36712e-11 72.1022

50.9332 -3.20536 -1.61722e-11
-3.20536 57.532 -2.87027e-11
-1.61722e-11 -2.87027e-11 52.7311

50.6921 -2.30798 -7.13563e-12
-2.30798 57.5999 -6.0101e-11
-7.13563e-12 -6.0101e-11 53.0968

72.5904 1.53616 -9.43875e-12
1.53616 62.3407 -7.51071e-12
-9.43875e-12 -7.51071e-12 68.9226

81.1094 -1.52682 -6.12841e-11
-1.52682 82.0763 9.16662e-11
-6.12841e-11 9.16662e-11 81.4281

83.1378 -0.0192711 -1.97856e-11
-0.0192711 80.5758 -3.54315e-11
-1.97856e-11 -3.54315e-11 81.4652

72.4267 -3.24308 1.153e-12
-3.24308 71.1788 -1.94495e-11
1.153e-12 -1.94495e-11 72.1191

67.2506 5.37123 -4.91088e-11
5.37123 69.3582 4.61712e-12
-4.91088e-11 4.61712e-12 69.6342

66.1213 -5.64854 1.73347e-11
-5.64854 72.177 6.74316e-12
1.73347e-11 6.74316e-12 69.3726

74.0022 -1.46282 -1.32909e-11
-1.46282 63.2145 -9.6582e-13
-1.32909e-11 -9.6582e-13 70.5319

63.8902 4.51017 2.21477e-11
4.51017 70.0474 1.15855e-12
2.21477e-11 1.15855e-12 68.6229

65.8595 -5.98459 3.21612e-11
-5.98459 71.5103 5.19799e-12
3.21612e-11 5.19799e-12 68.8849

33.4508 -6.6978 2.36982e-11
-6.6978 33.9412 1.17506e-11
2.36982e-11 1.17506e-11 34.2809

57.0063 1.43276 4.08257e-11
1.43276 68.6216 -2.19565e-11
4.08257e-11 -2.19565e-11 62.6078

59.3241 -1.30021 2.02213e-11
-1.30021 66.8383 1.92604e-11
2.02213e-11 1.92604e-11 62.535

79.4587 0.704606 2.38787e-11
0.704606 91.5047 -1.46316e-11
2.38787e-11 -1.46316e-11 82.9198

80.4757 -0.0793179 -3.6597e-12
-0.0793179 82.4182 5.31462e-11
-3.6597e-12 5.31462e-11 81.5464

80.7207 -0.275327 -3.97203e-11
-0.275327 68.6361 -1.15478e-12
-3.97203e-11 -1.15478e-12 76.0366

81.8551 0.442477 -9.3876e-12
0.442477 68.0135 7.12389e-12
-9.3876e-12 7.12389e-12 76.1415

77.1721 6.44904 -3.2156e-11
6.44904 73.9315 -1.03992e-11
-3.2156e-11 -1.03992e-11 76.1385

75.0184 -3.67721 1.54051e-11
-3.67721 72.4237 -3.46756e-12
1.54051e-11 -3.46756e-12 75.2028

86.0162 2.36058 -6.16181e-12
2.36058 82.6675 5.75685e-13
-6.16181e-12 5.75685e-13 82.0578

82.8989 -1.28869 -6.97075e-11
-1.28869 82.5497 3.67766e-11
-6.97075e-11 3.67766e-11 81.6497

88.6285 2.68728 -4.69096e-11
2.68728 86.0037 -6.20011e-11
-4.69096e-11 -6.20011e-11 85.4214

89.2079 -7.61451 5.75214e-12
-7.61451 92.5694 -8.3177e-11
5.75214e-12 -8.3177e-11 86.8376

71.6582 6.71291 1.68006e-11
6.71291 78.5667 1.54321e-12
1.68006e-11 1.54321e-12 76.106

68.167 -8.30015 -2.92213e-11
-8.30015 73.7175 -3.27343e-11
-2.92213e-11 -3.27343e-11 74.9635

66.6412 3.5945 -1.3094e-11
3.5945 61.5483 -4.04965e-12
-1.3094e-11 -4.04965e-12 63.8927

61.4034 2.85648 6.43232e-11
2.85648 70.6652 -3.04306e-11
6.43232e-11 -3.04306e-11 66.4241

62.6331 -4.65183 -4.88195e-11
-4.65183 62.4908 -1.65589e-11
-4.88195e-11 -1.65589e-11 62.8688

64.696 -3.57187 -1.09799e-11
-3.57187 70.3972 2.42656e-11
-1.09799e-11 2.42656e-11 66.8046

66.2449 -3.34582 -3.03308e-11
-3.34582 61.0379 3.42829e-11
-3.03308e-11 3.42829e-11 63.9244

64.5025 3.97659 -3.89994e-11
3.97659 70.677 4.04684e-12
-3.89994e-11 4.04684e-12 66.6882

63.6264 5.65036 -8.18131e-12
5.65036 63.9087 8.28212e-12
-8.18131e-12 8.28212e-12 63.0445

71.263 7.45783 3.27745e-12
7.45783 74.5031 -1.19395e-11
3.27745e-12 -1.19395e-11 75.5535

72.3704 -5.55113 -2.59984e-11
-5.55113 77.0571 -9.82061e-12
-2.59984e-11 -9.82061e-12 76.0289

77.2306 3.40561 4.46814e-11
3.40561 70.0402 4.5835e-11
4.46814e-11 4.5835e-11 73.9605

100.597 2.51359 -7.68107e-11
2.51359 99.1723 2.658e-11
-7.68107e-11 2.658e-11 90.1294

85.3806 2.40278 3.11894e-11
2.40278 87.1355 -4.60198e-11
3.11894e-11 -4.60198e-11 85.1712

70.8885 -3.44246 8.0902e-12
-3.44246 65.9163 -4.42753e-12
8.0902e-12 -4.42753e-12 69.7311

82.839 0.222875 -3.58184e-11
0.222875 73.3882 -1.69454e-11
-3.58184e-11 -1.69454e-11 78.9872

41.338 -2.92356 2.0997e-11
-2.92356 43.6016 -9.25364e-12
2.0997e-11 -9.25364e-12 41.1405

43.6154 -2.40615 5.2016e-11
-2.40615 41.1702 3.54379e-11
5.2016e-11 3.54379e-11 41.1691

80.9504 0.268463 2.2317e-11
0.268463 71.5186 2.15641e-11
2.2317e-11 2.15641e-11 77.3866

82.702 -0.398129 -1.44436e-12
-0.398129 70.8301 7.12367e-12
-1.44436e-12 7.12367e-12 77.5491

83.5049 0.693784 -4.61979e-12
0.693784 77.5314 2.84996e-11
-4.61979e-12 2.84996e-11 79.7184

61.3985 -2.09506 3.35808e-11
-2.09506 70.993 5.04593e-11
3.35808e-11 5.04593e-11 66.5598

65.1868 2.78914 3.30875e-11
2.78914 59.1209 1.65563e-11
3.30875e-11 1.65563e-11 60.1233

72.7956 -4.3462 2.44923e-12
-4.3462 72.9566 -3.62059e-11
2.44923e-12 -3.62059e-11 74.3975

73.6663 3.59707 -2.51359e-11
3.59707 76.3147 1.23201e-11
-2.51359e-11 1.23201e-11 74.9617

97.629 0.433299 5.16003e-11
0.433299 101.922 -1.00058e-10
5.16003e-11 -1.00058e-10 90.1209

93.0231 4.09327 1.00904e-10
4.09327 83.8083 5.23823e-11
1.00904e-10 5.23823e-11 86.1091

69.4265 -2.72622 -3.58236e-11
-2.72622 63.9342 -8.47204e-12
-3.58236e-11 -8.47204e-12 66.6102

80.2905 -0.116991 4.35421e-11
-0.116991 74.6985 6.06538e-11
4.35421e-11 6.06538e-11 77.5063

79.1975 -0.964965 -3.69046e-12
-0.964965 75.5217 -7.50988e-11
-3.69046e-12 -7.50988e-11 77.5389

70.1195 -4.92947 6.35621e-12
-4.92947 74.9529 -1.05917e-11
6.35621e-12 -1.05917e-11 72.7375

67.1759 2.55433 7.31974e-12
2.55433 74.8588 2.58078e-11
7.31974e-12 2.58078e-11 72.4293

66.4415 4.72049 2.00254e-11
4.72049 71.9115 -3.35096e-11
2.00254e-11 -3.35096e-11 72.5022

68.8921 -6.68031 2.50473e-12
-6.68031 75.7977 -8.47274e-12
2.50473e-12 -8.47274e-12 73.2875

35.5438 8.5497 -5.56701e-11
8.5497 34.7531 7.70605e-11
-5.56701e-11 7.70605e-11 35.1493

74.8463 4.89856 1.07819e-11
4.89856 79.26 1.23271e-11
1.07819e-11 1.23271e-11 77.9357

74.9695 -3.75319 -1.63674e-11
-3.75319 79.7628 2.619e-11
-1.63674e-11 2.619e-11 78.0298

64.9296 4.47424 1.07831e-11
4.47424 72.8597 -2.04137e-11
1.07831e-11 -2.04137e-11 71.2129

66.9063 -5.64424 1.57903e-11
-5.64424 73.7674 -1.40604e-11
1.57903e-11 -1.40604e-11 71.3699

65.5432 -2.65961 -2.30675e-12
-2.65961 58.6103 -1.15234e-12
-2.30675e-12 -1.15234e-12 60.6254

73.938 4.83817 4.62178e-12
4.83817 70.9158 1.15589e-12
4.62178e-12 1.15589e-12 72.7686

78.1589 5.18356 -7.50799e-12
5.18356 74.4216 -1.81004e-11
-7.50799e-12 -1.81004e-11 76.6833

75.7583 -3.4305 2.17599e-11
-3.4305 75.6767 6.16585e-12
2.17599e-11 6.16585e-12 76.3224

75.5317 3.25707 -2.11705e-12
3.25707 63.9651 -1.11697e-11
-2.11705e-12 -1.11697e-11 71.5476

82.6225 0.631995 1.16279e-11
0.631995 78.8975 1.61751e-11
1.16279e-11 1.61751e-11 80.5672

83.9983 -0.923544 -8.48599e-12
-0.923544 76.8308 -6.16381e-12
-8.48599e-12 -6.16381e-12 80.3682

84.9513 1.09835 -4.37073e-11
1.09835 91.8248 -1.71391e-11
-4.37073e-11 -1.71391e-11 85.636

87.0769 -1.73354 -3.94679e-11
-1.73354 98.7234 6.43186e-11
-3.94679e-11 6.43186e-11 87.0236

35.2392 -0.802653 -4.04199e-12
-0.802653 30.1875 9.63348e-12
-4.04199e-12 9.63348e-12 35.5369

28.3165 -0.167919 -1.72736e-12
-0.167919 35.0806 -3.66125e-11
-1.72736e-12 -3.66125e-11 35.2338

70.7805 5.59438 1.10571e-12
5.59438 77.411 -5.21888e-11
1.10571e-12 -5.21888e-11 74.1649

69.4754 -4.81706 2.24774e-11
-4.81706 72.571 -4.46832e-11
2.24774e-11 -4.46832e-11 73.3851

33.9398 3.00654 -2.58153e-11
3.00654 33.6448 3.00548e-11
-2.58153e-11 3.00548e-11 35.7198

34.5055 3.88673 1.85022e-11
3.88673 32.9417 3.81396e-11
1.85022e-11 3.81396e-11 35.6739

78.8929 -6.15725 -7.1971e-11
-6.15725 98.4309 1.08992e-10
-7.1971e-11 1.08992e-10 86.4776

85.8491 4.59455 1.50732e-11
4.59455 95.2792 -6.77754e-11
1.50732e-11 -6.77754e-11 87.2236

71.7803 5.88071 4.42933e-11
5.88071 69.1943 -3.27303e-11
4.42933e-11 -3.27303e-11 71.3777

69.6687 5.35945 4.94312e-11
5.35945 73.6136 -4.1594e-11
4.94312e-11 -4.1594e-11 72.437

69.2288 -5.36595 4.49172e-11
-5.36595 71.3058 1.92453e-12
4.49172e-11 1.92453e-12 72.2586

64.0028 5.41162 -1.00192e-11
5.41162 66.8207 -1.57923e-11
-1.00192e-11 -1.57923e-11 64.6852

63.1695 -4.31863 -6.54884e-12
-4.31863 65.7002 1.23293e-11
-6.54884e-12 1.23293e-11 64.6503

43.6172 -0.684907 -1.7916e-11
-0.684907 50.3431 -2.85042e-11
-1.7916e-11 -2.85042e-11 45.6477

44.7973 -1.38951 -2.81247e-11
-1.38951 50.5678 -6.55298e-12
-2.81247e-11 -6.55298e-12 45.82

50.5456 -0.588507 -1.65693e-11
-0.588507 44.1964 3.73686e-11
-1.65693e-11 3.73686e-11 45.4915

65.5001 6.23796 1.44292e-12
6.23796 70.3653 8.28071e-12
1.44292e-12 8.28071e-12 67.9264

64.3349 -4.83676 -3.58172e-11
-4.83676 68.2082 -3.62057e-11
-3.58172e-11 -3.62057e-11 67.6761

40.2015 0.967666 -6.5505e-12
0.967666 46.8578 -5.38947e-12
-6.5505e-12 -5.38947e-12 42.2302

46.6322 1.49408 2.1967e-11
1.49408 40.2934 -2.67653e-11
2.1967e-11 -2.67653e-11 42.204

72.6741 -6.18154 -4.64092e-11
-6.18154 74.2478 2.00406e-11
-4.64092e-11 2.00406e-11 75.8604

73.2565 5.09188 4.35626e-11
5.09188 78.0395 -8.5501e-11
4.35626e-11 -8.5501e-11 76.3643

73.7924 -5.4684 5.14174e-12
-5.4684 77.4127 -4.31365e-11
5.14174e-12 -4.31365e-11 76.9613

74.1965 4.06678 1.3865e-11
4.06678 78.6515 6.93252e-11
1.3865e-11 6.93252e-11 77.0298

32.4367 -2.54014 4.03629e-12
-2.54014 32.9907 -4.2409e-12
4.03629e-12 -4.2409e-12 34.7451

32.4665 -2.55486 -1.60837e-11
-2.55486 33.0197 2.09971e-11
-1.60837e-11 2.09971e-11 34.8801

68.8815 4.93183 3.1966e-11
4.93183 72.3428 -3.84981e-12
3.1966e-11 -3.84981e-12 70.2809

68.2095 -4.51759 5.2028e-12
-4.51759 69.2374 -3.0805e-12
5.2028e-12 -3.0805e-12 69.8891

83.567 1.29051 -2.002e-11
1.29051 89.3223 -2.25273e-11
-2.002e-11 -2.25273e-11 83.6387

82.0695 -0.729887 7.89353e-12
-0.729887 83.1796 5.05487e-11
7.89353e-12 5.05487e-11 82.4103

71.2842 -5.67191 -1.82473e-11
-5.67191 78.9322 -3.81245e-11
-1.82473e-11 -3.81245e-11 77.3623

73.4135 5.32919 2.05071e-11
5.32919 81.2769 -3.02329e-11
2.05071e-11 -3.02329e-11 77.893

79.7091 -1.18673 -2.28952e-11
-1.18673 76.3354 -8.97264e-11
-2.28952e-11 -8.97264e-11 79.3976

81.7399 0.115349 -5.52437e-11
0.115349 75.3911 1.92568e-11
-5.52437e-11 1.92568e-11 79.5469

71.3923 5.25135 4.19792e-11
5.25135 72.4355 -1.11613e-11
4.19792e-11 -1.11613e-11 73.504

71.2428 -5.15675 -1.94481e-11
-5.15675 74.3431 3.54323e-11
-1.94481e-11 3.54323e-11 73.3862

87.2722 1.58897 4.57568e-11
1.58897 81.6077 6.93216e-12
4.57568e-11 6.93216e-12 83.3395

87.7919 0.47251 -2.31071e-12
0.47251 84.928 1.36705e-11
-2.31071e-12 1.36705e-11 85.0022

84.5501 -1.42831 -1.40311e-11
-1.42831 83.1728 2.31718e-11
-1.40311e-11 2.31718e-11 83.1622

82.53 -0.186907 -9.98501e-11
-0.186907 88.8097 -1.03928e-11
-9.98501e-11 -1.03928e-11 84.7594

82.4923 0.920619 2.50844e-12
0.920619 94.583 7.43303e-11
2.50844e-12 7.43303e-11 84.7524

91.0855 5.20783 -5.50693e-11
5.20783 87.2644 -7.70025e-12
-5.50693e-11 -7.70025e-12 84.9676

86.324 -2.03719 3.9666e-11
-2.03719 83.5542 -5.35291e-11
3.9666e-11 -5.35291e-11 83.6578

81.325 -1.22609 1.48236e-11
-1.22609 88.5436 -7.0189e-11
1.48236e-11 -7.0189e-11 83.5975

83.6281 3.04807 -1.43802e-10
3.04807 87.1996 -1.67899e-10
-1.43802e-10 -1.67899e-10 84.2834

107.887 3.09717 5.10666e-10
3.09717 82.73 -7.49919e-11
5.10666e-10 -7.49919e-11 89.2442

105.34 -2.03787 5.17327e-10
-2.03787 103.884 6.73007e-10
5.17327e-10 6.73007e-10 92.8476

87.549 -7.00883 1.8419e-10
-7.00883 93.5533 -1.08641e-10
1.8419e-10 -1.08641e-10 86.3379

85.5572 3.9534 1.20642e-11
3.9534 85.2844 3.48523e-11
1.20642e-11 3.48523e-11 83.8535

79.6645 2.87246 -5.24246e-11
2.87246 84.1213 -2.8497e-11
-5.24246e-11 -2.8497e-11 81.2332

87.7239 0.843974 5.80791e-11
0.843974 86.4446 1.10519e-10
5.80791e-11 1.10519e-10 85.5716

88.1473 -6.54072 -3.75745e-11
-6.54072 85.9353 5.58417e-11
-3.75745e-11 5.58417e-11 84.5667

89.9866 -7.5142 -5.19994e-11
-7.5142 96.5128 1.11691e-10
-5.19994e-11 1.11691e-10 87.968

79.8083 -3.67186 1.71829e-11
-3.67186 82.0142 -5.39744e-12
1.71829e-11 -5.39744e-12 81.0365

81.0223 -6.12721 3.44642e-11
-6.12721 84.6452 -5.58491e-11
3.44642e-11 -5.58491e-11 82.1537

82.9083 -4.07522 9.75012e-11
-4.07522 86.7844 -8.55073e-11
9.75012e-11 -8.55073e-11 83.8527

79.4552 2.56879 -3.32187e-11
2.56879 83.1376 -3.07965e-12
-3.32187e-11 -3.07965e-12 81.4337

85.4002 1.5375 -1.45514e-11
1.5375 85.114 -3.23505e-11
-1.45514e-11 -3.23505e-11 83.984

60.3433 4.37095 -2.30723e-12
4.37095 64.4594 -9.15149e-12
-2.30723e-12 -9.15149e-12 61.7283

69.8619 2.19269 -9.05191e-12
2.19269 75.608 -1.58854e-11
-9.05191e-12 -1.58854e-11 72.704

68.3006 1.87749 3.56226e-11
1.87749 74.8021 -1.83933e-11
3.56226e-11 -1.83933e-11 72.4348

69.8267 2.4817 4.62053e-12
2.4817 59.2867 1.49016e-12
4.62053e-12 1.49016e-12 65.2272

66.6 0.841329 -2.42707e-11
0.841329 56.2024 -9.15864e-12
-2.42707e-11 -9.15864e-12 61.1342

71.2256 1.34429 -1.7524e-11
1.34429 78.1636 -3.02345e-11
-1.7524e-11 -3.02345e-11 76.1627

69.622 3.09675 9.24262e-12
3.09675 79.0165 9.63377e-13
9.24262e-12 9.63377e-13 76.2178

67.5352 -0.988034 -4.04534e-11
-0.988034 57.2249 2.84124e-11
-4.04534e-11 2.84124e-11 61.7997

75.6087 -1.98428 2.39749e-11
-1.98428 66.4525 1.73239e-12
2.39749e-11 1.73239e-12 73.0871

48.7925 3.98015 -3.81399e-13
3.98015 52.9213 3.06752e-11
-3.81399e-13 3.06752e-11 49.6904

48.0761 -3.97672 7.70354e-12
-3.97672 52.0037 2.89441e-11
7.70354e-12 2.89441e-11 48.8449

53.7489 -3.64614 2.71593e-11
-3.64614 47.053 1.15804e-11
2.71593e-11 1.15804e-11 48.8512

75.2163 -3.74649 -3.46593e-11
-3.74649 79.9486 1.29967e-11
-3.46593e-11 1.29967e-11 78.3759

77.4334 -2.59128 4.54448e-11
-2.59128 80.2629 -1.84904e-11
4.54448e-11 -1.84904e-11 78.6376

61.6035 3.72381 2.11798e-11
3.72381 67.1455 -2.57146e-11
2.11798e-11 -2.57146e-11 65.4037

65.4226 4.48171 -4.159e-11
4.48171 72.6023 3.30254e-11
-4.159e-11 3.30254e-11 71.2956

69.6466 -2.90392 3.92892e-11
-2.90392 78.9426 -2.97587e-11
3.92892e-11 -2.97587e-11 75.9991

70.5301 -0.84887 -2.19495e-11
-0.84887 77.9861 2.86e-11
-2.19495e-11 2.86e-11 75.8893

72.1001 1.14257 -1.4253e-11
1.14257 60.0566 -3.58065e-12
-1.4253e-11 -3.58065e-12 66.1873

52.8457 1.43225 2.92767e-11
1.43225 59.4304 -5.77879e-12
2.92767e-11 -5.77879e-12 54.1103

52.609 -1.17017 -1.81034e-11
-1.17017 59.0213 -4.20887e-11
-1.81034e-11 -4.20887e-11 53.8969

60.1541 -1.01071 -1.15556e-11
-1.01071 51.317 -2.1451e-11
-1.15556e-11 -2.1451e-11 53.1558

60.2516 5.02316 7.41644e-12
5.02316 61.8538 -2.14756e-11
7.41644e-12 -2.14756e-11 60.9744

63.3229 -3.33965 1.34823e-11
-3.33965 53.6151 4.50191e-11
1.34823e-11 4.50191e-11 57.759

66.5013 5.3214 -2.11826e-11
5.3214 63.9818 5.77027e-12
-2.11826e-11 5.77027e-12 65.2644

60.1008 4.24127 -3.27436e-11
4.24127 65.7877 -3.89135e-11
-3.27436e-11 -3.89135e-11 61.913

70.2542 -2.10601 1.54077e-12
-2.10601 59.4074 -2.61657e-12
1.54077e-12 -2.61657e-12 65.8299

46.3149 2.79891 -2.35102e-11
2.79891 49.1396 -2.01254e-11
-2.35102e-11 -2.01254e-11 45.2322

75.3697 2.61139 1.11697e-11
2.61139 64.5804 1.11704e-11
1.11697e-11 1.11704e-11 71.6375

49.5302 -2.41912 -2.04222e-11
-2.41912 44.6227 2.70413e-11
-2.04222e-11 2.70413e-11 44.613

77.7506 -0.921296 1.38668e-11
-0.921296 81.3986 -5.46904e-11
1.38668e-11 -5.46904e-11 79.2475

77.6542 1.63479 -3.35053e-11
1.63479 81.5499 2.59971e-11
-3.35053e-11 2.59971e-11 79.2861

96.3764 -4.97786 -4.81404e-11
-4.97786 87.6994 -1.13562e-11
-4.81404e-11 -1.13562e-11 86.5017

96.2365 5.15056 5.00907e-12
5.15056 87.5625 5.6986e-11
5.00907e-12 5.6986e-11 86.474

58.9595 -1.32929 2.77384e-11
-1.32929 49.8948 1.13906e-11
2.77384e-11 1.13906e-11 52.6006

67.1992 5.81551 -3.0825e-12
5.81551 66.7193 -3.01421e-11
-3.0825e-12 -3.01421e-11 68.2017

83.4378 -3.01732 -2.00259e-11
-3.01732 77.6386 6.06711e-12
-2.00259e-11 6.06711e-12 79.5058

82.8449 3.00632 -2.46485e-11
3.00632 77.1225 1.90631e-11
-2.46485e-11 1.90631e-11 79.0256

75.3999 1.04686 3.85266e-12
1.04686 65.0104 3.75878e-11
3.85266e-12 3.75878e-11 72.9273

58.9954 4.79236 -1.25226e-11
4.79236 65.0644 -1.02098e-11
-1.25226e-11 -1.02098e-11 61.1049

63.9909 -4.14654 9.628e-12
-4.14654 57.001 -8.4727e-12
9.628e-12 -8.4727e-12 59.5067

74.2583 -0.257754 3.29335e-11
-0.257754 62.5826 -2.35357e-11
3.29335e-11 -2.35357e-11 71.3446

59.7005 -5.04132 -5.9713e-12
-5.04132 61.6073 9.62341e-13
-5.9713e-12 9.62341e-13 60.5713

60.3534 -4.13373 -1.54119e-11
-4.13373 64.4977 8.76366e-12
-1.54119e-11 8.76366e-12 61.7563

66.8386 4.72022 -1.02002e-11
4.72022 74.5114 -7.73233e-13
-1.02002e-11 -7.73233e-13 71.5035

59.2677 -5.76624 -5.08521e-11
-5.76624 55.0602 -1.7387e-11
-5.08521e-11 -1.7387e-11 56.0518

36.7885 -4.39686 7.69755e-13
-4.39686 34.2902 -1.17943e-12
7.69755e-13 -1.17943e-12 35.6557

36.4564 6.10777 2.69724e-11
6.10777 35.6239 -8.10522e-12
2.69724e-11 -8.10522e-12 35.8484

68.0219 -5.63524 -3.92869e-11
-5.63524 77.046 2.0994e-11
-3.92869e-11 2.0994e-11 75.3085

37.1841 0.801412 3.62186e-11
0.801412 34.4876 -1.42687e-11
3.62186e-11 -1.42687e-11 36.8863

35.3422 -1.47626 9.63037e-12
-1.47626 34.5439 1.7968e-11
9.63037e-12 1.7968e-11 36.6605

78.4506 -1.32174 5.39124e-12
-1.32174 80.061 8.14543e-11
5.39124e-12 8.14543e-11 79.4259

78.5141 1.37228 -9.82296e-12
1.37228 79.9767 3.36983e-11
-9.82296e-12 3.36983e-11 79.436

76.7576 -0.0939038 9.63304e-13
-0.0939038 62.2561 -2.01835e-11
9.63304e-13 -2.01835e-11 69.5051

78.0848 -0.717804 -3.62033e-11
-0.717804 77.5642 -3.12739e-12
-3.62033e-11 -3.12739e-12 78.8249

78.1655 0.788933 -1.69441e-11
0.788933 77.5872 1.5839e-11
-1.69441e-11 1.5839e-11 78.8591

61.6021 4.39575 -1.0403e-11
4.39575 69.4856 3.07168e-11
-1.0403e-11 3.07168e-11 65.6705

90.3382 -4.6595 1.57876e-11
-4.6595 85.0302 1.00081e-11
1.57876e-11 1.00081e-11 84.1942

90.2031 4.6814 6.15719e-12
4.6814 84.9393 1.49318e-12
6.15719e-12 1.49318e-12 84.1953

73.1599 -2.33754 2.00269e-11
-2.33754 72.6349 2.6862e-11
2.00269e-11 2.6862e-11 73.8911

73.2012 2.35767 -5.77649e-12
2.35767 72.6385 -1.48267e-11
-5.77649e-12 -1.48267e-11 73.9255

52.9329 -3.97412 -3.23617e-11
-3.97412 45.7546 1.15165e-11
-3.23617e-11 1.15165e-11 48.1287

79.2706 2.31031 -1.84817e-11
2.31031 90.3754 1.46337e-11
-1.84817e-11 1.46337e-11 83.4064

82.0754 -0.44314 2.6569e-11
-0.44314 86.1571 -7.70088e-12
2.6569e-11 -7.70088e-12 82.9199

59.251 -4.84399 -2.6584e-11
-4.84399 65.286 -3.101e-11
-2.6584e-11 -3.101e-11 61.3236

42.8604 -1.2187 4.62475e-12
-1.2187 46.7017 -2.9931e-11
4.62475e-12 -2.9931e-11 43.511

47.5467 -1.25847 6.93993e-12
-1.25847 40.8695 -8.4972e-12
6.93993e-12 -8.4972e-12 43.1607

64.8929 3.77473 3.83564e-13
3.77473 73.4055 -2.78267e-11
3.83564e-13 -2.78267e-11 70.0017

64.2897 3.76517 -1.3482e-11
3.76517 71.7262 1.06026e-12
-1.3482e-11 1.06026e-12 69.8701

93.1798 -3.751 3.56239e-11
-3.751 84.0757 1.39872e-10
3.56239e-11 1.39872e-10 86.397

93.3462 3.46825 1.46919e-10
3.46825 85.1342 -2.00995e-12
1.46919e-10 -2.00995e-12 86.694

66.5287 4.94057 -4.54458e-11
4.94057 71.8592 3.50486e-11
-4.54458e-11 3.50486e-11 72.763

72.7023 1.50706 -1.79097e-11
1.50706 65.2613 4.19347e-11
-1.79097e-11 4.19347e-11 70.0712

72.5898 -1.56708 6.93504e-12
-1.56708 65.0252 -3.20168e-11
6.93504e-12 -3.20168e-11 69.8686

69.4211 6.62972 3.38941e-11
6.62972 70.7422 9.91507e-12
3.38941e-11 9.91507e-12 72.47

70.6173 -4.46557 1.40572e-11
-4.46557 77.3606 -1.70438e-11
1.40572e-11 -1.70438e-11 75.4304

57.9853 -0.0767246 7.72715e-13
-0.0767246 47.9464 -1.79606e-11
7.72715e-13 -1.79606e-11 51.6776

69.3881 0.0957095 3.15897e-11
0.0957095 57.8097 2.73839e-11
3.15897e-11 2.73839e-11 62.2607

63.1375 2.98031 -4.23794e-12
2.98031 53.522 -1.35297e-11
-4.23794e-12 -1.35297e-11 57.0897

80.4905 4.95733 -9.2429e-12
4.95733 71.7872 -1.51157e-11
-9.2429e-12 -1.51157e-11 76.7428

98.7472 -0.736066 3.31147e-11
-0.736066 94.9576 2.75809e-11
3.31147e-11 2.75809e-11 88.8086

98.6382 0.731943 -2.15643e-11
0.731943 95.3936 1.82847e-11
-2.15643e-11 1.82847e-11 88.8389

55.2577 4.33211 -1.34825e-11
4.33211 54.7665 6.82891e-12
-1.34825e-11 6.82891e-12 52.8898

66.0001 -5.51898 7.69014e-13
-5.51898 61.2558 -6.40332e-12
7.69014e-13 -6.40332e-12 63.9251

72.7637 -1.37107 -6.4135e-11
-1.37107 63.5426 9.94179e-12
-6.4135e-11 9.94179e-12 67.3342

83.7066 5.3291 -6.93118e-12
5.3291 93.2303 -5.00437e-12
-6.93118e-12 -5.00437e-12 85.4764

84.3427 -1.40065 -2.31139e-12
-1.40065 86.1658 -5.71887e-11
-2.31139e-12 -5.71887e-11 84.0997

81.3464 -4.8484 -5.77945e-12
-4.8484 73.1008 2.21693e-12
-5.77945e-12 2.21693e-12 77.5405

68.3662 -1.40374 5.02536e-11
-1.40374 75.0595 3.20656e-11
5.02536e-11 3.20656e-11 72.3644

69.2694 -1.46855 -5.09978e-12
-1.46855 75.5521 -1.59843e-11
-5.09978e-12 -1.59843e-11 72.5304

77.9821 -0.387496 1.67562e-11
-0.387496 63.4297 4.3322e-12
1.67562e-11 4.3322e-12 71.7625

78.27 0.364883 3.46669e-11
0.364883 63.4252 -5.43946e-12
3.46669e-11 -5.43946e-12 71.9491

56.2232 3.73279 -1.15641e-12
3.73279 53.8629 5.40294e-11
-1.15641e-12 5.40294e-11 52.3766

79.1605 -0.295807 -6.27424e-13
-0.295807 68.779 3.08139e-12
-6.27424e-13 3.08139e-12 75.2285

79.1872 0.26828 -3.00922e-11
0.26828 68.8742 7.5581e-12
-3.00922e-11 7.5581e-12 75.2807

72.9845 1.36059 -1.04032e-11
1.36059 63.5472 2.3809e-11
-1.04032e-11 2.3809e-11 67.4372

60.3094 -4.31035 1.34841e-11
-4.31035 66.131 2.0797e-11
1.34841e-11 2.0797e-11 62.1913

79.0197 -0.144315 2.94662e-11
-0.144315 67.3327 -3.80566e-11
2.94662e-11 -3.80566e-11 73.1341

79.3056 0.183179 2.69631e-11
0.183179 67.3987 1.93518e-11
2.69631e-11 1.93518e-11 73.3477

72.1645 -3.30505 7.71975e-13
-3.30505 63.5228 4.38394e-12
7.71975e-13 4.38394e-12 68.1254

68.2722 6.08384 2.0601e-11
6.08384 74.5261 -2.51287e-11
2.0601e-11 -2.51287e-11 72.5279

63.0834 4.63075 8.09057e-12
4.63075 58.4946 2.33552e-11
8.09057e-12 2.33552e-11 59.6258

68.3424 4.93692 2.88871e-11
4.93692 71.2861 4.04612e-12
2.88871e-11 4.04612e-12 73.1399

69.0487 6.05343 -6.16255e-12
6.05343 76.1183 1.71401e-11
-6.16255e-12 1.71401e-11 73.5357

64.1935 -2.35371 1.34796e-12
-2.35371 54.0284 -2.07278e-11
1.34796e-12 -2.07278e-11 57.9495

73.4843 -5.40646 -2.50385e-11
-5.40646 66.8323 -1.55481e-11
-2.50385e-11 -1.55481e-11 71.0709

71.2401 3.30057 -2.46471e-11
3.30057 63.0029 1.3001e-11
-2.46471e-11 1.3001e-11 67.0842

58.5326 5.40146 2.16662e-11
5.40146 56.9055 1.16069e-11
2.16662e-11 1.16069e-11 57.047

65.4563 5.54791 -2.15737e-11
5.54791 60.7309 -6.40784e-12
-2.15737e-11 -6.40784e-12 63.4088

63.2465 0.508366 -5.39841e-12
0.508366 72.5331 -1.54058e-11
-5.39841e-12 -1.54058e-11 69.3112

63.4334 0.179592 3.08108e-11
0.179592 72.5299 3.23555e-11
3.08108e-11 3.23555e-11 69.3393

54.4931 3.9035 -3.41968e-11
3.9035 47.8345 -7.88221e-11
-3.41968e-11 -7.88221e-11 49.6145

69.5603 -6.6234 -9.63459e-12
-6.6234 70.8646 7.89813e-12
-9.63459e-12 7.89813e-12 72.6444

57.764 -5.28008 -3.02374e-11
-5.28008 60.3811 5.00382e-11
-3.02374e-11 5.00382e-11 57.468

57.5567 5.34547 -2.79274e-11
5.34547 60.5265 -1.60834e-11
-2.79274e-11 -1.60834e-11 57.3804

71.2215 -3.9847 -1.54328e-12
-3.9847 63.1905 -7.367e-12
-1.54328e-12 -7.367e-12 67.4475

79.7136 -2.63902 2.96608e-11
-2.63902 65.6289 -1.71368e-11
2.96608e-11 -1.71368e-11 75.4759

79.3827 2.66004 -2.69799e-12
2.66004 65.986 -1.4829e-11
-2.69799e-12 -1.4829e-11 75.3042

55.4775 2.92442 4.08317e-11
2.92442 62.0019 1.0589e-11
4.08317e-11 1.0589e-11 58.3295

66.6829 -5.56008 -1.92957e-12
-5.56008 63.9999 2.68687e-11
-1.92957e-12 2.68687e-11 65.2399

47.8961 -0.22642 -3.58269e-11
-0.22642 56.9933 -7.94653e-12
-3.58269e-11 -7.94653e-12 51.2665

47.8336 0.0902363 -1.0784e-11
0.0902363 56.9787 -2.62525e-11
-1.0784e-11 -2.62525e-11 51.2225

58.0899 0.281206 -2.38883e-11
0.281206 46.6322 3.94026e-11
-2.38883e-11 3.94026e-11 50.6191

55.7241 -3.87251 1.34799e-11
-3.87251 53.9499 -2.60026e-11
1.34799e-11 -2.60026e-11 52.1088

59.2879 4.70776 -2.92804e-11
4.70776 55.9733 5.00774e-11
-2.92804e-11 5.00774e-11 56.7302

89.4917 -9.57644 -5.96904e-11
-9.57644 93.7628 4.83384e-12
-5.96904e-11 4.83384e-12 87.352

93.0638 4.13927 5.42935e-11
4.13927 95.7852 -2.32887e-11
5.42935e-11 -2.32887e-11 88.5444

64.5706 2.14456 4.64235e-11
2.14456 54.3493 -7.10169e-12
4.64235e-11 -7.10169e-12 58.334

65.1429 5.85903 -4.98766e-11
5.85903 72.1014 2.94602e-11
-4.98766e-11 2.94602e-11 68.8417

76.6839 0.085975 2.27275e-11
0.085975 62.1622 3.21592e-11
2.27275e-11 3.21592e-11 69.3578

55.5567 -2.82831 -2.85069e-11
-2.82831 62.3003 1.00197e-11
-2.85069e-11 1.00197e-11 58.5354

66.0151 5.83405 3.84581e-13
5.83405 77.0021 -1.25191e-11
3.84581e-13 -1.25191e-11 75.0917

71.0541 4.777 -3.23512e-11
4.777 77.7927 2.55158e-11
-3.23512e-11 2.55158e-11 75.7257

68.3333 -6.06925 -1.73295e-11
-6.06925 74.5183 -9.62671e-12
-1.73295e-11 -9.62671e-12 72.5609

68.8583 6.13255 1.34552e-12
6.13255 76.7651 -1.83902e-11
1.34552e-12 -1.83902e-11 73.7881

64.2377 4.65006 -3.85342e-12
4.65006 68.8492 -4.21809e-11
-3.85342e-12 -4.21809e-11 68.5298

81.0965 0.0525883 -9.24453e-12
0.0525883 63.6142 -1.2649e-12
-9.24453e-12 -1.2649e-12 73.3665

59.3125 -4.64668 -2.36919e-11
-4.64668 55.6048 -7.26745e-12
-2.36919e-11 -7.26745e-12 56.3859

68.3749 -4.96016 4.62252e-12
-4.96016 71.3507 -4.94937e-11
4.62252e-12 -4.94937e-11 73.2303

60.8034 -3.97483 -1.15064e-12
-3.97483 61.1496 8.19036e-11
-1.15064e-12 8.19036e-11 59.2815

53.545 -3.85364 2.30675e-12
-3.85364 53.6495 2.0234e-11
2.30675e-12 2.0234e-11 51.6193

67.1423 -5.73941 2.19582e-11
-5.73941 66.9952 9.53467e-12
2.19582e-11 9.53467e-12 68.3419

53.51 -2.35381 3.39062e-11
-2.35381 60.4032 -5.5432e-11
3.39062e-11 -5.5432e-11 54.9799

53.4011 2.23294 2.27347e-11
2.23294 60.3886 -1.44399e-11
2.27347e-11 -1.44399e-11 54.9019

60.0186 1.34684 -3.7759e-11
1.34684 52.2801 -5.6196e-11
-3.7759e-11 -5.6196e-11 53.9024

60.7036 4.1449 -5.14237e-11
4.1449 61.0754 -1.95037e-11
-5.14237e-11 -1.95037e-11 59.2286

61.8175 0.732742 2.88873e-11
0.732742 69.3023 2.44624e-11
2.88873e-11 2.44624e-11 64.7794

61.7521 -0.157225 1.23278e-11
-0.157225 69.209 2.32103e-11
1.23278e-11 2.32103e-11 64.7259

50.409 -4.53851 2.09982e-11
-4.53851 52.7173 -2.31632e-11
2.09982e-11 -2.31632e-11 49.8446

50.4878 4.54666 3.15899e-11
4.54666 52.5685 1.66138e-11
3.15899e-11 1.66138e-11 49.7265

81.4894 0.364436 -1.09769e-11
0.364436 64.7469 1.786e-11
-1.09769e-11 1.786e-11 73.7379

81.6507 -0.345732 -2.34971e-11
-0.345732 64.7016 9.1227e-12
-2.34971e-11 9.1227e-12 73.8135

66.2131 5.34164 3.89015e-11
5.34164 72.9077 -7.22126e-12
3.89015e-11 -7.22126e-12 69.7829

65.1211 -5.20885 3.65865e-11
-5.20885 76.3133 -5.19962e-12
3.65865e-11 -5.19962e-12 74.6872

71.836 5.87478 4.93023e-11
5.87478 68.1949 -1.56888e-11
4.93023e-11 -1.56888e-11 71.0107

51.6961 2.72647 -1.61826e-11
2.72647 44.4581 -9.84716e-12
-1.61826e-11 -9.84716e-12 46.6939

55.8548 3.54412 4.31404e-11
3.54412 64.2991 -3.98671e-11
4.31404e-11 -3.98671e-11 59.0581

77.5865 0.34913 -6.27796e-11
0.34913 74.1461 -3.29776e-11
-6.27796e-11 -3.29776e-11 76.5667

77.5575 -0.312269 -4.08265e-11
-0.312269 74.1843 -1.73228e-12
-4.08265e-11 -1.73228e-12 76.5466

67.6187 3.42203 2.3693e-11
3.42203 65.3671 4.75705e-11
2.3693e-11 4.75705e-11 65.6431

73.776 -2.11561 3.02346e-11
-2.11561 70.0347 -1.92713e-12
3.02346e-11 -1.92713e-12 71.5479

73.8004 2.15628 8.08672e-12
2.15628 70.0825 -2.35892e-11
8.08672e-12 -2.35892e-11 71.5886

34.5572 -2.14594 4.39217e-11
-2.14594 29.7033 -2.24169e-11
4.39217e-11 -2.24169e-11 35.5199

27.7225 2.70498 1.81114e-11
2.70498 32.7273 -6.57469e-12
1.81114e-11 -6.57469e-12 34.6143

55.7488 -3.48289 4.23887e-12
-3.48289 64.4059 -9.05305e-12
4.23887e-12 -9.05305e-12 59.1604

85.2273 -0.785234 2.63817e-11
-0.785234 82.6929 -6.86444e-11
2.63817e-11 -6.86444e-11 83.213

85.2758 0.894914 7.51303e-12
0.894914 82.7857 6.63336e-11
7.51303e-12 6.63336e-11 83.2477

51.996 2.34354 -6.54854e-12
2.34354 44.1415 -1.04607e-11
-6.54854e-12 -1.04607e-11 46.6696

64.1972 -2.88697 2.30851e-12
-2.88697 72.8071 -4.0421e-12
2.30851e-12 -4.0421e-12 70.0781

65.1196 -2.81785 2.00281e-11
-2.81785 73.4426 1.8395e-11
2.00281e-11 1.8395e-11 70.1434

58.2674 -5.67498 1.92523e-11
-5.67498 57.1764 7.15096e-11
1.92523e-11 7.15096e-11 56.6458

68.8801 -6.17139 -6.93075e-12
-6.17139 76.7173 -1.55983e-11
-6.93075e-12 -1.55983e-11 73.7587

63.7657 7.36283 4.62795e-12
7.36283 71.9307 5.31551e-11
4.62795e-12 5.31551e-11 72.3038

77.3878 3.33545 -7.70458e-12
3.33545 79.8397 1.2808e-11
-7.70458e-12 1.2808e-11 78.6324

75.3254 4.60364 -6.16344e-12
4.60364 79.7017 -2.18581e-11
-6.16344e-12 -2.18581e-11 78.5154

66.2587 -5.39468 -2.31074e-11
-5.39468 73.0575 -1.29966e-11
-2.31074e-11 -1.29966e-11 69.9146

67.9166 5.6634 -5.77756e-11
5.6634 68.6376 -2.82194e-11
-5.77756e-11 -2.82194e-11 69.7662

67.6056 -3.47422 1.54095e-11
-3.47422 65.445 -2.19552e-11
1.54095e-11 -2.19552e-11 65.6812

61.3078 4.14658 3.15892e-11
4.14658 53.0362 2.79272e-11
3.15892e-11 2.79272e-11 56.252

69.3443 -0.127105 2.33051e-11
-0.127105 57.7944 -1.41868e-11
2.33051e-11 -1.41868e-11 62.3104

68.4071 6.43475 9.61324e-13
6.43475 76.0572 -1.75243e-11
9.61324e-13 -1.75243e-11 73.4293

61.6618 -3.87564 5.00929e-12
-3.87564 67.42 -2.09872e-11
5.00929e-12 -2.09872e-11 65.6616

58.1031 1.41462 -2.04112e-11
1.41462 66.7747 1.59887e-11
-2.04112e-11 1.59887e-11 62.438

67.7824 3.9675 -2.50371e-11
3.9675 67.7163 -3.73634e-11
-2.50371e-11 -3.73634e-11 68.3933

58.6992 1.75747 1.42478e-11
1.75747 67.6702 3.84244e-11
1.42478e-11 3.84244e-11 62.8472

71.2664 -4.96934 -2.02178e-11
-4.96934 77.8851 -6.92761e-12
-2.02178e-11 -6.92761e-12 75.6011

40.9293 -2.788 3.9296e-11
-2.788 41.5297 2.90942e-11
3.9296e-11 2.90942e-11 40.1859

43.1765 -2.80582 -1.42511e-11
-2.80582 39.049 -1.90821e-11
-1.42511e-11 -1.90821e-11 40.0849

71.8459 -1.12094 -5.03668e-11
-1.12094 59.9921 1.42721e-11
-5.03668e-11 1.42721e-11 66.0713

67.7362 -3.9774 -2.92744e-11
-3.9774 67.6497 9.4517e-14
-2.92744e-11 9.4517e-14 68.3559

94.9556 -5.32302 3.84974e-12
-5.32302 85.5368 3.72589e-11
3.84974e-12 3.72589e-11 86.8608

95.1284 5.09851 8.65987e-12
5.09851 85.9716 -7.24868e-11
8.65987e-12 -7.24868e-11 87.0075

65.448 -5.77889 9.82496e-12
-5.77889 72.4349 -4.91214e-12
9.82496e-12 -4.91214e-12 69.2089

85.102 -4.95336 1.23218e-11
-4.95336 85.1392 -7.7008e-12
1.23218e-11 -7.7008e-12 82.799

84.8317 5.03435 3.96686e-11
5.03435 84.989 5.72802e-11
3.96686e-11 5.72802e-11 82.7022

72.0381 1.08912 1.15315e-12
1.08912 61.9516 7.41374e-12
1.15315e-12 7.41374e-12 68.3995

63.6025 -7.37219 5.39531e-12
-7.37219 71.7194 -2.92727e-11
5.39531e-12 -2.92727e-11 72.2326

43.1107 -3.31955 -2.38955e-11
-3.31955 42.8052 4.50719e-11
-2.38955e-11 4.50719e-11 41.8462

44.6245 3.33202 -1.19478e-11
3.33202 42.2651 -8.71466e-12
-1.19478e-11 -8.71466e-12 42.3837

45.0077 -2.47446 -2.63934e-11
-2.47446 49.664 3.11141e-11
-2.63934e-11 3.11141e-11 45.5496

43.9763 2.30131 2.17715e-11
2.30131 49.4138 2.62926e-11
2.17715e-11 2.62926e-11 45.0942

49.8257 1.41806 2.19611e-11
1.41806 42.6908 2.58874e-11
2.19611e-11 2.58874e-11 44.6843

68.3894 -6.48452 3.8511e-12
-6.48452 76.1073 3.46689e-12
3.8511e-12 3.46689e-12 73.3907

39.8893 0.737118 1.57984e-11
0.737118 46.2467 -2.60845e-11
1.57984e-11 -2.60845e-11 42.2704

47.1711 -0.802281 -3.85914e-13
-0.802281 39.1404 -5.45394e-12
-3.85914e-13 -5.45394e-12 42.0214

77.9156 -2.04455 -4.54435e-11
-2.04455 86.1036 4.2355e-12
-4.54435e-11 4.2355e-12 81.6807

81.1097 -0.1257 -1.31017e-11
-0.1257 83.4543 -1.0225e-10
-1.31017e-11 -1.0225e-10 81.6158

76.3702 3.22083 6.54565e-12
3.22083 68.7055 -1.96883e-11
6.54565e-12 -1.96883e-11 72.8792

75.916 -0.228154 1.15552e-11
-0.228154 60.3526 -3.43027e-12
1.15552e-11 -3.43027e-12 72.2097

51.8209 3.27101 1.54084e-11
3.27101 57.8097 2.4705e-11
1.54084e-11 2.4705e-11 53.2495

51.8336 -3.42301 5.39366e-11
-3.42301 57.8816 -2.7401e-11
5.39366e-11 -2.7401e-11 53.3375

72.9871 -0.613487 1.34822e-11
-0.613487 62.4824 -2.56824e-12
1.34822e-11 -2.56824e-12 68.9135

61.8459 -4.38411 1.9259e-12
-4.38411 69.9821 1.73298e-11
1.9259e-12 1.73298e-11 66.0406

83.3968 0.458944 9.2449e-12
0.458944 79.5421 -1.06178e-12
9.2449e-12 -1.06178e-12 81.2467

83.3654 -0.396763 -7.8928e-12
-0.396763 79.5605 4.46709e-11
-7.8928e-12 4.46709e-11 81.2509

73.4418 4.89397 -1.56006e-11
4.89397 70.015 3.55278e-11
-1.56006e-11 3.55278e-11 72.0937

67.8051 -5.52345 3.46441e-12
-5.52345 68.6184 -6.26033e-12
3.46441e-12 -6.26033e-12 69.7612

74.8662 2.93697 -3.85122e-12
2.93697 63.4969 1.09289e-11
-3.85122e-12 1.09289e-11 70.6711

54.3853 4.32634 -1.69472e-11
4.32634 51.0159 -8.91213e-12
-1.69472e-11 -8.91213e-12 51.2173

64.4355 -4.78794 -3.00447e-11
-4.78794 69.192 -5.79018e-13
-3.00447e-11 -5.79018e-13 68.7448

34.4571 7.44503 4.39285e-11
7.44503 32.8266 -2.92074e-12
4.39285e-11 -2.92074e-12 34.3595

58.4228 -1.05736 -2.69618e-11
-1.05736 66.7945 -2.80072e-12
-2.69618e-11 -2.80072e-12 62.562

58.7679 -1.57435 7.70621e-12
-1.57435 67.2791 3.00487e-11
7.70621e-12 3.00487e-11 62.6796

78.8878 2.18016 3.46485e-12
2.18016 86.5751 -4.44818e-11
3.46485e-12 -4.44818e-11 82.1731

80.0226 -3.26028 -2.31958e-12
-3.26028 85.53 -5.00385e-12
-2.31958e-12 -5.00385e-12 82.1564

82.3486 -0.172878 -1.30954e-11
-0.172878 67.0518 -4.71774e-12
-1.30954e-11 -4.71774e-12 75.8191

82.4129 0.161441 -1.15559e-11
0.161441 67.0166 -4.59806e-12
-1.15559e-11 -4.59806e-12 75.8631

77.4108 -6.39373 -2.4652e-11
-6.39373 73.8422 6.84123e-12
-2.4652e-11 6.84123e-12 76.2051

77.0419 6.449 -4.66033e-11
6.449 72.6096 2.94577e-11
-4.66033e-11 2.94577e-11 75.578

86.088 -2.32957 -1.65591e-11
-2.32957 82.6438 3.08394e-12
-1.65591e-11 3.08394e-12 82.1091

85.8722 2.32421 4.00511e-11
2.32421 82.6086 -2.03147e-11
4.00511e-11 -2.03147e-11 82.0371

88.5045 -2.03369 6.93208e-12
-2.03369 84.3576 1.56903e-11
6.93208e-12 1.56903e-11 84.9895

88.6099 2.18889 -5.25709e-11
2.18889 84.722 -1.11003e-10
-5.25709e-11 -1.11003e-10 85.1163

71.3085 -6.11947 3.38921e-11
-6.11947 77.5126 -8.28353e-12
3.38921e-11 -8.28353e-12 75.8204

71.4615 6.08797 -3.60115e-11
6.08797 77.5928 -1.6949e-11
-3.60115e-11 -1.6949e-11 75.9286

66.788 -3.17327 -1.92661e-12
-3.17327 61.1324 8.42804e-12
-1.92661e-12 8.42804e-12 63.8941

62.9329 -2.6809 -9.63e-12
-2.6809 69.3653 4.42624e-12
-9.63e-12 4.42624e-12 66.5642

63.398 5.15961 1.71452e-11
5.15961 63.3399 1.53152e-11
1.71452e-11 1.53152e-11 62.9422

63.6133 -3.75927 1.19388e-11
-3.75927 70.8899 2.07079e-11
1.19388e-11 2.07079e-11 66.8537

54.6689 -3.99677 1.85005e-11
-3.99677 51.6071 -6.55377e-11
1.85005e-11 -6.55377e-11 51.0647

66.6914 3.1325 4.79576e-11
3.1325 60.9906 -5.8266e-12
4.79576e-11 -5.8266e-12 63.758

63.0244 2.66548 1.97694e-12
2.66548 69.14 -7.12038e-12
1.97694e-12 -7.12038e-12 66.3664

71.2372 -7.60804 -1.69446e-11
-7.60804 74.2676 -3.45651e-11
-1.69446e-11 -3.45651e-11 75.5911

71.2547 7.61326 -3.88996e-11
7.61326 74.2163 -1.4258e-11
-3.88996e-11 -1.4258e-11 75.5805

77.4077 -3.05987 1.8869e-11
-3.05987 69.8313 1.18395e-11
1.8869e-11 1.18395e-11 73.9462

93.3486 -5.69535 -4.08207e-11
-5.69535 98.1153 2.3681e-11
-4.08207e-11 2.3681e-11 88.9126

89.6704 5.82801 -6.00775e-11
5.82801 86.0441 1.86715e-11
-6.00775e-11 1.86715e-11 85.8457

69.7558 -4.31048 -3.08372e-12
-4.31048 75.6542 1.06885e-11
-3.08372e-12 1.06885e-11 72.8641

72.3007 5.38399 -2.15682e-11
5.38399 65.8574 7.6998e-12
-2.15682e-11 7.6998e-12 69.9985

83.0496 0.347164 -9.63422e-12
0.347164 76.9847 -1.19846e-11
-9.63422e-12 -1.19846e-11 79.3985

63.4076 -5.04556 5.97089e-11
-5.04556 63.6223 -3.08216e-11
5.97089e-11 -3.08216e-11 63.0183

42.2625 3.2306 3.23695e-11
3.2306 43.4307 1.34944e-12
3.23695e-11 1.34944e-12 41.2257

43.7509 3.19495 -3.77568e-11
3.19495 40.5593 2.39793e-11
-3.77568e-11 2.39793e-11 40.9632

83.2102 0.636404 -3.21613e-11
0.636404 69.9776 1.0855e-11
-3.21613e-11 1.0855e-11 77.3398

83.0741 -0.642415 -1.09767e-11
-0.642415 69.9113 -1.53999e-12
-1.09767e-11 -1.53999e-12 77.2996

83.5184 -0.563456 3.62056e-11
-0.563456 77.5958 2.1662e-11
3.62056e-11 2.1662e-11 79.7144

63.7051 3.58026 -1.84642e-11
3.58026 70.7044 4.03551e-11
-1.84642e-11 4.03551e-11 66.7747

65.6467 -2.52042 -1.45904e-11
-2.52042 58.9503 1.0613e-12
-1.45904e-11 1.0613e-12 60.2793

73.6413 -3.06092 1.67533e-11
-3.06092 75.4479 9.14683e-12
1.67533e-11 9.14683e-12 74.7703

73.6934 3.0653 1.15263e-12
3.0653 75.4895 3.2739e-11
1.15263e-12 3.2739e-11 74.812

97.6636 -0.420866 -5.81398e-11
-0.420866 101.949 -1.9808e-11
-5.81398e-11 -1.9808e-11 90.1519

97.6785 0.414988 -5.04372e-11
0.414988 101.827 -8.07492e-11
-5.04372e-11 -8.07492e-11 90.157

66.4443 -5.22608 1.23235e-11
-5.22608 74.2625 2.08962e-11
1.23235e-11 2.08962e-11 71.4055

70.3717 4.14067 1.73354e-11
4.14067 62.7344 3.89244e-13
1.73354e-11 3.89244e-13 66.5118

80.6059 -0.5069 -2.80169e-11
-0.5069 73.7427 1.35268e-11
-2.80169e-11 1.35268e-11 77.3184

80.6024 0.552497 -2.31065e-11
0.552497 73.7156 1.70413e-11
-2.31065e-11 1.70413e-11 77.2969

67.1084 -3.31954 -1.34871e-11
-3.31954 73.4311 2.18596e-11
-1.34871e-11 2.18596e-11 72.3356

66.3072 -5.30305 4.23728e-12
-5.30305 71.4166 -2.57125e-11
4.23728e-12 -2.57125e-11 72.5763

34.7945 -7.72268 -1.07928e-11
-7.72268 35.0278 2.22777e-11
-1.07928e-11 2.22777e-11 35.0475

74.9394 -4.95332 -1.07831e-11
-4.95332 79.2315 -5.19692e-12
-1.07831e-11 -5.19692e-12 78.0089

74.9086 4.99693 -3.15801e-11
4.99693 79.0994 -7.77789e-13
-3.15801e-11 -7.77789e-13 77.9413

65.2432 -5.09796 -5.00717e-11
-5.09796 71.5985 3.65767e-12
-5.00717e-11 3.65767e-12 71.1988

66.0907 2.67299 4.39149e-11
2.67299 59.2031 -5.00762e-12
4.39149e-11 -5.00762e-12 60.6309

74.4822 -4.6985 -9.53119e-12
-4.6985 70.5944 -2.21441e-11
-9.53119e-12 -2.21441e-11 72.8367

78.3261 -5.21655 -9.24623e-12
-5.21655 74.1711 2.84992e-11
-9.24623e-12 2.84992e-11 76.7236

78.3964 5.09027 -3.65894e-11
5.09027 73.8834 7.69744e-12
-3.65894e-11 7.69744e-12 76.6056

75.8117 -2.91678 8.0862e-12
-2.91678 64.1759 1.32404e-11
8.0862e-12 1.32404e-11 71.6082

84.4113 1.27681 -4.41038e-11
1.27681 75.7728 -1.78109e-11
-4.41038e-11 -1.78109e-11 80.1287

84.3118 -1.25267 -1.1548e-11
-1.25267 75.8258 -6.26018e-12
-1.1548e-11 -6.26018e-12 80.1017

84.2144 -2.02357 3.58114e-11
-2.02357 94.9996 -4.73625e-11
3.58114e-11 -4.73625e-11 86.1272

86.2912 4.41684 7.81666e-11
4.41684 94.2114 -3.00361e-11
7.81666e-11 -3.00361e-11 86.4283

35.1989 0.656228 -6.51325e-11
0.656228 27.6123 4.93413e-12
-6.51325e-11 4.93413e-12 35.0833

30.261 1.22761 7.70347e-13
1.22761 33.9813 2.25375e-11
7.70347e-13 2.25375e-11 35.4151

70.5745 4.87904 -5.58331e-12
4.87904 76.477 4.9117e-12
-5.58331e-12 4.9117e-12 73.9765

70.5257 -4.88203 1.73247e-12
-4.88203 76.4344 3.52428e-11
1.73247e-12 3.52428e-11 73.9208

68.3985 -6.23362 4.6198e-12
-6.23362 75.9897 1.82962e-11
4.6198e-12 1.82962e-11 73.2222

33.4621 -3.25666 -1.92694e-12
-3.25666 32.8081 -4.54415e-11
-1.92694e-12 -4.54415e-11 35.364

34.1981 -2.68854 -5.93444e-11
-2.68854 33.1482 -1.04299e-11
-5.93444e-11 -1.04299e-11 35.6323

86.2 4.30185 -3.75753e-11
4.30185 94.7823 -2.59078e-10
-3.75753e-11 -2.59078e-10 87.1043

86.0856 -4.52183 -1.17423e-10
-4.52183 94.3297 -1.28819e-10
-1.17423e-10 -1.28819e-10 86.9904

72.1194 -5.90813 1.96446e-11
-5.90813 68.5659 2.42589e-11
1.96446e-11 2.42589e-11 71.3684

63.8292 -4.77356 5.68102e-11
-4.77356 66.7779 -2.96603e-11
5.68102e-11 -2.96603e-11 64.7431

69.5494 4.70347 2.06061e-11
4.70347 72.97 1.93242e-12
2.06061e-11 1.93242e-12 72.313

69.5135 -4.70151 4.81459e-12
-4.70151 72.9248 -1.37707e-11
4.81459e-12 -1.37707e-11 72.2758

65.2303 -5.55483 -2.70399e-12
-5.55483 69.9241 3.72687e-11
-2.70399e-12 3.72687e-11 67.8915

63.8911 4.84011 2.94645e-11
4.84011 66.6606 -2.05061e-11
2.94645e-11 -2.05061e-11 64.7003

44.8933 -1.77997 -2.00363e-11
-1.77997 49.9278 5.44196e-11
-2.00363e-11 5.44196e-11 45.8453

44.878 1.49704 -1.65745e-11
1.49704 50.1968 3.86754e-11
-1.65745e-11 3.86754e-11 45.7545

50.1923 1.28069 2.25403e-11
1.28069 43.7912 6.40506e-13
2.25403e-11 6.40506e-13 45.2761

65.2121 5.54107 3.63983e-11
5.54107 69.8673 4.85686e-13
3.63983e-11 4.85686e-13 67.8349

40.3708 -0.841395 -7.28202e-11
-0.841395 45.8473 -1.84751e-11
-7.28202e-11 -1.84751e-11 42.0645

46.6958 -0.505755 2.69784e-12
-0.505755 38.8044 1.50946e-11
2.69784e-12 1.50946e-11 41.9672

73.0082 -4.54598 -6.54943e-12
-4.54598 77.1115 4.32358e-11
-6.54943e-12 4.32358e-11 76.1184

73.1273 4.52343 -4.35206e-11
4.52343 77.1911 -2.69638e-12
-4.35206e-11 -2.69638e-12 76.197

74.016 -3.45377 -1.8294e-11
-3.45377 77.7634 5.57532e-11
-1.8294e-11 5.57532e-11 76.8057

74.0801 3.45295 7.68422e-13
3.45295 77.7066 2.33999e-11
7.68422e-13 2.33999e-11 76.8273

33.5472 2.99166 2.0038e-11
2.99166 31.7366 5.38617e-11
2.0038e-11 5.38617e-11 34.9108

33.1275 2.85364 1.84933e-11
2.85364 31.7598 -1.23244e-11
1.84933e-11 -1.23244e-11 34.7098

68.8076 4.31946 -3.83216e-11
4.31946 71.7765 3.18729e-11
-3.83216e-11 3.18729e-11 70.1857

68.7961 -4.34816 -7.51384e-12
-4.34816 71.7982 3.139e-11
-7.51384e-12 3.139e-11 70.1757

81.4517 -4.18214 4.89088e-11
-4.18214 87.403 -2.63871e-11
4.89088e-11 -2.63871e-11 83.2122

82.7094 1.88416 6.19995e-11
1.88416 83.7059 -7.25964e-11
6.19995e-11 -7.25964e-11 82.7071

73.1815 -4.68669 1.02063e-11
-4.68669 80.2729 -6.22995e-11
1.02063e-11 -6.22995e-11 77.6621

73.2029 4.68906 -1.94512e-11
4.68906 80.1667 -4.49657e-11
-1.94512e-11 -4.49657e-11 77.6616

82.0101 0.301317 -4.91038e-11
0.301317 74.4456 8.24133e-11
-4.91038e-11 8.24133e-11 79.3334

81.984 -0.257556 -2.63796e-11
-0.257556 74.4703 -5.29939e-12
-2.63796e-11 -5.29939e-12 79.3332

71.7573 -5.30964 3.15827e-11
-5.30964 72.2372 1.47313e-11
3.15827e-11 1.47313e-11 73.613

71.7899 5.37753 6.5477e-11
5.37753 71.9216 -6.34903e-12
6.5477e-11 -6.34903e-12 73.4618

87.5141 1.29371 2.04121e-11
1.29371 80.6987 2.50422e-12
2.04121e-11 2.50422e-12 83.0704

88.0293 0.224868 -7.54834e-11
0.224868 83.9027 7.58595e-11
-7.54834e-11 7.58595e-11 84.751

87.5546 -1.31186 2.5033e-11
-1.31186 80.7601 1.15641e-12
2.5033e-11 1.15641e-12 83.1145

88.0233 -0.355364 -2.54147e-11
-0.355364 83.6612 -5.64165e-11
-2.54147e-11 -5.64165e-11 84.7079

82.3472 0.218006 -3.88919e-11
0.218006 88.154 5.98874e-11
-3.88919e-11 5.98874e-11 83.7587

91.093 5.21792 -1.46334e-11
5.21792 87.2498 -6.44149e-11
-1.46334e-11 -6.44149e-11 85.0167

91.1212 -5.19764 4.62034e-12
-5.19764 87.2877 -1.25366e-12
4.62034e-12 -1.25366e-12 85.0135

80.0767 -2.79654 -3.85156e-11
-2.79654 93.5512 8.04898e-11
-3.85156e-11 8.04898e-11 84.475

83.7091 -2.46618 6.62284e-11
-2.46618 85.1574 2.17292e-10
6.62284e-11 2.17292e-10 83.8041

108.096 -3.57395 -2.26824e-10
-3.57395 78.8258 1.55872e-10
-2.26824e-10 1.55872e-10 88.3759

83.463 2.59717 -1.17854e-10
2.59717 85.6299 -4.43166e-10
-1.17854e-10 -4.43166e-10 83.9231

108.145 3.3046 -1.184e-09
3.3046 79.9122 6.99331e-10
-1.184e-09 6.99331e-10 88.6896

85.495 -3.38043 -6.04619e-11
-3.38043 84.0717 -1.63508e-12
-6.04619e-11 -1.63508e-12 83.5517

79.4831 -2.36003 5.16055e-11
-2.36003 83.0643 -4.86237e-11
5.16055e-11 -4.86237e-11 80.9916

87.4681 -0.197532 -2.40711e-11
-0.197532 84.1512 -2.21425e-12
-2.40711e-11 -2.21425e-12 84.9586

85.3895 3.54844 4.8524e-11
3.54844 84.1449 -1.06855e-11
4.8524e-11 -1.06855e-11 83.5864

79.5451 2.44053 -1.03981e-11
2.44053 82.9275 -2.52247e-11
-1.03981e-11 -2.52247e-11 80.9823

87.5678 0.222634 -3.19652e-11
0.222634 84.8141 2.03714e-10
-3.19652e-11 2.03714e-10 85.1804

79.2493 -1.9488 6.52767e-11
-1.9488 82.1042 4.13902e-12
6.52767e-11 4.13902e-12 81.1518

85.4817 -1.09425 2.96573e-11
-1.09425 83.9782 3.3684e-12
2.96573e-11 3.3684e-12 83.7118

79.3553 2.04057 -3.07754e-12
2.04057 82.1247 -1.06887e-11
-3.07754e-12 -1.06887e-11 81.1993

85.5401 1.14354 3.08309e-12
1.14354 84.0249 -4.91029e-12
3.08309e-12 -4.91029e-12 83.7539

60.1849 4.59979 -2.52349e-11
4.59979 65.4993 -4.93146e-11
-2.52349e-11 -4.93146e-11 61.4182

67.0476 0.929424 2.25297e-11
0.929424 76.8313 2.23427e-11
2.25297e-11 2.23427e-11 72.4656

71.1035 2.47607 3.50484e-11
2.47607 74.9379 7.32074e-12
3.50484e-11 7.32074e-12 72.682

69.5697 -3.01153 -2.71552e-11
-3.01153 59.5628 -3.81298e-11
-2.71552e-11 -3.81298e-11 65.3878

66.3498 -1.84088 -1.25232e-11
-1.84088 57.2192 -3.1204e-11
-1.25232e-11 -3.1204e-11 61.5601

68.7379 1.41072 3.85365e-12
1.41072 82.0088 2.5422e-11
3.85365e-12 2.5422e-11 76.4032

72.0852 2.55702 5.8155e-11
2.55702 76.7081 -1.55e-11
5.8155e-11 -1.55e-11 75.9479

66.5601 -0.017192 -7.12571e-12
-0.017192 57.8582 1.65591e-11
-7.12571e-12 1.65591e-11 61.9445

75.1767 1.16437 -6.83768e-12
1.16437 64.5196 1.09762e-11
-6.83768e-12 1.09762e-11 72.8329

48.5174 3.97911 1.48322e-11
3.97911 54.3545 3.81422e-11
1.48322e-11 3.81422e-11 49.7697

46.6357 3.14952 8.28663e-12
3.14952 53.8529 2.38916e-11
8.28663e-12 2.38916e-11 49.0961

52.5956 3.15581 3.46582e-12
3.15581 46.9638 -1.42529e-11
3.46582e-12 -1.42529e-11 48.4302

77.2493 -4.80566 2.09913e-11
-4.80566 79.937 -4.81393e-12
2.09913e-11 -4.81393e-12 78.4387

76.5232 -2.01979 2.19541e-11
-2.01979 81.8539 2.96565e-11
2.19541e-11 2.96565e-11 78.6919

66.7192 -5.55428 -1.25176e-11
-5.55428 66.0065 6.5512e-12
-1.25176e-11 6.5512e-12 66.5662

61.4761 4.46427 -3.86395e-13
4.46427 68.4791 2.81186e-11
-3.86395e-13 2.81186e-11 65.0871

67.1922 5.21328 1.15948e-12
5.21328 73.7056 4.14053e-11
1.15948e-12 4.14053e-11 71.3539

71.7944 -2.51956 -1.07847e-11
-2.51956 76.5335 -1.69471e-11
-1.07847e-11 -1.69471e-11 75.7153

68.4717 -1.67076 -2.31251e-12
-1.67076 82.0366 7.12533e-11
-2.31251e-12 7.12533e-11 76.1473

71.3884 1.40288 2.874e-13
1.40288 60.4746 7.3202e-12
2.874e-13 7.3202e-12 66.2051

52.7143 1.30741 -1.16096e-12
1.30741 60.1852 3.21694e-11
-1.16096e-12 3.21694e-11 54.0529

51.0081 0.578401 -1.59866e-11
0.578401 59.9248 2.30808e-12
-1.59866e-11 2.30808e-12 53.8289

59.2166 0.543855 -1.98403e-11
0.543855 51.1988 3.46713e-11
-1.98403e-11 3.46713e-11 52.9472

58.381 3.14518 -1.96462e-11
3.14518 66.028 -8.86121e-12
-1.96462e-11 -8.86121e-12 61.6379

59.6475 5.1392 -3.62104e-11
5.1392 64.027 -5.70138e-11
-3.62104e-11 -5.70138e-11 60.8472

69.4444 0.875007 -3.27101e-12
0.875007 59.805 3.46253e-12
-3.27101e-12 3.46253e-12 65.8814

45.4825 2.37794 -3.35126e-11
2.37794 49.9697 2.8891e-12
-3.35126e-11 2.8891e-12 45.1419

75.0789 -3.21713 -2.6191e-11
-3.21713 64.1548 -2.42621e-11
-2.6191e-11 -2.42621e-11 71.5615

77.1265 0.244078 -2.06004e-11
0.244078 84.2752 1.92542e-11
-2.06004e-11 1.92542e-11 79.4685

79.2184 0.0682905 -2.56105e-11
0.0682905 80.2207 7.89398e-12
-2.56105e-11 7.89398e-12 79.1704

95.3726 2.15827 4.2382e-12
2.15827 83.2131 3.15797e-11
4.2382e-12 3.15797e-11 85.8827

96.2346 -5.1955 -3.19671e-11
-5.1955 87.5187 2.23373e-11
-3.19671e-11 2.23373e-11 86.4785

64.5311 -5.89382 -2.09919e-11
-5.89382 66.0978 1.8102e-11
-2.09919e-11 1.8102e-11 65.6663

58.2208 -4.76774 1.92713e-12
-4.76774 63.516 2.27269e-11
1.92713e-12 2.27269e-11 60.7103

58.1973 -1.64117 -1.16553e-11
-1.64117 49.3779 4.24127e-12
-1.16553e-11 4.24127e-12 52.3473

82.6591 0.847817 -3.69688e-11
0.847817 76.8057 -1.82904e-11
-3.69688e-11 -1.82904e-11 79.4376

82.7309 -3.0786 3.84137e-13
-3.0786 77.265 3.85403e-12
3.84137e-13 3.85403e-12 79.0429

75.3935 -1.36753 4.62641e-12
-1.36753 64.692 -2.07962e-11
4.62641e-12 -2.07962e-11 72.9545

74.1796 -0.406125 -7.89431e-12
-0.406125 62.0397 -8.85825e-12
-7.89431e-12 -8.85825e-12 71.3827

62.8002 -4.86144 1.34839e-11
-4.86144 58.0354 -3.83619e-13
1.34839e-11 -3.83619e-13 59.0664

63.0196 2.24711 -3.08183e-12
2.24711 54.8939 -8.47652e-12
-3.08183e-12 -8.47652e-12 57.9179

61.9601 -3.96695 1.57937e-11
-3.96695 54.1178 -6.54954e-12
1.57937e-11 -6.54954e-12 57.2259

64.0925 3.26733 -1.67561e-11
3.26733 74.5655 1.92624e-12
-1.67561e-11 1.92624e-12 71.3405

58.957 -3.94966 -1.84871e-11
-3.94966 65.772 1.15182e-12
-1.84871e-11 1.15182e-12 61.747

57.9429 3.7982 1.62748e-11
3.7982 63.6124 -1.27121e-11
1.62748e-11 -1.27121e-11 60.75

36.0445 -6.0326 -1.65699e-11
-6.0326 36.3104 2.58186e-11
-1.65699e-11 2.58186e-11 35.9453

33.9681 3.7109 1.09805e-11
3.7109 35.8983 -6.1266e-11
1.09805e-11 -6.1266e-11 35.2321

68.0221 -4.51857 -9.82449e-12
-4.51857 78.2192 1.92616e-11
-9.82449e-12 1.92616e-11 75.2584

59.7329 3.00001 -3.27087e-12
3.00001 69.152 2.11876e-11
-3.27087e-12 2.11876e-11 65.3741

34.1892 0.627522 1.83054e-11
0.627522 34.7406 3.04408e-11
1.83054e-11 3.04408e-11 36.3016

35.0153 -1.22139 5.77871e-12
-1.22139 36.8799 1.9459e-11
5.77871e-12 1.9459e-11 37.0218

78.3876 -1.79813 6.16663e-11
-1.79813 81.0872 -1.38657e-11
6.16663e-11 -1.38657e-11 79.6333

77.7795 3.79889 -1.03404e-11
3.79889 79.3334 1.73339e-11
-1.03404e-11 1.73339e-11 79.3289

75.8468 0.0402827 3.28411e-11
0.0402827 62.7713 -2.29158e-11
3.28411e-11 -2.29158e-11 69.4847

78.0081 -1.20601 7.35797e-11
-1.20601 78.5316 1.7321e-12
7.35797e-11 1.7321e-12 79.0374

77.8957 3.54514 -3.33326e-11
3.54514 79.4975 -9.32053e-11
-3.33326e-11 -9.32053e-11 79.3278

90.6694 3.89035 6.93243e-11
3.89035 80.5671 1.82865e-11
6.93243e-11 1.82865e-11 83.8209

90.1176 -4.75967 -4.62393e-12
-4.75967 84.8287 1.77141e-11
-4.62393e-12 1.77141e-11 84.1861

73.0915 -2.87773 -1.21335e-11
-2.87773 73.5034 4.62679e-11
-1.21335e-11 4.62679e-11 74.0713

72.8638 3.79973 -1.50193e-11
3.79973 72.5991 -2.2052e-11
-1.50193e-11 -2.2052e-11 74.0601

81.7432 -0.301001 5.00311e-12
-0.301001 92.146 8.08746e-12
5.00311e-12 8.08746e-12 83.8366

81.2368 1.36392 3.61977e-11
1.36392 85.9883 2.36883e-11
3.61977e-11 2.36883e-11 82.7127

59.4532 -5.43017 -1.05966e-11
-5.43017 65.646 -7.318e-12
-1.05966e-11 -7.318e-12 61.3917

42.0427 0.5723 -2.61944e-11
0.5723 47.7599 -1.23294e-11
-2.61944e-11 -1.23294e-11 43.6643

47.3529 0.737316 -2.63907e-11
0.737316 42.6658 -4.54646e-11
-2.63907e-11 -4.54646e-11 43.6506

62.6249 2.85352 1.8487e-11
2.85352 73.81 -7.70206e-12
1.8487e-11 -7.70206e-12 69.8429

65.7394 4.18739 -2.07948e-11
4.18739 72.604 4.19867e-11
-2.07948e-11 4.19867e-11 69.9148

93.0283 -3.96634 1.51324e-10
-3.96634 85.9482 -1.96422e-11
1.51324e-10 -1.96422e-11 86.799

92.5188 6.16131 -3.32877e-11
6.16131 99.5909 5.96915e-11
-3.32877e-11 5.96915e-11 89.3921

62.5351 3.83908 1.46413e-11
3.83908 60.4911 2.60033e-11
1.46413e-11 2.60033e-11 60.1365

69.2972 6.47695 2.50282e-12
6.47695 75.7955 1.34851e-12
2.50282e-12 1.34851e-12 73.4755

72.2195 2.46324 -4.37946e-13
2.46324 65.8159 2.1953e-11
-4.37946e-13 2.1953e-11 70.2079

72.3952 -1.96263 7.70206e-12
-1.96263 65.863 -1.98364e-11
7.70206e-12 -1.98364e-11 70.0522

69.4728 6.15294 -1.8484e-11
6.15294 73.6 2.85009e-11
-1.8484e-11 2.85009e-11 72.7695

71.0838 -6.06978 3.03318e-11
-6.06978 77.7188 -2.23415e-11
3.03318e-11 -2.23415e-11 75.4974

80.2303 -5.19487 -5.39576e-12
-5.19487 71.6503 3.15824e-11
-5.39576e-12 3.15824e-11 76.6964

58.124 -0.46424 -6.54795e-12
-0.46424 49.7735 -1.53592e-12
-6.54795e-12 -1.53592e-12 52.5221

98.7643 0.723114 -5.3139e-11
0.723114 94.9551 -2.15711e-11
-5.3139e-11 -2.15711e-11 88.8289

99.0955 -0.448175 8.62588e-11
-0.448175 86.7875 -4.05424e-12
8.62588e-11 -4.05424e-12 87.7258

64.8728 4.72521 -4.04444e-11
4.72521 62.7806 -5.39361e-12
-4.04444e-11 -5.39361e-12 64.0845

72.0859 1.79743 1.87761e-11
1.79743 63.1613 1.15525e-11
1.87761e-11 1.15525e-11 67.3346

54.2148 4.03208 -3.82213e-13
4.03208 56.0638 4.39151e-11
-3.82213e-13 4.39151e-11 52.7904

83.3269 0.957378 9.37707e-11
0.957378 86.3012 4.78514e-11
9.37707e-11 4.78514e-11 83.911

86.271 2.78724 4.02366e-11
2.78724 95.0535 -1.84911e-11
4.02366e-11 -1.84911e-11 85.8997

80.3214 2.57887 -1.34802e-11
2.57887 70.7394 -6.35566e-12
-1.34802e-11 -6.35566e-12 77.1469

66.793 -1.09179 1.72339e-11
-1.09179 77.0038 6.9326e-12
1.72339e-11 6.9326e-12 72.2885

70.9389 -2.3345 -1.68503e-11
-2.3345 75.1549 -2.85034e-11
-1.68503e-11 -2.85034e-11 72.621

77.076 0.749747 2.26569e-11
0.749747 64.5095 -4.39056e-11
2.26569e-11 -4.39056e-11 72.0493

77.466 -0.587475 -3.4653e-12
-0.587475 64.4014 8.47121e-12
-3.4653e-12 8.47121e-12 71.9984

55.9849 -4.04567 3.17883e-11
-4.04567 54.1036 -2.42733e-11
3.17883e-11 -2.42733e-11 52.3351

68.6862 0.0111583 -2.83108e-11
0.0111583 57.8096 -2.65765e-11
-2.83108e-11 -2.65765e-11 62.2199

78.8296 -0.659836 -2.04637e-11
-0.659836 69.726 7.51214e-12
-2.04637e-11 7.51214e-12 75.4482

77.7822 1.33258 -8.56811e-12
1.33258 70.6133 3.07695e-12
-8.56811e-12 3.07695e-12 75.5043

72.3961 -1.68588 6.74298e-12
-1.68588 64.245 -6.34818e-12
6.74298e-12 -6.34818e-12 67.449

60.8029 -4.793 8.85521e-12
-4.793 66.3375 2.75415e-11
8.85521e-12 2.75415e-11 62.2639

78.4372 -0.388003 1.46836e-11
-0.388003 68.1338 -2.65737e-11
1.46836e-11 -2.65737e-11 73.2743

77.7991 0.858996 -4.37872e-12
0.858996 67.8275 7.89491e-12
-4.37872e-12 7.89491e-12 73.2412

71.1643 1.95396 -8.09145e-12
1.95396 63.3958 2.63819e-11
-8.09145e-12 2.63819e-11 68.0195

56.5112 -6.10166 -6.35714e-12
-6.10166 55.7032 1.6181e-11
-6.35714e-12 1.6181e-11 55.3811

66.6767 5.88114 4.14269e-12
5.88114 72.0809 -1.54078e-11
4.14269e-12 -1.54078e-11 72.2112

69.8475 5.7772 -2.33013e-11
5.7772 76.7015 -1.3488e-12
-2.33013e-11 -1.3488e-12 74.1129

66.1176 4.35987 -9.14477e-12
4.35987 72.6815 3.62054e-11
-9.14477e-12 3.62054e-11 72.7521

63.6106 2.12847 -5.25887e-11
2.12847 54.2344 -4.62232e-12
-5.25887e-11 -4.62232e-12 57.9254

49.8327 -4.20821 2.50259e-12
-4.20821 46.1398 -1.1516e-12
2.50259e-12 -1.1516e-12 46.2326

71.8338 3.55387 3.02331e-11
3.55387 66.9009 -2.86949e-11
3.02331e-11 -2.86949e-11 70.8197

70.9207 -3.78538 -7.90242e-12
-3.78538 63.1623 4.54496e-11
-7.90242e-12 4.54496e-11 67.1112

50.5949 -3.64724 2.81267e-11
-3.64724 45.908 -3.88393e-13
2.81267e-11 -3.88393e-13 46.5456

65.2199 -6.0786 -1.52173e-11
-6.0786 61.145 2.15702e-11
-1.52173e-11 2.15702e-11 63.5098

64.4364 0.154423 -9.05114e-12
0.154423 71.4153 -3.87132e-11
-9.05114e-12 -3.87132e-11 69.0979

61.5927 0.000528733 -2.50353e-11
0.000528733 75.1966 -2.15698e-11
-2.50353e-11 -2.15698e-11 69.4698

57.7703 5.18174 -1.88726e-11
5.18174 58.226 1.09783e-11
-1.88726e-11 1.09783e-11 56.9919

54.3221 -4.31751 3.0522e-11
-4.31751 48.2773 4.60393e-11
3.0522e-11 4.60393e-11 49.6723

69.252 -6.30462 3.73632e-11
-6.30462 71.42 1.11654e-11
3.73632e-11 1.11654e-11 72.3102

57.8869 -5.64033 -1.11698e-11
-5.64033 60.7941 -3.29342e-11
-1.11698e-11 -3.29342e-11 57.5195

57.1186 -5.70204 -2.30986e-12
-5.70204 59.6819 -7.7051e-12
-2.30986e-12 -7.7051e-12 57.0637

70.4093 2.91762 7.31511e-12
2.91762 64.9147 -3.83239e-11
7.31511e-12 -3.83239e-11 67.6775

79.8067 1.84142 -7.70313e-12
1.84142 63.3127 2.13738e-11
-7.70313e-12 2.13738e-11 75.3252

79.2438 -2.90036 -1.38665e-11
-2.90036 65.5252 8.08912e-12
-1.38665e-11 8.08912e-12 75.2578

55.856 3.23831 1.13666e-11
3.23831 63.2379 -4.02576e-11
1.13666e-11 -4.02576e-11 58.4252

53.9479 2.21261 -8.66895e-12
2.21261 64.2214 2.69518e-12
-8.66895e-12 2.69518e-12 58.597

47.9162 -0.471063 -3.21644e-11
-0.471063 57.68 8.28715e-12
-3.21644e-11 8.28715e-12 51.2809

46.7323 -0.62629 -5.06586e-11
-0.62629 58.0173 7.69311e-13
-5.06586e-11 7.69311e-13 51.2499

57.4979 -0.41517 -4.76804e-13
-0.41517 46.8529 -6.93571e-12
-4.76804e-13 -6.93571e-12 50.5596

59.3412 -5.14226 1.23255e-11
-5.14226 56.3522 2.85109e-11
1.23255e-11 2.85109e-11 56.7955

84.8287 -3.78494 1.59039e-10
-3.78494 90.5579 7.68463e-12
1.59039e-10 7.68463e-12 85.799

100.869 -1.50455 -2.86849e-11
-1.50455 100.914 3.08231e-12
-2.86849e-11 3.08231e-12 90.614

60.7754 3.62313 -4.04624e-12
3.62313 54.6938 -3.62086e-11
-4.04624e-12 -3.62086e-11 56.8834

64.3766 -2.47248 -4.59421e-11
-2.47248 54.7768 -1.21337e-11
-4.59421e-11 -1.21337e-11 58.4801

51.0279 2.26427 3.16001e-11
2.26427 45.7989 -4.04632e-12
3.16001e-11 -4.04632e-12 46.9043

62.6428 3.71571 -3.12928e-11
3.71571 70.3425 1.84865e-11
-3.12928e-11 1.84865e-11 68.3812

75.8466 0.0590431 2.26787e-11
0.0590431 62.8479 1.98357e-11
2.26787e-11 1.98357e-11 69.416

70.7466 5.65842 -2.83099e-11
5.65842 77.3895 -1.3674e-11
-2.83099e-11 -1.3674e-11 75.5548

66.5044 4.49744 9.8229e-12
4.49744 78.2088 4.23631e-12
9.8229e-12 4.23631e-12 75.2092

52.4672 2.91649 6.45003e-12
2.91649 55.6108 -1.06957e-11
6.45003e-12 -1.06957e-11 52.1828

54.4057 3.24605 1.95493e-11
3.24605 53.5295 -1.03998e-11
1.95493e-11 -1.03998e-11 51.7365

68.4714 -6.84039 3.6301e-11
-6.84039 75.1613 -3.90978e-11
3.6301e-11 -3.90978e-11 72.676

51.4885 1.82966 1.92619e-11
1.82966 45.9454 -1.19433e-11
1.92619e-11 -1.19433e-11 47.2112

66.1123 5.05325 2.63347e-11
5.05325 71.2035 1.04016e-11
2.63347e-11 1.04016e-11 72.6926

65.6751 6.15776 6.16096e-12
6.15776 71.4421 1.44426e-11
6.16096e-12 1.44426e-11 68.6703

80.142 -0.0883466 -4.55498e-11
-0.0883466 64.7364 -8.47538e-12
-4.55498e-11 -8.47538e-12 73.6372

67.9025 -4.66807 4.179e-11
-4.66807 71.6026 -2.27278e-11
4.179e-11 -2.27278e-11 73.0174

65.4243 5.03959 -1.73433e-11
5.03959 65.7516 -5.00791e-11
-1.73433e-11 -5.00791e-11 65.1639

53.9837 -2.47144 2.73478e-11
-2.47144 60.8634 -3.71762e-11
2.73478e-11 -3.71762e-11 55.0638

51.9609 -2.35253 -2.60012e-11
-2.35253 60.8311 -2.11906e-11
-2.60012e-11 -2.11906e-11 54.7465

59.8201 -1.7544 -7.71087e-12
-1.7544 52.7717 -2.19626e-11
-7.71087e-12 -2.19626e-11 54.007

60.8139 -4.61776 -1.96472e-11
-4.61776 61.4913 7.12845e-12
-1.96472e-11 7.12845e-12 59.2869

59.6742 -0.303744 -4.00534e-11
-0.303744 70.2721 -5.01081e-12
-4.00534e-11 -5.01081e-12 64.5598

63.2337 -0.045036 -4.42779e-12
-0.045036 69.4927 1.25165e-11
-4.42779e-12 1.25165e-11 64.8669

50.5654 -4.94519 3.69841e-11
-4.94519 52.837 -1.31003e-11
3.69841e-11 -1.31003e-11 49.7061

49.1727 -4.80433 2.5034e-12
-4.80433 53.6188 6.17106e-12
2.5034e-12 6.17106e-12 49.79

80.2271 -0.24467 -3.86381e-11
-0.24467 65.8587 -2.34926e-11
-3.86381e-11 -2.34926e-11 73.9677

80.5982 0.253149 -4.06852e-11
0.253149 65.6723 3.07746e-12
-4.06852e-11 3.07746e-12 73.942

64.9916 4.70981 2.5132e-11
4.70981 69.5504 1.81071e-11
2.5132e-11 1.81071e-11 69.2984

66.4254 -3.96734 -1.04031e-11
-3.96734 77.5376 2.15695e-11
-1.04031e-11 2.15695e-11 74.9029

71.2201 -6.10064 1.86804e-11
-6.10064 67.8306 -6.92875e-12
1.86804e-11 -6.92875e-12 70.5916

76.3476 2.32546 3.08602e-11
2.32546 73.8518 -1.89593e-11
3.08602e-11 -1.89593e-11 76.4231

77.3431 -0.711961 7.44277e-11
-0.711961 75.029 5.37288e-11
7.44277e-11 5.37288e-11 76.7111

73.529 -2.54807 1.84367e-11
-2.54807 70.7202 4.69846e-11
1.84367e-11 4.69846e-11 71.6575

72.906 3.06383 -1.43219e-13
3.06383 68.8063 1.23235e-11
-1.43219e-13 1.23235e-11 71.3676

33.4931 -2.55982 1.44486e-11
-2.55982 27.8987 5.39169e-12
1.44486e-11 5.39169e-12 34.8474

56.6672 4.8554 8.76847e-12
4.8554 59.7199 2.23442e-11
8.76847e-12 2.23442e-11 57.2073

30.0493 1.76601 3.6223e-11
1.76601 33.722 -1.15569e-11
3.6223e-11 -1.15569e-11 35.2956

66.3669 5.45912 -7.74788e-13
5.45912 69.4241 -2.69658e-12
-7.74788e-13 -2.69658e-12 68.3244

56.3784 -3.82646 1.04938e-11
-3.82646 64.5852 3.9874e-11
1.04938e-11 3.9874e-11 59.2139

54.0901 -3.41122 1.98439e-11
-3.41122 64.0984 -2.15749e-11
1.98439e-11 -2.15749e-11 58.7456

85.0315 -1.17367 -1.23265e-11
-1.17367 83.6621 4.92949e-11
-1.23265e-11 4.92949e-11 83.4345

83.1634 3.21283 5.73661e-11
3.21283 86.7271 -8.46952e-12
5.73661e-11 -8.46952e-12 83.7037

67.0103 3.6242 -3.56308e-12
3.6242 64.208 2.54212e-11
-3.56308e-12 2.54212e-11 65.4973

68.8276 -0.371332 -2.06139e-11
-0.371332 58.371 1.05913e-11
-2.06139e-11 1.05913e-11 62.3483

59.0462 4.06074 -1.63528e-12
4.06074 55.2918 -3.19712e-11
-1.63528e-12 -3.19712e-11 56.4041

63.1129 -2.3427 3.77444e-11
-2.3427 75.0543 -1.57914e-11
3.77444e-11 -1.57914e-11 70.1355

65.913 -3.86164 2.69697e-12
-3.86164 72.8161 -2.81177e-11
2.69697e-12 -2.81177e-11 70.0585

69.1516 -7.01714 8.47026e-12
-7.01714 77.8833 2.48435e-11
8.47026e-12 2.48435e-11 73.9887

67.4269 -3.90477 3.09108e-11
-3.90477 65.9174 4.37179e-11
3.09108e-11 4.37179e-11 65.71

68.5915 6.53178 -1.73517e-12
6.53178 75.6582 -4.4275e-12
-1.73517e-12 -4.4275e-12 73.3703

76.8859 3.01734 1.46338e-11
3.01734 81.1952 -1.7137e-11
1.46338e-11 -1.7137e-11 78.8248

77.0059 4.56819 1.98317e-11
4.56819 79.3598 -1.4729e-11
1.98317e-11 -1.4729e-11 78.4264

66.4854 -6.14517 -1.56927e-11
-6.14517 73.6558 -1.90625e-11
-1.56927e-11 -1.90625e-11 70.0346

66.9736 5.57945 -2.36821e-11
5.57945 72.3174 2.79254e-11
-2.36821e-11 2.79254e-11 69.7468

62.6871 7.02737 2.08963e-11
7.02737 72.4919 2.85057e-11
2.08963e-11 2.85057e-11 72.1905

56.5829 0.660694 6.74411e-12
0.660694 68.7191 -2.69667e-11
6.74411e-12 -2.69667e-11 62.628

58.5415 1.52947 -1.98343e-11
1.52947 67.0954 2.71553e-11
-1.98343e-11 2.71553e-11 62.3452

67.5367 4.33623 -1.33851e-11
4.33623 66.7953 1.23198e-11
-1.33851e-11 1.23198e-11 68.4177

60.4628 3.64643 1.41608e-11
3.64643 60.0167 2.27334e-11
1.41608e-11 2.27334e-11 59.2024

60.3861 -3.77641 -1.34784e-11
-3.77641 69.1776 1.77154e-11
-1.34784e-11 1.77154e-11 65.6234

70.9547 -6.59447 -1.63679e-11
-6.59447 78.1594 1.92657e-12
-1.63679e-11 1.92657e-12 75.4906

40.1161 2.18689 5.00429e-12
2.18689 43.2253 1.4803e-15
5.00429e-12 1.4803e-15 40.4545

42.5267 2.27994 2.543e-11
2.27994 40.7483 -2.73643e-11
2.543e-11 -2.73643e-11 40.4468

52.1355 -4.88495 2.73507e-11
-4.88495 53.3451 -5.78441e-12
2.73507e-11 -5.78441e-12 50.9433

67.7865 -4.54031 3.17745e-11
-4.54031 68.3511 4.71794e-11
3.17745e-11 4.71794e-11 68.5044

71.4219 -1.35825 4.3822e-12
-1.35825 60.5125 3.27917e-12
4.3822e-12 3.27917e-12 66.1234

90.6265 4.91293 -8.08663e-11
4.91293 93.367 -8.20279e-11
-8.08663e-11 -8.20279e-11 87.6147

94.5499 -5.34407 1.41536e-11
-5.34407 86.8337 7.51208e-12
1.41536e-11 7.51208e-12 87.1069

65.8727 -6.70959 1.61796e-11
-6.70959 72.7967 -1.9839e-11
1.61796e-11 -1.9839e-11 69.3031

82.7817 1.24523 2.31067e-12
1.24523 79.8813 -1.92228e-12
2.31067e-12 -1.92228e-12 81.6385

84.7687 -5.09404 3.81249e-11
-5.09404 84.9398 -7.31459e-12
3.81249e-11 -7.31459e-12 82.6869

71.7453 -1.77175 -2.04169e-11
-1.77175 61.8948 -3.84918e-12
-2.04169e-11 -3.84918e-12 68.4302

64.0422 -6.96346 4.98813e-11
-6.96346 72.1663 -3.31288e-11
4.98813e-11 -3.31288e-11 72.229

42.0998 -4.2669 5.02758e-11
-4.2669 43.9299 1.46407e-11
5.02758e-11 1.46407e-11 42.017

43.6808 3.10934 -3.52488e-11
3.10934 43.5138 -3.28496e-11
-3.52488e-11 -3.28496e-11 42.3585

43.4867 -2.54372 -3.10124e-11
-2.54372 49.6232 1.71458e-11
-3.10124e-11 1.71458e-11 44.9563

44.3989 -2.78991 3.6989e-11
-2.78991 50.3783 8.08982e-12
3.6989e-11 8.08982e-12 45.7627

50.1859 -2.11903 2.0706e-11
-2.11903 43.5309 1.01096e-11
2.0706e-11 1.01096e-11 44.9769

53.6743 3.77334 4.02551e-11
3.77334 52.9159 -5.58635e-12
4.02551e-11 -5.58635e-12 51.5289

68.4879 -7.45849 1.01085e-11
-7.45849 76.8941 7.51023e-12
1.01085e-11 7.51023e-12 73.4813

39.4538 0.378528 3.27451e-12
0.378528 47.1743 -1.97916e-13
3.27451e-12 -1.97916e-13 42.1909

46.5749 -1.13121 -1.54277e-12
-1.13121 39.2128 -4.27666e-11
-1.54277e-12 -4.27666e-11 42.1598

80.3742 0.580946 -1.82894e-11
0.580946 88.1419 -1.07891e-11
-1.82894e-11 -1.07891e-11 82.1944

80.0268 -3.03397 4.06288e-11
-3.03397 82.9146 -2.02157e-12
4.06288e-11 -2.02157e-12 81.212

75.978 -3.48377 3.7556e-11
-3.48377 68.7311 1.25825e-15
3.7556e-11 1.25825e-15 72.785

75.681 -0.217383 -5.00836e-12
-0.217383 59.0615 8.85859e-12
-5.00836e-12 8.85859e-12 72.0556

50.0862 -3.74503 2.13864e-11
-3.74503 57.0183 -2.46567e-11
2.13864e-11 -2.46567e-11 52.6448

51.895 -3.73626 1.99344e-11
-3.73626 58.2127 -4.06454e-11
1.99344e-11 -4.06454e-11 53.3429

72.5521 -0.207123 -2.98495e-11
-0.207123 61.7228 -4.23761e-12
-2.98495e-11 -4.23761e-12 68.8125

62.3114 -5.1299 2.50402e-11
-5.1299 69.8964 -2.06097e-11
2.50402e-11 -2.06097e-11 66.0412

83.1406 0.07386 5.36695e-11
0.07386 80.596 5.44948e-11
5.36695e-11 5.44948e-11 81.4658

81.1015 1.53388 -3.38461e-11
1.53388 82.0386 -3.31234e-11
-3.38461e-11 -3.31234e-11 81.4079

73.2333 -4.83386 -6.54921e-12
-4.83386 69.9773 -1.61747e-11
-6.54921e-12 -1.61747e-11 72.0285

65.7129 -4.93774 9.82214e-12
-4.93774 69.0424 2.31098e-11
9.82214e-12 2.31098e-11 69.0039

74.4974 -3.4713 -1.38648e-11
-3.4713 63.4688 -5.39072e-12
-1.38648e-11 -5.39072e-12 70.5782

63.8355 -4.34864 -3.44721e-11
-4.34864 70.4262 1.00146e-11
-3.44721e-11 1.00146e-11 68.6359

33.7242 -8.28548 -2.88976e-11
-8.28548 34.5285 1.54069e-12
-2.88976e-11 1.54069e-12 34.502

59.3807 -1.90736 5.39158e-12
-1.90736 67.0623 2.25359e-11
5.39158e-12 2.25359e-11 62.6148

57.322 -1.43685 4.17934e-11
-1.43685 68.6906 5.01362e-12
4.17934e-11 5.01362e-12 62.7454

79.4656 -0.700374 -1.48311e-11
-0.700374 91.5 1.9232e-12
-1.48311e-11 1.9232e-12 82.9142

80.4578 -0.828411 5.39776e-12
-0.828411 82.4353 -8.39557e-11
5.39776e-12 -8.39557e-11 81.5459

81.814 -0.466222 -3.18727e-11
-0.466222 68.0955 -3.85914e-13
-3.18727e-11 -3.85914e-13 76.1193

80.7614 0.229662 -5.05547e-12
0.229662 68.604 1.42503e-11
-5.05547e-12 1.42503e-11 76.0701

75.3395 3.62339 -3.46625e-11
3.62339 73.1873 3.07706e-12
-3.46625e-11 3.07706e-12 75.7531

76.7286 -6.50354 -1.61711e-11
-6.50354 72.7447 -2.31123e-12
-1.61711e-11 -2.31123e-12 75.5186

83.14 1.29579 2.3493e-11
1.29579 82.4537 -4.80985e-12
2.3493e-11 -4.80985e-12 81.6949

85.8455 -2.32024 4.04346e-11
-2.32024 82.5698 -1.90657e-11
4.04346e-11 -1.90657e-11 82.0173

88.5055 -2.5338 -5.5267e-11
-2.5338 85.6807 3.69727e-11
-5.5267e-11 3.69727e-11 85.3018

89.2539 7.60647 -3.96515e-11
7.60647 92.5632 -5.78439e-12
-3.96515e-11 -5.78439e-12 86.8316

71.481 -6.71713 -4.33431e-13
-6.71713 78.5336 1.88729e-11
-4.33431e-13 1.88729e-11 76.0114

68.1704 8.31558 -1.78149e-11
8.31558 73.7225 -4.23971e-12
-1.78149e-11 -4.23971e-12 74.9642

66.2819 3.36259 -1.34788e-11
3.36259 60.8386 1.23184e-11
-1.34788e-11 1.23184e-11 63.8392

61.4092 -2.86845 2.15672e-11
-2.86845 70.7519 4.54548e-11
2.15672e-11 4.54548e-11 66.4878

64.7612 -4.35049 1.24225e-11
-4.35049 70.9792 2.58059e-11
1.24225e-11 2.58059e-11 66.9855

66.6008 -3.54014 3.3324e-11
-3.54014 61.8101 -2.36898e-11
3.3324e-11 -2.36898e-11 63.9788

64.515 3.273 -1.59341e-11
3.273 70.0806 2.60019e-11
-1.59341e-11 2.60019e-11 66.5104

61.3454 1.93299 4.24169e-11
1.93299 70.9864 -1.88698e-11
4.24169e-11 -1.88698e-11 66.4389

62.7009 4.64643 1.22298e-11
4.64643 62.4769 1.15565e-11
1.22298e-11 1.15565e-11 62.8421

72.4584 5.5719 -3.56268e-11
5.5719 77.1642 -2.60009e-11
-3.56268e-11 -2.60009e-11 76.198

71.3418 -7.44704 -5.00899e-12
-7.44704 74.3552 -1.92583e-11
-5.00899e-12 -1.92583e-11 75.5149

63.4704 -5.69065 3.94958e-12
-5.69065 63.9405 3.44761e-11
3.94958e-12 3.44761e-11 63.0488

76.7697 1.64953 -3.661e-12
1.64953 69.6781 -9.62734e-12
-3.661e-12 -9.62734e-12 73.9647

100.598 -2.51185 -5.08317e-11
-2.51185 99.1671 3.65746e-11
-5.08317e-11 3.65746e-11 90.1215

85.729 1.52841 -1.40368e-10
1.52841 87.1875 7.12349e-11
-1.40368e-10 7.12349e-11 85.242

70.1243 -5.63527 1.83923e-11
-5.63527 75.6832 -2.69616e-11
1.83923e-11 -2.69616e-11 72.8515

71.8879 -5.58438 2.54234e-11
-5.58438 65.9291 -2.00308e-11
2.54234e-11 -2.00308e-11 69.8959

83.052 -0.48314 -2.81147e-11
-0.48314 76.9801 1.15471e-11
-2.81147e-11 1.15471e-11 79.4415

41.8775 -3.92326 -4.64237e-11
-3.92326 43.3895 -9.63289e-12
-4.64237e-11 -9.63289e-12 41.1017

43.7642 -3.50199 -3.42945e-11
-3.50199 41.3675 2.44705e-11
-3.42945e-11 2.44705e-11 41.1621

82.8064 0.383896 -1.35304e-11
0.383896 70.9075 3.87035e-11
-1.35304e-11 3.87035e-11 77.5912

80.8184 -0.301501 2.74185e-11
-0.301501 71.4096 1.7334e-11
2.74185e-11 1.7334e-11 77.3314

83.2597 -0.0723913 1.84891e-11
-0.0723913 73.8107 1.25139e-11
1.84891e-11 1.25139e-11 79.2668

64.7845 2.38094 -1.58429e-11
2.38094 58.01 1.6946e-11
-1.58429e-11 1.6946e-11 59.9546

73.5742 -3.59205 -1.70962e-11
-3.59205 76.3277 5.50778e-11
-1.70962e-11 5.50778e-11 74.9325

72.8253 4.36126 -2.20968e-11
4.36126 72.9392 4.22958e-12
-2.20968e-11 4.22958e-12 74.3969

93.0379 -3.98711 2.81089e-11
-3.98711 84.1315 7.55672e-11
2.81089e-11 7.55672e-11 86.2162

97.6809 -0.425421 -5.08344e-11
-0.425421 101.87 2.80605e-11
-5.08344e-11 2.80605e-11 90.1743

66.769 -6.32941 -7.98813e-12
-6.32941 74.524 -3.64005e-11
-7.98813e-12 -3.64005e-11 71.446

69.9836 -4.44435 -3.25477e-11
-4.44435 63.179 1.88788e-11
-3.25477e-11 1.88788e-11 66.574

79.1802 0.974726 -1.81233e-11
0.974726 75.4993 8.85462e-12
-1.81233e-11 8.85462e-12 77.5313

80.2742 0.149698 -2.13754e-11
0.149698 74.7105 -9.58715e-13
-2.13754e-11 -9.58715e-13 77.4963

67.1826 -2.54632 -1.61748e-11
-2.54632 74.8848 -2.04129e-11
-1.61748e-11 -2.04129e-11 72.4221

66.3448 -4.66696 -3.60077e-11
-4.66696 71.9975 -2.73472e-11
-3.60077e-11 -2.73472e-11 72.4798

35.3126 7.00555 -5.95356e-11
7.00555 34.1982 -9.25589e-12
-5.95356e-11 -9.25589e-12 34.9429

75.2161 3.73549 -2.32997e-11
3.73549 79.8232 2.42622e-11
-2.32997e-11 2.42622e-11 78.2085

74.9158 -4.8618 -2.13732e-11
-4.8618 79.0841 1.61745e-11
-2.13732e-11 1.61745e-11 77.8645

64.7452 -4.41571 -2.21448e-11
-4.41571 72.9531 -1.38654e-11
-2.21448e-11 -1.38654e-11 71.1757

65.882 -2.98284 -2.14759e-11
-2.98284 59.7188 1.13644e-11
-2.14759e-11 1.13644e-11 60.7701

73.2366 3.23985 -4.23831e-12
3.23985 72.1758 6.1433e-11
-4.23831e-12 6.1433e-11 72.9125

76.1781 3.40096 -4.06315e-11
3.40096 76.7415 -2.08024e-11
-4.06315e-11 -2.08024e-11 76.8124

78.0675 -5.23721 -1.8288e-11
-5.23721 73.6681 4.24146e-12
-1.8288e-11 4.24146e-12 76.4001

75.12 1.30916 -1.61779e-11
1.30916 63.8597 5.39524e-12
-1.61779e-11 5.39524e-12 71.5854

82.5355 -0.602446 1.44228e-11
-0.602446 78.8672 -3.11928e-11
1.44228e-11 -3.11928e-11 80.5214

84.0656 0.943104 8.29226e-12
0.943104 76.8012 -2.6765e-11
8.29226e-12 -2.6765e-11 80.3936

87.0751 1.73541 7.10417e-11
1.73541 98.721 -1.07815e-11
7.10417e-11 -1.07815e-11 87.0161

84.9577 0.328063 -3.09986e-11
0.328063 91.882 -4.62131e-11
-3.09986e-11 -4.62131e-11 85.6411

34.6614 -1.79232 -2.79371e-11
-1.79232 30.0774 -7.31874e-12
-2.79371e-11 -7.31874e-12 35.5089

28.3253 -1.19138 6.14541e-11
-1.19138 35.1251 7.69984e-12
6.14541e-11 7.69984e-12 35.2413

70.6823 -5.57514 -6.30251e-12
-5.57514 77.4168 -4.44908e-11
-6.30251e-12 -4.44908e-11 74.1229

69.5085 4.83586 1.52162e-11
4.83586 72.5586 6.93423e-12
1.52162e-11 6.93423e-12 73.3857

68.754 -7.45881 -4.33315e-11
-7.45881 76.9235 3.3321e-11
-4.33315e-11 3.3321e-11 73.3899

33.9729 1.91003 -2.77459e-11
1.91003 33.7009 -9.63748e-12
-2.77459e-11 -9.63748e-12 35.6475

34.5511 2.87997 4.81666e-11
2.87997 32.6626 -5.79832e-13
4.81666e-11 -5.79832e-13 35.5915

79.0395 6.10037 6.69132e-11
6.10037 98.466 -1.87562e-10
6.69132e-11 -1.87562e-10 86.4948

85.7021 -4.80926 1.13545e-10
-4.80926 94.8631 1.59443e-10
1.13545e-10 1.59443e-10 87.1125

70.1637 4.50784 5.23815e-11
4.50784 70.3565 2.06116e-11
5.23815e-11 2.06116e-11 71.1928

63.9557 -5.38034 -4.50711e-11
-5.38034 67.1312 2.58126e-11
-4.50711e-11 2.58126e-11 64.8068

69.5916 -5.34464 -1.50645e-11
-5.34464 73.6411 4.04432e-12
-1.50645e-11 4.04432e-12 72.42

69.2591 5.37962 6.30599e-12
5.37962 71.29 -2.61942e-11
6.30599e-12 -2.61942e-11 72.2578

65.4666 -6.24095 3.76107e-12
-6.24095 70.4421 -2.98497e-11
3.76107e-12 -2.98497e-11 68.0099

63.1943 4.33852 3.62062e-11
4.33852 65.5312 -1.80975e-11
3.62062e-11 -1.80975e-11 64.6028

43.4998 -2.27593 -3.93032e-11
-2.27593 50.3144 2.54201e-11
-3.93032e-11 2.54201e-11 45.6735

44.879 -1.95818 -5.81756e-11
-1.95818 50.3595 3.23648e-11
-5.81756e-11 3.23648e-11 45.7439

50.6088 -1.59417 2.61184e-12
-1.59417 44.1736 -9.44026e-12
2.61184e-12 -9.44026e-12 45.4777

64.3549 4.86803 -1.22289e-11
4.86803 68.197 -2.2342e-11
-1.22289e-11 -2.2342e-11 67.6616

39.5473 -0.250816 -7.70461e-12
-0.250816 46.8565 7.70628e-12
-7.70461e-12 7.70628e-12 42.2396

46.5618 0.498305 1.44467e-11
0.498305 40.3369 3.46353e-12
1.44467e-11 3.46353e-12 42.2047

73.1042 -5.10028 -3.22005e-11
-5.10028 78.0086 -5.21871e-11
-3.22005e-11 -5.21871e-11 76.2986

72.7023 6.19573 -4.10594e-11
6.19573 74.2324 -1.31021e-11
-4.10594e-11 -1.31021e-11 75.8595

74.0891 -4.06299 1.06872e-11
-4.06299 78.7471 -1.7142e-11
1.06872e-11 -1.7142e-11 77.0151

73.8199 5.48018 -6.01053e-12
5.48018 77.3836 4.61575e-12
-6.01053e-12 4.61575e-12 76.957

32.4727 -3.65734 -1.54158e-11
-3.65734 33.0161 -3.7377e-11
-1.54158e-11 -3.7377e-11 34.8453

32.4157 -3.56588 7.18699e-11
-3.56588 33.4013 2.23549e-11
7.18699e-11 2.23549e-11 34.9775

68.236 4.54059 -7.60414e-12
4.54059 69.2415 1.1166e-11
-7.60414e-12 1.1166e-11 69.8915

68.8129 -4.92743 2.79304e-11
-4.92743 72.4018 -2.25336e-11
2.79304e-11 -2.25336e-11 70.2821

83.5659 -1.28366 2.06058e-11
-1.28366 89.3159 -4.94879e-11
2.06058e-11 -4.94879e-11 83.6289

82.0877 -1.5377 -8.76141e-11
-1.5377 83.3563 -2.76343e-11
-8.76141e-11 -2.76343e-11 82.4418

73.3557 -5.3069 -2.37778e-11
-5.3069 81.4194 -4.85298e-11
-2.37778e-11 -4.85298e-11 77.9018

71.2945 5.67524 -2.06062e-11
5.67524 78.9178 -1.07862e-11
-2.06062e-11 -1.07862e-11 77.3579

81.7348 -0.0752982 -9.00198e-12
-0.0752982 75.3916 -3.58156e-11
-9.00198e-12 -3.58156e-11 79.5474

79.7048 1.20462 -3.49267e-11
1.20462 76.3209 -2.61844e-11
-3.49267e-11 -2.61844e-11 79.3827

71.3378 5.04686 3.00384e-11
5.04686 74.9354 -2.17587e-11
3.00384e-11 -2.17587e-11 73.9066

71.5285 -5.34845 7.71901e-13
-5.34845 71.7156 1.96443e-11
7.71901e-13 1.96443e-11 73.0728

81.3789 -2.20426 2.79197e-11
-2.20426 88.6048 6.54713e-12
2.79197e-11 6.54713e-12 83.5902

86.5039 2.14429 4.69889e-11
2.14429 83.646 3.90873e-11
4.69889e-11 3.90873e-11 83.7246

91.0956 -5.21926 -9.24549e-12
-5.21926 87.216 4.81366e-11
-9.24549e-12 4.81366e-11 85.0094

82.4784 -0.920425 -2.13733e-11
-0.920425 94.5753 6.2776e-11
-2.13733e-11 6.2776e-11 84.7375

84.5385 1.46691 2.82348e-11
1.46691 83.1338 -2.16419e-13
2.82348e-11 -2.16419e-13 83.1255

82.62 0.189079 -1.72462e-11
0.189079 88.8029 3.88999e-11
-1.72462e-11 3.88999e-11 84.7569

87.2845 -1.6066 -3.8415e-11
-1.6066 81.6805 -1.71069e-11
-3.8415e-11 -1.71069e-11 83.3814

87.7559 -0.594577 1.07923e-10
-0.594577 84.7227 8.26041e-11
1.07923e-10 8.26041e-11 84.9622

83.834 -2.90334 7.45202e-11
-2.90334 86.7766 -6.83588e-11
7.45202e-11 -6.83588e-11 84.1692

87.5623 6.99992 -5.89436e-11
6.99992 93.559 -1.55197e-10
-5.89436e-11 -1.55197e-10 86.3316

105.351 2.01187 -7.12575e-11
2.01187 103.895 2.36025e-10
-7.12575e-11 2.36025e-10 92.8382

107.851 -3.34266 -3.66e-10
-3.34266 81.7131 -3.32208e-10
-3.66e-10 -3.32208e-10 88.9487

85.6344 -3.77679 -9.1455e-12
-3.77679 85.2494 2.09905e-11
-9.1455e-12 2.09905e-11 83.8245

79.5735 -2.78035 6.49864e-11
-2.78035 84.2914 -1.8873e-11
6.49864e-11 -1.8873e-11 81.2488

88.1665 6.53319 1.04914e-11
6.53319 85.9269 4.35177e-11
1.04914e-11 4.35177e-11 84.5596

79.8398 3.66639 2.96492e-11
3.66639 82.008 -2.07938e-11
2.96492e-11 -2.07938e-11 81.035

90.0243 7.48192 2.29139e-12
7.48192 96.5327 6.04592e-11
2.29139e-12 6.04592e-11 87.9668

87.6012 -0.806364 2.12001e-12
-0.806364 85.8366 -1.83689e-10
2.12001e-12 -1.83689e-10 85.3585

79.3229 -2.47616 3.67815e-11
-2.47616 83.1532 -6.23906e-11
3.67815e-11 -6.23906e-11 81.3926

85.317 -1.48632 -2.08387e-11
-1.48632 85.1041 -6.3927e-11
-2.08387e-11 -6.3927e-11 83.9471

81.0482 6.12919 -5.68397e-12
6.12919 84.6115 1.57936e-11
-5.68397e-12 1.57936e-11 82.1437

82.9611 4.0648 5.81847e-11
4.0648 86.7638 -1.81035e-11
5.81847e-11 -1.81035e-11 83.8468

67.1646 1.43277 -1.52156e-11
1.43277 77.3478 -2.77329e-11
-1.52156e-11 -2.77329e-11 72.8486

77.9414 -0.551427 -9.82124e-12
-0.551427 80.8428 -1.94487e-11
-9.82124e-12 -1.94487e-11 78.5336

71.5193 1.37606 6.16477e-12
1.37606 60.2338 -8.47415e-12
6.16477e-12 -8.47415e-12 65.6703

68.4714 0.333798 -7.94476e-12
0.333798 58.0236 -1.86804e-11
-7.94476e-12 -1.86804e-11 61.8298

68.8801 1.62168 -2.48385e-11
1.62168 82.3789 -3.38948e-11
-2.48385e-11 -3.38948e-11 76.7518

79.4807 0.423628 3.85333e-12
0.423628 83.6526 5.48916e-12
3.85333e-12 5.48916e-12 82.4937

68.8675 -0.52954 2.19636e-11
-0.52954 58.2279 -3.15791e-11
2.19636e-11 -3.15791e-11 62.2847

79.2731 -0.317099 3.29766e-12
-0.317099 66.849 3.42755e-11
3.29766e-12 3.42755e-11 73.7318

47.012 -3.1805 1.54102e-11
-3.1805 54.0535 -9.63259e-12
1.54102e-11 -9.63259e-12 49.2115

51.3843 5.15258 6.35806e-12
5.15258 56.8816 2.44652e-11
6.35806e-12 2.44652e-11 51.7072

54.1083 4.87657 1.03946e-11
4.87657 48.8373 1.69508e-11
1.03946e-11 1.69508e-11 50.1345

80.7661 5.89228 -5.7813e-13
5.89228 84.3127 -1.52081e-11
-5.7813e-13 -1.52081e-11 81.9149

76.2976 -1.99878 2.59027e-11
-1.99878 82.2789 -1.38598e-11
2.59027e-11 -1.38598e-11 79.0184

68.7048 5.02253 -5.29843e-12
5.02253 71.3585 1.36765e-11
-5.29843e-12 1.36765e-11 68.6387

76.3072 4.43358 2.84057e-11
4.43358 82.2707 -1.02004e-11
2.84057e-11 -1.02004e-11 80.0045

68.1118 -1.59454 -1.95157e-13
-1.59454 82.3769 8.08879e-12
-1.95157e-13 8.08879e-12 76.4189

73.3999 -0.98883 -1.82846e-12
-0.98883 62.5939 3.77422e-11
-1.82846e-12 3.77422e-11 68.9158

55.9223 2.3512 3.66905e-11
2.3512 63.1816 -2.69682e-11
3.66905e-11 -2.69682e-11 56.5367

51.2341 -0.614956 1.14616e-11
-0.614956 60.7698 -2.04158e-11
1.14616e-11 -2.04158e-11 54.2067

60.8546 2.39617 4.04269e-12
2.39617 52.8373 -1.15948e-12
4.04269e-12 -1.15948e-12 54.6909

63.3975 -2.48417 4.71923e-11
-2.48417 55.0166 4.88498e-15
4.71923e-11 4.88498e-15 58.1275

59.7896 4.27749 -1.50249e-11
4.27749 66.5838 1.1567e-12
-1.50249e-11 1.1567e-12 62.5575

67.8084 -3.24687 -2.29609e-12
-3.24687 70.2439 -7.6458e-11
-2.29609e-12 -7.6458e-11 66.917

72.2538 -1.59985 -2.54915e-12
-1.59985 60.4097 -2.31079e-11
-2.54915e-12 -2.31079e-11 66.3865

47.9011 3.23778 -1.19413e-11
3.23778 51.613 3.54416e-11
-1.19413e-11 3.54416e-11 46.7237

77.629 0.340911 4.92357e-11
0.340911 64.8655 -1.32811e-11
4.92357e-11 -1.32811e-11 72.0313

49.6017 3.4976 -3.19835e-11
3.4976 46.1695 2.38816e-11
-3.19835e-11 2.38816e-11 45.7052

76.9694 0.385243 -1.75204e-11
0.385243 84.6869 -2.04127e-11
-1.75204e-11 -2.04127e-11 79.7716

83.9328 2.03178 1.77162e-11
2.03178 85.8201 -5.19681e-12
1.77162e-11 -5.19681e-12 84.1782

87.2536 -5.21675 6.34237e-11
-5.21675 87.7959 -1.92628e-11
6.34237e-11 -1.92628e-11 85.3236

89.4137 2.26971 -2.08921e-11
2.26971 85.7884 1.38645e-11
-2.08921e-11 1.38645e-11 85.3624

59.841 -0.742615 -2.2539e-11
-0.742615 51.6564 5.39043e-12
-2.2539e-11 5.39043e-12 53.2153

66.2981 6.11254 -4.23817e-12
6.11254 69.7073 1.05938e-11
-4.23817e-12 1.05938e-11 67.3984

80.6814 0.911973 -2.41888e-12
0.911973 79.4989 -2.88865e-11
-2.41888e-12 -2.88865e-11 79.4516

78.839 -2.78314 -1.23738e-12
-2.78314 78.265 5.78038e-12
-1.23738e-12 5.78038e-12 79.1599

80.4804 -0.363017 -1.90163e-11
-0.363017 65.8786 -3.77418e-11
-1.90163e-11 -3.77418e-11 73.9034

58.9025 5.05517 2.51169e-12
5.05517 63.9838 5.78308e-12
2.51169e-12 5.78308e-12 61.4931

65.1917 -4.60797 2.42703e-11
-4.60797 68.81 -2.27209e-11
2.42703e-11 -2.27209e-11 65.6526

64.1698 -3.25254 4.14116e-11
-3.25254 58.7645 -2.50403e-11
4.14116e-11 -2.50403e-11 60.0016

78.4775 -0.771431 -7.80035e-12
-0.771431 64.037 2.54197e-11
-7.80035e-12 2.54197e-11 72.1978

62.2013 5.96168 -4.12166e-11
5.96168 68.2356 -1.44511e-11
-4.12166e-11 -1.44511e-11 63.1768

58.291 -4.11286 -3.61167e-11
-4.11286 63.5747 2.38823e-11
-3.61167e-11 2.38823e-11 60.8641

63.2226 5.51341 6.16163e-12
5.51341 69.0477 -2.12112e-12
6.16163e-12 -2.12112e-12 64.0879

58.5286 -3.30467 -7.03437e-12
-3.30467 66.6252 2.00312e-11
-7.03437e-12 2.00312e-11 62.0093

78.3858 -2.73041 -1.29052e-11
-2.73041 80.681 2.36877e-11
-1.29052e-11 2.36877e-11 79.4827

65.2844 3.84288 -1.13627e-11
3.84288 74.9088 -3.27411e-11
-1.13627e-11 -3.27411e-11 71.9033

58.5925 -4.795 -1.04016e-10
-4.795 56.6369 -3.62116e-11
-1.04016e-10 -3.62116e-11 56.3567

37.0311 -4.24365 -4.0455e-11
-4.24365 36.4234 -6.24224e-11
-4.0455e-11 -6.24224e-11 36.6804

35.039 -4.56046 -3.08783e-12
-4.56046 37.3269 5.89561e-11
-3.08783e-12 5.89561e-11 36.3875

74.428 7.14392 -3.57198e-11
7.14392 82.0084 6.73424e-12
-3.57198e-11 6.73424e-12 78.6459

67.3424 -4.65775 -2.63761e-11
-4.65775 78.443 -6.93419e-12
-2.63761e-11 -6.93419e-12 75.4775

35.3047 -0.916837 -4.23639e-12
-0.916837 35.3488 -2.38876e-11
-4.23639e-12 -2.38876e-11 37.0869

36.1032 -0.983495 -4.23261e-12
-0.983495 36.8124 -4.95138e-11
-4.23261e-12 -4.95138e-11 37.6502

83.4937 4.08882 4.89145e-11
4.08882 79.1535 3.12045e-11
4.89145e-11 3.12045e-11 80.5497

89.1483 -3.11596 3.34945e-11
-3.11596 83.0237 9.64021e-12
3.34945e-11 9.64021e-12 86.0727

74.3411 -0.141189 -5.56629e-11
-0.141189 63.9763 1.69418e-11
-5.56629e-11 1.69418e-11 71.3451

82.7666 5.74502 3.42805e-11
5.74502 78.5549 3.27424e-11
3.42805e-11 3.27424e-11 80.2945

87.8549 -4.14878 6.58532e-11
-4.14878 79.4937 3.04328e-11
6.58532e-11 3.04328e-11 84.5813

61.0708 4.05823 -1.92683e-12
4.05823 69.661 -3.12018e-11
-1.92683e-12 -3.12018e-11 66.1739

69.4958 -3.20013 8.66855e-12
-3.20013 74.4003 -2.98499e-11
8.66855e-12 -2.98499e-11 71.3524

87.8793 2.00428 2.59965e-11
2.00428 81.8282 -3.30323e-11
2.59965e-11 -3.30323e-11 83.5254

85.0428 -2.63581 -3.60119e-13
-2.63581 83.2573 2.21195e-11
-3.60119e-13 2.21195e-11 83.2422

76.1591 6.19768 -1.77176e-11
6.19768 71.9749 -9.19761e-12
-1.77176e-11 -9.19761e-12 74.9769

81.8216 -4.90127 -3.87007e-11
-4.90127 75.2865 -4.48715e-11
-3.87007e-11 -4.48715e-11 79.4262

52.905 -3.31379 -3.12147e-11
-3.31379 47.5901 1.57965e-11
-3.12147e-11 1.57965e-11 48.5901

81.7049 -0.169206 2.23315e-11
-0.169206 92.3555 3.00382e-11
2.23315e-11 3.00382e-11 84.0985

88.6789 1.24511 -2.79179e-11
1.24511 92.1405 3.49435e-11
-2.79179e-11 3.49435e-11 90.1915

42.2246 -0.584367 2.02289e-11
-0.584367 48.37 -1.73352e-11
2.02289e-11 -1.73352e-11 43.8501

48.0979 -0.725939 7.99494e-12
-0.725939 42.8258 -5.38325e-12
7.99494e-12 -5.38325e-12 43.7791

63.1651 3.44227 -8.27977e-12
3.44227 74.026 -1.50219e-11
-8.27977e-12 -1.50219e-11 70.2575

73.4602 -2.00799 2.75348e-11
-2.00799 78.8784 7.50984e-12
2.75348e-11 7.50984e-12 76.3296

102.033 -1.18928 -6.04375e-11
-1.18928 106.101 2.46362e-11
-6.04375e-11 2.46362e-11 92.4152

102.667 -3.79154 -2.11751e-11
-3.79154 91.2183 -1.96927e-11
-2.11751e-11 -1.96927e-11 93.8428

74.2008 5.50605 2.06056e-11
5.50605 66.3272 -3.8889e-11
2.06056e-11 -3.8889e-11 71.4085

77.5391 -3.63129 1.11707e-11
-3.63129 68.3813 1.55991e-11
1.11707e-11 1.55991e-11 74.2011

59.1465 0.0929298 -1.13674e-11
0.0929298 50.2376 -9.59714e-13
-1.13674e-11 -9.59714e-13 52.4863

69.634 0.178797 2.44652e-11
0.178797 60.1321 7.71109e-12
2.44652e-11 7.71109e-12 64.4447

63.9374 2.67757 -3.01454e-11
2.67757 55.0173 -7.32124e-12
-3.01454e-11 -7.32124e-12 57.5938

79.0396 0.981471 -2.55107e-12
0.981471 72.4915 -1.271e-11
-2.55107e-12 -1.271e-11 76.8332

80.6956 -1.94704 -5.52328e-11
-1.94704 92.2534 -1.50211e-11
-5.52328e-11 -1.50211e-11 85.2758

86.4922 0.999779 -4.19388e-11
0.999779 87.3387 5.50684e-11
-4.19388e-11 5.50684e-11 85.4643

56.712 4.64607 1.56997e-11
4.64607 58.558 2.67852e-11
1.56997e-11 2.67852e-11 54.4551

64.7076 -4.03047 2.74485e-11
-4.03047 62.513 -1.27094e-11
2.74485e-11 -1.27094e-11 64.076

72.0919 4.41775 4.00657e-11
4.41775 63.8445 -2.68907e-12
4.00657e-11 -2.68907e-12 68.3547

87.8531 1.89494 -3.81232e-11
1.89494 91.5121 1.22254e-11
-3.81232e-11 1.22254e-11 89.5953

86.0791 2.8014 5.39073e-11
2.8014 95.1612 5.39565e-12
5.39073e-11 5.39565e-12 86.1111

78.0151 -2.3365 -2.27477e-11
-2.3365 73.8179 -1.92061e-12
-2.27477e-11 -1.92061e-12 77.3068

75.2232 3.6274 3.09044e-11
3.6274 79.7473 -2.48381e-11
3.09044e-11 -2.48381e-11 76.5018

66.5633 -0.659415 1.92518e-11
-0.659415 77.6574 2.31178e-12
1.92518e-11 2.31178e-12 72.6624

76.678 2.73697 1.46353e-11
2.73697 64.4656 2.69654e-11
1.46353e-11 2.69654e-11 73.2393

78.1287 -0.550348 1.34834e-11
-0.550348 64.7788 -1.6362e-11
1.34834e-11 -1.6362e-11 74.4451

59.2054 -3.60627 9.35356e-12
-3.60627 56.8899 -5.87486e-11
9.35356e-12 -5.87486e-11 55.1675

80.1189 4.93854 -8.33496e-12
4.93854 70.1964 5.01044e-12
-8.33496e-12 5.01044e-12 76.6108

82.6451 -3.11854 1.96406e-11
-3.11854 70.2546 3.87167e-11
1.96406e-11 3.87167e-11 78.9209

74.1164 -2.41201 -1.74053e-12
-2.41201 66.1158 4.10143e-11
-1.74053e-12 4.10143e-11 70.4541

77.0135 3.58686 -1.0013e-11
3.58686 68.004 -1.69444e-11
-1.0013e-11 -1.69444e-11 73.9784

78.6519 -1.82815 2.58022e-11
-1.82815 69.228 2.77349e-11
2.58022e-11 2.77349e-11 76.0839

72.6481 -1.53561 -6.31539e-12
-1.53561 64.1996 3.15864e-11
-6.31539e-12 3.15864e-11 68.3764

68.8054 6.45715 -3.87801e-13
6.45715 71.9535 1.61806e-11
-3.87801e-13 1.61806e-11 72.8387

82.6274 -5.53935 3.29282e-11
-5.53935 79.9286 -2.79186e-11
3.29282e-11 -2.79186e-11 81.4817

64.3769 4.35351 -3.36048e-11
4.35351 62.8305 1.71358e-11
-3.36048e-11 1.71358e-11 61.0423

80.9147 -4.05084 -2.4261e-11
-4.05084 83.9234 -3.84433e-13
-2.4261e-11 -3.84433e-13 83.2815

66.6828 4.50077 2.50256e-12
4.50077 72.9286 -7.70347e-13
2.50256e-12 -7.70347e-13 73.1532

64.5739 3.97431 -9.0532e-12
3.97431 55.8427 -2.73478e-11
-9.0532e-12 -2.73478e-11 59.5473

71.2555 -3.55248 -2.07513e-11
-3.55248 67.7017 -5.19994e-11
-2.07513e-11 -5.19994e-11 71.0187

72.5632 1.49036 6.06626e-12
1.49036 65.0758 1.05924e-11
6.06626e-12 1.05924e-11 67.7772

59.7847 5.66764 -3.15824e-11
5.66764 60.7636 -3.27893e-12
-3.15824e-11 -3.27893e-12 58.6423

66.3691 4.57637 -1.48295e-11
4.57637 63.8253 2.69614e-12
-1.48295e-11 2.69614e-12 64.6289

69.8641 1.82235 1.84839e-11
1.82235 77.0284 -4.91025e-11
1.84839e-11 -4.91025e-11 73.7411

61.6482 0.510956 3.04258e-11
0.510956 75.7315 -2.85007e-11
3.04258e-11 -2.85007e-11 69.8639

57.226 -3.48318 2.20613e-11
-3.48318 50.1496 4.62134e-12
2.20613e-11 4.62134e-12 52.0067

67.1476 -6.32388 -2.41044e-12
-6.32388 72.2815 2.8117e-11
-2.41044e-12 2.8117e-11 72.7885

70.395 6.93739 1.53109e-11
6.93739 77.0044 1.8106e-11
1.53109e-11 1.8106e-11 74.0088

63.5979 -5.12233 1.09686e-11
-5.12233 64.0896 2.63854e-11
1.09686e-11 2.63854e-11 61.3841

58.0311 6.16989 2.12445e-12
6.16989 61.1568 2.50429e-11
2.12445e-12 2.50429e-11 58.2055

70.9846 -2.87041 -4.04978e-11
-2.87041 64.653 -9.69225e-13
-4.04978e-11 -9.69225e-13 67.8317

80.058 -0.738806 9.38879e-12
-0.738806 68.4573 2.88853e-11
9.38879e-12 2.88853e-11 76.0391

81.4685 0.214187 1.91662e-13
0.214187 68.0114 9.4363e-12
1.91662e-13 9.4363e-12 76.0433

65.16 -4.80634 1.35758e-11
-4.80634 66.005 -3.65959e-12
1.35758e-11 -3.65959e-12 65.5408

51.327 0.985095 -3.31268e-11
0.985095 61.0709 -4.27683e-11
-3.31268e-11 -4.27683e-11 54.0404

47.119 0.844943 -5.2779e-11
0.844943 58.7068 2.3069e-12
-5.2779e-11 2.3069e-12 51.7306

58.6871 0.894958 1.29088e-11
0.894958 48.6137 2.65774e-11
1.29088e-11 2.65774e-11 52.3199

55.8057 5.10643 -2.31262e-11
5.10643 54.615 5.39006e-12
-2.31262e-11 5.39006e-12 52.9991

63.9768 -5.01236 -5.78086e-12
-5.01236 59.0776 -1.73846e-12
-5.78086e-12 -1.73846e-12 60.2217

87.6221 5.71855 -5.42978e-11
5.71855 94.717 2.3e-11
-5.42978e-11 2.3e-11 90.7501

100.73 -1.50261 -8.27876e-11
-1.50261 101.039 4.77467e-11
-8.27876e-11 4.77467e-11 90.8363

66.6211 -1.70151 3.12075e-11
-1.70151 56.7909 1.79171e-11
3.12075e-11 1.79171e-11 60.9157

63.6153 4.51227 -2.23421e-11
4.51227 70.3503 -2.50403e-11
-2.23421e-11 -2.50403e-11 68.8772

75.4837 -5.09807 -3.10065e-11
-5.09807 77.2329 -6.54854e-12
-3.10065e-11 -6.54854e-12 75.9752

74.5434 2.33655 -9.62956e-12
2.33655 63.6716 6.93379e-12
-9.62956e-12 6.93379e-12 70.884

59.667 4.76579 2.30128e-11
4.76579 67.5511 -2.44592e-11
2.30128e-11 -2.44592e-11 61.5801

54.0487 -2.12013 -3.34917e-15
-2.12013 64.5779 3.58294e-11
-3.34917e-15 3.58294e-11 58.9112

66.8803 4.79524 8.32667e-16
4.79524 78.5342 1.27118e-11
8.32667e-16 1.27118e-11 75.5848

84.0291 -1.97484 -2.23387e-11
-1.97484 86.8756 1.59795e-11
-2.23387e-11 1.59795e-11 86.2763

67.7811 4.85327 -3.66292e-12
4.85327 71.6409 2.3114e-11
-3.66292e-12 2.3114e-11 73.3086

83.3085 -4.91441 -1.77102e-11
-4.91441 83.8805 -1.63662e-11
-1.77102e-11 -1.63662e-11 84.3029

78.0846 0.393671 1.50239e-11
0.393671 59.6959 -9.62805e-12
1.50239e-11 -9.62805e-12 74.1075

60.1038 6.18953 -1.00179e-11
6.18953 56.6929 -1.27104e-11
-1.00179e-11 -1.27104e-11 57.5644

71.4295 7.40707 6.73646e-13
7.40707 80.1815 -8.66511e-12
6.73646e-13 -8.66511e-12 75.7041

66.4818 -5.49112 -3.02717e-12
-5.49112 71.3882 -5.77766e-11
-3.02717e-12 -5.77766e-11 73.2158

61.1446 5.24232 9.43512e-12
5.24232 60.4652 -2.34994e-11
9.43512e-12 -2.34994e-11 59.9519

52.7238 -3.1856 1.45457e-11
-3.1856 55.73 -1.75325e-11
1.45457e-11 -1.75325e-11 52.0037

65.3377 -4.78025 -9.82488e-12
-4.78025 68.606 9.63081e-12
-9.82488e-12 9.63081e-12 68.5606

58.3658 -1.01752 -1.90618e-11
-1.01752 64.2949 -4.95035e-11
-1.90618e-11 -4.95035e-11 58.2504

52.5903 2.71255 2.2916e-11
2.71255 61.7479 4.97001e-11
2.2916e-11 4.97001e-11 55.4042

61.828 -1.04422 1.25226e-11
-1.04422 54.7508 -2.69784e-12
1.25226e-11 -2.69784e-12 56.192

65.5055 -4.49392 -1.83058e-11
-4.49392 64.3904 1.54003e-11
-1.83058e-11 1.54003e-11 63.0465

59.7391 0.740077 5.77858e-12
0.740077 71.1135 -5.77375e-12
5.77858e-12 -5.77375e-12 65.0169

68.1456 1.03443 1.67534e-11
1.03443 73.7927 2.56191e-11
1.67534e-11 2.56191e-11 68.8151

54.5017 -4.25638 5.58641e-11
-4.25638 55.752 -2.63782e-11
5.58641e-11 -2.63782e-11 52.6256

50.511 5.29257 1.86841e-11
5.29257 54.0766 -6.54217e-12
1.86841e-11 -6.54217e-12 50.7101

76.1953 1.01886 1.46357e-11
1.01886 65.3487 8.47481e-12
1.46357e-11 8.47481e-12 74.5474

76.563 0.00964593 1.23274e-11
0.00964593 64.9426 -1.03953e-11
1.23274e-11 -1.03953e-11 75.1616

66.9731 5.39919 1.90736e-13
5.39919 69.6945 -3.27375e-11
1.90736e-13 -3.27375e-11 70.021

77.0603 -4.4812 9.62119e-13
-4.4812 78.2379 -6.5441e-12
9.62119e-13 -6.5441e-12 77.2639

73.7709 7.31669 2.18544e-11
7.31669 82.0107 2.33057e-11
2.18544e-11 2.33057e-11 78.2422

65.6728 -4.15695 2.60288e-12
-4.15695 77.8036 -1.30964e-11
2.60288e-12 -1.30964e-11 75.1495

70.1497 4.82186 -2.26773e-11
4.82186 72.0088 2.42641e-11
-2.26773e-11 2.42641e-11 71.6508

52.6607 3.01227 -2.05171e-11
3.01227 47.3152 -1.04056e-11
-2.05171e-11 -1.04056e-11 47.7655

61.3373 -2.73931 -1.21275e-11
-2.73931 68.1035 -5.25831e-11
-1.21275e-11 -5.25831e-11 62.8933

54.6358 3.69522 1.2137e-11
3.69522 64.8586 1.6181e-11
1.2137e-11 1.6181e-11 59.3518

80.9182 4.41099 -4.62326e-12
4.41099 73.5791 1.26187e-11
-4.62326e-12 1.26187e-11 77.6348

84.9064 -2.53448 5.58427e-11
-2.53448 76.4691 1.11717e-11
5.58427e-11 1.11717e-11 81.6371

72.7776 -4.19545 -2.88757e-11
-4.19545 68.6764 -3.77463e-11
-2.88757e-11 -3.77463e-11 69.9956

74.9199 5.21099 1.27079e-11
5.21099 68.8246 7.70291e-12
1.27079e-11 7.70291e-12 72.2878

78.7886 -3.64087 7.72138e-12
-3.64087 72.9166 -7.16266e-11
7.72138e-12 -7.16266e-11 76.0834

35.5427 -1.38581 -4.60464e-11
-1.38581 29.1463 -5.24036e-11
-4.60464e-11 -5.24036e-11 36.287

28.5958 -1.71977 -1.9649e-11
-1.71977 34.5081 2.38861e-11
-1.9649e-11 2.38861e-11 35.8741

91.5116 5.87294 -5.23786e-11
5.87294 86.1386 -1.15785e-12
-5.23786e-11 -1.15785e-12 85.269

94.5251 -4.13026 2.23362e-11
-4.13026 83.4674 4.69827e-11
2.23362e-11 4.69827e-11 88.5663

68.6758 5.72752 8.66988e-12
5.72752 64.6682 2.15732e-11
8.66988e-12 2.15732e-11 66.5448

52.7384 2.72618 -5.58057e-12
2.72618 46.1927 -5.97158e-12
-5.58057e-12 -5.97158e-12 47.4132

69.4431 5.10991 -5.77889e-12
5.10991 77.3404 1.67542e-11
-5.77889e-12 1.67542e-11 73.2831

62.5338 -1.97767 -2.54169e-11
-1.97767 75.6259 -2.96622e-11
-2.54169e-11 -2.96622e-11 70.4491

56.8911 -4.86332 -2.31197e-11
-4.86332 59.1591 2.73526e-11
-2.31197e-11 2.73526e-11 56.9193

76.8577 3.14669 4.73723e-11
3.14669 81.4489 1.52177e-11
4.73723e-11 1.52177e-11 79.1056

84.8489 -1.77913 -1.15756e-12
-1.77913 87.0935 2.36841e-11
-1.15756e-12 2.36841e-11 86.4108

62.3999 3.83056 -3.66983e-11
3.83056 55.7639 2.4266e-11
-3.66983e-11 2.4266e-11 57.152

68.9279 2.06763 6.9346e-12
2.06763 59.2498 -3.0427e-11
6.9346e-12 -3.0427e-11 63.9216

63.8296 7.16003 -3.87986e-13
7.16003 72.8743 -1.92057e-12
-3.87986e-13 -1.92057e-12 72.7137

85.372 -3.67624 -4.23498e-12
-3.67624 85.1552 3.65582e-12
-4.23498e-12 3.65582e-12 85.5622

64.9419 5.9231 1.93548e-11
5.9231 73.3015 2.5425e-11
1.93548e-11 2.5425e-11 68.315

59.9101 -3.17287 -1.03033e-11
-3.17287 69.7559 2.42676e-11
-1.03033e-11 2.42676e-11 65.9667

69.8406 6.46881 -3.27437e-11
6.46881 66.8759 1.88707e-11
-3.27437e-11 1.88707e-11 69.3603

76.0827 -5.50744 -9.2341e-12
-5.50744 71.3152 -6.02779e-11
-9.2341e-12 -6.02779e-11 73.8196

57.651 1.83499 3.33182e-11
1.83499 69.4485 5.0111e-12
3.33182e-11 5.0111e-12 63.3739

65.1563 -0.136606 -5.74836e-13
-0.136606 72.0652 3.85603e-12
-5.74836e-13 3.85603e-12 67.1984

40.3656 -2.09776 -1.1366e-11
-2.09776 43.7675 -5.16313e-11
-1.1366e-11 -5.16313e-11 40.6174

43.21 -2.03553 2.23467e-11
-2.03553 40.9407 -3.08346e-12
2.23467e-11 -3.08346e-12 40.593

71.7352 3.35905 4.78647e-11
3.35905 61.8825 -6.15439e-12
4.78647e-11 -6.15439e-12 67.7949

103.564 1.02223 -7.6248e-11
1.02223 95.7107 1.46701e-10
-7.6248e-11 1.46701e-10 90.5065

102.204 -3.6646 2.46348e-11
-3.6646 88.9371 5.71792e-11
2.46348e-11 5.71792e-11 92.73

80.7555 -4.85863 -5.99099e-12
-4.85863 86.0369 2.07993e-11
-5.99099e-12 2.07993e-11 82.6714

81.1219 1.52311 -8.30373e-12
1.52311 83.4582 3.60109e-11
-8.30373e-12 3.60109e-11 82.1641

76.1284 -0.287235 4.98852e-11
-0.287235 63.0763 -1.15487e-11
4.98852e-11 -1.15487e-11 69.2988

70.5679 7.96091 -1.41529e-11
7.96091 79.61 3.65759e-12
-1.41529e-11 3.65759e-12 75.3463

62.3167 -7.47377 4.81689e-13
-7.47377 72.5208 3.46634e-12
4.81689e-13 3.46634e-12 72.3904

43.0566 3.97811 3.27559e-11
3.97811 44.7275 -2.65851e-11
3.27559e-11 -2.65851e-11 42.7953

45.8815 4.17819 3.35165e-11
4.17819 45.2933 -2.51302e-11
3.35165e-11 -2.51302e-11 43.7047

46.0524 -1.52566 -1.92616e-11
-1.52566 52.374 5.19895e-12
-1.92616e-11 5.19895e-12 47.2531

44.8385 3.15509 5.33622e-11
3.15509 50.9925 7.32362e-12
5.33622e-11 7.32362e-12 46.2758

51.5858 -0.762508 -1.34411e-12
-0.762508 44.9102 -1.32938e-11
-1.34411e-12 -1.32938e-11 46.5929

41.8411 1.85963 -3.94897e-11
1.85963 49.321 4.35333e-11
-3.94897e-11 4.35333e-11 44.0058

47.5459 2.17957 3.46582e-12
2.17957 41.0678 -8.09076e-12
3.46582e-12 -8.09076e-12 43.3258

80.0821 0.556603 -2.69207e-12
0.556603 88.3717 -4.92948e-11
-2.69207e-12 -4.92948e-11 82.4492

83.537 4.18798 -1.157e-12
4.18798 88.0794 -1.58871e-11
-1.157e-12 -1.58871e-11 85.1077

78.0033 0.675012 -5.1037e-12
0.675012 71.1467 4.25571e-11
-5.1037e-12 4.25571e-11 73.8529

80.1063 -0.12824 -4.52464e-12
-0.12824 64.7137 6.54575e-12
-4.52464e-12 6.54575e-12 73.5595

55.8351 -2.53417 4.50669e-11
-2.53417 61.3436 4.81595e-11
4.50669e-11 4.81595e-11 56.4519

51.4623 3.80515 2.69185e-12
3.80515 58.1428 1.23327e-11
2.69185e-12 1.23327e-11 53.7416

76.044 -0.189615 4.95483e-11
-0.189615 62.7014 1.65705e-11
4.95483e-11 1.65705e-11 69.4066

86.9274 3.24566 -3.27309e-11
3.24566 81.6735 6.70041e-11
-3.27309e-11 6.70041e-11 82.6423

90.3381 -2.31055 1.92645e-11
-2.31055 81.747 1.73452e-11
1.92645e-11 1.73452e-11 86.3079

73.5957 3.14621 4.25613e-11
3.14621 74.5013 -7.70421e-13
4.25613e-11 -7.70421e-13 73.3975

65.5992 -5.21112 1.11714e-11
-5.21112 69.9649 -3.87542e-13
1.11714e-11 -3.87542e-13 69.8543

68.4233 6.69273 2.02187e-11
6.69273 76.1222 1.52201e-11
2.02187e-11 1.52201e-11 71.4886

76.376 0.666971 -6.35321e-12
0.666971 65.2176 7.69681e-13
-6.35321e-12 7.69681e-13 71.3691

55.599 4.78659 1.45444e-11
4.78659 54.2483 1.27188e-11
1.45444e-11 1.27188e-11 52.4384

62.9068 -3.96648 7.51229e-12
-3.96648 71.1594 3.08094e-12
7.51229e-12 3.08094e-12 69.0425

68.4776 7.15338 1.04953e-11
7.15338 75.4331 1.63728e-11
1.04953e-11 1.63728e-11 71.287

34.6113 8.36049 8.86524e-12
8.36049 35.238 4.73979e-11
8.86524e-12 4.73979e-11 35.0348

56.7866 -0.500687 -2.28175e-11
-0.500687 69.2367 4.62549e-12
-2.28175e-11 4.62549e-12 62.9579

62.7798 2.72617 -9.24547e-12
2.72617 71.1416 2.17636e-11
-9.24547e-12 2.17636e-11 65.7261

79.3032 -0.658503 -2.36775e-11
-0.658503 91.705 -2.65776e-11
-2.36775e-11 -2.65776e-11 83.1649

85.3894 3.31065 2.54135e-11
3.31065 88.1133 3.76462e-11
2.54135e-11 3.76462e-11 86.7797

80.4525 2.7046 1.34827e-11
2.7046 65.0819 1.54071e-11
1.34827e-11 1.54071e-11 76.3774

82.0063 -1.84288 3.85284e-13
-1.84288 63.5356 -2.88813e-12
3.85284e-13 -2.88813e-12 77.6349

74.8242 3.62624 -8.6995e-11
3.62624 75.7303 -2.83151e-11
-8.6995e-11 -2.83151e-11 76.0416

74.0853 -5.45956 -3.76435e-11
-5.45956 75.1874 -4.31353e-11
-3.76435e-11 -4.31353e-11 76.2205

80.4065 3.0685 -3.25029e-12
3.0685 84.9546 2.73453e-11
-3.25029e-12 2.73453e-11 81.873

80.1963 -4.28931 1.63642e-11
-4.28931 81.8839 -2.88468e-12
1.63642e-11 -2.88468e-12 81.3652

96.2374 5.62806 1.53929e-12
5.62806 93.1722 6.70065e-11
1.53929e-12 6.70065e-11 88.2307

99.2625 -3.97653 -9.66703e-11
-3.97653 88.1465 5.58256e-11
-9.66703e-11 5.58256e-11 91.8829

70.6453 7.8891 3.15816e-11
7.8891 74.1852 1.34954e-11
3.15816e-11 1.34954e-11 75.6772

90.0733 -4.23464 -2.02156e-11
-4.23464 85.3106 -6.93305e-12
-2.02156e-11 -6.93305e-12 87.8603

67.9465 5.84535 3.62121e-11
5.84535 61.9623 1.34896e-11
3.62121e-11 1.34896e-11 65.2463

68.2638 5.05045 -1.18435e-11
5.05045 74.5587 1.94489e-11
-1.18435e-11 1.94489e-11 69.8555

61.0667 -2.0182 -1.53405e-12
-2.0182 71.6497 -1.27107e-11
-1.53405e-12 -1.27107e-11 66.835

69.8736 -5.91889 -5.37585e-12
-5.91889 66.9346 -4.42914e-11
-5.37585e-12 -4.42914e-11 67.5743

54.5841 -3.19172 -1.53951e-12
-3.19172 53.3071 -5.66323e-11
-1.53951e-12 -5.66323e-11 51.4926

71.5935 -4.2541 -1.40673e-11
-4.2541 64.3729 3.13904e-11
-1.40673e-11 3.13904e-11 67.6924

64.1206 6.43921 5.66214e-11
6.43921 63.0499 2.35139e-11
5.66214e-11 2.35139e-11 63.8171

68.1262 -8.62924 1.94056e-11
-8.62924 74.5578 -4.81502e-11
1.94056e-11 -4.81502e-11 75.4851

72.8442 6.87561 -1.96422e-11
6.87561 80.3139 -2.07994e-11
-1.96422e-11 -2.07994e-11 77.2631

77.45 -1.52179 -9.87373e-12
-1.52179 70.6926 -3.11959e-11
-9.87373e-12 -3.11959e-11 74.2849

100.468 -2.54232 6.60405e-11
-2.54232 99.2359 1.19518e-11
6.60405e-11 1.19518e-11 90.3411

90.1956 2.19251 3.61949e-11
2.19251 93.9744 3.35982e-11
3.61949e-11 3.35982e-11 90.3351

71.8896 2.64068 3.25441e-11
2.64068 68.3136 -9.62475e-12
3.25441e-11 -9.62475e-12 70.806

83.7692 -1.04919 3.1776e-11
-1.04919 75.2879 -1.82923e-11
3.1776e-11 -1.82923e-11 79.3917

44.4629 -2.97744 2.30149e-12
-2.97744 46.3321 7.78306e-11
2.30149e-12 7.78306e-11 43.2244

46.4546 -2.8233 -5.50912e-11
-2.8233 42.9527 -7.70413e-12
-5.50912e-11 -7.70413e-12 42.9561

82.2736 0.867197 -1.54253e-12
0.867197 70.8155 5.39006e-12
-1.54253e-12 5.39006e-12 78.2322

83.7058 0.220648 2.50341e-11
0.220648 70.2331 2.8891e-11
2.50341e-11 2.8891e-11 80.1497

82.3959 0.0833392 8.30491e-12
0.0833392 76.8157 8.85899e-12
8.30491e-12 8.85899e-12 79.5745

71.9925 -2.34232 4.55384e-11
-2.34232 75.5379 2.25332e-11
4.55384e-11 2.25332e-11 72.2758

61.9984 3.04797 1.21093e-11
3.04797 71.4324 3.2363e-11
1.21093e-11 3.2363e-11 67.0526

65.6127 4.69544 -8.47041e-12
4.69544 59.1527 -1.84917e-11
-8.47041e-12 -1.84917e-11 61.2981

76.6486 5.36162 -2.3878e-11
5.36162 72.7956 1.96381e-11
-2.3878e-11 1.96381e-11 75.3977

83.0555 -4.197 -4.85325e-11
-4.197 78.9601 1.44419e-11
-4.85325e-11 1.44419e-11 81.1189

89.0221 0.698623 -1.16462e-11
0.698623 86.213 -8.35591e-13
-1.16462e-11 -8.35591e-13 86.0207

89.9442 -5.93629 3.50823e-11
-5.93629 97.9476 1.42314e-10
3.50823e-11 1.42314e-10 88.5077

71.7233 2.3571 2.33031e-11
2.3571 66.8143 2.09895e-11
2.33031e-11 2.09895e-11 67.8723

81.5667 3.77931 2.51162e-12
3.77931 75.3327 5.31519e-11
2.51162e-12 5.31519e-11 78.4248

84.3261 -2.81671 1.02159e-11
-2.81671 76.1159 -3.73537e-11
1.02159e-11 -3.73537e-11 81.4151

66.6619 -2.28942 -5.68124e-12
-2.28942 75.6756 -7.69984e-12
-5.68124e-12 -7.69984e-12 72.8006

73.4673 6.48301 -3.17758e-11
6.48301 79.416 -2.13807e-11
-3.17758e-11 -2.13807e-11 75.7391

71.8236 8.25382 4.42894e-11
8.25382 80.0103 -3.07421e-12
4.42894e-11 -3.07421e-12 75.7581

65.6154 -4.96012 -3.36843e-12
-4.96012 72.1445 -6.16203e-12
-3.36843e-12 -6.16203e-12 72.7533

37.8646 9.54458 5.97239e-11
9.54458 38.1276 -3.06227e-11
5.97239e-11 -3.06227e-11 36.995

75.3861 5.11428 -3.14831e-11
5.11428 82.9884 3.65587e-12
-3.14831e-11 3.65587e-12 79.1044

72.0287 -5.83277 4.45293e-11
-5.83277 79.3646 -2.08031e-11
4.45293e-11 -2.08031e-11 77.9697

63.5472 -4.52433 6.54254e-12
-4.52433 73.2959 5.7773e-12
6.54254e-12 5.7773e-12 71.3737

69.4862 7.08789 -1.96436e-11
7.08789 78.1205 -4.35256e-11
-1.96436e-11 -4.35256e-11 73.8896

68.5439 -3.14118 3.71725e-11
-3.14118 61.9412 -1.82893e-11
3.71725e-11 -1.82893e-11 63.6459

72.4654 -3.80348 -3.58125e-11
-3.80348 71.6992 -3.12018e-11
-3.58125e-11 -3.12018e-11 72.967

74.8555 4.16273 -4.90549e-11
4.16273 78.8948 2.96545e-11
-4.90549e-11 2.96545e-11 77.1398

73.9457 -5.66792 -9.63052e-12
-5.66792 74.8005 2.00258e-11
-9.63052e-12 2.00258e-11 76.4312

75.8507 -1.48666 1.61239e-11
-1.48666 65.1411 2.5036e-11
1.61239e-11 2.5036e-11 71.8233

84.9481 1.56231 -1.5173e-15
1.56231 80.7514 -1.50244e-11
-1.5173e-15 -1.50244e-11 81.7831

86.6371 -1.60006 1.42464e-11
-1.60006 78.1362 9.24542e-12
1.42464e-11 9.24542e-12 83.8664

86.8032 1.73989 1.6359e-11
1.73989 98.8185 6.81671e-11
1.6359e-11 6.81671e-11 87.2152

88.636 2.31043 1.02032e-11
2.31043 95.8873 -1.40563e-11
1.02032e-11 -1.40563e-11 90.1707

35.0389 1.80429 -2.83246e-11
1.80429 30.2954 -3.47159e-12
-2.83246e-11 -3.47159e-12 35.869

30.8301 1.79752 -7.06092e-11
1.79752 36.185 -1.92602e-12
-7.06092e-11 -1.92602e-12 36.1815

72.2311 5.20944 1.44444e-11
5.20944 72.3854 -4.38972e-11
1.44444e-11 -4.38972e-11 74.1123

82.4523 -5.34966 -6.7352e-12
-5.34966 81.1207 -1.82949e-11
-6.7352e-12 -1.82949e-11 81.9337

36.0912 3.55581 4.58516e-11
3.55581 35.6017 2.51636e-12
4.58516e-11 2.51636e-12 37.2609

35.3706 3.89041 -4.00808e-11
3.89041 35.5913 -4.27794e-11
-4.00808e-11 -4.27794e-11 37.1255

100.382 -1.39672 9.46891e-11
-1.39672 96.6898 9.87865e-11
9.46891e-11 9.87865e-11 93.8008

101.104 -0.899046 -3.35111e-11
-0.899046 103.049 -7.74095e-11
-3.35111e-11 -7.74095e-11 91.6197

69.0764 -5.1288 -1.44307e-12
-5.1288 69.9706 1.57896e-11
-1.44307e-12 1.57896e-11 71.3574

72.2726 6.60853 3.50554e-11
6.60853 70.8512 -5.38573e-12
3.50554e-11 -5.38573e-12 73.0546

81.2517 -5.55816 -4.71886e-11
-5.55816 76.833 8.24154e-11
-4.71886e-11 8.24154e-11 79.3744

65.0783 5.81729 5.0845e-11
5.81729 66.1932 1.73449e-11
5.0845e-11 1.73449e-11 65.537

71.9654 -4.61456 1.25222e-11
-4.61456 70.8869 -1.07819e-11
1.25222e-11 -1.07819e-11 70.1133

47.9566 -0.854081 -2.50222e-12
-0.854081 53.2426 9.63437e-12
-2.50222e-12 9.63437e-12 48.0899

43.9264 2.4002 -5.31685e-11
2.4002 51.0353 -7.31963e-12
-5.31685e-11 -7.31963e-12 46.1581

52.0729 -0.355162 8.67513e-12
-0.355162 45.9675 1.69561e-11
8.67513e-12 1.69561e-11 47.1113

66.0306 6.16761 -1.82913e-11
6.16761 68.1721 -7.08779e-11
-1.82913e-11 -7.08779e-11 68.3487

74.9937 -6.06851 2.34925e-11
-6.06851 73.9706 7.89798e-12
2.34925e-11 7.89798e-12 74.1315

39.9063 0.386182 -2.7932e-11
0.386182 47.4532 1.46385e-11
-2.7932e-11 1.46385e-11 42.6114

47.3536 -0.0418193 2.77505e-11
-0.0418193 41.0755 1.54184e-11
2.77505e-11 1.54184e-11 42.7227

76.8278 6.29056 -1.55892e-11
6.29056 74.2081 -7.70259e-11
-1.55892e-11 -7.70259e-11 76.8263

86.9467 -4.4844 -1.51916e-12
-4.4844 82.0317 -7.83717e-11
-1.51916e-12 -7.83717e-11 84.7174

77.3348 6.2188 3.86062e-13
6.2188 76.524 4.08272e-11
3.86062e-13 4.08272e-11 77.6572

85.9775 -5.45051 1.02058e-11
-5.45051 80.941 -3.33099e-11
1.02058e-11 -3.33099e-11 83.9855

33.53 3.64575 1.38796e-11
3.64575 33.6967 -2.69713e-11
1.38796e-11 -2.69713e-11 35.4026

33.5531 3.36589 -2.22045e-12
3.36589 34.1569 7.05133e-11
-2.22045e-12 7.05133e-11 35.4415

70.7205 5.89285 -2.56039e-11
5.89285 69.243 -8.05006e-11
-2.56039e-11 -8.05006e-11 70.7401

77.5962 -4.87009 2.77248e-11
-4.87009 75.7666 3.31235e-11
2.77248e-11 3.31235e-11 76.3149

86.1993 3.81102 -3.63891e-11
3.81102 88.9382 -6.65349e-11
-3.63891e-11 -6.65349e-11 87.0504

83.3465 -1.23087 -2.0218e-11
-1.23087 89.5476 1.27027e-11
-2.0218e-11 1.27027e-11 83.8772

73.9521 4.95856 5.14122e-11
4.95856 79.0698 8.87369e-12
5.14122e-11 8.87369e-12 78.0082

88.9183 -5.63887 -2.54178e-11
-5.63887 85.5934 9.24105e-12
-2.54178e-11 9.24105e-12 87.4945

85.2415 4.44933 -3.08139e-12
4.44933 76.3769 3.08067e-11
-3.08139e-12 3.08067e-11 80.7996

88.6538 -2.88954 1.88693e-11
-2.88954 76.1188 6.93949e-12
1.88693e-11 6.93949e-12 83.9652

72.3245 5.98754 5.72971e-12
5.98754 77.8482 -3.46601e-12
5.72971e-12 -3.46601e-12 74.7703

69.3889 -5.02184 -7.84876e-12
-5.02184 73.3804 1.65639e-11
-7.84876e-12 1.65639e-11 73.7533

84.9516 3.64134 1.3447e-12
3.64134 93.599 6.47955e-11
1.3447e-12 6.47955e-11 87.6083

85.1006 4.21373 3.05763e-12
4.21373 86.4153 -3.98599e-11
3.05763e-12 -3.98599e-11 84.2212

86.9924 -7.50295 -1.30046e-11
-7.50295 86.7777 1.46364e-11
-1.30046e-11 1.46364e-11 84.7302

82.1703 -1.02261 -1.07745e-11
-1.02261 94.6635 6.16425e-12
-1.07745e-11 6.16425e-12 84.9495

91.3368 4.41378 2.65703e-11
4.41378 85.0542 3.27391e-11
2.65703e-11 3.27391e-11 85.0092

97.6817 0.93654 -2.19522e-11
0.93654 90.6961 5.23634e-11
-2.19522e-11 5.23634e-11 88.053

93.701 -4.07355 2.31319e-12
-4.07355 81.5593 1.54098e-11
2.31319e-12 1.54098e-11 87.5169

98.7747 -1.33976 -5.3966e-12
-1.33976 86.2559 5.95001e-11
-5.3966e-12 5.95001e-11 90.6452

90.4856 5.18477 1.7206e-10
5.18477 94.9293 3.79746e-10
1.7206e-10 3.79746e-10 87.0916

106.829 -1.0371 1.11683e-10
-1.0371 103.959 -1.84814e-10
1.11683e-10 -1.84814e-10 92.9845

104.962 -3.62891 -2.05622e-10
-3.62891 90.8852 -2.79316e-10
-2.05622e-10 -2.79316e-10 94.7069

101.424 -4.46283 4.52222e-10
-4.46283 90.5077 -5.15296e-10
4.52222e-10 -5.15296e-10 94.0139

91.6604 4.98716 -5.23686e-11
4.98716 86.9863 -9.9365e-15
-5.23686e-11 -9.9365e-15 85.3993

84.8096 2.22929 -1.19411e-11
2.22929 82.9826 3.19677e-11
-1.19411e-11 3.19677e-11 82.2303

95.7146 2.49577 -4.69482e-11
2.49577 99.2153 -1.15531e-10
-4.69482e-11 -1.15531e-10 89.5048

99.8808 -3.50021 -2.92866e-11
-3.50021 88.3025 8.77846e-11
-2.92866e-11 8.77846e-11 92.5962

99.9328 -4.1656 -3.65606e-11
-4.1656 90.1623 -7.39313e-11
-3.65606e-11 -7.39313e-11 93.1308

93.2467 -2.85525 1.96409e-11
-2.85525 88.0885 -3.76625e-13
1.96409e-11 -3.76625e-13 89.9674

85.7139 5.80863 8.0882e-12
5.80863 83.3956 -4.99754e-12
8.0882e-12 -4.99754e-12 82.8462

92.6454 2.81151 -8.85218e-12
2.81151 87.06 -5.19843e-11
-8.85218e-12 -5.19843e-11 85.791

92.5404 -4.38014 4.73751e-11
-4.38014 84.4418 -3.65716e-11
4.73751e-11 -3.65716e-11 88.4647

95.836 -2.57841 -3.5427e-11
-2.57841 86.5217 -1.96432e-11
-3.5427e-11 -1.96432e-11 90.0881

93.4292 0.471611 2.69631e-12
0.471611 93.6652 2.11769e-12
2.69631e-12 2.11769e-12 94.7763

99.8455 -0.250392 -1.23212e-11
-0.250392 98.0329 -7.79728e-12
-1.23212e-11 -7.79728e-12 98.2917

97.2262 0.897963 4.62249e-12
0.897963 94.4013 2.46424e-11
4.62249e-12 2.46424e-11 95.647

92.1987 -0.933338 5.77605e-12
-0.933338 88.5037 -1.21596e-11
5.77605e-12 -1.21596e-11 92.6198

92.9023 0.159142 2.04088e-11
0.159142 90.1949 -1.17534e-11
2.04088e-11 -1.17534e-11 93.4641

100.24 -1.33297 -1.34555e-12
-1.33297 98.7516 -1.96366e-11
-1.34555e-12 -1.96366e-11 98.4517

96.6987 2.39316 -1.3477e-12
2.39316 93.746 1.1557e-12
-1.3477e-12 1.1557e-12 95.1846

92.9299 -0.225048 -6.35358e-12
-0.225048 89.7555 7.12666e-13
-6.35358e-12 7.12666e-13 93.3569

91.5544 1.0772 -9.24142e-12
1.0772 84.9212 1.60763e-11
-9.24142e-12 1.60763e-11 89.9209

95.09 0.225661 6.93175e-12
0.225661 94.3235 2.16113e-11
6.93175e-12 2.16113e-11 95.8759

95.186 -0.210227 5.38991e-12
-0.210227 94.5013 2.12263e-11
5.38991e-12 2.12263e-11 95.9584

98.6326 0.125389 2.84926e-11
0.125389 99.4378 -7.36362e-12
2.84926e-11 -7.36362e-12 99.2472

98.4213 -1.3607 -3.88874e-13
-1.3607 92.1229 1.91543e-11
-3.88874e-13 1.91543e-11 94.3077

102.38 0.0953098 3.84999e-12
0.0953098 100.144 -6.64335e-12
3.84999e-12 -6.64335e-12 99.3431

93.0869 1.76747 -2.00231e-11
1.76747 92.4759 -3.08039e-12
-2.00231e-11 -3.08039e-12 94.1511

91.3628 2.50597 3.27579e-12
2.50597 91.52 1.65567e-11
3.27579e-12 1.65567e-11 92.6068

97.2796 -2.37022 3.8695e-13
-2.37022 94.3555 -2.25246e-11
3.8695e-13 -2.25246e-11 95.7803

99.7698 1.23881 -1.65557e-11
1.23881 98.4658 8.27913e-12
-1.65557e-11 8.27913e-12 98.1332

100.845 0.0679166 -1.81923e-11
0.0679166 101.979 3.98857e-12
-1.81923e-11 3.98857e-12 101.131

95.0976 0.240722 1.23212e-11
0.240722 95.7721 -1.14551e-11
1.23212e-11 -1.14551e-11 96.3562

95.1205 -0.270964 1.0011e-11
-0.270964 95.8461 5.29995e-13
1.0011e-11 5.29995e-13 96.3942

98.859 -0.286533 -7.70051e-13
-0.286533 100.217 -7.21731e-14
-7.70051e-13 -7.21731e-14 99.6918

93.1759 0.789212 -3.85057e-12
0.789212 92.6416 6.73781e-12
-3.85057e-12 6.73781e-12 94.3456

92.87 0.643982 -1.15521e-11
0.643982 90.8419 -9.55456e-12
-1.15521e-11 -9.55456e-12 93.8945

91.86 0.618744 4.42717e-12
0.618744 92.2295 -1.17447e-11
4.42717e-12 -1.17447e-11 93.6873

98.9025 -0.418614 -8.47146e-12
-0.418614 98.7063 1.90593e-11
-8.47146e-12 1.90593e-11 98.8603

92.5837 0.783283 1.34772e-12
0.783283 88.5704 -8.7481e-12
1.34772e-12 -8.7481e-12 92.6287

94.9647 0.137895 -2.27181e-11
0.137895 95.5337 -1.78078e-11
-2.27181e-11 -1.78078e-11 96.2906

91.8399 -1.06392 -6.54669e-12
-1.06392 84.9335 1.54323e-11
-6.54669e-12 1.54323e-11 90.8413

97.8886 -0.283999 3.46537e-11
-0.283999 98.8085 -1.65686e-11
3.46537e-11 -1.65686e-11 98.7752

101.378 -0.237609 -1.46289e-11
-0.237609 97.6015 -2.56052e-11
-1.46289e-11 -2.56052e-11 97.8005

101.137 0.355286 5.39261e-12
0.355286 96.4478 1.4437e-11
5.39261e-12 1.4437e-11 97.3859

95.9245 -1.1986 -2.11775e-12
-1.1986 94.1072 8.18241e-12
-2.11775e-12 8.18241e-12 93.9289

95.97 1.20531 1.34757e-12
1.20531 94.2379 2.63766e-11
1.34757e-12 2.63766e-11 93.9746

93.7775 -0.277291 2.04083e-11
-0.277291 92.1848 -7.67701e-12
2.04083e-11 -7.67701e-12 94.5929

91.0719 0.22403 4.00462e-11
0.22403 91.5618 -4.09336e-12
4.00462e-11 -4.09336e-12 93.0463

92.0407 -1.92119 2.21407e-11
-1.92119 92.0584 -4.19253e-11
2.21407e-11 -4.19253e-11 93.023

91.9233 2.03719 7.8934e-12
2.03719 92.102 2.52231e-11
7.8934e-12 2.52231e-11 92.992

91.6791 -0.938644 8.47137e-12
-0.938644 84.6299 2.91086e-11
8.47137e-12 2.91086e-11 89.5487

98.7738 -0.534889 2.52202e-11
-0.534889 100.005 -1.60748e-11
2.52202e-11 -1.60748e-11 99.3373

92.9177 0.016996 -7.70412e-13
0.016996 92.0783 1.67018e-11
-7.70412e-13 1.67018e-11 94.1645

91.3995 0.815106 -1.4922e-11
0.815106 84.3021 -1.56194e-11
-1.4922e-11 -1.56194e-11 89.5709

93.2598 -0.733667 7.89386e-12
-0.733667 92.8049 -5.77542e-12
7.89386e-12 -5.77542e-12 94.431

93.3547 -0.482767 -2.92642e-11
-0.482767 93.7147 -1.17453e-11
-2.92642e-11 -1.17453e-11 94.7681

100.497 -1.01828 -1.11649e-11
-1.01828 99.8873 -1.90592e-11
-1.11649e-11 -1.90592e-11 99.5395

93.5096 0.0386779 4.10085e-11
0.0386779 92.2743 1.82431e-11
4.10085e-11 1.82431e-11 94.5504

95.3545 0.394624 -3.04189e-11
0.394624 95.2647 -1.68216e-11
-3.04189e-11 -1.68216e-11 96.4811

96.7886 0.510073 -5.00539e-12
0.510073 97.2134 -1.74711e-11
-5.00539e-12 -1.74711e-11 97.8167

93.6706 -3.74241 -3.58177e-11
-3.74241 89.0984 1.79034e-11
-3.58177e-11 1.79034e-11 92.0799

96.698 -0.209088 -3.85303e-13
-0.209088 97.3528 -1.15487e-12
-3.85303e-13 -1.15487e-12 97.7383

94.8057 0.229445 1.07814e-11
0.229445 95.0588 -1.57148e-11
1.07814e-11 -1.57148e-11 96.0886

103.129 0.679501 5.2363e-11
0.679501 103.624 2.80096e-11
5.2363e-11 2.80096e-11 102.456

103.126 -0.676825 2.00229e-11
-0.676825 103.625 -5.02441e-11
2.00229e-11 -5.02441e-11 102.455

101.388 -0.274011 3.00317e-11
-0.274011 102.413 9.5204e-12
3.00317e-11 9.5204e-12 101.503

103.07 0.294836 -2.57976e-11
0.294836 103.916 -6.80034e-11
-2.57976e-11 -6.80034e-11 102.558

103.068 -0.293523 -4.88975e-11
-0.293523 103.914 3.45551e-11
-4.88975e-11 3.45551e-11 102.556

99.0431 -0.841034 -1.53981e-12
-0.841034 99.5851 -6.16019e-12
-1.53981e-12 -6.16019e-12 99.1171

93.8071 -1.5647 -2.17567e-11
-1.5647 90.4545 9.63637e-13
-2.17567e-11 9.63637e-13 91.9417

93.8069 1.61534 -3.13836e-11
1.61534 90.4625 1.03008e-11
-3.13836e-11 1.03008e-11 91.951

101.835 0.392596 -7.31518e-12
0.392596 102.914 1.03475e-11
-7.31518e-12 1.03475e-11 101.766

101.835 -0.393231 -1.61719e-11
-0.393231 102.921 3.45558e-11
-1.61719e-11 3.45558e-11 101.767

93.909 0.257765 2.29112e-11
0.257765 92.9328 -3.60985e-11
2.29112e-11 -3.60985e-11 95.0323

98.3047 2.23185 4.2354e-11
2.23185 94.4869 -1.40572e-11
4.2354e-11 -1.40572e-11 94.5554

104.322 -1.80787 3.84848e-12
-1.80787 102.086 2.07938e-11
3.84848e-12 2.07938e-11 99.8575

98.7751 0.524863 -5.77667e-12
0.524863 100.039 -3.19582e-11
-5.77667e-12 -3.19582e-11 99.355

94.9905 -0.24866 3.85081e-12
-0.24866 95.7165 -2.05998e-11
3.85081e-12 -2.05998e-11 96.3956

94.5579 -0.365255 -1.92526e-11
-0.365255 94.0152 -1.37297e-11
-1.92526e-11 -1.37297e-11 95.565

99.0828 -0.841163 -1.53992e-11
-0.841163 99.6068 -3.39797e-11
-1.53992e-11 -3.39797e-11 98.8191

94.5552 2.28427 -5.7746e-12
2.28427 92.2103 3.46488e-12
-5.7746e-12 3.46488e-12 94.2473

106.05 0.475667 2.30613e-10
0.475667 106.722 -1.71142e-10
2.30613e-10 -1.71142e-10 104.105

106.046 -0.472218 9.08588e-11
-0.472218 106.714 1.05495e-10
9.08588e-11 1.05495e-10 104.102

91.9182 3.06221 3.27349e-12
3.06221 89.0046 -7.79828e-12
3.27349e-12 -7.79828e-12 90.937

101.362 0.18471 2.54108e-11
0.18471 102.494 -3.65298e-11
2.54108e-11 -3.65298e-11 101.483

101.368 -0.182183 1.30909e-11
-0.182183 102.528 -2.00693e-11
1.30909e-11 -2.00693e-11 101.497

88.1992 1.47342 -9.24239e-12
1.47342 90.647 -4.04291e-12
-9.24239e-12 -4.04291e-12 91.2265

100.919 1.02717 -1.4248e-11
1.02717 101.017 -2.66629e-11
-1.4248e-11 -2.66629e-11 99.527

93.5543 0.273335 2.5029e-11
0.273335 92.0737 -1.29956e-11
2.5029e-11 -1.29956e-11 94.5345

93.2741 -0.463694 2.31037e-12
-0.463694 90.7485 -2.30072e-11
2.31037e-12 -2.30072e-11 93.9898

91.4743 -2.28354 -1.30928e-11
-2.28354 88.4305 1.63172e-11
-1.30928e-11 1.63172e-11 91.9715

92.5424 2.502 -1.06466e-10
2.502 95.9168 -3.48551e-11
-1.06466e-10 -3.48551e-11 93.4508

92.5902 -2.61099 -2.657e-11
-2.61099 95.6703 -2.10803e-11
-2.657e-11 -2.10803e-11 93.3968

93.9184 0.424667 2.65693e-11
0.424667 93.938 1.18882e-11
2.65693e-11 1.18882e-11 95.2575

92.0018 0.624878 -2.88812e-12
0.624878 90.8528 -5.77597e-12
-2.88812e-12 -5.77597e-12 93.5072

100.898 -0.509145 -3.58071e-11
-0.509145 101.875 -1.58586e-11
-3.58071e-11 -1.58586e-11 101.094

103.719 -0.0349375 -2.69732e-12
-0.0349375 102.975 2.07944e-11
-2.69732e-12 2.07944e-11 99.5153

104.238 1.88551 -6.15145e-12
1.88551 95.6551 3.81147e-11
-6.15145e-12 3.81147e-11 97.034

91.3902 2.40846 -1.92618e-12
2.40846 88.6589 -2.51255e-11
-1.92618e-12 -2.51255e-11 91.9859

97.7743 -0.77056 2.47397e-11
-0.77056 95.222 -5.75382e-13
2.47397e-11 -5.75382e-13 96.2819

99.3557 0.23354 -2.4547e-11
0.23354 97.524 -1.63488e-12
-2.4547e-11 -1.63488e-12 97.8967

101.729 -0.00130853 -1.96361e-11
-0.00130853 102.929 9.38503e-12
-1.96361e-11 9.38503e-12 101.828

101.746 0.0116217 -1.65559e-11
0.0116217 102.928 1.78102e-12
-1.65559e-11 1.78102e-12 101.837

98.4787 0.49255 1.62668e-11
0.49255 99.4325 -3.06105e-11
1.62668e-11 -3.06105e-11 99.1988

100.204 -0.313328 -1.50161e-11
-0.313328 101.411 8.45414e-12
-1.50161e-11 8.45414e-12 100.672

102.401 0.19398 -5.71272e-11
0.19398 103.355 -2.05021e-11
-5.71272e-11 -2.05021e-11 102.202

102.403 -0.190267 2.73362e-11
-0.190267 103.356 4.44461e-11
2.73362e-11 4.44461e-11 102.203

100.858 0.514376 7.70075e-12
0.514376 101.868 9.04792e-12
7.70075e-12 9.04792e-12 101.08

98.8883 0.380148 2.34884e-11
0.380148 98.7378 1.91547e-11
2.34884e-11 1.91547e-11 98.8668

101.928 0.484631 -2.69635e-12
0.484631 102.767 -6.89672e-11
-2.69635e-12 -6.89672e-11 101.838

101.963 -0.469812 -3.42668e-11
-0.469812 102.772 3.658e-12
-3.42668e-11 3.658e-12 101.852

92.2738 1.03574 -3.79302e-11
1.03574 88.3894 9.7701e-12
-3.79302e-11 9.7701e-12 92.5352

101.565 -0.606586 6.66075e-11
-0.606586 101.538 3.9852e-11
6.66075e-11 3.9852e-11 100.849

93.1075 0.180178 5.92119e-16
0.180178 92.2706 1.18887e-11
5.92119e-16 1.18887e-11 94.2699

88.4954 2.38295 5.96882e-12
2.38295 89.568 1.53066e-11
5.96882e-12 1.53066e-11 89.9657

101.028 -0.637364 -1.42473e-11
-0.637364 100.993 2.14653e-11
-1.42473e-11 2.14653e-11 99.9576

99.7062 0.0985774 3.85021e-12
0.0985774 100.777 1.29708e-11
3.85021e-12 1.29708e-11 100.214

90.7743 1.46017 2.503e-11
1.46017 89.5222 -1.67492e-11
2.503e-11 -1.67492e-11 92.5954

92.3574 -0.822344 2.84959e-11
-0.822344 88.8989 3.942e-11
2.84959e-11 3.942e-11 92.7562

93.1224 -0.173035 1.34752e-12
-0.173035 92.6806 -6.64274e-12
1.34752e-12 -6.64274e-12 94.6006

91.7946 -0.596793 2.38746e-11
-0.596793 90.9464 2.43062e-11
2.38746e-11 2.43062e-11 93.5128

96.8587 1.58752 -2.38737e-11
1.58752 95.5848 -4.04164e-12
-2.38737e-11 -4.04164e-12 96.6209

97.4649 -1.43366 7.31783e-12
-1.43366 96.3263 -2.38714e-11
7.31783e-12 -2.38714e-11 97.0578

98.5757 -0.113277 5.487e-12
-0.113277 99.5524 5.46031e-11
5.487e-12 5.46031e-11 99.2872

88.0427 -1.56887 5.96761e-12
-1.56887 90.6457 -2.1179e-12
5.96761e-12 -2.1179e-12 91.1563

98.7324 0.154921 -3.04172e-11
0.154921 99.2479 1.41986e-11
-3.04172e-11 1.41986e-11 99.1303

98.6804 -0.151589 3.42674e-11
-0.151589 99.1773 1.80489e-11
3.42674e-11 1.80489e-11 99.0888

92.0575 0.704984 -2.32967e-11
0.704984 90.8248 9.67371e-12
-2.32967e-11 9.67371e-12 93.26

90.7064 2.00299 3.79335e-11
2.00299 82.367 -2.18512e-11
3.79335e-11 -2.18512e-11 88.5724

90.7256 -1.7317 1.09755e-11
-1.7317 82.3492 3.75434e-11
1.09755e-11 3.75434e-11 88.5643

95.5991 0.862182 -6.1607e-12
0.862182 94.4079 -1.92493e-12
-6.1607e-12 -1.92493e-12 95.9521

91.6621 -0.54104 -1.1561e-12
-0.54104 92.2985 8.42352e-12
-1.1561e-12 8.42352e-12 93.6798

96.4212 0.685753 -5.00457e-12
0.685753 96.43 2.49315e-11
-5.00457e-12 2.49315e-11 97.1417

96.5028 -0.671734 -1.61732e-11
-0.671734 96.4644 2.9841e-11
-1.61732e-11 2.9841e-11 97.178

99.127 0.0457392 -2.50272e-11
0.0457392 99.7167 -2.70486e-11
-2.50272e-11 -2.70486e-11 99.5844

98.3571 -0.490982 2.57977e-11
-0.490982 99.3618 -1.93481e-11
2.57977e-11 -1.93481e-11 99.1369

99.1889 0.0628625 -1.46315e-11
0.0628625 100.273 -9.96241e-12
-1.46315e-11 -9.96241e-12 99.7539

109.188 0.720694 -1.03193e-10
0.720694 103.117 3.21342e-11
-1.03193e-10 3.21342e-11 100.303

108.68 -3.58903 -8.58496e-11
-3.58903 100.816 5.77718e-11
-8.58496e-11 5.77718e-11 99.0914

99.8233 -0.0430362 -1.46313e-11
-0.0430362 100.813 -2.0527e-11
-1.46313e-11 -2.0527e-11 100.267

100.095 -0.332908 -1.73258e-11
-0.332908 100.406 -1.22253e-11
-1.73258e-11 -1.22253e-11 99.7445

101.335 0.282127 -4.23548e-12
0.282127 102.396 -1.18305e-11
-4.23548e-12 -1.18305e-11 101.483

95.5665 -0.828706 3.23459e-11
-0.828706 94.4762 -2.24278e-11
3.23459e-11 -2.24278e-11 95.9383

102.127 -1.59859 -1.92436e-12
-1.59859 100.986 -2.50177e-12
-1.92436e-12 -2.50177e-12 99.9114

90.3993 4.23797 -7.69755e-13
4.23797 88.259 2.40545e-12
-7.69755e-13 2.40545e-12 90.2599

101.615 0.663151 2.88779e-11
0.663151 101.541 1.86728e-11
2.88779e-11 1.86728e-11 100.867

101.489 -0.778931 2.04073e-11
-0.778931 101.831 -1.54965e-11
2.04073e-11 -1.54965e-11 100.871

92.2048 1.43556 1.71386e-11
1.43556 91.7874 3.54238e-11
1.71386e-11 3.54238e-11 92.9959

101.946 -0.00803615 1.34756e-11
-0.00803615 103.416 1.1531e-11
1.34756e-11 1.1531e-11 102.061

99.2012 -0.0482684 1.6942e-11
-0.0482684 100.104 -3.17652e-11
1.6942e-11 -3.17652e-11 99.6971

88.3369 -2.38474 1.05881e-11
-2.38474 89.6034 8.567e-12
1.05881e-11 8.567e-12 89.9206

99.1663 -0.537857 3.85003e-12
-0.537857 100.448 4.81166e-13
3.85003e-12 4.81166e-13 99.7481

93.6758 -0.270113 -2.11779e-11
-0.270113 94.0632 -3.27338e-12
-2.11779e-11 -3.27338e-12 95.2918

91.238 -0.295581 2.54153e-11
-0.295581 91.5562 -3.68695e-11
2.54153e-11 -3.68695e-11 93.0645

97.3792 0.201166 2.46429e-11
0.201166 97.1845 -4.04383e-12
2.46429e-11 -4.04383e-12 97.7601

97.3848 -0.222041 -5.42901e-11
-0.222041 97.1515 -1.31894e-11
-5.42901e-11 -1.31894e-11 97.7488

98.9337 0.257221 -5.69844e-11
0.257221 100.37 -9.90244e-12
-5.69844e-11 -9.90244e-12 99.773

99.1698 0.552365 -6.08319e-11
0.552365 100.4 9.08208e-11
-6.08319e-11 9.08208e-11 99.7426

97.3935 -0.324095 1.57873e-11
-0.324095 96.5327 -1.32828e-11
1.57873e-11 -1.32828e-11 97.1614

97.2261 0.383971 -1.42473e-11
0.383971 96.3454 -1.16467e-11
-1.42473e-11 -1.16467e-11 96.9902

97.8702 -0.0550251 2.77224e-11
-0.0550251 98.506 -2.23815e-11
2.77224e-11 -2.23815e-11 98.5356

97.8493 0.0431945 -5.77528e-12
0.0431945 98.5892 -8.56766e-12
-5.77528e-12 -8.56766e-12 98.5454

102.264 0.159858 2.73364e-11
0.159858 103.134 2.19701e-11
2.73364e-11 2.19701e-11 102.072

102.273 -0.152214 1.96359e-11
-0.152214 103.135 8.18152e-12
1.96359e-11 8.18152e-12 102.075

100.48 -0.891481 -2.7336e-11
-0.891481 101.152 -1.41505e-11
-2.7336e-11 -1.41505e-11 100.284

89.6135 -3.85157 1.36701e-11
-3.85157 88.364 -9.62008e-13
1.36701e-11 -9.62008e-13 89.7803

89.4067 0.0542428 -5.77602e-12
0.0542428 91.0946 6.73922e-12
-5.77602e-12 6.73922e-12 92.4815

93.9632 0.142476 -2.81098e-11
0.142476 93.8706 -5.52311e-11
-2.81098e-11 -5.52311e-11 95.3104

97.327 -0.395311 -3.42697e-11
-0.395311 98.233 3.35939e-11
-3.42697e-11 3.35939e-11 98.0348

102.685 0.561672 -3.85017e-11
0.561672 103.181 1.80483e-11
-3.85017e-11 1.80483e-11 102.198

102.686 -0.557781 2.54106e-11
-0.557781 103.186 3.00801e-11
2.54106e-11 3.00801e-11 102.199

101.4 0.695144 4.11974e-11
0.695144 102.24 8.65484e-13
4.11974e-11 8.65484e-13 101.381

101.395 -0.698147 1.65551e-11
-0.698147 102.242 2.90697e-11
1.65551e-11 2.90697e-11 101.381

95.8072 -0.105411 7.69551e-13
-0.105411 96.5946 -1.97096e-11
7.69551e-13 -1.97096e-11 97.0515

97.6701 -0.0695299 -4.04291e-11
-0.0695299 98.3468 -2.6279e-11
-4.04291e-11 -2.6279e-11 98.4639

97.3241 0.456841 1.65563e-11
0.456841 98.2605 -5.4872e-12
1.65563e-11 -5.4872e-12 98.0366

104.44 0.0335645 2.07906e-11
0.0335645 104.941 -7.70085e-12
2.07906e-11 -7.70085e-12 103.291

104.438 -0.0322732 1.2705e-11
-0.0322732 104.935 1.40537e-11
1.2705e-11 1.40537e-11 103.289

100.433 -0.611467 -1.92509e-12
-0.611467 101.265 -5.67896e-12
-1.92509e-12 -5.67896e-12 100.593

94.1463 -0.248874 -3.04198e-11
-0.248874 92.719 -6.37734e-12
-3.04198e-11 -6.37734e-12 95.031

100.2 0.322225 -1.0011e-11
0.322225 101.421 -3.21666e-11
-1.0011e-11 -3.21666e-11 100.673

94.8167 -2.09152 1.80971e-11
-2.09152 93.3144 3.94837e-12
1.80971e-11 3.94837e-12 94.7757

99.0842 1.05338 1.61714e-11
1.05338 98.695 -1.34903e-12
1.61714e-11 -1.34903e-12 98.5038

93.1601 0.136127 3.27279e-12
0.136127 93.2632 -5.2464e-12
3.27279e-12 -5.2464e-12 94.7793

101.552 0.773478 -1.92457e-12
0.773478 101.824 -7.02717e-12
-1.92457e-12 -7.02717e-12 100.888

100.391 0.625607 3.8502e-12
0.625607 101.268 3.2727e-12
3.8502e-12 3.2727e-12 100.58

86.0331 3.81367 -1.29018e-11
3.81367 87.5941 -2.50107e-12
-1.29018e-11 -2.50107e-12 88.3518

102.679 -0.0461816 5.39239e-12
-0.0461816 100.793 -2.11752e-11
5.39239e-12 -2.11752e-11 99.6247

98.0722 1.90411 3.77366e-11
1.90411 90.8126 -4.33701e-12
3.77366e-11 -4.33701e-12 93.6896

100.469 0.926347 3.88883e-11
0.926347 101.16 -1.92619e-12
3.88883e-11 -1.92619e-12 100.293

90.2713 1.84634 2.29122e-11
1.84634 91.1102 2.11745e-12
2.29122e-11 2.11745e-12 92.2616

92.8578 -0.227143 1.92938e-13
-0.227143 92.2121 1.68944e-11
1.92938e-13 1.68944e-11 94.3026

102.109 -1.16883 6.1591e-12
-1.16883 101.206 3.0129e-11
6.1591e-12 3.0129e-11 100.563

93.2279 -1.81848 -2.77232e-11
-1.81848 92.5102 -1.85794e-11
-2.77232e-11 -1.85794e-11 94.1436

95.3489 1.23804 -1.15526e-11
1.23804 95.098 -2.0889e-11
-1.15526e-11 -2.0889e-11 96.0575

100.745 -0.323942 4.69718e-11
-0.323942 101.904 2.75314e-11
4.69718e-11 2.75314e-11 100.936

97.7641 -0.906605 -2.54134e-11
-0.906605 97.3752 5.87117e-12
-2.54134e-11 5.87117e-12 97.7998

102.541 1.39059 -3.1573e-11
1.39059 100.953 -9.43197e-12
-3.1573e-11 -9.43197e-12 100.06

94.8914 0.153995 1.61716e-11
0.153995 94.9878 9.77131e-12
1.61716e-11 9.77131e-12 96.1713

94.8014 -0.083319 2.61829e-11
-0.083319 94.1848 3.14963e-11
2.61829e-11 3.14963e-11 95.8454

100.749 0.327803 5.42884e-11
0.327803 101.904 8.27714e-12
5.42884e-11 8.27714e-12 100.938

100.839 -0.045348 -8.75939e-12
-0.045348 101.989 -1.75039e-11
-8.75939e-12 -1.75039e-11 101.127

106.125 0.336437 1.78646e-10
0.336437 105.817 5.55345e-11
1.78646e-10 5.55345e-11 103.926

106.122 -0.332825 1.10502e-10
-0.332825 105.811 -9.61544e-11
1.10502e-10 -9.61544e-11 103.923

100.153 0.399015 7.3146e-12
0.399015 100.384 -1.96371e-11
7.3146e-12 -1.96371e-11 99.7525

91.1009 -2.19903 6.9504e-11
-2.19903 92.5885 4.08135e-11
6.9504e-11 4.08135e-11 92.759

91.0889 2.23786 2.09854e-11
2.23786 92.698 4.00492e-11
2.09854e-11 4.00492e-11 92.7825

92.6464 -0.288934 -5.00622e-12
-0.288934 87.2272 -2.74519e-12
-5.00622e-12 -2.74519e-12 91.7659

85.9103 -3.75589 2.02146e-11
-3.75589 87.6737 1.55003e-11
2.02146e-11 1.55003e-11 88.3037

97.427 0.223757 2.30989e-12
0.223757 98.1714 2.15623e-11
2.30989e-12 2.15623e-11 98.2926

94.8372 0.0172687 -2.5799e-11
0.0172687 94.1317 -2.89022e-11
-2.5799e-11 -2.89022e-11 95.8237

97.0936 0.427909 7.50837e-12
0.427909 97.5836 1.53048e-11
7.50837e-12 1.53048e-11 97.9435

97.1415 -0.436084 -7.70128e-12
-0.436084 97.5967 2.14179e-11
-7.70128e-12 2.14179e-11 97.983

98.2395 0.192404 1.38607e-11
0.192404 98.8217 -2.3295e-11
1.38607e-11 -2.3295e-11 98.8855

102.132 1.12787 -1.65551e-11
1.12787 101.238 5.67883e-12
-1.65551e-11 5.67883e-12 100.571

95.8006 0.389292 4.62041e-12
0.389292 95.9331 -6.25695e-12
4.62041e-12 -6.25695e-12 96.8382

98.1541 0.11195 3.08018e-12
0.11195 98.5858 1.90474e-11
3.08018e-12 1.90474e-11 98.7834

98.4983 -1.31605 -2.31385e-12
-1.31605 93.9414 4.23525e-11
-2.31385e-12 4.23525e-11 94.6812

104.061 1.42672 3.15786e-11
1.42672 100.639 5.37076e-11
3.15786e-11 5.37076e-11 99.584

92.4911 -1.56416 -2.04095e-11
-1.56416 89.8702 1.59808e-11
-2.04095e-11 1.59808e-11 92.6422

90.2709 -0.261099 2.50323e-11
-0.261099 80.4226 1.99765e-12
2.50323e-11 1.99765e-12 87.4279

97.6723 -0.577062 -2.38708e-11
-0.577062 98.5653 -4.38956e-11
-2.38708e-11 -4.38956e-11 98.4402

97.6783 0.570663 1.84814e-11
0.570663 98.6354 -4.90989e-12
1.84814e-11 -4.90989e-12 98.4737

92.3352 -0.198184 -1.00127e-11
-0.198184 86.0445 -1.02174e-11
-1.00127e-11 -1.02174e-11 91.4118

99.0363 0.874363 2.46418e-11
0.874363 99.6588 -1.20335e-11
2.46418e-11 -1.20335e-11 99.1157

103.528 0.526512 7.69895e-12
0.526512 104.228 -5.59243e-11
7.69895e-12 -5.59243e-11 102.858

103.529 -0.52373 3.31114e-11
-0.52373 104.225 2.01175e-11
3.31114e-11 2.01175e-11 102.857

91.4303 -0.596867 -4.42924e-12
-0.596867 91.5826 -1.67505e-11
-4.42924e-12 -1.67505e-11 93.1183

90.1656 -1.88479 5.00675e-12
-1.88479 91.0791 -2.44518e-11
5.00675e-12 -2.44518e-11 92.2182

91.938 -1.6446 -8.08657e-12
-1.6446 87.7857 1.08785e-11
-8.08657e-12 1.08785e-11 91.9605

93.8982 0.044971 1.5018e-11
0.044971 92.644 2.36805e-11
1.5018e-11 2.36805e-11 94.9069

91.9228 -1.40333 8.47267e-12
-1.40333 91.7887 -2.77239e-11
8.47267e-12 -2.77239e-11 92.9111

95.107 -0.301264 6.9302e-12
-0.301264 95.1118 3.48712e-11
6.9302e-12 3.48712e-11 96.3871

95.3478 -1.16467 4.58196e-11
-1.16467 95.3526 1.47306e-11
4.58196e-11 1.47306e-11 96.1396

97.7166 0.886036 1.53975e-12
0.886036 96.9719 -1.18401e-11
1.53975e-12 -1.18401e-11 97.6586

102.162 -1.37585 -3.34962e-11
-1.37585 99.0533 -5.58534e-12
-3.34962e-11 -5.58534e-12 98.1268

101.308 0.997859 -5.00899e-12
0.997859 98.5825 -3.23414e-11
-5.00899e-12 -3.23414e-11 97.7242

102.405 0.0297074 2.88765e-11
0.0297074 103.64 3.31116e-11
2.88765e-11 3.31116e-11 102.328

102.393 -0.0320861 1.42457e-11
-0.0320861 103.634 4.40362e-12
1.42457e-11 4.40362e-12 102.326

90.0156 -1.02245 2.59908e-11
-1.02245 90.9545 -3.35026e-11
2.59908e-11 -3.35026e-11 92.5035

89.8775 1.07529 -1.98317e-11
1.07529 91.0711 3.99502e-11
-1.98317e-11 3.99502e-11 92.4621

90.0395 -0.548235 8.10561e-11
-0.548235 92.8498 2.05001e-11
8.10561e-11 2.05001e-11 91.9721

89.9961 0.611994 3.85059e-11
0.611994 92.7867 -9.14557e-12
3.85059e-11 -9.14557e-12 91.944

105.263 0.0301681 -1.91731e-10
0.0301681 105.547 1.61517e-10
-1.91731e-10 1.61517e-10 103.637

105.259 -0.0280351 -5.04328e-11
-0.0280351 105.541 -1.15216e-10
-5.04328e-11 -1.15216e-10 103.634

102.751 0.751311 1.03966e-11
0.751311 102.165 1.43418e-11
1.03966e-11 1.43418e-11 101.551

102.748 -0.759715 -2.57946e-11
-0.759715 102.178 -3.26308e-11
-2.57946e-11 -3.26308e-11 101.554

100.22 -0.163554 1.00114e-11
-0.163554 101.542 -5.00536e-11
1.00114e-11 -5.00536e-11 100.674

95.4801 -0.834103 1.07796e-11
-0.834103 93.9853 2.23344e-11
1.07796e-11 2.23344e-11 95.2808

98.6898 0.192533 -1.84824e-11
0.192533 98.5364 -8.08513e-12
-1.84824e-11 -8.08513e-12 98.448

94.0616 -0.389734 -9.62803e-12
-0.389734 93.1247 6.10788e-11
-9.62803e-12 6.10788e-11 95.0802

100.226 0.174183 -3.58071e-11
0.174183 101.544 1.68938e-11
-3.58071e-11 1.68938e-11 100.671

95.0915 0.692299 5.26542e-13
0.692299 94.2507 -4.52445e-11
5.26542e-13 -4.52445e-11 95.2628

99.6301 -0.28917 -3.08022e-11
-0.28917 100.922 -5.48726e-12
-3.08022e-11 -5.48726e-12 100.148

85.0549 -2.38958 1.15559e-12
-2.38958 89.0414 -5.19836e-12
1.15559e-12 -5.19836e-12 88.8061

85.0805 2.39755 -8.66339e-12
2.39755 88.9779 2.79199e-12
-8.66339e-12 2.79199e-12 88.8034

99.6024 0.297961 1.2707e-11
0.297961 100.903 3.49415e-11
1.2707e-11 3.49415e-11 100.134

92.3322 1.76536 -5.5834e-12
1.76536 89.9011 -4.09133e-11
-5.5834e-12 -4.09133e-11 92.5698

109.124 0.40044 2.42427e-11
0.40044 94.4916 4.35073e-11
2.42427e-11 4.35073e-11 97.6354

108.977 -0.849291 3.46574e-11
-0.849291 105.659 2.2903e-11
3.46574e-11 2.2903e-11 100.882

100.647 0.380464 7.3158e-12
0.380464 99.702 9.49403e-14
7.3158e-12 9.49403e-14 99.2836

90.8128 -1.35694 1.15481e-12
-1.35694 89.5662 -1.60287e-11
1.15481e-12 -1.60287e-11 92.669

92.4218 -2.57927 1.00125e-11
-2.57927 88.6077 3.60934e-12
1.00125e-11 3.60934e-12 91.3197

97.2573 -0.143538 1.00116e-11
-0.143538 97.5821 1.85057e-11
1.00116e-11 1.85057e-11 98.0389

97.3277 0.0428259 -3.11883e-11
0.0428259 98.5361 -1.634e-11
-3.11883e-11 -1.634e-11 98.4358

103.075 0.280115 3.42663e-11
0.280115 103.545 3.77793e-12
3.42663e-11 3.77793e-12 102.5

103.081 -0.26759 -1.80957e-11
-0.26759 103.541 3.33524e-11
-1.80957e-11 3.33524e-11 102.501

92.4696 2.57578 2.71467e-11
2.57578 88.7376 -3.6531e-11
2.71467e-11 -3.6531e-11 91.3578

98.8121 -0.271645 -3.48727e-11
-0.271645 98.4831 4.21603e-11
-3.48727e-11 4.21603e-11 98.5187

99.6826 -0.516151 1.66537e-11
-0.516151 100.894 -5.88136e-11
1.66537e-11 -5.88136e-11 100.232

101.875 0.78821 1.03945e-11
0.78821 102.625 -2.77221e-11
1.03945e-11 -2.77221e-11 101.645

101.875 -0.786211 -1.11654e-11
-0.786211 102.63 8.95197e-12
-1.11654e-11 8.95197e-12 101.645

94.5081 -3.78219 3.84816e-12
-3.78219 92.5621 3.83833e-11
3.84816e-12 3.83833e-11 93.1661

94.415 3.85195 2.15641e-11
3.85195 92.5825 4.42846e-11
2.15641e-11 4.42846e-11 93.1533

100.481 1.12461 -8.08663e-12
1.12461 100.55 -2.0695e-11
-8.08663e-12 -2.0695e-11 99.7436

92.3865 -0.47818 4.06252e-11
-0.47818 90.9928 3.80235e-11
4.06252e-11 3.80235e-11 93.4189

102.492 0.592791 -6.63187e-11
0.592791 103.592 1.4487e-11
-6.63187e-11 1.4487e-11 102.316

102.495 -0.590625 4.75489e-11
-0.590625 103.59 4.37995e-12
4.75489e-11 4.37995e-12 102.316

94.9245 -1.66741 -2.00261e-11
-1.66741 92.1305 2.06956e-11
-2.00261e-11 2.06956e-11 93.6542

90.9396 -3.22817 2.50279e-11
-3.22817 88.7438 1.46338e-11
2.50279e-11 1.46338e-11 90.33

96.4219 -0.466794 8.70192e-11
-0.466794 97.1422 1.13819e-11
8.70192e-11 1.13819e-11 97.6476

88.2661 0.227022 -2.57977e-11
0.227022 92.1843 3.13851e-11
-2.57977e-11 3.13851e-11 91.1955

88.2146 -0.22779 -2.71488e-11
-0.22779 92.1521 1.5414e-12
-2.71488e-11 1.5414e-12 91.1727

90.721 -3.19001 1.21259e-11
-3.19001 90.1104 2.73405e-11
1.21259e-11 2.73405e-11 91.8234

99.7461 0.517238 -2.984e-11
0.517238 100.872 -1.65563e-11
-2.984e-11 -1.65563e-11 100.258

91.3954 0.635953 1.8097e-11
0.635953 91.6302 1.56924e-11
1.8097e-11 1.56924e-11 93.0754

89.0623 0.199048 -4.61894e-12
0.199048 91.4371 3.41771e-11
-4.61894e-12 3.41771e-11 91.9373

88.9671 -0.236522 -1.27045e-11
-0.236522 91.4917 -2.57979e-11
-1.27045e-11 -2.57979e-11 91.9132

91.6253 2.01897 1.07825e-11
2.01897 87.2284 1.87724e-11
1.07825e-11 1.87724e-11 91.7063

103.212 0.377343 1.77095e-11
0.377343 104.305 -5.68862e-11
1.77095e-11 -5.68862e-11 102.802

103.213 -0.374297 -5.0057e-12
-0.374297 104.298 1.07805e-11
-5.0057e-12 1.07805e-11 102.8

104.229 -0.0893098 -2.58108e-11
-0.0893098 101.604 8.08498e-11
-2.58108e-11 8.08498e-11 98.5924

104.019 1.81975 -6.19865e-11
1.81975 101.694 2.85013e-11
-6.19865e-11 2.85013e-11 98.974

95.9979 0.128604 -4.62082e-12
0.128604 96.7776 5.24639e-12
-4.62082e-12 5.24639e-12 97.195

95.5631 -0.0814399 1.3862e-11
-0.0814399 94.2174 -1.33323e-11
1.3862e-11 -1.33323e-11 95.9642

101.467 0.734696 9.24019e-12
0.734696 102.35 -6.64179e-12
9.24019e-12 -6.64179e-12 101.264

101.48 -0.731691 3.65754e-11
-0.731691 102.353 4.091e-11
3.65754e-11 4.091e-11 101.268

101.019 0.808937 4.62012e-12
0.808937 101.037 -1.08774e-11
4.62012e-12 -1.08774e-11 100.041

96.5294 0.18414 5.5831e-11
0.18414 97.0499 -1.06617e-11
5.5831e-11 -1.06617e-11 97.5414

97.6253 -0.0676777 -3.08033e-11
-0.0676777 97.6246 1.00353e-11
-3.08033e-11 1.00353e-11 98.2368

105.655 -0.412797 -1.02794e-10
-0.412797 106.391 -1.17334e-10
-1.02794e-10 -1.17334e-10 103.973

105.659 0.416142 8.08509e-11
0.416142 106.396 -3.44597e-11
8.08509e-11 -3.44597e-11 103.975

89.2577 -0.0697119 -2.88741e-12
-0.0697119 90.9834 -2.08899e-11
-2.88741e-12 -2.08899e-11 92.3846

100.041 0.56219 -1.61712e-11
0.56219 100.382 -5.38989e-12
-1.61712e-11 -5.38989e-12 99.9977

101.533 0.495972 -3.34983e-11
0.495972 102.16 -2.31969e-11
-3.34983e-11 -2.31969e-11 101.25

101.534 -0.492655 3.61926e-11
-0.492655 102.163 -1.53998e-11
3.61926e-11 -1.53998e-11 101.251

100.265 0.354415 4.23336e-12
0.354415 101.155 -6.08351e-11
4.23336e-12 -6.08351e-11 100.343

100.035 -0.535174 -1.38608e-11
-0.535174 100.354 -1.53054e-11
-1.38608e-11 -1.53054e-11 99.9883

96.2405 -0.0290732 -2.50279e-11
-0.0290732 97.0418 9.2894e-12
-2.50279e-11 9.2894e-12 97.339

96.3054 -0.0384343 1.65573e-11
-0.0384343 97.2044 -2.15618e-11
1.65573e-11 -2.15618e-11 97.4149

98.1767 -0.137712 2.46419e-11
-0.137712 99.3865 -2.80117e-11
2.46419e-11 -2.80117e-11 99.0845

100.25 -0.345798 -3.65767e-11
-0.345798 101.158 -4.05244e-11
-3.65767e-11 -4.05244e-11 100.338

96.07 -0.352317 -1.50164e-11
-0.352317 96.066 -2.23085e-11
-1.50164e-11 -2.23085e-11 96.9901

94.3181 0.204125 -4.12013e-11
0.204125 93.7676 -9.25357e-12
-4.12013e-11 -9.25357e-12 95.4537

102.416 0.681576 1.77099e-11
0.681576 102.63 -2.01177e-11
1.77099e-11 -2.01177e-11 101.759

102.417 -0.685139 -6.85344e-11
-0.685139 102.63 1.32822e-11
-6.85344e-11 1.32822e-11 101.759

102.398 0.459254 2.92618e-11
0.459254 103.313 1.07799e-11
2.92618e-11 1.07799e-11 102.04

102.399 -0.457117 -7.69886e-12
-0.457117 103.315 -3.85983e-11
-7.69886e-12 -3.85983e-11 102.04

95.3199 -0.357482 -1.17449e-11
-0.357482 95.9534 3.48471e-11
-1.17449e-11 3.48471e-11 96.6849

95.0595 -0.321873 7.31512e-12
-0.321873 95.0496 7.12583e-11
7.31512e-12 7.12583e-11 96.1427

100.817 -0.781913 3.77348e-11
-0.781913 101.724 -6.67053e-11
3.77348e-11 -6.67053e-11 100.846

100.811 0.78931 4.2736e-11
0.78931 101.713 -4.2161e-11
4.2736e-11 -4.2161e-11 100.842

102.593 -0.441007 -2.88897e-11
-0.441007 95.0584 3.63833e-11
-2.88897e-11 3.63833e-11 96.856

103.072 -0.0400846 -7.66159e-11
-0.0400846 100.511 5.12177e-11
-7.66159e-11 5.12177e-11 98.885

102.709 0.477186 2.23304e-11
0.477186 103.231 -3.57112e-11
2.23304e-11 -3.57112e-11 102.027

102.729 -0.467076 -4.00422e-11
-0.467076 103.228 1.85766e-11
-4.00422e-11 1.85766e-11 102.03

103.413 0.250276 -2.34859e-11
0.250276 104.094 -1.86732e-11
-2.34859e-11 -1.86732e-11 102.77

103.413 -0.249532 6.9688e-11
-0.249532 104.091 -2.54106e-11
6.9688e-11 -2.54106e-11 102.768

89.7736 -0.570447 -6.3516e-12
-0.570447 91.6741 -3.33086e-11
-6.3516e-12 -3.33086e-11 92.0812

89.9192 0.573899 -7.12233e-12
0.573899 91.6187 1.69433e-11
-7.12233e-12 1.69433e-11 92.1321

99.1253 -3.20142 1.38384e-11
-3.20142 94.7854 8.04747e-11
1.38384e-11 8.04747e-11 94.6767

90.6107 0.159223 1.17464e-11
0.159223 93.4324 -2.9808e-12
1.17464e-11 -2.9808e-12 91.9669

104.327 0.0922252 -2.81058e-11
0.0922252 104.962 -9.62656e-13
-2.81058e-11 -9.62656e-13 103.293

105.38 -0.286282 -2.2331e-11
-0.286282 105.3 4.78372e-11
-2.2331e-11 4.78372e-11 103.649

104.326 -0.0902995 -1.54039e-12
-0.0902995 104.971 -1.06849e-11
-1.54039e-12 -1.06849e-11 103.295

105.383 0.288093 1.02799e-10
0.288093 105.306 3.4746e-11
1.02799e-10 3.4746e-11 103.651

104.482 1.95117 2.65643e-11
1.95117 103.101 -1.44405e-11
2.65643e-11 -1.44405e-11 100.007

90.6294 -0.139792 -1.44421e-11
-0.139792 93.41 -2.76263e-11
-1.44421e-11 -2.76263e-11 91.9659

105.112 0.000384052 -2.64887e-10
0.000384052 105.112 -1.43905e-10
-2.64887e-10 -1.43905e-10 103.408

106.535 -0.303642 1.30123e-10
-0.303642 106.156 3.52279e-10
1.30123e-10 3.52279e-10 104.089

106.535 0.30596 3.98869e-10
0.30596 106.163 1.32774e-11
3.98869e-10 1.32774e-11 104.091

105.119 0.00361378 -1.27428e-10
0.00361378 105.116 1.63348e-10
-1.27428e-10 1.63348e-10 103.411

104.867 -0.199913 8.08459e-12
-0.199913 104.412 6.18918e-11
8.08459e-12 6.18918e-11 103.158

103.618 -0.74132 -1.46301e-11
-0.74132 103.611 2.98452e-12
-1.46301e-11 2.98452e-12 102.566

105.258 -0.220352 1.73206e-11
-0.220352 106.061 1.77684e-10
1.73206e-11 1.77684e-10 103.756

104.872 0.204937 1.309e-11
0.204937 104.416 1.0973e-11
1.309e-11 1.0973e-11 103.16

105.262 0.22249 -2.19539e-11
0.22249 106.068 -2.40921e-10
-2.19539e-11 -2.40921e-10 103.759

103.622 0.745782 4.92822e-11
0.745782 103.616 6.73272e-13
4.92822e-11 6.73272e-13 102.569

103.916 0.255108 4.50464e-11
0.255108 104.312 -5.77589e-12
4.50464e-11 -5.77589e-12 102.885

104.509 0.513858 -1.2322e-11
0.513858 104.649 -3.93674e-11
-1.2322e-11 -3.93674e-11 103.235

103.912 -0.253573 -8.85295e-12
-0.253573 104.31 -6.17949e-11
-8.85295e-12 -6.17949e-11 102.883

104.506 -0.510431 -1.23187e-11
-0.510431 104.645 -3.417e-11
-1.23187e-11 -3.417e-11 103.233

58.6306 3.54679 1.47301e-11
3.54679 66.6413 6.16307e-12
1.47301e-11 6.16307e-12 62.0766

77.9731 0.574449 -2.12132e-12
0.574449 80.7995 -6.16351e-12
-2.12132e-12 -6.16351e-12 78.5247

66.9302 1.00011 -1.86756e-11
1.00011 77.4277 2.04177e-11
-1.86756e-11 2.04177e-11 72.8322

71.099 1.81956 2.35963e-11
1.81956 60.0522 4.23677e-11
2.35963e-11 4.23677e-11 65.6254

68.2685 0.522889 -1.7718e-11
0.522889 57.4667 2.08044e-11
-1.7718e-11 2.08044e-11 61.7459

79.5224 -0.394633 -2.21432e-11
-0.394633 83.6559 1.25292e-12
-2.21432e-11 1.25292e-12 82.4963

68.5562 1.51873 -1.86761e-11
1.51873 82.378 1.77206e-11
-1.86761e-11 1.77206e-11 76.7052

69.0633 -0.503696 -1.66116e-11
-0.503696 59.1087 1.54064e-11
-1.66116e-11 1.54064e-11 62.4958

79.8341 0.4109 -6.88257e-12
0.4109 66.759 1.34788e-11
-6.88257e-12 1.34788e-11 73.8083

47.9959 3.18436 -4.88335e-11
3.18436 54.9399 -2.15776e-11
-4.88335e-11 -2.15776e-11 50.1946

50.3284 -5.14992 -1.16568e-11
-5.14992 55.8473 2.94797e-11
-1.16568e-11 2.94797e-11 50.6497

56.328 3.20763 -3.77572e-11
3.20763 49.7043 -1.46392e-11
-3.77572e-11 -1.46392e-11 51.3009

80.7707 -5.87833 -3.56108e-12
-5.87833 84.3508 2.86902e-11
-3.56108e-12 2.86902e-11 81.9025

76.4593 -2.055 -7.33642e-11
-2.055 82.2869 -5.00326e-12
-7.33642e-11 -5.00326e-12 79.0835

59.9392 3.04842 1.97369e-11
3.04842 69.5213 1.42528e-11
1.97369e-11 1.42528e-11 65.7888

64.012 3.53687 2.86921e-11
3.53687 74.9681 1.27092e-11
2.86921e-11 1.27092e-11 71.6761

68.3468 -1.68301 1.11656e-11
-1.68301 82.4637 -5.23841e-11
1.11656e-11 -5.23841e-11 76.5184

76.3084 -4.40139 3.50435e-11
-4.40139 82.2786 -4.62304e-12
3.50435e-11 -4.62304e-12 79.985

71.9718 -3.13486 -2.22506e-11
-3.13486 61.9348 -1.23174e-11
-2.22506e-11 -1.23174e-11 67.9284

51.5547 1.00594 -4.43045e-11
1.00594 61.3155 -1.34885e-11
-4.43045e-11 -1.34885e-11 54.534

55.4425 -2.00881 -3.13984e-11
-2.00881 62.6021 -1.94493e-11
-3.13984e-11 -1.94493e-11 56.1474

61.556 0.754621 -9.64429e-12
0.754621 53.8591 -3.37091e-11
-9.64429e-12 -3.37091e-11 55.3521

58.9385 4.11088 1.14547e-11
4.11088 63.8196 8.85499e-12
1.14547e-11 8.85499e-12 61.3499

64.2399 -2.82546 -1.3095e-11
-2.82546 55.5191 2.33078e-11
-1.3095e-11 2.33078e-11 58.4196

65.0906 4.51491 -6.77532e-13
4.51491 65.9384 1.55974e-11
-6.77532e-13 1.55974e-11 65.6242

67.8799 3.19854 3.9084e-11
3.19854 70.1397 -2.35048e-11
3.9084e-11 -2.35048e-11 66.9306

72.7305 -0.96689 1.5986e-11
-0.96689 60.6851 7.31581e-12
1.5986e-11 7.31581e-12 66.5336

45.7722 2.16021 -5.20015e-11
2.16021 50.7501 2.6191e-11
-5.20015e-11 2.6191e-11 45.7301

77.0042 1.08293 -2.771e-11
1.08293 64.9557 -8.08823e-12
-2.771e-11 -8.08823e-12 71.9305

50.9693 2.01478 2.46585e-11
2.01478 47.3435 2.9859e-11
2.46585e-11 2.9859e-11 46.6006

83.9534 -2.00348 1.05921e-11
-2.00348 85.8203 -1.02057e-11
1.05921e-11 -1.02057e-11 84.1691

76.9345 0.254846 5.19872e-11
0.254846 84.7418 3.84552e-12
5.19872e-11 3.84552e-12 79.7904

89.51 -2.14773 -8.56636e-11
-2.14773 85.9001 -1.3433e-12
-8.56636e-11 -1.3433e-12 85.351

87.0963 5.19687 -3.17513e-11
5.19687 87.6406 3.84281e-12
-3.17513e-11 3.84281e-12 85.2808

60.134 -1.37043 9.63081e-12
-1.37043 52.58 4.6611e-11
9.63081e-12 4.6611e-11 53.4888

65.367 4.78942 1.73372e-12
4.78942 68.4535 2.31079e-11
1.73372e-12 2.31079e-11 68.4733

78.5916 2.73846 1.9619e-11
2.73846 77.7645 -9.628e-12
1.9619e-11 -9.628e-12 78.7447

80.9301 -0.771396 -4.54881e-12
-0.771396 79.8449 1.52102e-11
-4.54881e-12 1.52102e-11 79.8131

79.926 0.413982 1.66836e-11
0.413982 65.9827 5.38987e-12
1.66836e-11 5.38987e-12 73.8205

65.3334 4.51208 -1.71417e-11
4.51208 68.8094 -5.77464e-12
-1.71417e-11 -5.77464e-12 65.7127

65.3627 -3.57586 -9.24638e-12
-3.57586 60.7319 -6.74016e-12
-9.24638e-12 -6.74016e-12 60.7023

79.0472 -0.0422879 -1.6923e-11
-0.0422879 63.9771 -5.00703e-12
-1.6923e-11 -5.00703e-12 72.29

61.5006 -6.15014 7.51177e-12
-6.15014 67.313 1.19369e-11
7.51177e-12 1.19369e-11 62.4874

62.9674 -5.36205 -1.85835e-11
-5.36205 68.8585 -3.52496e-11
-1.85835e-11 -3.52496e-11 63.7863

78.4249 2.71522 3.33128e-11
2.71522 80.6559 -3.27397e-12
3.33128e-11 -3.27397e-12 79.5016

60.4515 -6.15725 7.90153e-12
-6.15725 58.5569 -1.13652e-11
7.90153e-12 -1.13652e-11 57.2512

36.9165 -6.13669 -9.67187e-11
-6.13669 36.4469 2.89177e-11
-9.67187e-11 2.89177e-11 36.4561

36.5789 -6.50333 -6.24287e-11
-6.50333 38.27 -3.33202e-11
-6.24287e-11 -3.33202e-11 37.0653

74.3898 -7.14407 -5.34347e-11
-7.14407 82.0231 2.02269e-11
-5.34347e-11 2.02269e-11 78.6006

36.9954 -2.42837 -4.52787e-11
-2.42837 36.4895 -4.91193e-11
-4.52787e-11 -4.91193e-11 38.0121

35.4933 -1.98964 -1.92676e-11
-1.98964 36.8315 3.73741e-11
-1.92676e-11 3.73741e-11 37.3862

89.255 3.1029 -1.54143e-12
3.1029 83.0458 -6.93097e-12
-1.54143e-12 -6.93097e-12 86.1259

83.5034 -4.10619 -4.08301e-11
-4.10619 79.1531 -3.81141e-11
-4.08301e-11 -3.81141e-11 80.5555

74.2482 -2.14422 9.63082e-13
-2.14422 63.6835 8.47237e-12
9.63082e-13 8.47237e-12 70.9803

87.9646 4.17652 -2.00175e-11
4.17652 79.5923 7.70325e-12
-2.00175e-11 7.70325e-12 84.65

82.765 -5.75944 -2.77183e-11
-5.75944 78.5012 5.73849e-11
-2.77183e-11 5.73849e-11 80.2871

69.586 3.15746 -2.23311e-11
3.15746 74.3704 1.94465e-11
-2.23311e-11 1.94465e-11 71.3823

87.9528 -1.99369 -3.75731e-11
-1.99369 81.7754 8.03661e-12
-3.75731e-11 8.03661e-12 83.4975

84.9977 2.68046 5.17499e-12
2.68046 83.2819 1.31587e-11
5.17499e-12 1.31587e-11 83.2631

81.8913 4.89134 1.23241e-11
4.89134 75.3168 -1.65656e-11
1.23241e-11 -1.65656e-11 79.4649

76.1971 -6.22042 -1.98273e-11
-6.22042 71.9508 -1.75651e-11
-1.98273e-11 -1.75651e-11 74.9876

54.0015 -4.24906 -3.09196e-11
-4.24906 48.1679 1.88753e-11
-3.09196e-11 1.88753e-11 49.0326

88.7118 -1.21403 -1.15739e-12
-1.21403 92.1483 -3.61984e-11
-1.15739e-12 -3.61984e-11 90.1951

81.5508 -0.199757 -3.92833e-11
-0.199757 92.3303 -3.69654e-11
-3.92833e-11 -3.69654e-11 84.0825

58.9921 -5.19507 -2.50111e-12
-5.19507 64.1891 -1.11022e-15
-2.50111e-12 -1.11022e-15 61.7071

44.1913 -1.791 1.86836e-11
-1.791 49.4487 -3.91078e-11
1.86836e-11 -3.91078e-11 44.8542

48.5092 -1.67575 1.86858e-11
-1.67575 43.5738 1.17552e-11
1.86858e-11 1.17552e-11 44.1125

73.5217 2.01318 -1.1555e-11
2.01318 78.8661 -1.48283e-11
-1.1555e-11 -1.48283e-11 76.3428

62.6069 3.03179 9.24077e-12
3.03179 74.1599 4.23617e-12
9.24077e-12 4.23617e-12 70.1927

102.785 3.95644 -1.56172e-12
3.95644 91.2557 -6.94097e-12
-1.56172e-12 -6.94097e-12 93.933

102.021 1.17593 1.33969e-10
1.17593 106.094 -9.05025e-11
1.33969e-10 -9.05025e-11 92.415

66.0006 4.56152 1.89666e-11
4.56152 72.8453 5.00618e-12
1.89666e-11 5.00618e-12 73.0277

77.5086 3.60977 2.15741e-11
3.60977 68.2343 1.48217e-11
2.15741e-11 1.48217e-11 74.0674

74.3183 -5.49566 -1.46393e-11
-5.49566 66.5603 -1.03981e-11
-1.46393e-11 -1.03981e-11 71.5966

67.0811 6.26042 9.82229e-12
6.26042 72.2291 3.69788e-11
9.82229e-12 3.69788e-11 72.6648

68.159 -4.76045 6.54723e-12
-4.76045 78.4472 -2.2341e-11
6.54723e-12 -2.2341e-11 75.6133

59.074 -0.45123 2.16692e-11
-0.45123 49.7479 -3.89651e-13
2.16692e-11 -3.89651e-13 52.3551

69.412 -1.82132 -8.10182e-12
-1.82132 59.3049 -3.27398e-11
-8.10182e-12 -3.27398e-11 63.986

63.3758 2.23623 2.41744e-11
2.23623 54.8134 -6.93445e-12
2.41744e-11 -6.93445e-12 57.4867

77.5229 2.48217 4.12373e-11
2.48217 72.7188 4.62208e-12
4.12373e-11 4.62208e-12 76.6014

80.6884 1.6897 -5.35816e-12
1.6897 91.8069 -3.15789e-11
-5.35816e-12 -3.15789e-11 85.207

86.5155 -1.2445 3.25386e-11
-1.2445 87.2099 3.36959e-11
3.25386e-11 3.36959e-11 85.4016

54.7617 3.59177 1.47371e-11
3.59177 56.8397 -7.89339e-12
1.47371e-11 -7.89339e-12 53.421

66.5408 -4.61704 1.45397e-11
-4.61704 64.7051 -2.79293e-11
1.45397e-11 -2.79293e-11 64.9072

74.1163 2.49908 -1.88796e-11
2.49908 66.15 -2.56117e-11
-1.88796e-11 -2.56117e-11 70.4483

86.0608 2.78463 2.8858e-12
2.78463 95.1688 3.25665e-15
2.8858e-12 3.25665e-15 86.1246

87.8859 -1.86437 -1.55955e-11
-1.86437 91.5189 -4.2937e-11
-1.55955e-11 -4.2937e-11 89.5955

79.5199 -0.681356 6.16166e-12
-0.681356 73.4531 -1.07832e-11
6.16166e-12 -1.07832e-11 77.4889

75.2245 -3.59169 2.55161e-11
-3.59169 79.7596 5.00341e-12
2.55161e-11 5.00341e-12 76.476

66.7704 -1.16173 -7.8009e-12
-1.16173 77.7467 -1.30983e-11
-7.8009e-12 -1.30983e-11 72.7548

77.9571 0.796644 6.93164e-12
0.796644 64.7949 -1.32892e-11
6.93164e-12 -1.32892e-11 74.311

76.8976 -2.50353 3.46552e-12
-2.50353 64.4464 -1.11733e-11
3.46552e-12 -1.11733e-11 73.4207

56.4931 -5.10195 -2.03178e-11
-5.10195 54.3135 2.46557e-11
-2.03178e-11 2.46557e-11 53.2136

82.6882 3.14896 -4.82485e-11
3.14896 70.2529 -2.79151e-11
-4.82485e-11 -2.79151e-11 78.935

80.1363 -4.89719 5.08896e-11
-4.89719 70.3046 -3.04348e-11
5.08896e-11 -3.04348e-11 76.6607

72.195 -4.36146 -2.86915e-11
-4.36146 63.8126 6.16684e-12
-2.86915e-11 6.16684e-12 68.4102

59.9337 -4.34493 -1.75235e-11
-4.34493 66.9929 -1.19429e-11
-1.75235e-11 -1.19429e-11 62.8816

78.5446 1.89408 -1.38608e-11
1.89408 69.3884 1.65601e-11
-1.38608e-11 1.65601e-11 75.9816

77.1801 -3.51266 1.84911e-11
-3.51266 67.9055 -1.5896e-11
1.84911e-11 -1.5896e-11 74.1332

73.451 -1.14922 1.86376e-11
-1.14922 65.2265 2.54196e-11
1.86376e-11 2.54196e-11 68.726

82.6582 5.4763 -1.88802e-11
5.4763 79.9487 -1.25144e-11
-1.88802e-11 -1.25144e-11 81.5251

62.8447 3.63227 1.66582e-11
3.63227 60.3758 -1.54035e-11
1.66582e-11 -1.54035e-11 60.1244

66.4882 5.44074 -9.24945e-12
5.44074 71.43 -4.89182e-11
-9.24945e-12 -4.89182e-11 73.1745

80.9666 4.0459 7.89561e-12
4.0459 83.9455 -1.34537e-12
7.89561e-12 -1.34537e-12 83.3114

66.2499 2.02127 2.86984e-11
2.02127 56.5789 -1.61832e-11
2.86984e-11 -1.61832e-11 60.569

72.3665 -2.70781 -2.38032e-13
-2.70781 69.0706 -4.3907e-11
-2.38032e-13 -4.3907e-11 71.4641

71.5655 1.69183 -8.56959e-12
1.69183 63.6858 -6.31678e-11
-8.56959e-12 -6.31678e-11 67.3404

57.1613 4.3484 3.07857e-12
4.3484 58.7286 -1.84934e-11
3.07857e-12 -1.84934e-11 57.3546

64.0151 4.10759 5.00585e-12
4.10759 62.1218 -2.31105e-11
5.00585e-12 -2.31105e-11 63.5969

61.5323 0.0484066 -6.16265e-12
0.0484066 75.7661 3.54359e-11
-6.16265e-12 3.54359e-11 69.8568

69.9027 -1.77086 1.94489e-11
-1.77086 77.0201 1.36742e-11
1.94489e-11 1.36742e-11 73.7264

55.0015 -5.12159 -2.82105e-11
-5.12159 49.2151 8.16731e-11
-2.82105e-11 8.16731e-11 50.7964

70.4616 -6.98594 -2.58074e-11
-6.98594 77.1203 4.29493e-11
-2.58074e-11 4.29493e-11 74.2279

58.1722 -6.16159 -3.23525e-11
-6.16159 61.3277 -4.81484e-11
-3.23525e-11 -4.81484e-11 58.3587

63.6671 4.99903 -4.5456e-11
4.99903 63.826 -4.08343e-11
-4.5456e-11 -4.08343e-11 61.3732

72.0749 -2.28342 -1.95007e-11
-2.28342 66.811 -2.91761e-11
-1.95007e-11 -2.91761e-11 68.4547

81.5984 -0.177966 4.04543e-12
-0.177966 67.9793 1.07836e-11
4.04543e-12 1.07836e-11 76.2265

80.1214 0.733855 2.45574e-12
0.733855 68.4865 -1.03999e-11
2.45574e-12 -1.03999e-11 75.887

54.0026 2.29161 -3.60208e-11
2.29161 64.4222 -2.38815e-11
-3.60208e-11 -2.38815e-11 58.8048

67.1024 -5.50405 2.72512e-11
-5.50405 68.9613 2.30867e-12
2.72512e-11 2.30867e-12 66.5997

47.1171 -0.75529 4.58425e-11
-0.75529 58.8845 8.47011e-12
4.58425e-11 8.47011e-12 51.8588

51.369 -0.956609 1.30917e-11
-0.956609 60.8885 -3.21753e-11
1.30917e-11 -3.21753e-11 53.9224

58.692 -1.26549 1.44464e-11
-1.26549 48.5225 9.63019e-12
1.44464e-11 9.63019e-12 52.2704

58.512 3.64024 7.12245e-12
3.64024 56.9554 1.63746e-11
7.12245e-12 1.63746e-11 54.9031

60.1664 -6.32155 1.02072e-11
-6.32155 56.7057 -2.50349e-11
1.02072e-11 -2.50349e-11 57.818

100.732 -1.5 7.37327e-11
-1.5 101.034 -3.19719e-11
7.37327e-11 -3.19719e-11 90.8499

87.6875 -5.69413 -1.36893e-10
-5.69413 94.7336 -3.84823e-11
-1.36893e-10 -3.84823e-11 90.7581

64.9617 -3.74352 6.52967e-11
-3.74352 55.9266 2.88788e-11
6.52967e-11 2.88788e-11 59.8661

75.5469 5.05779 1.30948e-11
5.05779 77.225 1.02077e-11
1.30948e-11 1.02077e-11 76.0109

74.7623 0.336865 3.08997e-12
0.336865 64.0826 1.50171e-11
3.08997e-12 1.50171e-11 71.378

59.5265 -4.58767 -3.41835e-11
-4.58767 67.3681 -2.40699e-11
-3.41835e-11 -2.40699e-11 61.3432

66.302 4.77465 2.78632e-12
4.77465 78.467 -8.8601e-12
2.78632e-12 -8.8601e-12 75.4947

84.0562 1.98714 1.92581e-12
1.98714 86.8703 -1.50197e-11
1.92581e-12 -1.50197e-11 86.2857

69.0238 -6.50507 -2.00248e-11
-6.50507 71.9707 8.08864e-12
-2.00248e-11 8.08864e-12 72.9477

83.3682 4.86974 -1.21267e-11
4.86974 83.9798 1.86786e-11
-1.21267e-11 1.86786e-11 84.3764

62.6534 3.85787 1.80085e-11
3.85787 70.7616 2.65781e-11
1.80085e-11 2.65781e-11 68.8468

78.121 -0.459493 2.00323e-11
-0.459493 59.6918 2.19495e-11
2.00323e-11 2.19495e-11 74.1301

63.9312 4.75853 7.8962e-12
4.75853 58.8314 1.90665e-11
7.8962e-12 1.90665e-11 59.9126

71.3877 -7.39202 1.48755e-11
-7.39202 80.1629 -1.69481e-11
1.48755e-11 -1.69481e-11 75.634

65.5982 4.28356 1.09724e-11
4.28356 64.4982 -7.30015e-11
1.09724e-11 -7.30015e-11 63.1623

54.8205 -4.2043 6.93282e-12
-4.2043 57.3522 3.19756e-11
6.93282e-12 3.19756e-11 53.0309

68.0492 -6.05163 2.60001e-11
-6.05163 72.8279 -1.32934e-11
2.60001e-11 -1.32934e-11 69.9424

52.7547 -2.73121 3.79405e-11
-2.73121 62.0825 -9.64014e-12
3.79405e-11 -9.64014e-12 55.6168

58.4287 1.04224 3.7173e-11
1.04224 64.1332 -3.85324e-11
3.7173e-11 -3.85324e-11 58.2341

60.9046 -2.57113 -1.90218e-13
-2.57113 53.5828 3.35169e-11
-1.90218e-13 3.35169e-11 55.4063

61.2345 -5.51352 2.04244e-11
-5.51352 60.4178 -5.8163e-11
2.04244e-11 -5.8163e-11 59.8901

59.7058 -0.261406 -1.54096e-11
-0.261406 71.2148 -4.62193e-12
-1.54096e-11 -4.62193e-12 65.0354

68.1612 -0.989215 2.31104e-11
-0.989215 73.6878 3.46634e-11
2.31104e-11 3.46634e-11 68.777

50.4755 -5.51701 -1.09822e-11
-5.51701 53.8551 2.19562e-11
-1.09822e-11 2.19562e-11 50.5024

54.7222 4.0907 -6.54306e-12
4.0907 56.0724 1.67632e-11
-6.54306e-12 1.67632e-11 52.9076

76.7054 0.0197512 3.89022e-11
0.0197512 65.0836 -7.13218e-12
3.89022e-11 -7.13218e-12 75.227

76.0969 -0.978348 -2.69714e-12
-0.978348 65.2792 -2.42638e-11
-2.69714e-12 -2.42638e-11 74.5446

77.1216 4.42051 8.08783e-12
4.42051 78.2551 1.23209e-11
8.08783e-12 1.23209e-11 77.3111

73.7649 -7.3026 -2.87252e-13
-7.3026 82.0251 1.92542e-12
-2.87252e-13 1.92542e-12 78.2047

68.8614 5.01041 1.28102e-11
5.01041 69.6905 2.0602e-11
1.28102e-11 2.0602e-11 71.0536

51.7809 2.30275 2.44677e-11
2.30275 46.635 1.53951e-12
2.44677e-11 1.53951e-12 47.3179

61.3922 2.75069 1.63656e-11
2.75069 67.9992 -2.90859e-11
1.63656e-11 -2.90859e-11 62.8887

84.9728 2.53903 8.08479e-12
2.53903 76.5409 -1.73233e-11
8.08479e-12 -1.73233e-11 81.6804

80.9225 -4.42762 -2.34935e-11
-4.42762 73.5152 -2.81172e-11
-2.34935e-11 -2.81172e-11 77.634

78.8235 3.6199 3.35119e-11
3.6199 72.9384 1.96373e-11
3.35119e-11 1.96373e-11 76.1167

74.9403 -5.23225 -5.77879e-12
-5.23225 68.7879 -4.8142e-11
-5.77879e-12 -4.8142e-11 72.2856

33.5975 -2.61695 -2.52424e-11
-2.61695 28.7 -1.34845e-11
-2.52424e-11 -1.34845e-11 35.4365

28.6044 -3.06194 -2.44721e-11
-3.06194 34.7759 -1.31004e-11
-2.44721e-11 -1.31004e-11 35.9696

54.5186 -3.47525 3.0819e-11
-3.47525 65.0316 -1.50315e-11
3.0819e-11 -1.50315e-11 59.5192

94.5952 4.15204 3.46468e-11
4.15204 83.5114 -2.77279e-11
3.46468e-11 -2.77279e-11 88.6237

91.5139 -5.87193 -3.81303e-11
-5.87193 86.1261 1.00519e-10
-3.81303e-11 1.00519e-10 85.2693

72.8778 4.20986 -2.15753e-11
4.20986 68.7667 -3.56271e-11
-2.15753e-11 -3.56271e-11 70.1156

52.2471 1.70077 2.01291e-11
1.70077 46.1328 -1.6575e-11
2.01291e-11 -1.6575e-11 47.2588

69.4085 -5.07175 1.92786e-12
-5.07175 77.3532 -2.25337e-11
1.92786e-12 -2.25337e-11 73.2401

63.1609 -2.43513 -4.04415e-12
-2.43513 75.7861 5.38895e-12
-4.04415e-12 5.38895e-12 70.6645

59.387 -6.04081 1.69517e-11
-6.04081 60.9683 5.64278e-11
1.69517e-11 5.64278e-11 58.0322

67.7508 -4.89183 -3.66203e-12
-4.89183 71.7265 -1.65635e-11
-3.66203e-12 -1.65635e-11 73.3739

68.6272 -5.68431 5.38791e-12
-5.68431 64.5388 -5.62403e-11
5.38791e-12 -5.62403e-11 66.4511

62.5618 7.40308 -1.04042e-11
7.40308 72.9003 -2.96608e-11
-1.04042e-11 -2.96608e-11 72.5312

84.8871 1.80315 -1.80979e-11
1.80315 87.0878 -6.44936e-12
-1.80979e-11 -6.44936e-12 86.4163

76.724 3.10473 -1.0786e-11
3.10473 81.4915 -3.46589e-12
-1.0786e-11 -3.46589e-12 79.1103

67.0275 -5.44543 9.63155e-13
-5.44543 69.8775 2.61851e-11
9.63155e-13 2.61851e-11 70.1962

65.7805 5.3148 1.87822e-11
5.3148 70.1026 1.88711e-11
1.87822e-11 1.88711e-11 69.9297

61.3178 3.53694 2.52315e-11
3.53694 54.962 2.65838e-11
2.52315e-11 2.65838e-11 56.7736

69.2666 -0.00975794 3.2759e-12
-0.00975794 60.1773 1.54008e-11
3.2759e-12 1.54008e-11 64.49

85.3801 3.66769 -1.00147e-11
3.66769 85.1699 -2.73426e-11
-1.00147e-11 -2.73426e-11 85.6006

64.7828 -5.88145 -2.24354e-11
-5.88145 73.2394 1.02079e-11
-2.24354e-11 1.02079e-11 68.1287

56.5472 0.892238 -6.88505e-11
0.892238 69.3579 4.24327e-12
-6.88505e-11 4.24327e-12 62.9246

76.1399 5.4957 1.09885e-11
5.4957 71.3436 3.71643e-11
1.09885e-11 3.71643e-11 73.8747

65.2066 0.1534 6.55046e-12
0.1534 72.0011 1.86818e-11
6.55046e-12 1.86818e-11 67.1915

66.1105 -4.0974 5.77555e-12
-4.0974 77.6029 1.96438e-11
5.77555e-12 1.96438e-11 75.1276

42.0801 -3.46082 3.79507e-11
-3.46082 44.0725 9.51668e-11
3.79507e-11 9.51668e-11 41.2747

44.0303 -3.5384 -4.78716e-11
-3.5384 41.6624 -2.69133e-12
-4.78716e-11 -2.69133e-12 41.0572

73.2969 1.21385 -4.28515e-11
1.21385 62.6764 8.09453e-12
-4.28515e-11 8.09453e-12 68.9152

69.872 -6.47769 6.35055e-12
-6.47769 66.8441 -3.77493e-11
6.35055e-12 -3.77493e-11 69.3514

102.152 3.67506 -2.92961e-11
3.67506 88.9844 -8.0667e-11
-2.92961e-11 -8.0667e-11 92.7773

103.55 -1.03363 1.53258e-10
-1.03363 95.6968 -1.77142e-11
1.53258e-10 -1.77142e-11 90.5039

64.0494 -4.56466 -1.35155e-12
-4.56466 70.8601 2.42665e-11
-1.35155e-12 2.42665e-11 69.3419

81.2734 -1.38431 9.65272e-12
-1.38431 83.5587 -8.6691e-12
9.65272e-12 -8.6691e-12 82.2035

80.5688 4.7855 4.74331e-11
4.7855 85.8647 3.81331e-11
4.74331e-11 3.81331e-11 82.5833

75.8777 0.430229 3.3246e-12
0.430229 62.4219 3.58134e-11
3.3246e-12 3.58134e-11 69.1209

70.4827 -7.92269 3.43719e-11
-7.92269 79.5535 8.27616e-12
3.43719e-11 8.27616e-12 75.2395

45.6514 2.66322 2.40809e-11
2.66322 45.8703 2.27337e-11
2.40809e-11 2.27337e-11 44.0424

44.2388 2.56767 -3.23647e-11
2.56767 44.2995 -8.96209e-12
-3.23647e-11 -8.96209e-12 42.9511

43.3615 -3.08328 -2.88998e-12
-3.08328 50.5453 2.15779e-11
-2.88998e-12 2.15779e-11 45.6547

47.5978 1.5344 1.44544e-11
1.5344 52.8386 3.92946e-11
1.44544e-11 3.92946e-11 47.9201

50.4037 -2.61918 -1.05974e-11
-2.61918 43.9453 4.52024e-12
-1.05974e-11 4.52024e-12 45.7995

63.593 -7.27338 4.6213e-12
-7.27338 72.4907 8.85629e-12
4.6213e-12 8.85629e-12 72.5944

39.4886 0.14652 -1.94506e-11
0.14652 47.9097 5.62543e-11
-1.94506e-11 5.62543e-11 42.7724

48.3097 0.217094 1.40645e-11
0.217094 41.1511 1.92894e-12
1.40645e-11 1.92894e-12 43.6003

80.2228 0.488435 -2.88828e-11
0.488435 88.4155 2.46467e-11
-2.88828e-11 2.46467e-11 82.4945

83.5444 -4.17304 -1.21378e-11
-4.17304 88.0937 2.24358e-11
-1.21378e-11 2.24358e-11 85.0974

76.6873 1.67439 1.14608e-11
1.67439 69.6405 -5.39213e-12
1.14608e-11 -5.39213e-12 73.2733

79.8583 0.278432 9.3903e-12
0.278432 64.6867 8.4714e-12
9.3903e-12 8.4714e-12 73.5028

51.4597 -3.93601 5.39058e-12
-3.93601 58.2955 -7.01177e-11
5.39058e-12 -7.01177e-11 53.8776

55.9653 2.51809 -1.69398e-11
2.51809 61.2565 4.79655e-11
-1.69398e-11 4.79655e-11 56.4747

76.0782 0.329795 2.69196e-11
0.329795 62.9386 -1.15595e-11
2.69196e-11 -1.15595e-11 69.457

61.1882 -4.00474 3.65781e-12
-4.00474 69.9677 1.15546e-11
3.65781e-12 1.15546e-11 66.5174

90.3823 2.33596 -7.82411e-13
2.33596 81.8481 -5.41066e-11
-7.82411e-13 -5.41066e-11 86.3657

86.9323 -3.23916 5.00851e-12
-3.23916 81.6323 1.04063e-11
5.00851e-12 1.04063e-11 82.6382

71.6081 3.81301 1.10782e-11
3.81301 71.3227 1.579e-11
1.10782e-11 1.579e-11 72.3107

68.6137 -6.69242 1.72344e-11
-6.69242 76.2378 3.07843e-12
1.72344e-11 3.07843e-12 71.6753

75.2924 1.728 -1.2764e-11
1.728 64.6455 -6.31664e-11
-1.2764e-11 -6.31664e-11 71.0111

53.8665 3.49844 4.72378e-12
3.49844 52.7207 2.00328e-11
4.72378e-12 2.00328e-11 51.6291

68.3733 -7.21839 -1.38649e-11
-7.21839 75.5321 -3.27331e-12
-1.38649e-11 -3.27331e-12 71.2059

34.7206 6.40259 5.18152e-11
6.40259 34.8313 -4.52779e-11
5.18152e-11 -4.52779e-11 35.1218

62.5578 -2.64011 -9.4335e-12
-2.64011 71.0456 -3.46316e-12
-9.4335e-12 -3.46316e-12 65.5638

57.6093 -1.56006 3.36994e-11
-1.56006 69.5309 4.23143e-12
3.36994e-11 4.23143e-12 63.3129

79.2229 -0.698888 3.10026e-11
-0.698888 91.729 3.88938e-11
3.10026e-11 3.88938e-11 83.1691

85.4132 -3.28255 1.15524e-11
-3.28255 88.1253 4.94838e-11
1.15524e-11 4.94838e-11 86.7758

81.9399 1.82776 -4.23665e-12
1.82776 63.6383 -6.93408e-12
-4.23665e-12 -6.93408e-12 77.6503

80.5256 -2.7004 3.38938e-11
-2.7004 65.0004 -6.93379e-12
3.38938e-11 -6.93379e-12 76.398

73.7831 5.51983 -2.07003e-11
5.51983 74.0342 1.34801e-11
-2.07003e-11 1.34801e-11 75.6273

75.0342 -3.53669 4.18747e-12
-3.53669 76.4992 -1.21317e-11
4.18747e-12 -1.21317e-11 76.5575

80.0173 4.24581 4.12335e-11
4.24581 81.8728 3.6979e-11
4.12335e-11 3.6979e-11 81.313

80.5309 -2.95382 3.17462e-11
-2.95382 85.0265 2.88437e-12
3.17462e-11 2.88437e-12 81.9157

99.4615 4.03855 -2.88929e-11
4.03855 88.2473 -7.39302e-11
-2.88929e-11 -7.39302e-11 91.9886

96.2275 -5.64478 -6.62291e-11
-5.64478 93.1589 -7.23818e-11
-6.62291e-11 -7.23818e-11 88.2299

90.0356 4.16762 -5.39465e-12
4.16762 85.3753 -4.23491e-12
-5.39465e-12 -4.23491e-12 87.8972

70.6161 -7.87376 1.63655e-11
-7.87376 74.1186 -5.27733e-11
1.63655e-11 -5.27733e-11 75.6529

71.7207 4.35846 -2.61894e-11
4.35846 64.5432 -3.84944e-12
-2.61894e-11 -3.84944e-12 67.9035

68.2398 -4.93212 -2.48439e-11
-4.93212 74.5561 1.00172e-11
-2.48439e-11 1.00172e-11 69.7408

61.4653 -2.97965 1.00154e-11
-2.97965 71.5556 3.65916e-11
1.00154e-11 3.65916e-11 67.0569

56.016 -4.38084 5.58383e-12
-4.38084 55.023 -3.44841e-11
5.58383e-12 -3.44841e-11 52.2925

67.8624 -5.78487 1.75307e-11
-5.78487 61.8056 1.46273e-11
1.75307e-11 1.46273e-11 65.073

61.3422 1.99172 -1.96409e-11
1.99172 71.5162 1.42527e-11
-1.96409e-11 1.42527e-11 66.7369

69.926 5.79385 1.53964e-11
5.79385 67.2211 -4.98856e-11
1.53964e-11 -4.98856e-11 67.7269

68.198 8.59655 1.67992e-11
8.59655 74.5933 -4.62197e-11
1.67992e-11 -4.62197e-11 75.521

72.6852 -6.98281 -1.53095e-11
-6.98281 80.3136 -1.02057e-11
-1.53095e-11 -1.02057e-11 77.1972

64.0271 -6.58968 -1.32894e-11
-6.58968 62.801 -2.15711e-11
-1.32894e-11 -2.15711e-11 63.6841

78.7838 -0.472201 1.69451e-11
-0.472201 72.2775 -4.44834e-11
1.69451e-11 -4.44834e-11 74.8226

90.2409 -2.17776 1.19173e-10
-2.17776 93.9833 -7.00974e-11
1.19173e-10 -7.00974e-11 90.3356

100.471 -2.53214 -9.20298e-11
-2.53214 99.2391 1.96357e-11
-9.20298e-11 1.96357e-11 90.3547

66.9121 -2.56413 -3.65898e-11
-2.56413 75.6196 2.0032e-11
-3.65898e-11 2.0032e-11 72.8405

70.2071 3.55846 6.40717e-12
3.55846 66.7506 1.92246e-12
6.40717e-12 1.92246e-12 69.9849

82.1614 -0.262193 -6.52304e-12
-0.262193 76.2269 -3.87764e-13
-6.52304e-12 -3.87764e-13 79.2797

41.9428 -4.48207 2.50311e-12
-4.48207 45.0939 3.19781e-11
2.50311e-12 3.19781e-11 41.9905

44.6221 -4.02612 2.11268e-12
-4.02612 41.8974 4.82259e-12
2.11268e-12 4.82259e-12 42.0132

83.7526 -0.168032 -1.54983e-12
-0.168032 70.6206 -2.96582e-11
-1.54983e-12 -2.96582e-11 80.2515

82.2611 -0.833937 -5.39239e-12
-0.833937 70.4428 2.69473e-12
-5.39239e-12 2.69473e-12 78.1719

84.011 0.896595 -9.22096e-12
0.896595 75.6762 -4.25549e-11
-9.22096e-12 -4.25549e-11 79.6372

72.0329 2.34017 -3.08735e-11
2.34017 75.4399 1.8107e-11
-3.08735e-11 1.8107e-11 72.2698

67.886 3.03046 2.90458e-11
3.03046 61.8235 2.84942e-11
2.90458e-11 2.84942e-11 63.3191

83.1397 4.14507 -2.11942e-12
4.14507 78.986 -4.00516e-11
-2.11942e-12 -4.00516e-11 81.1709

76.6572 -5.42483 -1.17457e-11
-5.42483 72.7172 -4.58301e-11
-1.17457e-11 -4.58301e-11 75.3814

88.9005 -0.687799 -8.76129e-11
-0.687799 85.4177 -3.97178e-11
-8.76129e-11 -3.97178e-11 85.743

89.8361 5.9457 4.86344e-12
5.9457 97.8732 5.55394e-11
4.86344e-12 5.55394e-11 88.4954

64.8781 -4.641 -2.65751e-11
-4.641 73.1672 1.5024e-11
-2.65751e-11 1.5024e-11 71.5955

70.3844 3.047 -1.91696e-11
3.047 64.3276 -1.23266e-11
-1.91696e-11 -1.23266e-11 66.9931

84.3972 2.81478 -4.95815e-11
2.81478 76.2116 8.09604e-12
-4.95815e-11 8.09604e-12 81.4644

81.5405 -3.7953 2.94693e-11
-3.7953 75.2882 4.38967e-11
2.94693e-11 4.38967e-11 78.4202

73.4222 -6.46888 -6.99949e-11
-6.46888 79.4747 -1.3281e-11
-6.99949e-11 -1.3281e-11 75.6906

71.7194 -8.27756 -1.72365e-11
-8.27756 80.002 1.54098e-11
-1.72365e-11 1.54098e-11 75.6826

36.2224 7.65186 4.2778e-11
7.65186 37.0455 4.93234e-11
4.2778e-11 4.93234e-11 36.2652

72.0457 5.84425 -1.27552e-11
5.84425 79.3172 2.67656e-11
-1.27552e-11 2.67656e-11 77.9422

75.332 -5.15978 1.15996e-11
-5.15978 83.1107 2.15669e-11
1.15996e-11 2.15669e-11 79.1531

69.4065 -7.11971 9.53084e-12
-7.11971 78.146 2.77308e-11
9.53084e-12 2.77308e-11 73.8191

66.2693 -4.84054 5.85564e-11
-4.84054 59.337 -3.9968e-13
5.85564e-11 -3.9968e-13 61.6432

74.1559 -3.19781 -1.30998e-11
-3.19781 75.3148 1.54447e-12
-1.30998e-11 1.54447e-12 73.9408

73.9988 5.52548 -2.56115e-11
5.52548 74.585 1.46375e-11
-2.56115e-11 1.46375e-11 76.3383

75.064 -4.42711 -1.05871e-12
-4.42711 79.6654 1.15586e-11
-1.05871e-12 1.15586e-11 77.4334

76.8934 -0.445065 -1.97153e-12
-0.445065 65.5404 2.58025e-11
-1.97153e-12 2.58025e-11 72.0866

86.6033 1.62518 2.23511e-11
1.62518 78.1941 2.52164e-11
2.23511e-11 2.52164e-11 83.8993

85.0217 -1.5645 1.61711e-11
-1.5645 80.7185 3.15794e-11
1.61711e-11 3.15794e-11 81.7913

88.6545 -2.28636 1.92402e-13
-2.28636 95.8925 3.49439e-11
1.92402e-13 3.49439e-11 90.1652

86.8378 1.74333 -8.28663e-12
1.74333 98.8192 -8.89587e-11
-8.28663e-12 -8.89587e-11 87.2353

36.8885 0.58676 -4.47025e-11
0.58676 30.8634 -3.64104e-11
-4.47025e-11 -3.64104e-11 36.7407

30.7873 0.529677 1.8394e-11
0.529677 36.1249 -1.77284e-11
1.8394e-11 -1.77284e-11 36.149

82.5324 5.26894 -1.25188e-11
5.26894 81.141 1.3487e-12
-1.25188e-11 1.3487e-12 81.9871

72.1732 -5.26452 -1.38628e-11
-5.26452 72.3106 1.15733e-12
-1.38628e-11 1.15733e-12 74.0828

66.4298 -5.04149 -1.09767e-11
-5.04149 72.3072 -9.62848e-12
-1.09767e-11 -9.62848e-12 72.8861

34.4678 1.87677 5.81826e-11
1.87677 34.5504 -1.4253e-11
5.81826e-11 -1.4253e-11 36.3679

34.677 2.04557 1.81156e-11
2.04557 34.7558 4.62387e-11
1.81156e-11 4.62387e-11 36.6717

101.086 0.887519 1.5424e-12
0.887519 103.038 -2.26035e-10
1.5424e-12 -2.26035e-10 91.6164

100.351 1.43006 -2.18963e-11
1.43006 96.6553 1.236e-10
-2.18963e-11 1.236e-10 93.831

70.3996 -4.73419 -3.47102e-11
-4.73419 73.2438 -1.84863e-11
-3.47102e-11 -1.84863e-11 72.1724

65.13 -5.8685 1.30948e-11
-5.8685 66.3263 -7.32481e-12
1.30948e-11 -7.32481e-12 65.6175

81.3446 5.51135 5.19851e-12
5.51135 76.8513 -4.23638e-11
5.19851e-12 -4.23638e-11 79.4292

72.2949 -6.63802 -3.27372e-11
-6.63802 70.821 -1.46382e-11
-3.27372e-11 -1.46382e-11 73.0567

66.0763 -6.2279 9.05335e-12
-6.2279 68.2015 4.61786e-12
9.05335e-12 4.61786e-12 68.4268

71.9883 4.51819 2.04135e-11
4.51819 70.8611 7.88895e-12
2.04135e-11 7.88895e-12 70.1527

44.1498 -2.03846 1.88818e-11
-2.03846 51.4749 1.65667e-11
1.88818e-11 1.65667e-11 46.2964

47.7233 1.21081 5.8098e-13
1.21081 52.9791 5.08558e-11
5.8098e-13 5.08558e-11 48.003

51.3111 -1.88538 5.68338e-11
-1.88538 45.8721 -1.50425e-11
5.68338e-11 -1.50425e-11 46.8581

75.0605 6.00345 1.52078e-11
6.00345 73.9986 1.91624e-13
1.52078e-11 1.91624e-13 74.1867

42.2636 -1.46506 -5.47119e-11
-1.46506 48.8038 -3.6988e-11
-5.47119e-11 -3.6988e-11 43.8555

47.528 -1.00325 2.34057e-11
-1.00325 40.8915 -1.98373e-11
2.34057e-11 -1.98373e-11 42.7195

87.081 4.40344 4.17858e-11
4.40344 82.063 1.67473e-11
4.17858e-11 1.67473e-11 84.7805

76.7647 -6.40603 4.04062e-12
-6.40603 74.1854 -2.31068e-11
4.04062e-12 -2.31068e-11 76.8011

86.0826 5.40941 8.87709e-11
5.40941 80.977 -8.67254e-12
8.87709e-11 -8.67254e-12 84.041

77.3194 -6.26693 3.6396e-11
-6.26693 76.502 -2.31167e-11
3.6396e-11 -2.31167e-11 77.6509

34.0193 2.30382 1.13481e-10
2.30382 34.2684 2.75512e-11
1.13481e-10 2.75512e-11 35.8842

33.8288 2.25219 -1.58078e-11
2.25219 33.9471 -7.2063e-11
-1.58078e-11 -7.2063e-11 35.5344

77.6608 4.81759 5.52646e-11
4.81759 75.7823 -1.34866e-11
5.52646e-11 -1.34866e-11 76.3681

70.7488 -5.94937 -8.28648e-12
-5.94937 69.2721 -2.31106e-11
-8.28648e-12 -2.31106e-11 70.7556

86.221 -3.78385 2.04078e-11
-3.78385 88.9546 5.46804e-11
2.04078e-11 5.46804e-11 87.0451

83.355 -1.29694 3.87018e-11
-1.29694 89.5603 3.67749e-11
3.87018e-11 3.67749e-11 83.8946

88.9356 5.49071 1.88627e-11
5.49071 85.6002 -3.73542e-11
1.88627e-11 -3.73542e-11 87.5189

74.1122 -4.90187 1.07845e-11
-4.90187 79.0785 1.92298e-12
1.07845e-11 1.92298e-12 78.0395

88.7034 2.8877 -1.53862e-11
2.8877 76.2118 6.9305e-11
-1.53862e-11 6.9305e-11 84.0215

85.2382 -4.46456 2.69888e-12
-4.46456 76.3295 -3.0798e-12
2.69888e-12 -3.0798e-12 80.7908

69.4783 5.03704 3.56262e-11
5.03704 73.1874 2.50388e-11
3.56262e-11 2.50388e-11 73.6591

72.3203 -5.85309 -2.98475e-11
-5.85309 78.6212 -5.96786e-12
-2.98475e-11 -5.96786e-12 75.1937

85.3135 -4.06843 1.69674e-11
-4.06843 86.3557 4.02401e-11
1.69674e-11 4.02401e-11 84.1862

84.9602 -3.63556 -3.09976e-11
-3.63556 93.6066 -1.09707e-11
-3.09976e-11 -1.09707e-11 87.5993

93.7322 4.08002 -9.62747e-12
4.08002 81.5556 -2.4834e-11
-9.62747e-12 -2.4834e-11 87.5551

98.7906 1.33126 -4.81473e-11
1.33126 86.3108 -2.1952e-11
-4.81473e-11 -2.1952e-11 90.6974

91.3511 -4.41203 -7.70289e-12
-4.41203 85.0343 4.08214e-11
-7.70289e-12 4.08214e-11 85.0097

97.6665 -0.942865 6.00761e-11
-0.942865 90.6754 1.44779e-10
6.00761e-11 1.44779e-10 88.0479

82.2869 -1.01588 -1.25151e-11
-1.01588 94.6899 1.27093e-11
-1.25151e-11 1.27093e-11 84.986

86.9611 7.49434 -1.0264e-12
7.49434 86.8035 1.5405e-11
-1.0264e-12 1.5405e-11 84.7499

102.116 4.48051 7.46402e-11
4.48051 90.5159 2.80977e-11
7.46402e-11 2.80977e-11 94.2135

104.815 3.70914 2.87984e-10
3.70914 91.2155 -1.16709e-10
2.87984e-10 -1.16709e-10 94.8154

106.824 1.0317 2.46058e-10
1.0317 103.968 -1.31229e-11
2.46058e-10 -1.31229e-11 92.9891

90.4556 -5.20712 1.57482e-11
-5.20712 94.9185 -2.22205e-10
1.57482e-11 -2.22205e-10 87.0901

100.338 3.39664 -1.15623e-11
3.39664 88.3332 -4.73596e-11
-1.15623e-11 -4.73596e-11 92.7355

93.4433 2.7283 2.19443e-11
2.7283 88.1243 -3.71575e-11
2.19443e-11 -3.71575e-11 90.0354

100.23 4.39209 -5.69718e-11
4.39209 90.2681 7.6239e-11
-5.69718e-11 7.6239e-11 93.272

91.6421 -5.01302 -6.55635e-12
-5.01302 86.9508 -2.96494e-11
-6.55635e-12 -2.96494e-11 85.3956

95.7061 -2.51292 3.27219e-11
-2.51292 99.2074 -3.38948e-11
3.27219e-11 -3.38948e-11 89.5058

84.81 -2.24512 -1.30949e-11
-2.24512 82.9247 -1.30813e-11
-1.30949e-11 -1.30813e-11 82.2264

92.7869 4.42926 -2.34919e-11
4.42926 84.526 2.02145e-11
-2.34919e-11 2.02145e-11 88.563

95.9159 2.59964 -1.34706e-11
2.59964 86.6034 3.92838e-11
-1.34706e-11 3.92838e-11 90.1579

85.7178 -5.81501 2.23374e-11
-5.81501 83.3624 -4.27446e-11
2.23374e-11 -4.27446e-11 82.8451

92.6385 -2.82186 -5.23731e-11
-2.82186 87.0217 -2.84854e-11
-5.23731e-11 -2.84854e-11 85.7857

TENSORS Lagrange_strain float
0.000351846 6.15958e-05 3.47804e-08
6.15958e-05 0.000436391 -1.31776e-07
3.47804e-08 -1.31776e-07 0.000353737

0.00041936 4.10462e-05 -7.30482e-08
4.10462e-05 0.000488621 -5.77801e-08
-7.30482e-08 -5.77801e-08 0.000435323

0.000416651 3.28222e-05 -1.58249e-08
3.28222e-05 0.000483521 1.12104e-08
-1.58249e-08 1.12104e-08 0.000433511

0.000471741 1.79202e-05 1.17474e-08
1.79202e-05 0.000323885 4.54803e-08
1.17474e-08 4.54803e-08 0.000383415

0.000456588 7.11494e-06 8.70642e-08
7.11494e-06 0.000316581 8.69312e-08
8.70642e-08 8.69312e-08 0.000350236

0.000419733 3.88104e-05 -8.25886e-08
3.88104e-05 0.000490112 5.31623e-08
-8.25886e-08 5.31623e-08 0.00046374

0.000416095 3.58968e-05 -2.14381e-08
3.58968e-05 0.000487211 7.64937e-08
-2.14381e-08 7.64937e-08 0.000462023

0.000460965 -8.98369e-06 9.96163e-08
-8.98369e-06 0.000322335 -3.10584e-09
9.96163e-08 -3.10584e-09 0.000353323

0.000528358 1.39304e-06 -8.33921e-09
1.39304e-06 0.000349716 5.46939e-08
-8.33921e-09 5.46939e-08 0.000441163

0.000278612 5.98633e-05 1.70478e-07
5.98633e-05 0.000370877 8.61655e-09
1.70478e-07 8.61655e-09 0.000256465

0.000273879 -6.39088e-05 7.71503e-08
-6.39088e-05 0.000364612 1.12798e-07
7.71503e-08 1.12798e-07 0.000246282

0.000363429 6.18957e-05 -4.4226e-08
6.18957e-05 0.000297737 -1.91584e-07
-4.4226e-08 -1.91584e-07 0.000258251

0.000455552 -5.08141e-05 8.52955e-08
-5.08141e-05 0.000499461 -2.69328e-08
8.52955e-08 -2.69328e-08 0.000470282

0.000457645 -5.736e-05 6.00756e-08
-5.736e-05 0.000507351 1.04041e-08
6.00756e-08 1.04041e-08 0.000472901

0.000351803 5.82304e-05 3.5136e-08
5.82304e-05 0.000451375 -7.52548e-08
3.5136e-08 -7.52548e-08 0.000387013

0.000380298 6.97278e-05 1.24527e-07
6.97278e-05 0.000478591 4.52616e-08
1.24527e-07 4.52616e-08 0.000429881

0.000414555 -2.65245e-05 4.03514e-08
-2.65245e-05 0.00048508 3.89609e-10
4.03514e-08 3.89609e-10 0.000460477

0.000416793 -2.8638e-05 -1.81206e-08
-2.8638e-05 0.000487502 5.81928e-08
-1.81206e-08 5.81928e-08 0.000461951

0.00048141 2.66667e-05 6.52241e-08
2.66667e-05 0.000393874 5.16949e-08
6.52241e-08 5.16949e-08 0.000420664

0.000302009 2.31291e-05 1.23339e-07
2.31291e-05 0.000425326 1.00134e-07
1.23339e-07 1.00134e-07 0.000290218

0.00030087 -2.20785e-05 2.51728e-08
-2.20785e-05 0.000425742 1.3001e-08
2.51728e-08 1.3001e-08 0.000287705

0.000416476 1.89404e-05 -1.57979e-07
1.89404e-05 0.000331087 -1.1818e-07
-1.57979e-07 -1.1818e-07 0.000293954

0.000352883 6.88065e-05 -2.79062e-08
6.88065e-05 0.000419185 -6.24902e-08
-2.79062e-08 -6.24902e-08 0.000350729

0.000420271 -3.51497e-05 -9.70568e-08
-3.51497e-05 0.000307191 -8.95988e-08
-9.70568e-08 -8.95988e-08 0.000323285

0.000397122 6.3147e-05 -1.4797e-07
6.3147e-05 0.000418472 -6.87687e-08
-1.4797e-07 -6.87687e-08 0.000381363

0.000360696 6.87852e-05 1.16968e-08
6.87852e-05 0.000446577 1.15964e-07
1.16968e-08 1.15964e-07 0.000361358

0.00048069 -1.48154e-05 5.13672e-08
-1.48154e-05 0.000323849 1.6146e-08
5.13672e-08 1.6146e-08 0.00038875

0.000271107 5.32941e-05 6.41701e-08
5.32941e-05 0.000372297 -1.88333e-07
6.41701e-08 -1.88333e-07 0.000202743

0.000511913 6.72964e-06 -5.22385e-08
6.72964e-06 0.000340209 5.40928e-08
-5.22385e-08 5.40928e-08 0.000430304

0.000356466 5.34015e-05 8.49463e-08
5.34015e-05 0.000290377 -1.18815e-07
8.49463e-08 -1.18815e-07 0.000203432

0.000474026 8.46161e-06 4.51981e-08
8.46161e-06 0.000505503 3.49113e-09
4.51981e-08 3.49113e-09 0.000473976

0.00047412 2.75701e-06 -1.58389e-09
2.75701e-06 0.000504207 6.87771e-08
-1.58389e-09 6.87771e-08 0.00047384

0.000554612 3.0078e-05 2.50923e-07
3.0078e-05 0.000499096 8.10556e-08
2.50923e-07 8.10556e-08 0.00050188

0.000555074 -2.88391e-05 -1.52028e-08
-2.88391e-05 0.000499864 2.37096e-08
-1.52028e-08 2.37096e-08 0.000501436

0.000413563 -2.22953e-05 -1.73626e-08
-2.22953e-05 0.00029554 -1.31442e-07
-1.73626e-08 -1.31442e-07 0.000274993

0.000389399 6.7935e-05 8.01747e-08
6.7935e-05 0.00044061 2.01138e-07
8.01747e-08 2.01138e-07 0.000406605

0.00049216 1.25352e-05 -7.33978e-08
1.25352e-05 0.000463396 -1.40107e-07
-7.33978e-08 -1.40107e-07 0.000470497

0.000493266 -1.13627e-05 -6.69785e-08
-1.13627e-05 0.000466093 6.33788e-08
-6.69785e-08 6.33788e-08 0.000473276

0.000536885 2.70302e-07 7.5306e-08
2.70302e-07 0.00034073 4.84613e-08
7.5306e-08 4.84613e-08 0.000442966

0.000353308 7.45341e-05 3.85175e-08
7.45341e-05 0.000444377 8.02115e-08
3.85175e-08 8.02115e-08 0.000358497

0.000416144 -4.55044e-05 -8.95655e-08
-4.55044e-05 0.00035191 -3.97828e-08
-8.95655e-08 -3.97828e-08 0.000334809

0.000529105 -4.39925e-06 -2.55169e-09
-4.39925e-06 0.000328493 -4.46594e-08
-2.55169e-09 -4.46594e-08 0.000432779

0.000349006 -6.90909e-05 1.18127e-07
-6.90909e-05 0.000419105 6.09975e-08
1.18127e-07 6.09975e-08 0.000347144

0.000351757 -5.91681e-05 4.39788e-08
-5.91681e-05 0.000437242 -1.86207e-08
4.39788e-08 -1.86207e-08 0.000353253

0.000391146 7.84633e-05 8.90653e-08
7.84633e-05 0.000490025 -1.54228e-08
8.90653e-08 -1.54228e-08 0.000435486

0.000374751 -7.35751e-05 3.13526e-07
-7.35751e-05 0.000347376 -5.01798e-09
3.13526e-07 -5.01798e-09 0.000308014

9.8501e-05 0.000150237 5.39215e-08
0.000150237 0.000201974 5.39215e-08
5.39215e-08 5.39215e-08 4.93724e-05

0.000188753 0.000148429 -3.50865e-09
0.000148429 0.000108106 -3.50865e-09
-3.50865e-09 -3.50865e-09 4.78873e-05

0.000404791 -7.02137e-05 -7.96485e-08
-7.02137e-05 0.000492047 -8.93763e-08
-7.96485e-08 -8.93763e-08 0.000457773

0.000177955 6.30647e-05 4.04685e-09
6.30647e-05 0.000304818 1.24103e-07
4.04685e-09 1.24103e-07 0.00010197

0.000284659 5.64945e-05 1.02918e-07
5.64945e-05 0.000192492 5.62889e-08
1.02918e-07 5.62889e-08 0.000104033

0.000483396 -4.92524e-05 2.55177e-07
-4.92524e-05 0.000526437 4.67688e-08
2.55177e-07 4.67688e-08 0.000500182

0.000483494 4.89835e-05 1.73194e-08
4.89835e-05 0.000525412 6.56235e-08
1.73194e-08 6.56235e-08 0.000500331

0.000516754 1.45958e-06 -2.7103e-08
1.45958e-06 0.000407695 8.58836e-08
-2.7103e-08 8.58836e-08 0.000451576

0.000485486 -4.27174e-05 2.11372e-07
-4.27174e-05 0.000514923 -2.61514e-07
2.11372e-07 -2.61514e-07 0.000503751

0.000485396 4.30518e-05 3.08228e-08
4.30518e-05 0.000514696 -2.94066e-08
3.08228e-08 -2.94066e-08 0.000503906

0.000360587 6.88345e-05 4.22626e-10
6.88345e-05 0.000464952 -2.53878e-08
4.22626e-10 -2.53878e-08 0.000393718

0.000553785 2.81624e-05 8.91194e-08
2.81624e-05 0.000467202 7.96357e-09
8.91194e-08 7.96357e-09 0.000494802

0.000554589 -2.78161e-05 1.58937e-07
-2.78161e-05 0.000466724 1.74033e-08
1.58937e-07 1.74033e-08 0.000494493

0.00045575 -5.68682e-05 -1.07323e-07
-5.68682e-05 0.00048556 1.30697e-07
-1.07323e-07 1.30697e-07 0.000468495

0.000455456 5.65833e-05 -5.89106e-09
5.65833e-05 0.00048542 -5.92968e-08
-5.89106e-09 -5.92968e-08 0.000468806

0.000352705 -6.11484e-05 -1.9552e-08
-6.11484e-05 0.000272351 -1.32478e-07
-1.9552e-08 -1.32478e-07 0.000238773

0.000476698 2.75581e-05 -7.69321e-08
2.75581e-05 0.000548621 -5.45429e-08
-7.69321e-08 -5.45429e-08 0.000495495

0.000473909 2.17926e-05 -1.23041e-07
2.17926e-05 0.000546555 2.60333e-08
-1.23041e-07 2.60333e-08 0.000493568

0.000353771 -7.58733e-05 -1.27652e-07
-7.58733e-05 0.000446673 6.02017e-08
-1.27652e-07 6.02017e-08 0.000360262

0.000250581 -5.02187e-05 1.10429e-07
-5.02187e-05 0.000372158 6.60065e-08
1.10429e-07 6.60065e-08 0.000187914

0.000359385 -4.981e-05 -2.07434e-07
-4.981e-05 0.000254396 -8.00056e-09
-2.07434e-07 -8.00056e-09 0.000185063

0.00037835 5.98668e-05 -8.15532e-08
5.98668e-05 0.000482698 -5.16875e-08
-8.15532e-08 -5.16875e-08 0.000423377

0.000374247 5.57773e-05 -1.70881e-08
5.57773e-05 0.000472392 1.21151e-08
-1.70881e-08 1.21151e-08 0.00042015

0.000579036 -8.32218e-05 6.95734e-08
-8.32218e-05 0.000524329 -6.26619e-07
6.95734e-08 -6.26619e-07 0.000541398

0.000581662 8.33525e-05 9.34272e-07
8.33525e-05 0.000524956 -6.39043e-08
9.34272e-07 -6.39043e-08 0.000541478

0.000394416 8.49081e-05 4.36759e-08
8.49081e-05 0.000486409 -1.04422e-07
4.36759e-08 -1.04422e-07 0.000443703

0.000470207 4.19191e-05 -6.94377e-08
4.19191e-05 0.000436392 -1.71952e-08
-6.94377e-08 -1.71952e-08 0.00044905

0.000470735 -4.2572e-05 -2.5592e-08
-4.2572e-05 0.000434763 -1.31515e-07
-2.5592e-08 -1.31515e-07 0.000447683

0.000394814 8.11902e-05 -4.26944e-08
8.11902e-05 0.000469818 -6.49981e-08
-4.26944e-08 -6.49981e-08 0.000438632

0.000410968 -7.41779e-05 2.06314e-08
-7.41779e-05 0.000501334 -4.99668e-09
2.06314e-08 -4.99668e-09 0.000461166

0.000407906 -8.79851e-07 -5.85145e-08
-8.79851e-07 0.000270461 1.53809e-07
-5.85145e-08 1.53809e-07 0.00027034

0.000429295 3.31007e-05 -9.14268e-08
3.31007e-05 0.000305004 1.32909e-07
-9.14268e-08 1.32909e-07 0.000315545

0.000494773 1.34068e-05 -9.35406e-08
1.34068e-05 0.000404883 -5.12726e-08
-9.35406e-08 -5.12726e-08 0.000461515

0.000525997 -2.10045e-05 3.19077e-07
-2.10045e-05 0.000514946 1.9069e-07
3.19077e-07 1.9069e-07 0.000505726

0.000525807 1.80979e-05 -1.80027e-07
1.80979e-05 0.000516411 2.80988e-07
-1.80027e-07 2.80988e-07 0.00050608

0.000339312 6.13769e-05 3.13219e-08
6.13769e-05 0.000370377 1.82539e-08
3.13219e-08 1.82539e-08 0.000277926

0.000405121 -5.35916e-05 -1.66787e-07
-5.35916e-05 0.000378496 3.61919e-08
-1.66787e-07 3.61919e-08 0.000372902

0.000480701 3.21479e-05 6.26786e-08
3.21479e-05 0.00041225 9.49241e-08
6.26786e-08 9.49241e-08 0.000421727

0.000492684 1.72969e-05 -6.43555e-08
1.72969e-05 0.000542683 -5.14838e-08
-6.43555e-08 -5.14838e-08 0.000502

0.000492338 1.45251e-05 2.90794e-07
1.45251e-05 0.000541929 1.26699e-07
2.90794e-07 1.26699e-07 0.000501103

0.000496657 -9.8108e-06 -7.45372e-08
-9.8108e-06 0.000411798 2.9474e-08
-7.45372e-08 2.9474e-08 0.000465597

0.000415209 -2.09384e-05 3.65127e-08
-2.09384e-05 0.000484687 -6.52209e-08
3.65127e-08 -6.52209e-08 0.00043259

0.000416801 -2.85469e-05 -2.34719e-08
-2.85469e-05 0.000488615 -1.2114e-08
-2.34719e-08 -1.2114e-08 0.00043407

0.000522928 -1.97573e-05 7.79689e-08
-1.97573e-05 0.000429575 -3.4692e-08
7.79689e-08 -3.4692e-08 0.000477918

0.000523718 1.99602e-05 -1.03073e-07
1.99602e-05 0.000429513 3.45661e-08
-1.03073e-07 3.45661e-08 0.000479296

0.000363673 -6.10567e-05 -9.33225e-08
-6.10567e-05 0.000361774 1.03446e-07
-9.33225e-08 1.03446e-07 0.000280909

0.000468304 3.85966e-06 -2.32511e-08
3.85966e-06 0.000374313 7.37289e-09
-2.32511e-08 7.37289e-09 0.000381467

0.000515752 -2.99951e-05 -6.07038e-08
-2.99951e-05 0.000461964 8.86908e-09
-6.07038e-08 8.86908e-09 0.000495432

0.000515169 2.97865e-05 8.87838e-08
2.97865e-05 0.000462505 1.76347e-07
8.87838e-08 1.76347e-07 0.000495964

0.000479952 -3.33127e-05 -1.33129e-07
-3.33127e-05 0.000413593 -4.40125e-08
-1.33129e-07 -4.40125e-08 0.000420587

0.000361234 -6.90718e-05 -3.20371e-09
-6.90718e-05 0.000451815 2.20445e-07
-3.20371e-09 2.20445e-07 0.000363843

0.000521609 -2.22865e-05 6.17619e-08
-2.22865e-05 0.000439331 -1.19668e-07
6.17619e-08 -1.19668e-07 0.000474171

0.000522258 2.25205e-05 -9.28769e-08
2.25205e-05 0.000439298 -1.52158e-08
-9.28769e-08 -1.52158e-08 0.000475708

0.000473072 -1.46544e-05 5.21919e-08
-1.46544e-05 0.000359798 1.43384e-08
5.21919e-08 1.43384e-08 0.000401248

0.000407096 9.70373e-05 -3.89074e-08
9.70373e-05 0.000496555 1.95452e-08
-3.89074e-08 1.95452e-08 0.000449205

0.000398615 5.34955e-05 -3.18076e-08
5.34955e-05 0.000374703 -3.29323e-08
-3.18076e-08 -3.29323e-08 0.000335681

0.000393311 8.21716e-05 -6.67058e-08
8.21716e-05 0.000491732 -1.42348e-07
-6.67058e-08 -1.42348e-07 0.000446438

0.000401537 9.16162e-05 6.32399e-08
9.16162e-05 0.000502702 -6.40847e-08
6.32399e-08 -6.40847e-08 0.000450005

0.000433079 3.96698e-05 4.36875e-08
3.96698e-05 0.000346308 -2.79875e-08
4.36875e-08 -2.79875e-08 0.000344516

0.000443708 -3.29177e-05 9.48337e-08
-3.29177e-05 0.000395404 2.41569e-08
9.48337e-08 2.41569e-08 0.000424603

0.0004663 1.81429e-05 -8.4164e-08
1.81429e-05 0.000361147 -2.016e-07
-8.4164e-08 -2.016e-07 0.000393105

0.000352889 6.76896e-05 -2.6567e-08
6.76896e-05 0.000370518 -3.49226e-08
-2.6567e-08 -3.49226e-08 0.000319614

0.000398589 5.49146e-05 -1.44028e-07
5.49146e-05 0.000376955 -1.21355e-07
-1.44028e-07 -1.21355e-07 0.00037004

0.0003658 4.59821e-06 -4.2215e-08
4.59821e-06 0.000467939 -2.37348e-09
-4.2215e-08 -2.37348e-09 0.000417447

0.000366702 7.59245e-06 -2.51991e-08
7.59245e-06 0.000468133 -3.31508e-08
-2.51991e-08 -3.31508e-08 0.000417672

0.000364345 -6.88593e-05 -9.35947e-08
-6.88593e-05 0.00030976 1.10606e-07
-9.35947e-08 1.10606e-07 0.000263805

0.000394917 -8.1833e-05 1.12651e-07
-8.1833e-05 0.000470891 -2.06125e-07
1.12651e-07 -2.06125e-07 0.000439455

0.000356192 -8.06837e-05 -1.02132e-07
-8.06837e-05 0.000411501 -1.00194e-07
-1.02132e-07 -1.00194e-07 0.000328344

0.000355783 8.27496e-05 3.38255e-09
8.27496e-05 0.000409422 -2.12569e-07
3.38255e-09 -2.12569e-07 0.000327515

0.000454557 -3.01508e-05 6.80153e-08
-3.01508e-05 0.000380915 4.90525e-08
6.80153e-08 4.90525e-08 0.000396954

0.00053585 -4.54946e-06 5.34026e-08
-4.54946e-06 0.000354159 -6.00161e-09
5.34026e-08 -6.00161e-09 0.000460963

0.000535575 5.09914e-06 -1.95232e-08
5.09914e-06 0.000354716 -6.91058e-08
-1.95232e-08 -6.91058e-08 0.000459196

0.000318842 4.38697e-05 2.57801e-08
4.38697e-05 0.000427284 -1.356e-07
2.57801e-08 -1.356e-07 0.000332459

0.000397865 -6.64778e-05 -1.53691e-07
-6.64778e-05 0.000417508 9.77036e-08
-1.53691e-07 9.77036e-08 0.000379899

0.000256456 -1.46407e-06 -3.9579e-09
-1.46407e-06 0.000414165 5.88466e-08
-3.9579e-09 5.88466e-08 0.000272177

0.000255244 3.29062e-06 -8.09581e-08
3.29062e-06 0.000414847 4.38578e-08
-8.09581e-08 4.38578e-08 0.000270401

0.000409272 -5.2941e-07 -1.19077e-07
-5.2941e-07 0.000278577 -1.78885e-08
-1.19077e-07 -1.78885e-08 0.000275058

0.000362637 6.48009e-05 6.78404e-09
6.48009e-05 0.000364245 1.24832e-07
6.78404e-09 1.24832e-07 0.000279765

0.000382181 -7.59773e-05 -1.0994e-08
-7.59773e-05 0.000373453 2.5765e-08
-1.0994e-08 2.5765e-08 0.000330618

0.000494262 -3.7509e-05 4.55531e-07
-3.7509e-05 0.000574737 7.44603e-08
4.55531e-07 7.44603e-08 0.000508776

0.000494845 -3.39066e-05 2.83227e-07
-3.39066e-05 0.00057494 -1.61707e-07
2.83227e-07 -1.61707e-07 0.000509237

0.000438354 -3.88724e-05 5.10529e-08
-3.88724e-05 0.000347232 -1.11162e-08
5.10529e-08 -1.11162e-08 0.000348769

0.000384757 9.00497e-05 7.39466e-08
9.00497e-05 0.000483487 3.47453e-08
7.39466e-08 3.47453e-08 0.000417074

0.000517025 -2.40968e-06 -2.55837e-08
-2.40968e-06 0.000407013 4.24143e-08
-2.55837e-08 4.24143e-08 0.000450515

0.000317769 -4.31345e-05 3.77786e-08
-4.31345e-05 0.00043079 -1.68173e-08
3.77786e-08 -1.68173e-08 0.000333204

0.000410965 8.05846e-05 2.30079e-08
8.05846e-05 0.000506216 2.31461e-08
2.30079e-08 2.31461e-08 0.000463689

0.000400672 7.59151e-05 1.55016e-09
7.59151e-05 0.000495996 -1.30863e-08
1.55016e-09 -1.30863e-08 0.000459204

0.000407888 -9.68306e-05 -9.3979e-08
-9.68306e-05 0.000497142 1.89947e-08
-9.3979e-08 1.89947e-08 0.000449767

0.0004038 9.33199e-05 -7.53632e-08
9.33199e-05 0.000512345 -1.11349e-07
-7.53632e-08 -1.11349e-07 0.00045598

0.000376131 7.87021e-05 1.31309e-07
7.87021e-05 0.000467998 2.08234e-08
1.31309e-07 2.08234e-08 0.000410871

0.000554706 1.68352e-07 -1.28156e-08
1.68352e-07 0.00044966 -2.28422e-08
-1.28156e-08 -2.28422e-08 0.000511707

0.000383856 7.45402e-05 -9.68805e-08
7.45402e-05 0.000367243 4.99565e-08
-9.68805e-08 4.99565e-08 0.000327436

0.00039338 -8.29289e-05 3.92155e-08
-8.29289e-05 0.000491257 1.38816e-08
3.92155e-08 1.38816e-08 0.000446394

0.000381673 6.50363e-05 -1.0786e-07
6.50363e-05 0.000411299 -6.64943e-08
-1.0786e-07 -6.64943e-08 0.000345446

0.000326515 -5.61899e-05 -2.2346e-07
-5.61899e-05 0.000365398 9.31021e-08
-2.2346e-07 9.31021e-08 0.000265606

0.000388844 -6.86778e-05 -9.4278e-08
-6.86778e-05 0.000443628 1.00578e-08
-9.4278e-08 1.00578e-08 0.000407117

0.000312437 -3.92765e-05 3.93789e-08
-3.92765e-05 0.000439077 3.41681e-08
3.93789e-08 3.41681e-08 0.000301213

0.000310706 3.81741e-05 -1.74028e-07
3.81741e-05 0.00043632 -6.13165e-09
-1.74028e-07 -6.13165e-09 0.000299776

0.000420363 -2.69045e-05 -1.54843e-07
-2.69045e-05 0.000341027 6.15165e-08
-1.54843e-07 6.15165e-08 0.000302174

0.000381476 -6.68389e-05 -1.00983e-08
-6.68389e-05 0.000411442 7.88694e-10
-1.00983e-08 7.88694e-10 0.000344208

0.000366413 1.04529e-05 -2.6315e-08
1.04529e-05 0.000469815 -1.07192e-08
-2.6315e-08 -1.07192e-08 0.000377057

0.000366284 -2.83095e-07 -4.16868e-08
-2.83095e-07 0.000468615 -1.29464e-08
-4.16868e-08 -1.29464e-08 0.000376922

0.000312159 -7.72401e-05 -1.12872e-07
-7.72401e-05 0.000360591 9.1921e-08
-1.12872e-07 9.1921e-08 0.000259074

0.000308619 7.81057e-05 3.32821e-08
7.81057e-05 0.000363745 1.12294e-07
3.32821e-08 1.12294e-07 0.000262128

0.000552207 -6.97398e-06 -3.04397e-08
-6.97398e-06 0.000432897 -5.19125e-08
-3.04397e-08 -5.19125e-08 0.000503459

0.000552665 7.18961e-06 -4.39472e-08
7.18961e-06 0.000433058 2.43646e-08
-4.39472e-08 2.43646e-08 0.000503938

0.00039443 8.49685e-05 1.94973e-08
8.49685e-05 0.000486081 5.85658e-08
1.94973e-08 5.85658e-08 0.000425761

0.000400248 -7.72741e-05 -8.12274e-08
-7.72741e-05 0.000497672 -8.88122e-08
-8.12274e-08 -8.88122e-08 0.000457758

0.000409054 5.61894e-05 -2.02804e-08
5.61894e-05 0.000438733 1.9359e-07
-2.02804e-08 1.9359e-07 0.000424468

0.000357159 6.22564e-05 -4.86026e-09
6.22564e-05 0.000276117 -4.17665e-08
-4.86026e-09 -4.17665e-08 0.0002225

0.000321259 5.3172e-05 -1.27947e-07
5.3172e-05 0.000445197 1.09405e-07
-1.27947e-07 1.09405e-07 0.000338284

0.000490288 3.73019e-05 1.06633e-08
3.73019e-05 0.000486356 -5.97089e-08
1.06633e-08 -5.97089e-08 0.000488758

0.00049095 -3.74237e-05 -5.07461e-08
-3.74237e-05 0.000486676 1.32367e-07
-5.07461e-08 1.32367e-07 0.000488465

0.000469094 -5.08834e-05 -1.13085e-08
-5.08834e-05 0.000458975 3.15575e-08
-1.13085e-08 3.15575e-08 0.000446885

0.000468569 5.05752e-05 -6.09882e-08
5.05752e-05 0.000458901 -1.16371e-07
-6.09882e-08 -1.16371e-07 0.000447276

0.000183895 1.6651e-05 7.0804e-09
1.6651e-05 0.000383752 1.00768e-07
7.0804e-09 1.00768e-07 0.000100766

0.000362168 1.71775e-05 5.54553e-08
1.71775e-05 0.000203477 -5.70564e-08
5.54553e-08 -5.70564e-08 0.000100966

0.000319064 -5.04889e-05 -2.456e-08
-5.04889e-05 0.000447373 2.23484e-07
-2.456e-08 2.23484e-07 0.000340219

0.000529977 -4.04793e-05 -3.0375e-07
-4.04793e-05 0.000540053 2.77794e-07
-3.0375e-07 2.77794e-07 0.000530366

0.000529209 4.03876e-05 1.0413e-07
4.03876e-05 0.000540153 4.17413e-08
1.0413e-07 4.17413e-08 0.000530443

0.000428707 6.18847e-05 2.19896e-07
6.18847e-05 0.000431662 -4.86667e-08
2.19896e-07 -4.86667e-08 0.000400101

0.000380528 3.39204e-05 -7.57844e-08
3.39204e-05 0.00024773 1.60449e-07
-7.57844e-08 1.60449e-07 0.000221003

0.000468389 -6.55957e-06 -2.2998e-08
-6.55957e-06 0.000374713 -5.43213e-08
-2.2998e-08 -5.43213e-08 0.000381536

0.000374695 -4.4357e-05 2.68684e-09
-4.4357e-05 0.000471382 -8.22102e-08
2.68684e-09 -8.22102e-08 0.000420395

0.000380313 -4.84468e-05 4.05434e-08
-4.84468e-05 0.000477889 1.90115e-08
4.05434e-08 1.90115e-08 0.000423818

0.000350711 -7.35653e-05 1.48772e-07
-7.35653e-05 0.00037783 -1.90386e-07
1.48772e-07 -1.90386e-07 0.000313352

0.000403975 -9.39025e-05 -9.18032e-08
-9.39025e-05 0.000513676 1.26058e-08
-9.18032e-08 1.26058e-08 0.000456456

0.000428573 -6.26717e-05 1.1892e-07
-6.26717e-05 0.000432357 1.66485e-08
1.1892e-07 1.66485e-08 0.000399239

0.000384998 8.98544e-05 -8.19126e-08
8.98544e-05 0.000487691 -1.19071e-07
-8.19126e-08 -1.19071e-07 0.000444398

0.000455797 6.50435e-05 -1.06405e-07
6.50435e-05 0.000508057 3.16089e-08
-1.06405e-07 3.16089e-08 0.000474545

0.000454106 5.90438e-05 -1.12199e-07
5.90438e-05 0.000497974 -5.64824e-09
-1.12199e-07 -5.64824e-09 0.0004718

0.000394257 -8.51693e-05 8.98385e-08
-8.51693e-05 0.000488108 -8.99184e-08
8.98385e-08 -8.99184e-08 0.000427025

0.000386238 7.70199e-05 1.04718e-07
7.70199e-05 0.000467999 2.96668e-08
1.04718e-07 2.96668e-08 0.000416884

0.000401926 5.33455e-05 -2.17312e-08
5.33455e-05 0.000321026 7.18189e-09
-2.17312e-08 7.18189e-09 0.00031092

0.000400291 9.87467e-05 -9.50445e-08
9.87467e-05 0.000504007 -7.84586e-08
-9.50445e-08 -7.84586e-08 0.000452647

0.000351848 -6.04163e-05 3.81671e-08
-6.04163e-05 0.000454475 6.16087e-08
3.81671e-08 6.16087e-08 0.000388496

0.000329982 2.34846e-05 -1.18931e-08
2.34846e-05 0.000453512 -2.91061e-08
-1.18931e-08 -2.91061e-08 0.000363641

0.00042219 7.18626e-05 1.12207e-07
7.18626e-05 0.000453702 -1.41487e-07
1.12207e-07 -1.41487e-07 0.000425557

0.000338093 3.01324e-05 -9.11691e-08
3.01324e-05 0.00045756 1.98201e-08
-9.11691e-08 1.98201e-08 0.000367601

0.000410933 -8.36928e-05 -1.64947e-07
-8.36928e-05 0.000508006 6.00356e-08
-1.64947e-07 6.00356e-08 0.000462122

0.000247634 -7.19973e-05 1.04286e-07
-7.19973e-05 0.000255497 -3.12586e-09
1.04286e-07 -3.12586e-09 0.000143763

0.000250532 -7.27647e-05 1.32401e-07
-7.27647e-05 0.000250928 2.55077e-08
1.32401e-07 2.55077e-08 0.000143084

0.000422073 -7.23971e-05 8.51858e-08
-7.23971e-05 0.000453741 4.54968e-08
8.51858e-08 4.54968e-08 0.000425237

0.00048044 -2.73911e-05 -1.31249e-07
-2.73911e-05 0.000393809 4.55587e-09
-1.31249e-07 4.55587e-09 0.000419672

0.000580512 8.52949e-05 7.59626e-07
8.52949e-05 0.000540966 -4.84235e-07
7.59626e-07 -4.84235e-07 0.000541547

0.00057839 -8.58875e-05 -7.40115e-08
-8.58875e-05 0.000540904 -2.81045e-07
-7.40115e-08 -2.81045e-07 0.000541432

0.000385424 -8.9555e-05 -3.50377e-08
-8.9555e-05 0.000485931 -1.50895e-07
-3.50377e-08 -1.50895e-07 0.000419951

0.00048117 1.89795e-05 6.71518e-08
1.89795e-05 0.000497828 3.95515e-08
6.71518e-08 3.95515e-08 0.000490199

0.000482116 -1.74328e-05 -3.90059e-08
-1.74328e-05 0.000498287 2.86961e-08
-3.90059e-08 2.86961e-08 0.000490183

0.000509207 1.10766e-06 -3.5885e-08
1.10766e-06 0.000330764 7.32064e-08
-3.5885e-08 7.32064e-08 0.000407392

0.000384466 -9.03046e-05 8.09368e-08
-9.03046e-05 0.000488813 7.51341e-08
8.09368e-08 7.51341e-08 0.000443955

0.000269207 8.77247e-05 -1.59751e-07
8.77247e-05 0.00027688 -2.10171e-08
-1.59751e-07 -2.10171e-08 0.000177739

0.000261715 8.30825e-05 1.42211e-08
8.30825e-05 0.000278271 -4.08735e-08
1.42211e-08 -4.08735e-08 0.000179491

0.000259838 -6.2427e-05 1.57232e-07
-6.2427e-05 0.00037455 -1.43647e-07
1.57232e-07 -1.43647e-07 0.000209552

0.000265556 6.54027e-05 -1.63755e-07
6.54027e-05 0.00037932 -7.78167e-08
-1.63755e-07 -7.78167e-08 0.00021492

0.000364176 -5.19094e-05 4.96668e-08
-5.19094e-05 0.000278569 -2.18202e-08
4.96668e-08 -2.18202e-08 0.000209993

0.00040014 -9.92468e-05 -1.86134e-08
-9.92468e-05 0.000506448 1.32148e-07
-1.86134e-08 1.32148e-07 0.00045274

0.000185969 2.30284e-05 -3.51837e-08
2.30284e-05 0.000361765 -2.1852e-07
-3.51837e-08 -2.1852e-07 0.00017868

0.000349318 2.93687e-05 1.0681e-07
2.93687e-05 0.00020957 -4.5581e-08
1.0681e-07 -4.5581e-08 0.000180744

0.000470134 -3.07217e-05 -7.17803e-09
-3.07217e-05 0.000520623 -2.16204e-07
-7.17803e-09 -2.16204e-07 0.000487306

0.000473768 -3.70809e-05 3.71045e-08
-3.70809e-05 0.000522823 -3.6613e-08
3.71045e-08 -3.6613e-08 0.000489132

0.000496049 1.16737e-05 1.23373e-07
1.16737e-05 0.000400424 1.55309e-07
1.23373e-07 1.55309e-07 0.000434026

0.000538095 7.26235e-07 7.50675e-08
7.26235e-07 0.00032775 4.91579e-08
7.50675e-08 4.91579e-08 0.000443194

0.000305788 -5.67054e-05 -8.50641e-08
-5.67054e-05 0.00040691 -1.14584e-07
-8.50641e-08 -1.14584e-07 0.000292919

0.000303587 5.54106e-05 -1.79509e-11
5.54106e-05 0.000405115 -2.15832e-07
-1.79509e-11 -2.15832e-07 0.000291868

0.000509638 9.15203e-08 -1.55067e-08
9.15203e-08 0.000329007 -3.80149e-08
-1.55067e-08 -3.80149e-08 0.000409639

0.000361074 -6.84569e-05 2.55536e-08
-6.84569e-05 0.00046783 -1.9818e-07
2.55536e-08 -1.9818e-07 0.000396378

0.00052605 -2.9339e-05 1.67797e-07
-2.9339e-05 0.000519249 -2.77902e-07
1.67797e-07 -2.77902e-07 0.000519177

0.000525765 2.94711e-05 4.06366e-08
2.94711e-05 0.000519206 -3.3082e-08
4.06366e-08 -3.3082e-08 0.000519271

0.00043749 4.02384e-05 1.90234e-07
4.02384e-05 0.000444515 5.2668e-09
1.90234e-07 5.2668e-09 0.000429357

0.000384353 -7.65691e-05 -1.11679e-07
-7.65691e-05 0.000468377 -7.15394e-08
-1.11679e-07 -7.15394e-08 0.000416536

0.000496567 1.18343e-05 9.63554e-08
1.18343e-05 0.000349522 -1.21202e-07
9.63554e-08 -1.21202e-07 0.000423927

0.000340658 6.39708e-05 3.11521e-08
6.39708e-05 0.000328766 1.89243e-08
3.11521e-08 1.89243e-08 0.000267213

0.000376566 -7.87388e-05 9.14636e-08
-7.87388e-05 0.000467996 1.94679e-08
9.14636e-08 1.94679e-08 0.000411414

0.000135773 -0.000138227 3.45481e-08
-0.000138227 0.000140681 -3.45481e-08
3.45481e-08 -3.45481e-08 3.19805e-05

0.000333375 -1.88025e-05 5.29838e-08
-1.88025e-05 0.000450847 2.31612e-08
5.29838e-08 2.31612e-08 0.000363862

0.000339988 -2.57619e-05 -1.47753e-07
-2.57619e-05 0.000453928 -5.03083e-08
-1.47753e-07 -5.03083e-08 0.000366705

0.000476922 -6.28384e-06 4.32724e-08
-6.28384e-06 0.000513884 -1.94228e-07
4.32724e-08 -1.94228e-07 0.000491152

0.000477889 -3.54396e-06 3.30381e-08
-3.54396e-06 0.000513512 7.47938e-08
3.30381e-08 7.47938e-08 0.000491286

0.000555142 -2.15038e-05 -5.14153e-08
-2.15038e-05 0.000465849 -2.45129e-08
-5.14153e-08 -2.45129e-08 0.000522167

0.000555175 2.14801e-05 5.57089e-08
2.14801e-05 0.000466048 1.54264e-07
5.57089e-08 1.54264e-07 0.000522619

0.000443037 -4.21869e-05 1.78311e-08
-4.21869e-05 0.000452595 8.75689e-08
1.78311e-08 8.75689e-08 0.00045775

0.000443899 4.35131e-05 -1.07859e-07
4.35131e-05 0.000446156 -1.26052e-07
-1.07859e-07 -1.26052e-07 0.000454594

0.000471887 -3.74561e-05 -4.48135e-08
-3.74561e-05 0.000512973 3.99684e-09
-4.48135e-08 3.99684e-09 0.000485526

0.000471035 3.90107e-05 7.47519e-08
3.90107e-05 0.0005126 6.92666e-09
7.47519e-08 6.92666e-09 0.000485381

0.000548715 5.83537e-05 -3.45268e-07
5.83537e-05 0.000544227 -4.19597e-07
-3.45268e-07 -4.19597e-07 0.000534495

0.000549669 -5.78483e-05 2.4409e-07
-5.78483e-05 0.000544283 -2.62435e-07
2.4409e-07 -2.62435e-07 0.000534373

0.00042881 -9.62825e-05 4.03355e-08
-9.62825e-05 0.000513626 -1.40395e-08
4.03355e-08 -1.40395e-08 0.00047386

0.00042933 9.64566e-05 8.0375e-08
9.64566e-05 0.000512499 -7.73957e-08
8.0375e-08 -7.73957e-08 0.00047415

0.000432494 5.74289e-05 1.8918e-07
5.74289e-05 0.000405671 7.56683e-08
1.8918e-07 7.56683e-08 0.000394498

0.000374582 -4.5243e-05 2.2133e-08
-4.5243e-05 0.000464555 5.16328e-08
2.2133e-08 5.16328e-08 0.000392282

0.000377633 -5.64246e-05 9.98523e-10
-5.64246e-05 0.000476117 -2.11947e-07
9.98523e-10 -2.11947e-07 0.000396977

0.00035187 -5.71418e-05 -4.73546e-08
-5.71418e-05 0.000335668 2.77301e-07
-4.73546e-08 2.77301e-07 0.000260269

0.000431923 -5.72686e-05 1.14375e-07
-5.72686e-05 0.00040725 -5.11854e-09
1.14375e-07 -5.11854e-09 0.000393792

0.000373759 4.27821e-05 -1.79215e-08
4.27821e-05 0.000461968 -3.19695e-08
-1.79215e-08 -3.19695e-08 0.000390805

0.000396401 8.04948e-05 -4.63462e-08
8.04948e-05 0.000427138 -1.1895e-08
-4.63462e-08 -1.1895e-08 0.000380097

0.000407255 -8.34596e-05 -1.6727e-07
-8.34596e-05 0.000490136 8.09952e-08
-1.6727e-07 8.09952e-08 0.000461359

0.000408119 8.17275e-05 -6.04735e-08
8.17275e-05 0.000489942 -1.40362e-07
-6.04735e-08 -1.40362e-07 0.000461865

0.000395529 -8.1726e-05 -3.70832e-09
-8.1726e-05 0.000426709 -4.76981e-09
-3.70832e-09 -4.76981e-09 0.000379147

0.000499891 -8.16081e-06 -2.40918e-08
-8.16081e-06 0.000405876 -1.7748e-08
-2.40918e-08 -1.7748e-08 0.000440999

0.000505424 2.28899e-05 2.73361e-07
2.28899e-05 0.00054606 -7.31731e-08
2.73361e-07 -7.31731e-08 0.000508052

0.000507415 1.99498e-05 -3.29496e-07
1.99498e-05 0.00054449 2.14143e-07
-3.29496e-07 2.14143e-07 0.000508706

0.000410852 -7.17522e-05 1.9686e-08
-7.17522e-05 0.000495475 3.3246e-08
1.9686e-08 3.3246e-08 0.000439964

0.000437011 3.50353e-05 1.99403e-07
3.50353e-05 0.000391298 1.28624e-07
1.99403e-07 1.28624e-07 0.000417771

0.000536371 -8.78453e-06 -1.39508e-08
-8.78453e-06 0.000415858 -8.22681e-08
-1.39508e-08 -8.22681e-08 0.000473612

0.000264039 -7.71892e-05 1.32437e-07
-7.71892e-05 0.000275941 9.18137e-08
1.32437e-07 9.18137e-08 0.00015957

0.00026644 -7.53844e-05 4.05122e-08
-7.53844e-05 0.000276723 -2.22144e-08
4.05122e-08 -2.22144e-08 0.000161255

0.000553388 -2.42336e-05 -2.49804e-08
-2.42336e-05 0.000461774 8.30882e-09
-2.49804e-08 8.30882e-09 0.000517886

0.000552632 2.4699e-05 3.877e-08
2.4699e-05 0.000461995 1.74189e-07
3.877e-08 1.74189e-07 0.000518234

0.00053726 7.29536e-06 8.0124e-08
7.29536e-06 0.000418871 8.57254e-08
8.0124e-08 8.57254e-08 0.000474919

0.000378279 5.61327e-05 -8.07794e-08
5.61327e-05 0.000473995 2.75664e-08
-8.07794e-08 2.75664e-08 0.00039627

0.000433353 4.43347e-05 4.35165e-08
4.43347e-05 0.000385658 -3.29918e-08
4.35165e-08 -3.29918e-08 0.000356483

0.000453822 -6.38347e-05 -1.20354e-07
-6.38347e-05 0.000498038 2.60395e-08
-1.20354e-07 2.60395e-08 0.000466798

0.000453507 6.35295e-05 -7.0052e-09
6.35295e-05 0.00049841 -5.04249e-08
-7.0052e-09 -5.04249e-08 0.000467033

0.00054953 -1.17324e-05 9.47965e-08
-1.17324e-05 0.000487691 -6.1338e-07
9.47965e-08 -6.1338e-07 0.000507911

0.000548729 1.1081e-05 1.79336e-07
1.1081e-05 0.000493172 -3.69837e-07
1.79336e-07 -3.69837e-07 0.000508798

0.000387801 -8.22359e-05 -5.05538e-09
-8.22359e-05 0.000490769 2.32707e-08
-5.05538e-09 2.32707e-08 0.000436697

0.00045201 3.52426e-05 -1.10294e-07
3.52426e-05 0.000381486 -1.26177e-07
-1.10294e-07 -1.26177e-07 0.000389661

0.000515419 2.44412e-05 9.68652e-08
2.44412e-05 0.000485224 -1.51578e-07
9.68652e-08 -1.51578e-07 0.000497431

0.000515975 -2.47669e-05 -5.81157e-08
-2.47669e-05 0.00048495 1.24442e-07
-5.81157e-08 1.24442e-07 0.00049715

0.000405728 -6.38113e-05 -7.53549e-08
-6.38113e-05 0.000483433 -2.79473e-08
-7.53549e-08 -2.79473e-08 0.000435772

0.000390018 -8.77388e-05 4.83959e-08
-8.77388e-05 0.000487793 8.06055e-08
4.83959e-08 8.06055e-08 0.000442689

0.000139471 -0.000143276 5.19419e-08
-0.000143276 0.000147081 -5.19419e-08
5.19419e-08 -5.19419e-08 3.50729e-05

0.000425338 5.95953e-05 -1.43441e-07
5.95953e-05 0.000509234 2.67666e-08
-1.43441e-07 2.67666e-08 0.00047064

0.000424846 -6.06771e-05 -2.10536e-07
-6.06771e-05 0.000510138 -6.8366e-09
-2.10536e-07 -6.8366e-09 0.000470885

0.000377164 -7.6018e-05 9.24518e-08
-7.6018e-05 0.000478548 2.56744e-08
9.24518e-08 2.56744e-08 0.000430577

0.000439337 -4.7756e-05 4.71421e-08
-4.7756e-05 0.000386951 4.939e-08
4.71421e-08 4.939e-08 0.000360109

0.000444125 -3.80713e-05 9.41178e-08
-3.80713e-05 0.000446655 3.69516e-08
9.41178e-08 3.69516e-08 0.000433675

0.000436205 5.17231e-05 -1.50726e-07
5.17231e-05 0.000478429 1.86893e-08
-1.50726e-07 1.86893e-08 0.000459554

0.000435029 -5.36138e-05 -5.49006e-08
-5.36138e-05 0.000480236 -1.86599e-07
-5.49006e-08 -1.86599e-07 0.000460017

0.000499889 -7.85277e-06 -2.42435e-08
-7.85277e-06 0.000350657 4.36085e-08
-2.42435e-08 4.36085e-08 0.000430522

0.00054894 1.91337e-05 -2.30141e-08
1.91337e-05 0.000497881 -1.32902e-07
-2.30141e-08 -1.32902e-07 0.000528471

0.000549826 -1.89999e-05 4.50765e-09
-1.89999e-05 0.000497758 -1.38259e-07
4.50765e-09 -1.38259e-07 0.000528434

0.000494096 8.76385e-06 3.51478e-07
8.76385e-06 0.000586443 -1.52518e-07
3.51478e-07 -1.52518e-07 0.000504369

0.000495076 5.61849e-06 -1.16199e-07
5.61849e-06 0.000586334 -2.50548e-09
-1.16199e-07 -2.50548e-09 0.000504645

0.000171713 6.06316e-06 8.53243e-08
6.06316e-06 0.000383063 7.02704e-08
8.53243e-08 7.02704e-08 9.80868e-05

0.000360423 5.38e-06 1.6262e-07
5.38e-06 0.000178395 -3.17973e-08
1.6262e-07 -3.17973e-08 9.7985e-05

0.000422739 -8.21992e-05 -8.24765e-08
-8.21992e-05 0.000510911 3.27279e-08
-8.24765e-08 3.27279e-08 0.000457937

0.000423202 8.18603e-05 -1.04165e-07
8.18603e-05 0.000510362 9.24527e-08
-1.04165e-07 9.24527e-08 0.000458159

0.000396447 -9.32966e-05 -9.22288e-08
-9.32966e-05 0.00050485 1.42481e-07
-9.22288e-08 1.42481e-07 0.000449075

0.000152282 -6.73561e-05 6.9144e-08
-6.73561e-05 0.000307913 1.31678e-07
6.9144e-08 1.31678e-07 8.64661e-05

0.000294415 -6.44e-05 5.8269e-08
-6.44e-05 0.000167855 -5.09618e-08
5.8269e-08 -5.09618e-08 8.81511e-05

0.000521472 -8.53348e-05 4.71371e-07
-8.53348e-05 0.000588886 2.14429e-07
4.71371e-07 2.14429e-07 0.000546929

0.000522015 8.58544e-05 -1.93115e-07
8.58544e-05 0.000588231 3.81324e-07
-1.93115e-07 3.81324e-07 0.00054704

0.000409918 -5.6731e-05 3.97499e-08
-5.6731e-05 0.000439711 -9.4224e-09
3.97499e-08 -9.4224e-09 0.000426514

0.000392032 -7.88656e-05 2.1357e-08
-7.88656e-05 0.000446719 3.80936e-08
2.1357e-08 3.80936e-08 0.000389169

0.00042377 -8.29345e-05 -8.45863e-08
-8.29345e-05 0.000486297 4.46525e-08
-8.45863e-08 4.46525e-08 0.000451171

0.000424044 8.26703e-05 -1.17556e-07
8.26703e-05 0.00048647 7.05925e-09
-1.17556e-07 7.05925e-09 0.000451335

0.000393503 -8.8942e-05 9.46064e-08
-8.8942e-05 0.000470871 -5.91037e-08
9.46064e-08 -5.91037e-08 0.000415243

0.000392253 7.8963e-05 -8.69981e-08
7.8963e-05 0.000444731 5.81467e-08
-8.69981e-08 5.81467e-08 0.000388932

0.000248099 -2.55626e-05 -5.24481e-08
-2.55626e-05 0.000395381 -2.0044e-07
-5.24481e-08 -2.0044e-07 0.000214361

0.000243816 3.09489e-05 -4.9273e-08
3.09489e-05 0.00038857 -9.2584e-08
-4.9273e-08 -9.2584e-08 0.000215284

0.000379614 -1.94455e-05 5.54097e-08
-1.94455e-05 0.000274529 2.6834e-09
5.54097e-08 2.6834e-09 0.000216667

0.000393607 8.86826e-05 -2.82317e-09
8.86826e-05 0.00047006 1.80146e-07
-2.82317e-09 1.80146e-07 0.000414768

0.000181043 -1.58647e-05 8.57046e-08
-1.58647e-05 0.000366189 6.83849e-08
8.57046e-08 6.83849e-08 0.000174221

0.000351809 -1.53878e-05 -2.14826e-07
-1.53878e-05 0.000187929 5.10714e-08
-2.14826e-07 5.10714e-08 0.000171947

0.000445594 -8.13399e-05 -6.63624e-08
-8.13399e-05 0.000509519 2.9311e-08
-6.63624e-08 2.9311e-08 0.000476592

0.000445223 8.03738e-05 5.99166e-08
8.03738e-05 0.000508965 1.24166e-07
5.99166e-08 1.24166e-07 0.000476877

0.000450909 -7.0872e-05 -8.10837e-08
-7.0872e-05 0.000519047 -2.09466e-08
-8.10837e-08 -2.09466e-08 0.0004832

0.000450385 7.00864e-05 8.04722e-08
7.00864e-05 0.000518255 5.29047e-08
8.04722e-08 5.29047e-08 0.00048341

0.000145533 -6.77527e-05 4.02415e-08
-6.77527e-05 0.000297573 4.07314e-08
4.02415e-08 4.07314e-08 7.59865e-05

0.000286126 -6.26521e-05 1.67494e-07
-6.26521e-05 0.000151777 -2.39499e-08
1.67494e-07 -2.39499e-08 7.53071e-05

0.000421226 7.48183e-05 7.93677e-08
7.48183e-05 0.000476651 1.48379e-07
7.93677e-08 1.48379e-07 0.000431389

0.000421154 -7.5515e-05 7.32747e-08
-7.5515e-05 0.000477093 -6.72502e-08
7.32747e-08 -6.72502e-08 0.000431219

0.000489269 -1.17173e-05 3.37996e-07
-1.17173e-05 0.000518345 -2.36305e-07
3.37996e-07 -2.36305e-07 0.000494811

0.000489823 -1.60164e-05 -1.20211e-07
-1.60164e-05 0.000520315 -2.74528e-08
-1.20211e-07 -2.74528e-08 0.000495495

0.00043649 -8.13507e-05 9.8952e-09
-8.13507e-05 0.000536198 -1.01139e-07
9.8952e-09 -1.01139e-07 0.000485826

0.00043627 8.18395e-05 3.06705e-08
8.18395e-05 0.000536121 7.77952e-08
3.06705e-08 7.77952e-08 0.000486093

0.000525759 -3.22429e-05 1.94616e-07
-3.22429e-05 0.000490471 -3.33332e-08
1.94616e-07 -3.33332e-08 0.000517256

0.000525545 3.20387e-05 5.64686e-08
3.20387e-05 0.000490762 -1.76768e-07
5.64686e-08 -1.76768e-07 0.000517387

0.000410997 6.73707e-05 -1.03223e-07
6.73707e-05 0.000477496 1.72382e-08
-1.03223e-07 1.72382e-08 0.000442972

0.000410245 -6.70958e-05 1.27034e-07
-6.70958e-05 0.000479842 -1.83905e-07
1.27034e-07 -1.83905e-07 0.000443552

0.00047081 -2.51932e-05 2.06166e-08
-2.51932e-05 0.000570395 1.23254e-07
2.06166e-08 1.23254e-07 0.000498925

0.000557008 -4.60246e-05 -6.84608e-08
-4.60246e-05 0.000534031 -8.39128e-08
-6.84608e-08 -8.39128e-08 0.000542705

0.00055272 -4.76048e-05 5.68671e-07
-4.76048e-05 0.000534778 5.05688e-07
5.68671e-07 5.05688e-07 0.000542716

0.000556747 4.63092e-05 7.19175e-08
4.63092e-05 0.000534031 -6.21965e-08
7.19175e-08 -6.21965e-08 0.000542696

0.000553795 4.71959e-05 -9.72422e-08
4.71959e-05 0.000534918 9.43435e-08
-9.72422e-08 9.43435e-08 0.000542784

0.000467321 -1.96668e-05 -3.00539e-08
-1.96668e-05 0.000570723 5.59249e-09
-3.00539e-08 5.59249e-09 0.000497191

0.000514568 -5.17059e-05 2.55349e-07
-5.17059e-05 0.000512442 -2.0188e-07
2.55349e-07 -2.0188e-07 0.000496968

0.000511919 5.29832e-05 3.80401e-08
5.29832e-05 0.000512766 -1.7946e-08
3.80401e-08 -1.7946e-08 0.000497585

0.000524961 -6.63007e-05 5.95417e-07
-6.63007e-05 0.000559662 -8.90089e-07
5.95417e-07 -8.90089e-07 0.000524841

0.000686757 -4.70423e-05 2.45538e-06
-4.70423e-05 0.00051727 1.1822e-06
2.45538e-06 1.1822e-06 0.000539523

0.000691671 4.67187e-05 2.47491e-06
4.67187e-05 0.00051727 -1.23195e-06
2.47491e-06 -1.23195e-06 0.000539568

0.000524961 6.6449e-05 4.68845e-07
6.6449e-05 0.000559539 9.1755e-07
4.68845e-07 9.1755e-07 0.000524937

0.00054085 -7.12613e-05 1.46306e-07
-7.12613e-05 0.000538192 -2.09332e-07
1.46306e-07 -2.09332e-07 0.000519752

0.000486294 -5.72154e-05 -1.11103e-08
-5.72154e-05 0.000543513 -1.05091e-07
-1.11103e-08 -1.05091e-07 0.000505015

0.000547776 -5.41081e-05 1.88411e-07
-5.41081e-05 0.000548532 -1.43659e-08
1.88411e-07 -1.43659e-08 0.000534353

0.00054085 7.15966e-05 -1.61447e-07
7.15966e-05 0.000538636 -3.78392e-08
-1.61447e-07 -3.78392e-08 0.000519888

0.000547302 5.56391e-05 -2.09568e-07
5.56391e-05 0.000548075 1.84987e-07
-2.09568e-07 1.84987e-07 0.00053444

0.000486916 5.74214e-05 1.70481e-08
5.74214e-05 0.000543513 8.03581e-08
1.70481e-08 8.03581e-08 0.000505196

0.00048659 -5.90324e-05 -4.98375e-08
-5.90324e-05 0.000543556 3.69445e-07
-4.98375e-08 3.69445e-07 0.000512764

0.000528144 -4.79941e-05 -3.02232e-07
-4.79941e-05 0.0005464 2.90847e-07
-3.02232e-07 2.90847e-07 0.000527521

0.000487164 5.88903e-05 1.57065e-08
5.88903e-05 0.000542265 6.39178e-08
1.57065e-08 6.39178e-08 0.0005129

0.000527372 4.8001e-05 1.04776e-07
4.8001e-05 0.000545148 3.61797e-08
1.04776e-07 3.61797e-08 0.000527647

0.000416144 3.87672e-05 1.00128e-07
3.87672e-05 0.000464713 3.90213e-08
1.00128e-07 3.90213e-08 0.000435343

0.000372485 -1.13264e-05 -6.09862e-08
-1.13264e-05 0.000490406 -2.13428e-08
-6.09862e-08 -2.13428e-08 0.00043751

0.000441618 -1.24777e-05 1.40667e-07
-1.24777e-05 0.000328593 1.62019e-08
1.40667e-07 1.62019e-08 0.000396272

0.000426861 3.76226e-07 1.1475e-08
3.76226e-07 0.000319024 8.58247e-08
1.1475e-08 8.58247e-08 0.000368853

0.000416086 3.87342e-05 9.3524e-08
3.87342e-05 0.000473408 1.1587e-07
9.3524e-08 1.1587e-07 0.00046257

0.0003712 -1.70975e-05 -6.24557e-08
-1.70975e-05 0.000530022 -3.84172e-08
-6.24557e-08 -3.84172e-08 0.000463277

0.00042692 2.18058e-05 1.12845e-08
2.18058e-05 0.000319624 -5.18959e-08
1.12845e-08 -5.18959e-08 0.000371032

0.000476955 2.75606e-05 -6.5393e-08
2.75606e-05 0.000365947 -7.40297e-08
-6.5393e-08 -7.40297e-08 0.000448122

0.000267914 5.48416e-05 -1.12532e-08
5.48416e-05 0.000346054 1.08772e-07
-1.12532e-08 1.08772e-07 0.000294039

0.000271801 5.36526e-05 -4.96429e-08
5.36526e-05 0.00034718 -1.44948e-07
-4.96429e-08 -1.44948e-07 0.000288439

0.000338762 4.83742e-05 1.43309e-08
4.83742e-05 0.000268423 1.4709e-07
1.43309e-08 1.4709e-07 0.000284623

0.000445034 2.38966e-05 -8.84509e-09
2.38966e-05 0.000509661 -6.96558e-08
-8.84509e-09 -6.96558e-08 0.000471073

0.000456445 -4.71367e-05 -6.03574e-08
-4.71367e-05 0.000483258 6.43808e-08
-6.03574e-08 6.43808e-08 0.000470813

0.000395845 -5.96705e-05 -2.4367e-08
-5.96705e-05 0.000412958 3.08806e-08
-2.4367e-08 3.08806e-08 0.00039931

0.00036917 1.9663e-05 1.20342e-07
1.9663e-05 0.000532551 8.88102e-09
1.20342e-07 8.88102e-09 0.000461284

0.000414065 -2.26476e-05 -2.35286e-08
-2.26476e-05 0.000469147 4.19693e-08
-2.35286e-08 4.19693e-08 0.000460977

0.000463508 1.53924e-05 2.98723e-08
1.53924e-05 0.000330034 -7.61598e-08
2.98723e-08 -7.61598e-08 0.000398378

0.000285741 2.53822e-05 7.91815e-08
2.53822e-05 0.000393404 -6.53983e-08
7.91815e-08 -6.53983e-08 0.000317322

0.000300807 1.93898e-05 -9.24529e-08
1.93898e-05 0.000384107 -7.9421e-08
-9.24529e-08 -7.9421e-08 0.000314543

0.000384052 1.50462e-05 4.00484e-08
1.50462e-05 0.00029228 1.31296e-07
4.00484e-08 1.31296e-07 0.00030856

0.000348564 5.96077e-05 -3.05204e-08
5.96077e-05 0.000416787 3.44133e-08
-3.05204e-08 3.44133e-08 0.000364806

0.00033031 -3.62384e-05 1.28324e-07
-3.62384e-05 0.000418434 1.99705e-07
1.28324e-07 1.99705e-07 0.000370016

0.000447353 3.43501e-05 7.27481e-08
3.43501e-05 0.000326414 -2.7145e-08
7.27481e-08 -2.7145e-08 0.000400542

0.000260294 4.04376e-05 -1.43327e-07
4.04376e-05 0.000318829 -1.41594e-07
-1.43327e-07 -1.41594e-07 0.000262059

0.000479778 -1.57621e-05 -1.19314e-07
-1.57621e-05 0.000339641 -2.13431e-08
-1.19314e-07 -2.13431e-08 0.000438749

0.000474177 1.03185e-05 9.25404e-08
1.03185e-05 0.000486722 1.16254e-07
9.25404e-08 1.16254e-07 0.00047361

0.000444604 -2.62557e-06 9.72501e-08
-2.62557e-06 0.000530182 2.36611e-08
9.72501e-08 2.36611e-08 0.00047275

0.000615906 5.98535e-05 9.89278e-08
5.98535e-05 0.000511822 8.16844e-08
9.89278e-08 8.16844e-08 0.000497687

0.000616243 -2.62392e-05 2.39549e-08
-2.62392e-05 0.000468744 -3.63591e-08
2.39549e-08 -3.63591e-08 0.000502519

0.000378418 -6.80921e-05 -8.85116e-08
-6.80921e-05 0.000410923 -2.20421e-08
-8.85116e-08 -2.20421e-08 0.000393658

0.000338349 -5.74414e-05 4.68764e-08
-5.74414e-05 0.000408618 -7.35345e-08
4.68764e-08 -7.35345e-08 0.000361827

0.000377988 -3.41798e-07 -5.6758e-08
-3.41798e-07 0.000274779 -2.66464e-08
-5.6758e-08 -2.66464e-08 0.000308336

0.000519605 3.72353e-05 -5.15667e-08
3.72353e-05 0.000452646 -1.51979e-07
-5.15667e-08 -1.51979e-07 0.000473517

0.000510461 -1.00161e-05 -4.41404e-08
-1.00161e-05 0.000443147 5.30082e-08
-4.41404e-08 5.30082e-08 0.000473481

0.00048032 -6.19425e-06 2.10091e-08
-6.19425e-06 0.000340485 -1.5147e-08
2.10091e-08 -1.5147e-08 0.000451159

0.000329166 -4.3498e-05 -2.23499e-08
-4.3498e-05 0.000401112 -1.15695e-09
-2.23499e-08 -1.15695e-09 0.000365796

0.000474885 8.70212e-06 -5.87991e-08
8.70212e-06 0.000328431 3.91607e-08
-5.87991e-08 3.91607e-08 0.000441452

0.00039078 -4.30644e-05 -1.48065e-07
-4.30644e-05 0.000344496 2.50209e-09
-1.48065e-07 2.50209e-09 0.000348607

0.000344663 6.34722e-05 -1.00963e-07
6.34722e-05 0.000387384 4.27721e-08
-1.00963e-07 4.27721e-08 0.000364219

0.000405692 4.71812e-05 -6.85765e-08
4.71812e-05 0.000306157 -2.7615e-08
-6.85765e-08 -2.7615e-08 0.00034386

0.000395179 -2.73422e-05 -1.44147e-07
-2.73422e-05 0.000304261 3.48306e-08
-1.44147e-07 3.48306e-08 0.000340216

0.000338513 5.35808e-05 -6.5062e-08
5.35808e-05 0.000415966 3.95126e-09
-6.5062e-08 3.95126e-09 0.000367661

0.000349506 -3.95166e-05 -2.11691e-08
-3.95166e-05 0.00047574 1.03027e-08
-2.11691e-08 1.03027e-08 0.000436676

0.000380083 7.06391e-05 -1.10834e-07
7.06391e-05 0.000467623 -5.4297e-09
-1.10834e-07 -5.4297e-09 0.000432145

0.000350104 -4.93616e-05 1.74966e-07
-4.93616e-05 0.000412946 5.58489e-08
1.74966e-07 5.58489e-08 0.00036592

0.00034146 6.55022e-05 6.33799e-08
6.55022e-05 0.000412753 -7.61191e-08
6.33799e-08 -7.61191e-08 0.000361693

0.000207721 -5.52772e-05 1.63167e-07
-5.52772e-05 0.000216626 1.15383e-07
1.63167e-07 1.15383e-07 0.000215547

0.000202311 6.33711e-05 -6.99688e-08
6.33711e-05 0.000225709 -7.32956e-09
-6.99688e-08 -7.32956e-09 0.000212272

0.000374461 5.4253e-05 -9.56294e-08
5.4253e-05 0.000496791 -3.68004e-08
-9.56294e-08 -3.68004e-08 0.000460894

0.000405569 -6.34297e-05 -5.28221e-08
-6.34297e-05 0.000478215 6.72348e-08
-5.28221e-08 6.72348e-08 0.00045885

0.000348539 5.97652e-05 -2.50881e-08
5.97652e-05 0.000439153 1.66036e-07
-2.50881e-08 1.66036e-07 0.000392808

0.000205106 2.00664e-05 -6.60619e-08
2.00664e-05 0.000207905 -1.29215e-07
-6.60619e-08 -1.29215e-07 0.000224402

0.000201717 -5.53807e-07 9.6333e-08
-5.53807e-07 0.000221921 1.12159e-07
9.6333e-08 1.12159e-07 0.000227064

0.000460785 -4.53205e-05 -2.164e-09
-4.53205e-05 0.000479119 7.53986e-08
-2.164e-09 7.53986e-08 0.000479909

0.000464486 2.2457e-05 -1.34071e-07
2.2457e-05 0.00049419 -1.66395e-07
-1.34071e-07 -1.66395e-07 0.000478271

0.000494637 -1.13032e-06 -1.08228e-07
-1.13032e-06 0.000338003 -2.50123e-08
-1.08228e-07 -2.50123e-08 0.000418027

0.00046163 -4.22599e-05 -1.85735e-09
-4.22599e-05 0.000480345 7.75566e-08
-1.85735e-09 7.75566e-08 0.000479352

0.000466924 1.54763e-05 -1.48724e-07
1.54763e-05 0.000471709 -6.32785e-08
-1.48724e-07 -6.32785e-08 0.000478181

0.000330474 -3.82077e-05 1.41949e-07
-3.82077e-05 0.000442096 2.90413e-08
1.41949e-07 2.90413e-08 0.000397759

0.000564855 5.7026e-05 1.06604e-07
5.7026e-05 0.000500149 -3.24758e-08
1.06604e-07 -3.24758e-08 0.000492172

0.00057704 -4.69297e-05 -3.4148e-08
-4.69297e-05 0.000456864 4.2343e-08
-3.4148e-08 4.2343e-08 0.000496909

0.00043563 -4.57373e-05 -5.39473e-08
-4.57373e-05 0.000433175 -9.01827e-08
-5.39473e-08 -9.01827e-08 0.000450323

0.000437399 3.47328e-05 1.41723e-07
3.47328e-05 0.000440841 6.14252e-08
1.41723e-07 6.14252e-08 0.000448367

0.000466048 3.92264e-06 -3.07729e-09
3.92264e-06 0.000592319 1.58385e-07
-3.07729e-09 1.58385e-07 0.000491482

0.000475466 2.77199e-05 2.42636e-09
2.77199e-05 0.000534608 -7.96287e-08
2.42636e-09 -7.96287e-08 0.000493381

0.00024439 1.84755e-05 9.12242e-08
1.84755e-05 0.000303834 7.19101e-08
9.12242e-08 7.19101e-08 0.000255896

0.000301548 1.88186e-05 3.98167e-08
1.88186e-05 0.000245944 1.63162e-07
3.98167e-08 1.63162e-07 0.00025608

0.000371183 5.6669e-05 1.00261e-07
5.6669e-05 0.000462145 3.89247e-08
1.00261e-07 3.89247e-08 0.0004229

0.000339886 -3.44414e-05 -1.78007e-08
-3.44414e-05 0.000474018 9.58663e-09
-1.78007e-08 9.58663e-09 0.000426109

0.000547688 -7.4529e-05 2.78513e-07
-7.4529e-05 0.000628806 2.07774e-07
2.78513e-07 2.07774e-07 0.000510882

0.00058511 4.39292e-05 -7.30301e-07
4.39292e-05 0.000509259 -1.7263e-07
-7.30301e-07 -1.7263e-07 0.000511503

0.000386291 6.04334e-05 -1.75531e-08
6.04334e-05 0.000351261 1.04346e-08
-1.75531e-08 1.04346e-08 0.000356495

0.000453609 2.29237e-05 1.12784e-08
2.29237e-05 0.000374637 4.0016e-08
1.12784e-08 4.0016e-08 0.000425393

0.000450239 -3.0098e-05 -1.06309e-07
-3.0098e-05 0.000373205 6.67233e-08
-1.06309e-07 6.67233e-08 0.000425943

0.000503021 -3.28186e-05 -6.96763e-08
-3.28186e-05 0.000386724 -5.9608e-08
-6.96763e-08 -5.9608e-08 0.000466252

0.000376136 1.37517e-05 -5.71854e-08
1.37517e-05 0.000275009 -2.014e-08
-5.71854e-08 -2.014e-08 0.000309801

0.000643665 3.3345e-06 -2.2609e-07
3.3345e-06 0.000490283 -1.52363e-07
-2.2609e-07 -1.52363e-07 0.000506465

0.000619874 -9.85865e-06 -8.2767e-08
-9.85865e-06 0.000580477 1.72445e-07
-8.2767e-08 1.72445e-07 0.000501258

0.000399252 7.24788e-05 -2.48071e-08
7.24788e-05 0.000362404 3.23727e-09
-2.48071e-08 3.23727e-09 0.000386692

0.000462963 1.90736e-05 2.24422e-08
1.90736e-05 0.000361365 4.94894e-08
2.24422e-08 4.94894e-08 0.000402268

0.000322667 5.86572e-05 -3.43328e-08
5.86572e-05 0.000345354 1.10231e-07
-3.43328e-08 1.10231e-07 0.000309242

0.000501709 -3.24453e-05 1.09099e-07
-3.24453e-05 0.000607902 1.311e-07
1.09099e-07 1.311e-07 0.000497313

0.000494228 2.12673e-05 1.94445e-07
2.12673e-05 0.000530358 -3.29207e-08
1.94445e-07 -3.29207e-08 0.000500771

0.000510923 6.11861e-05 -1.01801e-07
6.11861e-05 0.000412452 7.33328e-08
-1.01801e-07 7.33328e-08 0.00046731

0.000414517 -1.90183e-05 -2.79653e-08
-1.90183e-05 0.000462904 -3.28109e-08
-2.79653e-08 -3.28109e-08 0.000434423

0.000370089 1.29608e-05 1.18333e-07
1.29608e-05 0.000493104 4.31878e-08
1.18333e-07 4.31878e-08 0.000436117

0.000496828 -9.37533e-06 2.79517e-08
-9.37533e-06 0.000348679 -1.01628e-07
2.79517e-08 -1.01628e-07 0.000437275

0.000504202 7.05153e-06 -2.6623e-08
7.05153e-06 0.000344692 3.01158e-08
-2.6623e-08 3.01158e-08 0.00043761

0.000344383 -3.88408e-05 -6.96382e-08
-3.88408e-05 0.000320892 1.20745e-07
-6.96382e-08 1.20745e-07 0.000305115

0.000447273 1.9455e-06 1.04967e-07
1.9455e-06 0.000320625 -3.84644e-08
1.04967e-07 -3.84644e-08 0.000369426

0.000498877 7.75149e-06 -5.35705e-08
7.75149e-06 0.000389095 1.79136e-08
-5.35705e-08 1.79136e-08 0.000458247

0.000486438 -1.68606e-05 1.14969e-07
-1.68606e-05 0.000399966 3.69024e-08
1.14969e-07 3.69024e-08 0.000458856

0.000459154 -2.26641e-05 1.76444e-08
-2.26641e-05 0.000355205 -3.41324e-08
1.76444e-08 -3.41324e-08 0.000403027

0.000495224 -1.08204e-05 6.44792e-08
-1.08204e-05 0.000377608 8.98935e-08
6.44792e-08 8.98935e-08 0.000441078

0.000503771 4.7611e-06 -2.93538e-08
4.7611e-06 0.000377347 4.34489e-08
-2.93538e-08 4.34489e-08 0.000441087

0.00045321 4.80926e-05 1.35085e-07
4.80926e-05 0.000357277 8.8813e-08
1.35085e-07 8.8813e-08 0.000411035

0.000345445 -6.36106e-05 2.12962e-08
-6.36106e-05 0.000339179 2.89794e-08
2.12962e-08 2.89794e-08 0.000328446

0.000389217 8.27934e-05 1.38563e-07
8.27934e-05 0.000469942 9.81834e-08
1.38563e-07 9.81834e-08 0.00043978

0.000378716 -7.04494e-05 2.0914e-08
-7.04494e-05 0.000444438 -3.79431e-08
2.0914e-08 -3.79431e-08 0.000445228

0.00037063 -5.25714e-05 -3.58598e-10
-5.25714e-05 0.000449945 -2.89081e-08
-3.58598e-10 -2.89081e-08 0.000450495

0.000393131 8.72188e-05 -3.72244e-08
8.72188e-05 0.000483827 1.33062e-07
-3.72244e-08 1.33062e-07 0.00044487

0.000413735 3.02989e-05 -9.65215e-08
3.02989e-05 0.000300046 6.78042e-08
-9.65215e-08 6.78042e-08 0.000343338

0.000314395 -3.61849e-05 8.39362e-08
-3.61849e-05 0.000271162 -7.48596e-08
8.39362e-08 -7.48596e-08 0.000269812

0.000454825 6.85067e-05 1.15146e-07
6.85067e-05 0.000381665 -6.21131e-08
1.15146e-07 -6.21131e-08 0.000430683

0.000445698 -2.33464e-05 9.3613e-08
-2.33464e-05 0.000356598 1.64205e-07
9.3613e-08 1.64205e-07 0.000403862

0.000323842 -2.7742e-05 1.26798e-07
-2.7742e-05 0.000265176 1.47382e-08
1.26798e-07 1.47382e-08 0.000272226

0.000395594 -5.59918e-05 -1.71052e-08
-5.59918e-05 0.000361927 -1.01034e-07
-1.71052e-08 -1.01034e-07 0.000382137

0.000326669 -2.2954e-07 -3.32833e-08
-2.2954e-07 0.000491121 -3.56013e-08
-3.32833e-08 -3.56013e-08 0.000421816

0.000364308 8.77568e-06 -3.37504e-08
8.77568e-06 0.000447576 -2.98039e-08
-3.37504e-08 -2.98039e-08 0.000419829

0.000346803 7.18631e-05 -1.00117e-07
7.18631e-05 0.000349548 5.09293e-08
-1.00117e-07 5.09293e-08 0.000339907

0.000344667 -4.16513e-05 -6.25179e-08
-4.16513e-05 0.000273354 -6.54778e-08
-6.25179e-08 -6.54778e-08 0.000292842

0.000406776 7.64906e-05 -5.50962e-08
7.64906e-05 0.000431911 -1.37053e-09
-5.50962e-08 -1.37053e-09 0.000445235

0.000400948 -7.36909e-05 1.84461e-08
-7.36909e-05 0.000451643 -3.1482e-08
1.84461e-08 -3.1482e-08 0.000439293

0.000332064 -5.40778e-05 1.68969e-09
-5.40778e-05 0.000377249 -2.00519e-07
1.68969e-09 -2.00519e-07 0.000339807

0.000339809 -5.97485e-05 2.95872e-08
-5.97485e-05 0.000372342 4.41964e-08
2.95872e-08 4.41964e-08 0.000335651

0.000447092 5.57661e-05 1.69496e-07
5.57661e-05 0.000364705 -1.18051e-08
1.69496e-07 -1.18051e-08 0.00040659

0.000515431 3.41292e-05 1.01467e-07
3.41292e-05 0.000341678 9.00051e-08
1.01467e-07 9.00051e-08 0.000465363

0.000517237 -2.33987e-05 3.14923e-08
-2.33987e-05 0.0003264 -2.81436e-08
3.14923e-08 -2.81436e-08 0.000465847

0.000316413 4.44031e-05 -4.82398e-08
4.44031e-05 0.000411872 3.07472e-08
-4.82398e-08 3.07472e-08 0.000347401

0.000399868 6.84689e-05 -3.52858e-08
6.84689e-05 0.000387164 5.59662e-08
-3.52858e-08 5.59662e-08 0.000391833

0.000247793 6.53124e-06 -1.33015e-08
6.53124e-06 0.000384868 -9.7677e-08
-1.33015e-08 -9.7677e-08 0.00030396

0.000261655 3.44592e-06 3.43733e-08
3.44592e-06 0.000378302 -4.459e-08
3.43733e-08 -4.459e-08 0.000301327

0.000380638 3.14495e-06 -3.94924e-08
3.14495e-06 0.000251932 -9.98899e-08
-3.94924e-08 -9.98899e-08 0.000297312

0.000363128 -5.12546e-05 -3.95825e-08
-5.12546e-05 0.000327605 9.23159e-08
-3.95825e-08 9.23159e-08 0.000338837

0.000500999 -3.50065e-05 -3.90809e-07
-3.50065e-05 0.000565368 1.52671e-07
-3.90809e-07 1.52671e-07 0.000508225

0.00062699 1.78365e-05 -7.94081e-07
1.78365e-05 0.000627193 -1.5531e-07
-7.94081e-07 -1.5531e-07 0.000503674

0.000387983 6.20127e-05 -3.41389e-08
6.20127e-05 0.000309484 -8.89307e-08
-3.41389e-08 -8.89307e-08 0.000338727

0.000417041 -2.56582e-05 -2.34853e-08
-2.56582e-05 0.000300736 -7.35452e-08
-2.34853e-08 -7.35452e-08 0.000347686

0.000323721 4.331e-05 -2.54965e-08
4.331e-05 0.000260359 -1.44308e-07
-2.54965e-08 -1.44308e-07 0.000276263

0.000349401 -4.49951e-05 1.56113e-08
-4.49951e-05 0.00044054 1.32361e-07
1.56113e-08 1.32361e-07 0.000418564

0.000374628 8.12073e-05 -1.355e-07
8.12073e-05 0.000456776 7.51325e-08
-1.355e-07 7.51325e-08 0.000413541

0.000494634 -1.07195e-06 -1.09118e-07
-1.07195e-06 0.00033753 4.37657e-10
-1.09118e-07 4.37657e-10 0.000417632

0.00029522 4.11084e-05 1.33518e-07
4.11084e-05 0.000412489 7.14451e-08
1.33518e-07 7.14451e-08 0.000350331

0.000358462 -5.45295e-05 -1.47684e-10
-5.45295e-05 0.000498654 -2.84511e-08
-1.47684e-10 -2.84511e-08 0.000463297

0.000402119 7.6272e-05 2.25565e-08
7.6272e-05 0.000489042 3.44673e-09
2.25565e-08 3.44673e-09 0.000459517

0.000317976 4.79363e-05 -7.14414e-08
4.79363e-05 0.000346767 -1.45648e-07
-7.14414e-08 -1.45648e-07 0.000304061

0.000337473 5.07325e-05 -4.57512e-08
5.07325e-05 0.00032838 -1.67181e-07
-4.57512e-08 -1.67181e-07 0.000300382

0.000326773 3.85274e-05 -7.15209e-08
3.85274e-05 0.000263025 -1.43137e-08
-7.15209e-08 -1.43137e-08 0.000277678

0.000388021 8.39159e-05 1.25054e-07
8.39159e-05 0.000493519 4.95494e-08
1.25054e-07 4.95494e-08 0.00044666

0.000373983 -6.06e-05 8.70898e-09
-6.06e-05 0.000434734 5.87957e-09
8.70898e-09 5.87957e-09 0.00045291

0.000525204 2.41611e-06 1.05316e-07
2.41611e-06 0.000340399 0
1.05316e-07 0 0.000447291

0.000393992 5.75084e-05 -3.18399e-08
5.75084e-05 0.000432954 6.83272e-08
-3.18399e-08 6.83272e-08 0.000452386

0.000395524 -7.15956e-05 -3.57427e-08
-7.15956e-05 0.000478582 1.12012e-07
-3.57427e-08 1.12012e-07 0.000447587

0.000393428 6.90697e-05 -6.94201e-08
6.90697e-05 0.000405451 1.54513e-09
-6.94201e-08 1.54513e-09 0.000414579

0.000288061 -1.54915e-05 7.8619e-08
-1.54915e-05 0.000396909 -1.47054e-07
7.8619e-08 -1.47054e-07 0.000322569

0.000304783 -2.02796e-05 -3.20064e-08
-2.02796e-05 0.000391338 -6.7874e-09
-3.20064e-08 -6.7874e-09 0.000320119

0.00038517 -1.18282e-05 -5.77017e-08
-1.18282e-05 0.000294944 -6.14722e-08
-5.77017e-08 -6.14722e-08 0.000315852

0.000361994 -4.22197e-05 -2.13964e-08
-4.22197e-05 0.00036173 -2.28641e-07
-2.13964e-08 -2.28641e-07 0.000351172

0.000364463 7.46021e-06 -3.4963e-08
7.46021e-06 0.000438025 -5.38804e-09
-3.4963e-08 -5.38804e-09 0.000383796

0.000326972 1.96741e-06 -2.79401e-08
1.96741e-06 0.000456933 7.1682e-08
-2.79401e-08 7.1682e-08 0.000386248

0.000291919 -4.75307e-05 2.57619e-08
-4.75307e-05 0.000339284 -1.57028e-08
2.57619e-08 -1.57028e-08 0.000291088

0.000290585 -4.5175e-05 -2.275e-08
-4.5175e-05 0.000329619 1.45938e-07
-2.275e-08 1.45938e-07 0.00029239

0.000529047 -2.789e-06 9.98461e-08
-2.789e-06 0.000347348 8.29444e-09
9.98461e-08 8.29444e-09 0.000448004

0.000521831 3.16021e-06 4.53809e-08
3.16021e-06 0.00035203 -9.88611e-08
4.53809e-08 -9.88611e-08 0.000447753

0.000372762 -5.53909e-05 -1.35224e-07
-5.53909e-05 0.000426974 6.63775e-08
-1.35224e-07 6.63775e-08 0.000424629

0.000378388 7.36476e-05 1.06981e-08
7.36476e-05 0.000462552 1.264e-08
1.06981e-08 1.264e-08 0.000419389

0.000360316 4.71108e-05 -3.37352e-08
4.71108e-05 0.000493493 -1.46894e-08
-3.37352e-08 -1.46894e-08 0.000461959

0.000402171 -6.97864e-05 2.44331e-08
-6.97864e-05 0.000483052 4.03448e-08
2.44331e-08 4.03448e-08 0.000458684

0.000418994 -5.5793e-05 -1.23412e-07
-5.5793e-05 0.000409715 5.49018e-08
-1.23412e-07 5.49018e-08 0.00042747

0.000295868 -2.94592e-05 -6.32893e-08
-2.94592e-05 0.000417873 2.08698e-07
-6.32893e-08 2.08698e-07 0.000351849

0.000471488 9.05654e-06 -6.23913e-08
9.05654e-06 0.000442095 6.64926e-08
-6.23913e-08 6.64926e-08 0.000463263

0.000463407 -2.82353e-05 1.06619e-07
-2.82353e-05 0.000434182 -8.54515e-08
1.06619e-07 -8.54515e-08 0.000464534

0.000410748 -4.35676e-05 8.58165e-08
-4.35676e-05 0.0003777 -1.21505e-07
8.58165e-08 -1.21505e-07 0.000393399

0.00044892 -3.64637e-05 -1.14566e-07
-3.64637e-05 0.000399821 -2.75421e-08
-1.14566e-07 -2.75421e-08 0.00043083

0.000451994 3.06171e-05 2.0181e-08
3.06171e-05 0.000416653 -6.44784e-08
2.0181e-08 -6.44784e-08 0.000428891

0.000204174 -1.72285e-05 1.24568e-07
-1.72285e-05 0.000144074 1.53986e-07
1.24568e-07 1.53986e-07 0.000226887

0.00034282 7.29285e-05 6.92504e-08
7.29285e-05 0.000371869 1.39523e-09
6.92504e-08 1.39523e-09 0.000337229

0.000160619 3.48422e-05 8.52991e-08
3.48422e-05 0.000207711 1.28605e-07
8.52991e-08 1.28605e-07 0.000225482

0.000316285 -3.88607e-05 -6.91734e-08
-3.88607e-05 0.000410719 8.89896e-08
-6.91734e-08 8.89896e-08 0.000349138

0.00049124 -3.84098e-05 7.36982e-08
-3.84098e-05 0.00053412 -9.31926e-08
7.36982e-08 -9.31926e-08 0.000498298

0.000517558 1.50497e-05 -5.88711e-08
1.50497e-05 0.000500033 -1.40225e-07
-5.88711e-08 -1.40225e-07 0.000497859

0.0004125 4.72218e-05 -1.11856e-07
4.72218e-05 0.000392104 2.05603e-08
-1.11856e-07 2.05603e-08 0.00039073

0.00044731 -2.6361e-06 1.04805e-07
-2.6361e-06 0.000317296 1.3023e-09
1.04805e-07 1.3023e-09 0.000369962

0.000371137 5.93758e-05 1.52901e-07
5.93758e-05 0.000325954 -4.23939e-08
1.52901e-07 -4.23939e-08 0.000334072

0.000341127 2.85001e-05 5.55367e-09
2.85001e-05 0.000484801 9.98344e-08
5.55367e-09 9.98344e-08 0.000425875

0.00037376 -3.93479e-05 -3.86853e-08
-3.93479e-05 0.000452764 -3.81902e-08
-3.86853e-08 -3.81902e-08 0.000423305

0.000454786 6.55353e-05 -2.71065e-08
6.55353e-05 0.000490221 6.69433e-09
-2.71065e-08 6.69433e-09 0.000472096

0.000449308 -3.62213e-05 -6.85276e-08
-3.62213e-05 0.00050066 -3.29228e-08
-6.85276e-08 -3.29228e-08 0.000472834

0.000385216 8.90419e-05 6.92297e-08
8.90419e-05 0.000484222 1.42708e-07
6.92297e-08 1.42708e-07 0.000445178

0.000338231 -8.41273e-05 -1.15024e-08
-8.41273e-05 0.000455943 -2.78961e-08
-1.15024e-08 -2.78961e-08 0.000452129

0.00033676 4.61483e-05 -7.14996e-08
4.61483e-05 0.000437221 -5.86583e-08
-7.14996e-08 -5.86583e-08 0.000397386

0.000329038 2.3464e-05 -3.5236e-08
2.3464e-05 0.000431083 -5.23983e-09
-3.5236e-08 -5.23983e-09 0.000373479

0.00040518 -5.19107e-05 -3.61339e-08
-5.19107e-05 0.000396264 -1.61836e-08
-3.61339e-08 -1.61836e-08 0.00041613

0.000405631 5.49672e-05 -1.77278e-07
5.49672e-05 0.000410565 -3.5839e-08
-1.77278e-07 -3.5839e-08 0.000413427

0.000370502 5.63562e-05 1.49842e-07
5.63562e-05 0.000374765 -8.74538e-08
1.49842e-07 -8.74538e-08 0.000349227

0.000350559 -5.47014e-05 1.76077e-07
-5.47014e-05 0.000435482 3.2482e-08
1.76077e-07 3.2482e-08 0.000394723

0.000306876 -9.29787e-06 -1.415e-07
-9.29787e-06 0.000450779 1.82071e-08
-1.415e-07 1.82071e-08 0.000377181

0.000240337 3.90295e-05 8.30163e-08
3.90295e-05 0.000268684 1.47418e-07
8.30163e-08 1.47418e-07 0.000237049

0.000264212 4.11354e-05 6.96889e-08
4.11354e-05 0.000242087 1.60358e-07
6.96889e-08 1.60358e-07 0.000237371

0.000315479 -4.7486e-05 5.86794e-08
-4.7486e-05 0.000331047 3.82358e-09
5.86794e-08 3.82358e-09 0.000297621

0.000459574 -1.77339e-05 2.07847e-08
-1.77339e-05 0.00033009 4.69952e-08
2.07847e-08 4.69952e-08 0.000398519

0.000544435 -6.05238e-05 2.71703e-07
-6.05238e-05 0.000580234 2.24161e-07
2.71703e-07 2.24161e-07 0.000509317

0.000599447 6.11846e-05 -4.45225e-07
6.11846e-05 0.000509274 5.13474e-07
-4.45225e-07 5.13474e-07 0.000509494

0.000515188 6.02025e-05 1.4461e-07
6.02025e-05 0.000516388 9.12543e-08
1.4461e-07 9.12543e-08 0.000488185

0.000503205 -1.58021e-05 2.61624e-08
-1.58021e-05 0.000469796 -3.68573e-08
2.61624e-08 -3.68573e-08 0.000491564

0.000456476 -9.15211e-07 -5.87589e-08
-9.15211e-07 0.00033677 -9.21249e-08
-5.87589e-08 -9.21249e-08 0.000417868

0.000388146 -7.90185e-05 -8.4942e-08
-7.90185e-05 0.000474428 2.95362e-08
-8.4942e-08 2.95362e-08 0.000445329

0.0003513 8.27788e-05 1.22914e-08
8.27788e-05 0.000450772 3.53651e-09
1.22914e-08 3.53651e-09 0.000450691

0.000254336 -3.84226e-05 -9.281e-08
-3.84226e-05 0.000272246 -1.06089e-07
-9.281e-08 -1.06089e-07 0.000247301

0.000260716 4.96517e-05 -1.40841e-07
4.96517e-05 0.000260964 -1.489e-07
-1.40841e-07 -1.489e-07 0.000250272

0.000239966 -1.75032e-05 9.3587e-08
-1.75032e-05 0.000319854 4.4473e-08
9.3587e-08 4.4473e-08 0.000265059

0.000256792 -2.17928e-05 -7.63416e-08
-2.17928e-05 0.000323236 8.79844e-08
-7.63416e-08 8.79844e-08 0.000266876

0.000323628 -1.54267e-05 -8.86394e-08
-1.54267e-05 0.000242491 -4.06077e-08
-8.86394e-08 -4.06077e-08 0.000263333

0.000324691 5.86986e-05 1.26287e-08
5.86986e-05 0.000313952 -7.3814e-08
1.26287e-08 -7.3814e-08 0.000303253

0.000210398 1.72061e-05 9.51433e-08
1.72061e-05 0.000309257 -6.82308e-08
9.51433e-08 -6.82308e-08 0.00025019

0.000304191 4.08038e-06 6.06258e-08
4.08038e-06 0.000214236 1.33364e-07
6.06258e-08 1.33364e-07 0.000250106

0.000463879 -6.91339e-06 1.38824e-09
-6.91339e-06 0.000556836 -9.06019e-08
1.38824e-09 -9.06019e-08 0.000485885

0.000472468 -2.51193e-05 -1.47493e-07
-2.51193e-05 0.000506262 -1.13959e-07
-1.47493e-07 -1.13959e-07 0.000487361

0.000473434 -2.00011e-05 7.38146e-08
-2.00011e-05 0.000389146 -1.96262e-07
7.38146e-08 -1.96262e-07 0.000440298

0.000495812 9.00475e-06 1.07996e-08
9.00475e-06 0.000297126 -4.49631e-08
1.07996e-08 -4.49631e-08 0.000451771

0.000289446 -3.87647e-05 1.76729e-08
-3.87647e-05 0.000369059 5.30815e-08
1.76729e-08 5.30815e-08 0.000310725

0.000286022 -2.80076e-05 1.97989e-08
-2.80076e-05 0.000369702 -2.17936e-07
1.97989e-08 -2.17936e-07 0.000314747

0.000464004 1.84031e-05 -2.95888e-08
1.84031e-05 0.000341242 5.41385e-08
-2.95888e-08 5.41385e-08 0.000419959

0.000484924 -1.81632e-05 -5.4424e-08
-1.81632e-05 0.000495172 5.77938e-08
-5.4424e-08 5.77938e-08 0.000488749

0.000508151 -3.47991e-08 -3.09916e-08
-3.47991e-08 0.000477544 -1.07369e-07
-3.09916e-08 -1.07369e-07 0.000488058

0.000439103 -3.90624e-05 1.10007e-07
-3.90624e-05 0.000423131 2.12135e-07
1.10007e-07 2.12135e-07 0.000434633

0.000395116 6.37483e-05 -6.69525e-08
6.37483e-05 0.000420819 -8.48416e-09
-6.69525e-08 -8.48416e-09 0.000423749

0.000378367 -6.78781e-05 -8.97839e-08
-6.78781e-05 0.000451175 1.94757e-08
-8.97839e-08 1.94757e-08 0.000417722

0.000473323 -1.77581e-05 5.46512e-08
-1.77581e-05 0.000343914 1.83881e-07
5.46512e-08 1.83881e-07 0.000431518

0.000362094 5.44911e-05 -2.77288e-08
5.44911e-05 0.000435498 -2.58573e-08
-2.77288e-08 -2.58573e-08 0.000418947

0.00037866 -7.18299e-05 4.27589e-08
-7.18299e-05 0.000445845 1.06727e-07
4.27589e-08 1.06727e-07 0.000414694

0.000198491 -8.038e-05 -4.70424e-08
-8.038e-05 0.000203731 -1.8916e-07
-4.70424e-08 -1.8916e-07 0.000208173

0.000308152 1.75307e-05 1.64739e-07
1.75307e-05 0.000447069 -1.06406e-08
1.64739e-07 -1.06406e-08 0.000375315

0.000334347 -1.59522e-05 -1.27902e-07
-1.59522e-05 0.000425268 -3.8126e-08
-1.27902e-07 -3.8126e-08 0.000373523

0.000446708 8.90939e-06 1.14402e-07
8.90939e-06 0.000593126 1.2422e-07
1.14402e-07 1.2422e-07 0.000488138

0.000477567 -8.40644e-07 1.3183e-07
-8.40644e-07 0.000501037 -1.14103e-07
1.3183e-07 -1.14103e-07 0.000490526

0.00051869 -3.00176e-06 -2.46626e-08
-3.00176e-06 0.00037349 -7.36121e-09
-2.46626e-08 -7.36121e-09 0.000462406

0.000531096 5.15647e-06 1.13645e-07
5.15647e-06 0.000364581 2.62789e-08
1.13645e-07 2.62789e-08 0.00046242

0.000472414 7.71546e-05 -2.20337e-08
7.71546e-05 0.000433712 -1.60401e-07
-2.20337e-08 -1.60401e-07 0.000459927

0.000455512 -4.42194e-05 2.20585e-07
-4.42194e-05 0.000424389 1.6096e-07
2.20585e-07 1.6096e-07 0.000457851

0.000531372 2.86455e-05 1.42218e-07
2.86455e-05 0.000492109 1.01424e-07
1.42218e-07 1.01424e-07 0.000484079

0.000501809 -1.55963e-05 4.37694e-08
-1.55963e-05 0.00049728 3.87206e-08
4.37694e-08 3.87206e-08 0.000486433

0.000544416 3.20753e-05 4.83024e-08
3.20753e-05 0.000512868 4.84602e-07
4.83024e-08 4.84602e-07 0.000505894

0.00053427 -9.1453e-05 1.09597e-07
-9.1453e-05 0.000576651 2.14677e-07
1.09597e-07 2.14677e-07 0.000505771

0.000407885 8.07785e-05 2.51394e-08
8.07785e-05 0.000491207 2.77702e-08
2.51394e-08 2.77702e-08 0.000461381

0.000384952 -9.96599e-05 8.25103e-08
-9.96599e-05 0.000451245 -1.02111e-08
8.25103e-08 -1.02111e-08 0.000466558

0.000416103 4.30103e-05 -1.23041e-07
4.30103e-05 0.000355131 7.17769e-08
-1.23041e-07 7.17769e-08 0.000383069

0.000340171 3.42652e-05 3.85276e-08
3.42652e-05 0.000450688 -1.27115e-07
3.85276e-08 -1.27115e-07 0.000400642

0.000376166 -5.57046e-05 -1.055e-07
-5.57046e-05 0.000374457 -1.5585e-07
-1.055e-07 -1.5585e-07 0.00037895

0.000372885 -4.31449e-05 -5.03445e-08
-4.31449e-05 0.00044104 -1.15944e-07
-5.03445e-08 -1.15944e-07 0.000398437

0.000413164 -4.04825e-05 1.06703e-07
-4.04825e-05 0.000350741 -2.0137e-08
1.06703e-07 -2.0137e-08 0.000385183

0.000370889 4.76582e-05 1.00876e-07
4.76582e-05 0.000445053 7.61826e-08
1.00876e-07 7.61826e-08 0.000397069

0.000382536 6.77674e-05 2.07492e-07
6.77674e-05 0.000385408 -3.97934e-08
2.07492e-07 -3.97934e-08 0.000375906

0.000413595 9.03219e-05 8.96352e-08
9.03219e-05 0.000452216 1.07818e-07
8.96352e-08 1.07818e-07 0.00046474

0.000418201 -6.68154e-05 1.28146e-08
-6.68154e-05 0.000474581 9.94303e-08
1.28146e-08 9.94303e-08 0.00046218

0.000484453 4.09614e-05 -1.45291e-07
4.09614e-05 0.000397784 3.26174e-08
-1.45291e-07 3.26174e-08 0.000445745

0.000628227 2.84284e-05 4.42517e-07
2.84284e-05 0.000609621 2.75979e-07
4.42517e-07 2.75979e-07 0.000502804

0.000510018 2.83425e-05 2.44489e-07
2.83425e-05 0.000531325 1.9531e-07
2.44489e-07 1.9531e-07 0.00050761

0.000438962 -4.16597e-05 8.08626e-08
-4.16597e-05 0.000378162 -1.93775e-07
8.08626e-08 -1.93775e-07 0.000424309

0.000523974 2.47391e-06 3.55152e-08
2.47391e-06 0.000411034 -1.8644e-08
3.55152e-08 -1.8644e-08 0.000478198

0.000244152 -3.48141e-05 9.74238e-08
-3.48141e-05 0.000271522 8.0528e-09
9.74238e-08 8.0528e-09 0.000241759

0.0002717 -2.90424e-05 6.3775e-08
-2.90424e-05 0.00024153 -3.48084e-08
6.3775e-08 -3.48084e-08 0.000242368

0.000512514 3.56502e-06 1.22851e-08
3.56502e-06 0.000399319 3.85137e-08
1.22851e-08 3.85137e-08 0.000469706

0.000531131 -4.79771e-06 1.14577e-07
-4.79771e-06 0.00038795 2.5184e-08
1.14577e-07 2.5184e-08 0.000469186

0.000521105 8.71831e-06 1.30989e-07
8.71831e-06 0.000449271 -1.13337e-08
1.30989e-07 -1.13337e-08 0.000475928

0.0003397 -2.48021e-05 -1.69806e-08
-2.48021e-05 0.000455657 -7.46006e-08
-1.69806e-08 -7.46006e-08 0.000401348

0.000413886 3.34659e-05 -9.57744e-08
3.34659e-05 0.0003415 9.31988e-08
-9.57744e-08 9.31988e-08 0.000353091

0.00043393 -5.23505e-05 -4.24918e-08
-5.23505e-05 0.000435752 1.12674e-09
-4.24918e-08 1.12674e-09 0.000453178

0.000434851 4.3215e-05 1.34427e-07
4.3215e-05 0.000467327 1.19529e-07
1.34427e-07 1.19529e-07 0.000450379

0.0005934 6.31788e-06 6.98357e-08
6.31788e-06 0.000646654 -8.68136e-08
6.98357e-08 -8.68136e-08 0.000503135

0.000591648 5.01443e-05 8.62136e-09
5.01443e-05 0.000482215 6.02174e-08
8.62136e-09 6.02174e-08 0.000508346

0.000433947 -3.29036e-05 -3.53124e-08
-3.29036e-05 0.000367588 -1.03558e-07
-3.53124e-08 -1.03558e-07 0.000399971

0.000499302 -1.40994e-06 -5.45625e-08
-1.40994e-06 0.000432813 5.81491e-08
-5.45625e-08 5.81491e-08 0.000465844

0.000486643 -1.18033e-05 1.12369e-07
-1.18033e-05 0.000442648 -7.92679e-08
1.12369e-07 -7.92679e-08 0.000466704

0.000406324 -5.92221e-05 -6.00205e-08
-5.92221e-05 0.00046464 -2.32885e-08
-6.00205e-08 -2.32885e-08 0.000437896

0.000377847 3.09414e-05 -1.00044e-07
3.09414e-05 0.000470442 2.64115e-08
-1.00044e-07 2.64115e-08 0.000440864

0.000375915 5.68605e-05 -4.08437e-08
5.68605e-05 0.00044136 -5.39779e-09
-4.08437e-08 -5.39779e-09 0.000448987

0.000391612 -8.00481e-05 8.36098e-09
-8.00481e-05 0.000474622 1.85827e-08
8.36098e-09 1.85827e-08 0.000444179

0.000215979 0.000102373 -2.30021e-08
0.000102373 0.000205963 4.00378e-08
-2.30021e-08 4.00378e-08 0.00021109

0.000435418 5.92241e-05 9.1141e-08
5.92241e-05 0.000488521 1.04762e-07
9.1141e-08 1.04762e-07 0.000471946

0.000434926 -4.51168e-05 -1.91083e-08
-4.51168e-05 0.000492464 3.30027e-08
-1.91083e-08 3.30027e-08 0.000471597

0.000361611 5.42876e-05 -3.26127e-08
5.42876e-05 0.00045718 4.86421e-09
-3.26127e-08 4.86421e-09 0.000437191

0.000379693 -6.76091e-05 2.22192e-08
-6.76091e-05 0.000462002 1.70338e-09
2.22192e-08 1.70338e-09 0.000432998

0.000417738 -3.21301e-05 -3.43438e-08
-3.21301e-05 0.000334155 9.44242e-08
-3.43438e-08 9.44242e-08 0.000358399

0.000453103 5.76294e-05 1.14571e-07
5.76294e-05 0.000416349 -7.02219e-08
1.14571e-07 -7.02219e-08 0.000438658

0.000480192 6.20526e-05 -4.9018e-08
6.20526e-05 0.00043535 -5.70888e-08
-4.9018e-08 -5.70888e-08 0.000462461

0.000454135 -4.12369e-05 1.19066e-07
-4.12369e-05 0.000453784 -1.37141e-07
1.19066e-07 -1.37141e-07 0.000461099

0.000484403 3.92101e-05 -1.46297e-07
3.92101e-05 0.000346091 -1.76412e-08
-1.46297e-07 -1.76412e-08 0.000437122

0.000508149 7.98493e-06 7.37112e-09
7.98493e-06 0.000463211 6.29392e-08
7.37112e-09 6.29392e-08 0.000483461

0.000526498 -1.09466e-05 1.04705e-07
-1.09466e-05 0.000441289 -2.38864e-08
1.04705e-07 -2.38864e-08 0.000482845

0.000494952 1.28403e-05 2.07208e-07
1.28403e-05 0.00057836 2.33175e-07
2.07208e-07 2.33175e-07 0.000503739

0.000500484 -2.14601e-05 -7.71208e-08
-2.14601e-05 0.000640066 -2.51826e-07
-7.71208e-08 -2.51826e-07 0.000499614

0.000221413 -9.24872e-06 6.97241e-08
-9.24872e-06 0.00016123 -3.81165e-08
6.97241e-08 -3.81165e-08 0.000224649

0.000143071 -1.81611e-06 -1.31188e-07
-1.81611e-06 0.000224808 -2.26283e-07
-1.31188e-07 -2.26283e-07 0.000225705

0.000405354 6.73093e-05 1.97589e-07
6.73093e-05 0.000484397 3.22286e-08
1.97589e-07 3.22286e-08 0.000445965

0.000403494 -5.80654e-05 1.28289e-07
-5.80654e-05 0.000441182 8.20188e-08
1.28289e-07 8.20188e-08 0.000450414

0.000201038 3.60025e-05 -1.81519e-08
3.60025e-05 0.000197929 8.28352e-08
-1.81519e-08 8.28352e-08 0.000222204

0.000208117 4.62503e-05 2.16676e-08
4.62503e-05 0.000188822 4.69343e-08
2.16676e-08 4.69343e-08 0.000222034

0.000419899 -7.26337e-05 -1.6849e-07
-7.26337e-05 0.000661018 -1.75751e-07
-1.6849e-07 -1.75751e-07 0.0005111

0.000494416 5.58491e-05 3.07395e-08
5.58491e-05 0.000605656 8.10651e-08
3.07395e-08 8.10651e-08 0.000510916

0.000437056 7.10853e-05 1.69307e-08
7.10853e-05 0.000405079 1.44458e-08
1.69307e-08 1.44458e-08 0.000432503

0.000405277 6.46068e-05 2.05485e-07
6.46068e-05 0.000453076 8.2577e-08
2.05485e-07 8.2577e-08 0.000438452

0.000405824 -6.46596e-05 1.27133e-07
-6.46596e-05 0.000430552 8.93794e-08
1.27133e-07 8.93794e-08 0.000442168

0.000377307 6.45774e-05 2.13443e-07
6.45774e-05 0.000411335 -4.98998e-08
2.13443e-07 -4.98998e-08 0.000385725

0.000371744 -5.13702e-05 -1.64178e-08
-5.13702e-05 0.000402564 -2.19824e-09
-1.64178e-08 -2.19824e-09 0.000389328

0.000244481 -7.95787e-06 8.96838e-09
-7.95787e-06 0.000324686 2.15898e-08
8.96838e-09 2.15898e-08 0.000268807

0.000255436 -1.67114e-05 6.64003e-08
-1.67114e-05 0.000324276 1.02404e-07
6.64003e-08 1.02404e-07 0.000267722

0.000326214 -6.92826e-06 -9.97473e-08
-6.92826e-06 0.00025019 -1.08179e-07
-9.97473e-08 -1.08179e-07 0.000265691

0.000378851 7.4842e-05 6.51996e-08
7.4842e-05 0.000438092 -2.67044e-07
6.51996e-08 -2.67044e-07 0.000408098

0.000372303 -5.73898e-05 -1.20247e-07
-5.73898e-05 0.000418802 1.47926e-07
-1.20247e-07 1.47926e-07 0.000412261

0.000224279 1.16203e-05 9.0098e-08
1.16203e-05 0.000303023 7.1836e-08
9.0098e-08 7.1836e-08 0.000248394

0.000301499 1.76301e-05 5.75477e-09
1.76301e-05 0.000226235 -1.9882e-07
5.75477e-09 -1.9882e-07 0.000248396

0.000427168 -7.37287e-05 -7.21358e-08
-7.37287e-05 0.000446351 1.20746e-07
-7.21358e-08 1.20746e-07 0.000465471

0.000424481 6.10198e-05 -1.50657e-07
6.10198e-05 0.00048125 -3.50916e-08
-1.50657e-07 -3.50916e-08 0.000461797

0.00042982 -6.53894e-05 -9.03357e-08
-6.53894e-05 0.000472292 5.76419e-08
-9.03357e-08 5.76419e-08 0.000467946

0.000431327 4.8614e-05 -1.11467e-07
4.8614e-05 0.000485 -1.70944e-07
-1.11467e-07 -1.70944e-07 0.000465365

0.000189303 -3.04702e-05 -6.85002e-08
-3.04702e-05 0.000196899 4.24863e-08
-6.85002e-08 4.24863e-08 0.000216728

0.00018941 -3.00212e-05 -1.60194e-07
-3.00212e-05 0.000195176 -1.79476e-07
-1.60194e-07 -1.79476e-07 0.000217965

0.000404133 5.94174e-05 -1.60658e-07
5.94174e-05 0.000446217 -1.80183e-07
-1.60658e-07 -1.80183e-07 0.000420976

0.000404369 -5.42853e-05 -1.24997e-08
-5.42853e-05 0.000416414 1.8956e-07
-1.24997e-08 1.8956e-07 0.000424613

0.00049089 1.48564e-05 -1.02086e-07
1.48564e-05 0.00055928 -9.66277e-08
-1.02086e-07 -9.66277e-08 0.000491484

0.000489925 -8.74119e-06 1.4859e-07
-8.74119e-06 0.000504296 -1.312e-07
1.4859e-07 -1.312e-07 0.000494441

0.000400976 -6.78632e-05 5.82444e-08
-6.78632e-05 0.000493595 -8.59769e-08
5.82444e-08 -8.59769e-08 0.000473933

0.000416528 6.41108e-05 -2.07369e-08
6.41108e-05 0.00051106 1.70956e-07
-2.07369e-08 1.70956e-07 0.000470333

0.000486426 -1.40363e-05 -5.7804e-08
-1.40363e-05 0.00044552 2.69679e-08
-5.7804e-08 2.69679e-08 0.000482687

0.00050834 1.56502e-06 -4.95721e-08
1.56502e-06 0.00043301 6.1262e-08
-4.95721e-08 6.1262e-08 0.000482

0.000422135 6.35264e-05 -1.87391e-08
6.35264e-05 0.000435319 -5.75247e-08
-1.87391e-08 -5.75247e-08 0.000448104

0.000417933 -6.17371e-05 -6.1988e-08
-6.17371e-05 0.000455302 -1.3064e-07
-6.1988e-08 -1.3064e-07 0.000443388

0.000543738 1.8744e-05 1.5671e-08
1.8744e-05 0.000475953 -9.02021e-08
1.5671e-08 -9.02021e-08 0.000496516

0.000539015 6.21667e-06 1.20303e-07
6.21667e-06 0.000503184 -1.87029e-07
1.20303e-07 -1.87029e-07 0.000505472

0.000513756 -1.67573e-05 4.41003e-08
-1.67573e-05 0.000496958 3.55837e-08
4.41003e-08 3.55837e-08 0.000497055

0.00047902 -2.03119e-06 -1.61428e-07
-2.03119e-06 0.000553959 -1.54612e-07
-1.61428e-07 -1.54612e-07 0.00050583

0.000466953 1.08027e-05 2.81012e-08
1.08027e-05 0.000611338 1.68397e-07
2.81012e-08 1.68397e-07 0.000494278

0.000567864 6.32729e-05 2.71767e-08
6.32729e-05 0.000522443 2.25189e-08
2.71767e-08 2.25189e-08 0.000493887

0.000529707 -2.41944e-05 9.35281e-09
-2.41944e-05 0.000496125 6.20386e-08
9.35281e-09 6.20386e-08 0.000497695

0.000469853 -1.50353e-05 -1.91053e-07
-1.50353e-05 0.000556553 3.08373e-07
-1.91053e-07 3.08373e-07 0.000497131

0.000494151 3.78595e-05 -9.92947e-07
3.78595e-05 0.00054149 -1.48064e-06
-9.92947e-07 -1.48064e-06 0.000502093

0.000736115 3.51816e-05 -2.97898e-06
3.51816e-05 0.000435724 1.53223e-06
-2.97898e-06 1.53223e-06 0.000512258

0.000660677 -1.98004e-05 2.29343e-08
-1.98004e-05 0.000646846 1.40061e-08
2.29343e-08 1.40061e-08 0.000511128

0.000516666 -8.51977e-05 -2.96711e-07
-8.51977e-05 0.000591834 3.73666e-07
-2.96711e-07 3.73666e-07 0.000502117

0.000518225 4.72784e-05 -5.19776e-08
4.72784e-05 0.00051473 -5.43335e-08
-5.19776e-08 -5.43335e-08 0.00049779

0.000466734 3.45207e-05 2.19912e-07
3.45207e-05 0.000520412 1.2571e-07
2.19912e-07 1.2571e-07 0.000485621

0.000534178 9.91738e-06 -6.21208e-08
9.91738e-06 0.000518654 -7.36571e-09
-6.21208e-08 -7.36571e-09 0.000508352

0.000541449 -7.8078e-05 8.12234e-08
-7.8078e-05 0.000513308 -1.99203e-07
8.12234e-08 -1.99203e-07 0.000498396

0.000531921 -8.98281e-05 1.40688e-07
-8.98281e-05 0.000608793 7.61593e-08
1.40688e-07 7.61593e-08 0.000507647

0.000472874 -4.50475e-05 -5.70274e-08
-4.50475e-05 0.000499633 -1.07652e-07
-5.70274e-08 -1.07652e-07 0.000487529

0.000477555 -7.46574e-05 -7.85625e-08
-7.46574e-05 0.000522421 1.56221e-07
-7.85625e-08 1.56221e-07 0.00049103

0.000488739 -4.89832e-05 1.09487e-07
-4.89832e-05 0.000537327 2.14787e-07
1.09487e-07 2.14787e-07 0.000500022

0.000466201 3.0826e-05 2.27271e-07
3.0826e-05 0.000509979 2.15866e-07
2.27271e-07 2.15866e-07 0.000489991

0.000516675 1.80982e-05 -1.12549e-07
1.80982e-05 0.000513011 3.21699e-07
-1.12549e-07 3.21699e-07 0.000499702

0.000351765 5.23666e-05 3.02514e-08
5.23666e-05 0.000400882 8.40207e-09
3.02514e-08 8.40207e-09 0.000368164

0.000402538 2.65027e-05 5.79764e-08
2.65027e-05 0.000471687 9.27614e-09
5.79764e-08 9.27614e-09 0.000436747

0.000389324 2.25461e-05 7.53734e-09
2.25461e-05 0.000467248 -1.23996e-07
7.53734e-09 -1.23996e-07 0.000438813

0.000448656 2.95776e-05 -1.72855e-08
2.95776e-05 0.000323227 8.69655e-08
-1.72855e-08 8.69655e-08 0.000394575

0.000431447 1.00761e-05 1.71883e-08
1.00761e-05 0.000306974 1.05936e-07
1.71883e-08 1.05936e-07 0.000366219

0.000404189 1.62132e-05 4.65338e-08
1.62132e-05 0.000487688 1.42388e-07
4.65338e-08 1.42388e-07 0.000463586

0.00038654 3.73535e-05 -5.24542e-09
3.73535e-05 0.000499326 2.46837e-08
-5.24542e-09 2.46837e-08 0.000465661

0.000437406 -1.17899e-05 3.40336e-08
-1.17899e-05 0.000314036 -1.48981e-08
3.40336e-08 -1.48981e-08 0.000368991

0.000476899 -2.34243e-05 -2.04595e-08
-2.34243e-05 0.000367696 -3.26542e-08
-2.04595e-08 -3.26542e-08 0.000447393

0.000283257 4.78658e-05 9.58194e-08
4.78658e-05 0.000332581 -9.59226e-08
9.58194e-08 -9.59226e-08 0.000293791

0.000279284 -4.76242e-05 -8.91776e-08
-4.76242e-05 0.000326497 -2.5962e-08
-8.91776e-08 -2.5962e-08 0.000288591

0.000345841 -4.35509e-05 1.28992e-07
-4.35509e-05 0.000265646 1.58353e-09
1.28992e-07 1.58353e-09 0.000287203

0.000436228 -4.53446e-05 6.25827e-08
-4.53446e-05 0.000492868 1.30482e-07
6.25827e-08 1.30482e-07 0.000474218

0.000457975 -3.08089e-05 -9.37896e-08
-3.08089e-05 0.000491265 -6.43783e-09
-9.37896e-08 -6.43783e-09 0.000471794

0.000351671 4.48933e-05 3.09042e-08
4.48933e-05 0.000417873 1.12368e-07
3.09042e-08 1.12368e-07 0.000397065

0.000367364 5.39918e-05 4.847e-08
5.39918e-05 0.000453539 -1.2056e-07
4.847e-08 -1.2056e-07 0.000437525

0.000387046 -3.5157e-05 1.07403e-08
-3.5157e-05 0.000498657 1.61996e-07
1.07403e-08 1.61996e-07 0.000463527

0.000398518 -9.93167e-06 -1.31659e-08
-9.93167e-06 0.000487954 -5.571e-08
-1.31659e-08 -5.571e-08 0.000462623

0.000468734 1.39182e-05 -1.8635e-07
1.39182e-05 0.00032445 -8.82614e-08
-1.8635e-07 -8.82614e-08 0.000398126

0.000301755 1.7511e-05 -1.25431e-08
1.7511e-05 0.000380726 1.14434e-07
-1.25431e-08 1.14434e-07 0.000316924

0.000300464 -1.39513e-05 -2.51804e-08
-1.39513e-05 0.000377723 9.69147e-08
-2.51804e-08 9.69147e-08 0.000316074

0.000392398 -1.2049e-05 8.56748e-08
-1.2049e-05 0.000286912 -2.63237e-08
8.56748e-08 -2.63237e-08 0.000308991

0.000357128 6.04805e-05 4.28154e-08
6.04805e-05 0.000376394 -5.48462e-09
4.28154e-08 -5.48462e-09 0.000365999

0.000410968 -3.99568e-05 -5.82986e-08
-3.99568e-05 0.000294374 -5.55039e-08
-5.82986e-08 -5.55039e-08 0.000344157

0.000408143 6.40361e-05 8.47224e-08
6.40361e-05 0.000376626 -3.29404e-09
8.47224e-08 -3.29404e-09 0.000392188

0.000345698 5.10994e-05 -1.07486e-07
5.10994e-05 0.000414194 -6.64901e-08
-1.07486e-07 -6.64901e-08 0.000367848

0.000453252 -2.54187e-05 1.07641e-07
-2.54187e-05 0.000322388 -4.42662e-08
1.07641e-07 -4.42662e-08 0.00039953

0.000274365 3.31658e-05 8.96285e-08
3.31658e-05 0.000308633 -1.07384e-07
8.96285e-08 -1.07384e-07 0.000261661

0.000482931 3.16917e-05 -1.81579e-08
3.16917e-05 0.000352373 4.0167e-09
-1.81579e-08 4.0167e-09 0.000437119

0.000317538 -2.89877e-05 9.45443e-08
-2.89877e-05 0.000258234 2.11573e-08
9.45443e-08 2.11573e-08 0.000258039

0.000457187 -1.1006e-05 5.20431e-09
-1.1006e-05 0.000500841 1.58455e-07
5.20431e-09 1.58455e-07 0.000474989

0.000455655 1.97619e-05 6.79783e-08
1.97619e-05 0.000502559 -3.77846e-09
6.79783e-08 -3.77846e-09 0.000475282

0.000617799 -5.96626e-05 -1.01685e-07
-5.96626e-05 0.0005124 -5.50188e-08
-1.01685e-07 -5.50188e-08 0.00049783

0.000617902 6.23026e-05 2.29335e-07
6.23026e-05 0.000511075 -6.14044e-08
2.29335e-07 -6.14044e-08 0.000498085

0.000386515 -1.61798e-05 6.25966e-09
-1.61798e-05 0.000276145 -8.94021e-08
6.25966e-09 -8.94021e-08 0.000308672

0.000402397 6.92636e-05 -7.89252e-08
6.92636e-05 0.000397036 -1.96898e-07
-7.89252e-08 -1.96898e-07 0.000414761

0.000521171 -3.63054e-05 -6.85392e-08
-3.63054e-05 0.000451078 -3.173e-08
-6.85392e-08 -3.173e-08 0.000473697

0.000516578 3.5768e-05 5.93487e-08
3.5768e-05 0.000448273 -1.34592e-07
5.93487e-08 -1.34592e-07 0.000471119

0.000479649 1.29036e-05 -7.21683e-08
1.29036e-05 0.000354039 6.4017e-09
-7.21683e-08 6.4017e-09 0.000449136

0.000338316 5.7181e-05 -4.13694e-08
5.7181e-05 0.000411098 -1.54628e-07
-4.13694e-08 -1.54628e-07 0.000363418

0.000407287 -5.00056e-05 -3.90445e-08
-5.00056e-05 0.00032347 7.25189e-08
-3.90445e-08 7.25189e-08 0.000353552

0.00047469 -3.51576e-06 -1.96204e-08
-3.51576e-06 0.000335134 -4.70567e-08
-1.96204e-08 -4.70567e-08 0.000440391

0.000353783 -6.02177e-05 -4.22718e-08
-6.02177e-05 0.000376071 -9.46154e-08
-4.22718e-08 -9.46154e-08 0.000363575

0.000351177 -4.98646e-05 -1.16803e-08
-4.98646e-05 0.000401308 -6.17677e-08
-1.16803e-08 -6.17677e-08 0.000368333

0.000376873 5.6625e-05 -2.3221e-08
5.6625e-05 0.000469316 7.78999e-08
-2.3221e-08 7.78999e-08 0.000432952

0.000372671 -6.92769e-05 3.78417e-09
-6.92769e-05 0.000320404 7.62109e-08
3.78417e-09 7.62109e-08 0.00033228

0.000227844 -5.27725e-05 1.74945e-07
-5.27725e-05 0.000198186 -3.69472e-08
1.74945e-07 -3.69472e-08 0.000214548

0.000222 7.33202e-05 -1.19568e-07
7.33202e-05 0.00021183 -1.95818e-08
-1.19568e-07 -1.95818e-08 0.000214473

0.000375313 -6.81003e-05 -8.80011e-08
-6.81003e-05 0.000484368 7.34727e-08
-8.80011e-08 7.34727e-08 0.000463667

0.000229503 9.44477e-06 -1.28318e-07
9.44477e-06 0.000196929 1.30391e-07
-1.28318e-07 1.30391e-07 0.000225663

0.000211126 -1.76819e-05 -7.92539e-08
-1.76819e-05 0.000201612 -4.9215e-08
-7.92539e-08 -4.9215e-08 0.000226978

0.000465419 -1.55669e-05 -1.06589e-07
-1.55669e-05 0.000486016 1.78289e-07
-1.06589e-07 1.78289e-07 0.000478034

0.000467721 1.63837e-05 1.48312e-07
1.63837e-05 0.000484865 1.25812e-07
1.48312e-07 1.25812e-07 0.000478183

0.000504889 -1.03355e-06 -6.5163e-08
-1.03355e-06 0.000330531 -1.31929e-07
-6.5163e-08 -1.31929e-07 0.000417632

0.000467877 -8.5974e-06 -1.61306e-07
-8.5974e-06 0.000462376 -2.06783e-07
-1.61306e-07 -2.06783e-07 0.000477729

0.00047001 9.91022e-06 1.66567e-07
9.91022e-06 0.00046265 -2.65643e-09
1.66567e-07 -2.65643e-09 0.000477874

0.000345843 5.30669e-05 -1.10496e-07
5.30669e-05 0.000440748 -1.04174e-07
-1.10496e-07 -1.04174e-07 0.000395054

0.000565756 -5.57615e-05 1.2565e-07
-5.57615e-05 0.000502213 -6.74377e-08
1.2565e-07 -6.74377e-08 0.0004921

0.000565617 5.58695e-05 -8.25528e-08
5.58695e-05 0.000501418 1.47617e-09
-8.25528e-08 1.47617e-09 0.000492564

0.000439488 -2.8357e-05 6.66437e-08
-2.8357e-05 0.00043291 -1.89226e-08
6.66437e-08 -1.89226e-08 0.000448036

0.000438764 2.81721e-05 -1.21781e-07
2.81721e-05 0.000432704 4.80975e-08
-1.21781e-07 4.80975e-08 0.000448241

0.000342008 -4.82556e-05 5.41016e-08
-4.82556e-05 0.000255705 -6.66518e-08
5.41016e-08 -6.66518e-08 0.000284225

0.00044583 2.74199e-05 -7.1627e-08
2.74199e-05 0.000579013 1.08401e-07
-7.1627e-08 1.08401e-07 0.000495659

0.00048315 -5.46371e-06 -1.11637e-07
-5.46371e-06 0.000532074 -9.30538e-08
-1.11637e-07 -9.30538e-08 0.000493624

0.000339609 -5.8294e-05 1.31933e-08
-5.8294e-05 0.000412334 6.86211e-08
1.31933e-08 6.86211e-08 0.000364618

0.000248251 -1.43887e-05 -4.44696e-08
-1.43887e-05 0.00029438 -8.88009e-08
-4.44696e-08 -8.88009e-08 0.000256221

0.000306843 -1.53442e-05 -8.85257e-08
-1.53442e-05 0.000227531 2.78383e-08
-8.85257e-08 2.78383e-08 0.000255031

0.000363005 4.52525e-05 -3.44937e-08
4.52525e-05 0.000465108 7.55031e-08
-3.44937e-08 7.55031e-08 0.000424017

0.000360015 4.52032e-05 1.40041e-08
4.52032e-05 0.000449828 -1.28626e-07
1.40041e-08 -1.28626e-07 0.00042727

0.000592838 -4.53583e-05 1.24133e-07
-4.53583e-05 0.0004819 4.22597e-08
1.24133e-07 4.22597e-08 0.000510374

0.000590893 4.17542e-05 -6.3948e-07
4.17542e-05 0.000491511 -5.93933e-07
-6.3948e-07 -5.93933e-07 0.000510948

0.000376392 5.88978e-05 1.12411e-07
5.88978e-05 0.00044076 -2.18646e-09
1.12411e-07 -2.18646e-09 0.0004515

0.000457196 1.79934e-05 -6.48655e-08
1.79934e-05 0.000367637 1.06139e-08
-6.48655e-08 1.06139e-08 0.000425358

0.000456599 -1.88061e-05 1.66143e-07
-1.88061e-05 0.000365776 7.35418e-09
1.66143e-07 7.35418e-09 0.000424071

0.0004077 7.99921e-05 -2.19058e-08
7.99921e-05 0.000424004 1.79867e-07
-2.19058e-08 1.79867e-07 0.000445035

0.000400713 -5.36948e-05 -5.15727e-08
-5.36948e-05 0.000482123 1.00453e-08
-5.15727e-08 1.00453e-08 0.000459078

0.000382445 -9.39407e-07 -2.69637e-08
-9.39407e-07 0.000260436 1.4089e-07
-2.69637e-08 1.4089e-07 0.000305266

0.000454442 1.48341e-06 1.42413e-08
1.48341e-06 0.000315223 1.93229e-08
1.42413e-08 1.93229e-08 0.000368747

0.000411499 3.56064e-05 -5.33805e-08
3.56064e-05 0.000295144 1.24112e-07
-5.33805e-08 1.24112e-07 0.000337979

0.000508223 5.92121e-05 2.1543e-08
5.92121e-05 0.00040399 3.21316e-08
2.1543e-08 3.21316e-08 0.000463605

0.000618227 -7.43343e-06 -2.3118e-07
-7.43343e-06 0.000575711 1.52244e-07
-2.3118e-07 1.52244e-07 0.000501665

0.000616563 7.64963e-06 3.41893e-07
7.64963e-06 0.000579956 1.66559e-07
3.41893e-07 1.66559e-07 0.000501335

0.000338916 5.2031e-05 -7.94563e-09
5.2031e-05 0.000331737 -8.87381e-08
-7.94563e-09 -8.87381e-08 0.000309183

0.000409915 -6.63899e-05 1.34384e-08
-6.63899e-05 0.000353168 2.08813e-08
1.34384e-08 2.08813e-08 0.000385292

0.000465896 -1.62871e-05 1.57598e-07
-1.62871e-05 0.000355691 1.42314e-08
1.57598e-07 1.42314e-08 0.000401273

0.000480922 6.3718e-05 -3.99018e-08
6.3718e-05 0.000594596 1.16119e-07
-3.99018e-08 1.16119e-07 0.000501809

0.000503591 -1.73938e-05 9.33273e-08
-1.73938e-05 0.00052506 -4.31965e-08
9.33273e-08 -4.31965e-08 0.000500909

0.000513137 -5.84646e-05 -4.1763e-08
-5.84646e-05 0.00041392 8.8364e-08
-4.1763e-08 8.8364e-08 0.000467257

0.000389254 -1.71248e-05 -6.2479e-09
-1.71248e-05 0.000469797 -1.28443e-07
-6.2479e-09 -1.28443e-07 0.000437439

0.000397447 -1.75429e-05 -1.78325e-08
-1.75429e-05 0.000472809 -1.17017e-07
-1.78325e-08 -1.17017e-07 0.000436332

0.000510145 -4.61156e-06 3.86068e-11
-4.61156e-06 0.000335365 -3.88923e-08
3.86068e-11 -3.88923e-08 0.000435469

0.000512737 4.46658e-06 1.4046e-07
4.46658e-06 0.000334345 -2.57631e-09
1.4046e-07 -2.57631e-09 0.000436741

0.0003499 4.45833e-05 4.57512e-08
4.45833e-05 0.000321754 1.65871e-07
4.57512e-08 1.65871e-07 0.000303913

0.000504546 -3.74312e-06 -9.67212e-08
-3.74312e-06 0.000379673 9.096e-08
-9.67212e-08 9.096e-08 0.000457134

0.000504501 3.15167e-06 1.35108e-07
3.15167e-06 0.000380327 -6.66148e-09
1.35108e-07 -6.66148e-09 0.00045739

0.000468195 1.60365e-05 -1.85579e-07
1.60365e-05 0.000355235 -9.78745e-08
-1.85579e-07 -9.78745e-08 0.000401875

0.000347192 -5.16598e-05 -7.69431e-08
-5.16598e-05 0.000416847 -4.74372e-08
-7.69431e-08 -4.74372e-08 0.000369505

0.000509986 -1.72882e-06 4.62867e-09
-1.72882e-06 0.000369496 -1.51276e-08
4.62867e-09 -1.51276e-08 0.000439341

0.000512424 2.14145e-06 1.40218e-07
2.14145e-06 0.000369285 -1.24373e-09
1.40218e-07 -1.24373e-09 0.000440719

0.000459166 -3.9361e-05 3.44498e-08
-3.9361e-05 0.000355098 1.16295e-07
3.44498e-08 1.16295e-07 0.000410475

0.000388885 7.29057e-05 1.35919e-07
7.29057e-05 0.00046441 1.108e-07
1.35919e-07 1.108e-07 0.000440323

0.000394393 5.50883e-05 1.80831e-08
5.50883e-05 0.000340098 -3.51346e-08
1.80831e-08 -3.51346e-08 0.000353523

0.000394499 5.97795e-05 -9.84152e-08
5.97795e-05 0.00043077 -6.65986e-08
-9.84152e-08 -6.65986e-08 0.000452808

0.000391898 7.27332e-05 -6.1567e-08
7.27332e-05 0.000476675 5.65153e-09
-6.1567e-08 5.65153e-09 0.000445683

0.000419047 -2.84541e-05 -1.41091e-07
-2.84541e-05 0.000296391 7.86858e-08
-1.41091e-07 7.86858e-08 0.000343478

0.000459067 -6.48936e-05 1.08036e-07
-6.48936e-05 0.000379925 -8.96123e-08
1.08036e-07 -8.96123e-08 0.000430731

0.000451647 3.9361e-05 -4.55341e-08
3.9361e-05 0.000353786 1.41945e-08
-4.55341e-08 1.41945e-08 0.000402899

0.000357585 6.42566e-05 4.09529e-08
6.42566e-05 0.000338445 -4.3823e-08
4.09529e-08 -4.3823e-08 0.000339996

0.00040789 6.67206e-05 8.32593e-08
6.67206e-05 0.00035005 1.62185e-08
8.32593e-08 1.62185e-08 0.000382183

0.000349777 6.25188e-06 1.53795e-09
6.25188e-06 0.000460952 -1.27082e-07
1.53795e-09 -1.27082e-07 0.000422144

0.000350485 2.06569e-06 -1.07429e-07
2.06569e-06 0.000460321 -7.58612e-08
-1.07429e-07 -7.58612e-08 0.000422062

0.000350174 4.69047e-05 3.97746e-08
4.69047e-05 0.000270434 1.91352e-08
3.97746e-08 1.91352e-08 0.000291749

0.000407735 -7.90413e-05 3.53276e-08
-7.90413e-05 0.000424599 -3.39188e-08
3.53276e-08 -3.39188e-08 0.000446268

0.000342109 -6.31448e-05 -3.67732e-09
-6.31448e-05 0.000374022 1.75056e-07
-3.67732e-09 1.75056e-07 0.000338814

0.000340596 6.45095e-05 -1.325e-08
6.45095e-05 0.000375834 7.85681e-08
-1.325e-08 7.85681e-08 0.000338088

0.000451362 -4.79289e-05 -9.61737e-09
-4.79289e-05 0.000355065 1.9619e-08
-9.61737e-09 1.9619e-08 0.000406258

0.000516369 -3.19978e-05 -7.0451e-08
-3.19978e-05 0.000346408 1.64899e-08
-7.0451e-08 1.64899e-08 0.000464775

0.000512207 3.19014e-05 -2.97541e-08
3.19014e-05 0.000351101 5.89868e-08
-2.97541e-08 5.89868e-08 0.000463035

0.000314045 3.486e-05 -7.49393e-08
3.486e-05 0.000392814 -3.63255e-08
-7.49393e-08 -3.63255e-08 0.000348763

0.00040886 -6.63602e-05 -1.20235e-08
-6.63602e-05 0.000376725 -9.87026e-08
-1.20235e-08 -9.87026e-08 0.000391593

0.000262566 -2.47897e-06 -1.65211e-07
-2.47897e-06 0.000371882 6.49174e-08
-1.65211e-07 6.49174e-08 0.000303203

0.000261858 1.22179e-06 1.58595e-07
1.22179e-06 0.000372164 4.34816e-08
1.58595e-07 4.34816e-08 0.000302943

0.000386338 3.21914e-06 1.20411e-07
3.21914e-06 0.000249223 -1.26311e-07
1.20411e-07 -1.26311e-07 0.000297063

0.000345441 -4.66668e-05 1.50703e-07
-4.66668e-05 0.000324045 -1.41405e-07
1.50703e-07 -1.41405e-07 0.000302092

0.000368587 5.67244e-05 2.23171e-08
5.67244e-05 0.000328037 1.43782e-07
2.23171e-08 1.43782e-07 0.000337189

0.000531575 -0.000115577 2.94755e-07
-0.000115577 0.000584517 -1.07072e-07
2.94755e-07 -1.07072e-07 0.000507999

0.000561902 4.995e-05 2.79169e-07
4.995e-05 0.000595184 1.49386e-08
2.79169e-07 1.49386e-08 0.000508729

0.000421466 2.5932e-05 1.60284e-07
2.5932e-05 0.000298079 -6.3735e-08
1.60284e-07 -6.3735e-08 0.000345948

0.000369829 7.0691e-05 3.54183e-09
7.0691e-05 0.000453532 -1.09157e-08
3.54183e-09 -1.09157e-08 0.000414487

0.000504646 1.01565e-06 -7.39421e-08
1.01565e-06 0.000330077 1.51772e-08
-7.39421e-08 1.51772e-08 0.000416518

0.000314428 -3.41822e-05 4.94063e-08
-3.41822e-05 0.000395294 -7.95337e-08
4.94063e-08 -7.95337e-08 0.000350076

0.000356009 7.00228e-05 1.16592e-07
7.00228e-05 0.000488337 -1.12474e-08
1.16592e-07 -1.12474e-08 0.000465602

0.000404428 5.72431e-05 -4.5835e-08
5.72431e-05 0.000484945 -2.846e-08
-4.5835e-08 -2.846e-08 0.000460271

0.000389803 -7.2698e-05 3.81575e-08
-7.2698e-05 0.000464194 -1.07369e-07
3.81575e-08 -1.07369e-07 0.000440591

0.000388101 7.4077e-05 7.47605e-08
7.4077e-05 0.000482932 -1.08795e-07
7.47605e-08 -1.08795e-07 0.000447306

0.000368505 5.61097e-05 -5.97523e-09
5.61097e-05 0.000423483 7.5526e-08
-5.97523e-09 7.5526e-08 0.000419681

0.000537928 6.14167e-07 -5.88183e-08
6.14167e-07 0.00032775 4.9158e-08
-5.88183e-08 4.9158e-08 0.000444904

0.000369122 -5.59249e-05 -7.19017e-08
-5.59249e-05 0.000325029 1.98782e-08
-7.19017e-08 1.98782e-08 0.000334451

0.000394261 -5.9963e-05 5.67364e-08
-5.9963e-05 0.00043122 -9.80571e-08
5.67364e-08 -9.80571e-08 0.000453513

0.000367155 -4.77319e-05 -7.74905e-08
-4.77319e-05 0.000371709 7.89759e-08
-7.74905e-08 7.89759e-08 0.000349367

0.00032429 -4.62336e-05 -1.42074e-08
-4.62336e-05 0.000326486 -2.10498e-08
-1.42074e-08 -2.10498e-08 0.000302159

0.000402203 -6.91925e-05 -6.06236e-08
-6.91925e-05 0.000399566 -2.70142e-08
-6.06236e-08 -2.70142e-08 0.000415748

0.00030475 -2.81262e-05 4.27242e-08
-2.81262e-05 0.000387413 -5.35016e-08
4.27242e-08 -5.35016e-08 0.000322319

0.000303685 2.70866e-05 3.68199e-08
2.70866e-05 0.000387882 -2.19303e-08
3.68199e-08 -2.19303e-08 0.000321858

0.000387987 1.62101e-05 1.49291e-07
1.62101e-05 0.000295333 -6.74505e-08
1.49291e-07 -6.74505e-08 0.000314774

0.000367572 4.99948e-05 1.59912e-08
4.99948e-05 0.000371192 4.29692e-08
1.59912e-08 4.29692e-08 0.000349199

0.00034987 8.73817e-06 -1.09778e-07
8.73817e-06 0.000440397 -2.85912e-08
-1.09778e-07 -2.85912e-08 0.000386094

0.000350644 -1.91949e-06 -5.02416e-09
-1.91949e-06 0.000439749 4.70561e-09
-5.02416e-09 4.70561e-09 0.000385829

0.000299304 -5.45879e-05 1.55238e-07
-5.45879e-05 0.000326911 -1.39252e-07
1.55238e-07 -1.39252e-07 0.000292491

0.000300487 5.43432e-05 -1.56035e-08
5.43432e-05 0.000325539 1.98849e-07
-1.56035e-08 1.98849e-07 0.000291465

0.000538948 4.44436e-06 -1.25076e-07
4.44436e-06 0.000337596 -5.99187e-08
-1.25076e-07 -5.99187e-08 0.000445588

0.000540309 -4.09467e-06 -4.97292e-08
-4.09467e-06 0.00033665 3.4965e-08
-4.97292e-08 3.4965e-08 0.000446123

0.000377994 6.42045e-05 -2.65514e-08
6.42045e-05 0.000457645 2.24883e-09
-2.65514e-08 2.24883e-09 0.000420158

0.000349713 -6.3042e-05 -1.87088e-08
-6.3042e-05 0.000484021 4.87188e-08
-1.87088e-08 4.87188e-08 0.000464731

0.000439794 6.99036e-05 5.18136e-08
6.99036e-05 0.000396921 -1.87073e-07
5.18136e-08 -1.87073e-07 0.000430676

0.000334762 3.25398e-05 3.22033e-08
3.25398e-05 0.000248069 7.00965e-08
3.22033e-08 7.00965e-08 0.000274878

0.000312029 4.26507e-05 2.1462e-08
4.26507e-05 0.000413475 -6.04344e-08
2.1462e-08 -6.04344e-08 0.000350747

0.000474942 4.02331e-06 1.95602e-07
4.02331e-06 0.00043376 4.10448e-08
1.95602e-07 4.10448e-08 0.000462917

0.00047439 -4.15412e-06 -2.79469e-07
-4.15412e-06 0.000434323 -2.92518e-08
-2.79469e-07 -2.92518e-08 0.00046273

0.000414023 4.10493e-05 -9.35633e-08
4.10493e-05 0.000387759 -6.88704e-08
-9.35633e-08 -6.88704e-08 0.000391

0.000455094 -2.54816e-05 1.5582e-07
-2.54816e-05 0.000410365 -1.10929e-07
1.5582e-07 -1.10929e-07 0.000428501

0.000455449 2.62335e-05 -7.25417e-08
2.62335e-05 0.000410603 9.93315e-08
-7.25417e-08 9.93315e-08 0.000428749

0.00021543 -2.59824e-05 -4.57475e-08
-2.59824e-05 0.00015702 1.83747e-07
-4.57475e-08 1.83747e-07 0.000226816

0.000142573 3.23177e-05 -3.51019e-08
3.23177e-05 0.000202751 5.69744e-08
-3.51019e-08 5.69744e-08 0.000225357

0.000310861 -4.17941e-05 4.6626e-08
-4.17941e-05 0.000414772 -6.50529e-08
4.6626e-08 -6.50529e-08 0.000351724

0.000521912 -9.18898e-06 4.91088e-08
-9.18898e-06 0.000491006 -2.57865e-07
4.91088e-08 -2.57865e-07 0.000497152

0.000521573 1.08112e-05 -2.0954e-07
1.08112e-05 0.000491392 2.06682e-08
-2.0954e-07 2.06682e-08 0.000497223

0.000338043 2.85172e-05 1.27335e-08
2.85172e-05 0.000244339 1.25608e-07
1.27335e-08 1.25608e-07 0.000274695

0.000356985 -3.47986e-05 -1.61507e-08
-3.47986e-05 0.000460183 -1.33416e-07
-1.61507e-08 -1.33416e-07 0.0004274

0.000364313 -3.39715e-05 5.20107e-08
-3.39715e-05 0.000464666 -8.3057e-08
5.20107e-08 -8.3057e-08 0.000424928

0.00035637 -6.87628e-05 -5.50299e-08
-6.87628e-05 0.000342195 1.00387e-08
-5.50299e-08 1.00387e-08 0.000336001

0.000388713 -7.42303e-05 -1.59812e-08
-7.42303e-05 0.000482587 5.15572e-08
-1.59812e-08 5.15572e-08 0.000447107

0.000350034 8.81974e-05 -1.22589e-07
8.81974e-05 0.000447953 -2.95965e-08
-1.22589e-07 -2.95965e-08 0.000452279

0.000457388 3.98993e-05 -1.35745e-07
3.98993e-05 0.000486987 -2.25809e-08
-1.35745e-07 -2.25809e-08 0.000472664

0.000437293 5.51334e-05 -3.40617e-08
5.51334e-05 0.000489937 -1.39595e-09
-3.40617e-08 -1.39595e-09 0.000475909

0.000377336 -6.45596e-05 3.28636e-08
-6.45596e-05 0.000458927 -1.04231e-07
3.28636e-08 -1.04231e-07 0.000421127

0.000402314 6.85195e-05 -1.23513e-07
6.85195e-05 0.00041149 1.14614e-07
-1.23513e-07 1.14614e-07 0.000425163

0.000414697 -4.1742e-05 -1.32552e-07
-4.1742e-05 0.000388444 -3.93668e-08
-1.32552e-07 -3.93668e-08 0.000391242

0.000394887 5.04763e-05 2.33255e-08
5.04763e-05 0.000295556 -1.42615e-08
2.33255e-08 -1.42615e-08 0.000334198

0.000453805 -1.87075e-06 2.87241e-08
-1.87075e-06 0.000315078 1.71628e-07
2.87241e-08 1.71628e-07 0.000369326

0.000386001 7.74338e-05 2.7791e-09
7.74338e-05 0.000477578 1.14947e-08
2.7791e-09 1.14947e-08 0.000446007

0.000350597 -4.65469e-05 -2.39371e-08
-4.65469e-05 0.000420276 1.07382e-07
-2.39371e-08 1.07382e-07 0.000398994

0.00032223 1.71732e-05 -1.09504e-07
1.71732e-05 0.000427397 6.13755e-08
-1.09504e-07 6.13755e-08 0.000375098

0.000406532 4.79816e-05 7.62003e-08
4.79816e-05 0.00040532 7.77414e-08
7.62003e-08 7.77414e-08 0.000413518

0.000326404 2.09007e-05 3.67079e-08
2.09007e-05 0.000434145 -9.75694e-08
3.67079e-08 -9.75694e-08 0.000376238

0.000406495 -5.99071e-05 9.38439e-08
-5.99071e-05 0.000485767 -4.09129e-08
9.38439e-08 -4.09129e-08 0.000458449

0.00024582 -3.38936e-05 -2.10689e-08
-3.38936e-05 0.000253374 2.60258e-07
-2.10689e-08 2.60258e-07 0.000237134

0.000273984 -3.38759e-05 -2.66506e-07
-3.38759e-05 0.000224196 1.02882e-08
-2.66506e-07 1.02882e-08 0.00023659

0.000466286 -1.36313e-05 1.61991e-07
-1.36313e-05 0.000324581 9.34501e-08
1.61991e-07 9.34501e-08 0.000397592

0.000406163 -4.77698e-05 -1.90899e-08
-4.77698e-05 0.000404946 -1.36192e-07
-1.90899e-08 -1.36192e-07 0.000413367

0.000606358 -6.39106e-05 1.64521e-09
-6.39106e-05 0.000492888 3.37056e-07
1.64521e-09 3.37056e-07 0.000508569

0.000606357 6.14078e-05 -1.85531e-07
6.14078e-05 0.000496534 4.9861e-07
-1.85531e-07 4.9861e-07 0.000508852

0.000371633 -6.93439e-05 2.44138e-08
-6.93439e-05 0.000455614 -1.08357e-07
2.44138e-08 -1.08357e-07 0.000416929

0.00051602 -5.96385e-05 -3.91999e-08
-5.96385e-05 0.000516857 -6.81087e-08
-3.91999e-08 -6.81087e-08 0.000488371

0.000513865 6.03258e-05 9.24172e-08
6.03258e-05 0.000515489 -9.23253e-08
9.24172e-08 -9.23253e-08 0.000488268

0.000459945 1.26053e-05 2.95055e-08
1.26053e-05 0.000339161 5.97321e-08
2.95055e-08 5.97321e-08 0.000416611

0.000348603 -8.83298e-05 1.26844e-07
-8.83298e-05 0.00044634 4.87021e-09
1.26844e-07 4.87021e-09 0.000452336

0.000261941 -3.98965e-05 2.73776e-08
-3.98965e-05 0.000258411 -5.73454e-09
2.73776e-08 -5.73454e-09 0.0002468

0.000276717 3.98154e-05 2.95522e-08
3.98154e-05 0.000248875 6.9971e-08
2.95522e-08 6.9971e-08 0.000250264

0.000259824 -2.98179e-05 2.83139e-08
-2.98179e-05 0.000315865 -1.6792e-08
2.83139e-08 -1.6792e-08 0.000266363

0.000250727 2.72826e-05 1.00379e-09
2.72826e-05 0.000316186 2.13327e-07
1.00379e-09 2.13327e-07 0.000264394

0.000324179 1.73346e-05 -5.97459e-08
1.73346e-05 0.000238157 -7.13041e-08
-5.97459e-08 -7.13041e-08 0.000262013

0.000385765 -7.80141e-05 -5.80161e-08
-7.80141e-05 0.00047809 -1.70995e-08
-5.80161e-08 -1.70995e-08 0.000445626

0.00022217 8.45785e-06 -9.27452e-08
8.45785e-06 0.000298437 -1.62805e-07
-9.27452e-08 -1.62805e-07 0.000250644

0.000310232 -9.8552e-06 9.24318e-08
-9.8552e-06 0.000213229 2.84496e-08
9.24318e-08 2.84496e-08 0.000247786

0.000445024 -2.41212e-05 -1.56383e-08
-2.41212e-05 0.000542898 -2.96146e-08
-1.56383e-08 -2.96146e-08 0.000489648

0.000482217 -1.42638e-06 3.12671e-08
-1.42638e-06 0.000509986 2.49521e-07
3.12671e-08 2.49521e-07 0.000487885

0.000482374 3.91204e-05 -3.61313e-08
3.91204e-05 0.000389166 -2.27964e-08
-3.61313e-08 -2.27964e-08 0.0004393

0.000495466 -2.2738e-06 -4.38395e-08
-2.2738e-06 0.000307785 -7.63303e-08
-4.38395e-08 -7.63303e-08 0.000450227

0.000296415 3.94835e-05 -3.17824e-08
3.94835e-05 0.000368561 6.0743e-08
-3.17824e-08 6.0743e-08 0.00031363

0.000296199 -4.09069e-05 1.35827e-07
-4.09069e-05 0.000369076 5.77837e-08
1.35827e-07 5.77837e-08 0.000314297

0.000467372 -7.88015e-06 5.6195e-08
-7.88015e-06 0.000341535 -8.59343e-08
5.6195e-08 -8.59343e-08 0.000418793

0.000347208 -5.27272e-05 -7.82654e-08
-5.27272e-05 0.000444555 -2.8211e-08
-7.82654e-08 -2.8211e-08 0.000397293

0.000513764 5.88967e-06 -3.465e-08
5.88967e-06 0.000466782 -1.59157e-07
-3.465e-08 -1.59157e-07 0.000487388

0.00051353 -4.22073e-06 -1.33968e-07
-4.22073e-06 0.000467133 1.09724e-07
-1.33968e-07 1.09724e-07 0.0004875

0.000450003 5.8126e-05 -1.01403e-07
5.8126e-05 0.000409824 -5.00087e-08
-1.01403e-07 -5.00087e-08 0.000434655

0.000402793 -6.65483e-05 -5.10465e-08
-6.65483e-05 0.000411388 1.78997e-08
-5.10465e-08 1.78997e-08 0.000425385

0.000482108 3.55709e-05 -3.19245e-08
3.55709e-05 0.000344367 2.02572e-08
-3.19245e-08 2.02572e-08 0.000430604

0.000340662 5.26837e-05 -2.40999e-08
5.26837e-05 0.00029921 -2.47918e-08
-2.40999e-08 -2.47918e-08 0.000301668

0.000369524 -5.76648e-05 3.84979e-08
-5.76648e-05 0.000426025 5.80152e-08
3.84979e-08 5.80152e-08 0.000420799

0.000210812 8.96008e-05 1.30213e-07
8.96008e-05 0.000190761 -2.57201e-08
1.30213e-07 -2.57201e-08 0.000209141

0.000326434 -1.24514e-05 1.03424e-07
-1.24514e-05 0.000426568 6.2499e-08
1.03424e-07 6.2499e-08 0.000375689

0.00032795 -1.93081e-05 9.36562e-08
-1.93081e-05 0.000430315 3.94658e-08
9.36562e-08 3.94658e-08 0.000375177

0.000452355 2.58639e-05 3.16979e-08
2.58639e-05 0.000544457 2.08952e-07
3.16979e-08 2.08952e-07 0.000491681

0.000465811 -3.89922e-05 4.93267e-08
-3.89922e-05 0.000532565 -1.00245e-07
4.93267e-08 -1.00245e-07 0.000491352

0.000538773 -1.96761e-06 -1.18074e-07
-1.96761e-06 0.000354716 -6.91058e-08
-1.18074e-07 -6.91058e-08 0.000460108

0.000538999 1.83309e-06 -8.14283e-08
1.83309e-06 0.000354159 -6.00161e-09
-8.14283e-08 -6.00161e-09 0.000460494

0.000473702 -7.70216e-05 8.75102e-08
-7.70216e-05 0.000431712 1.2782e-08
8.75102e-08 1.2782e-08 0.000460267

0.000474886 7.69733e-05 -1.23834e-07
7.69733e-05 0.0004216 -5.98904e-08
-1.23834e-07 -5.98904e-08 0.000457212

0.000532291 -2.80881e-05 3.31118e-09
-2.80881e-05 0.000490932 1.12682e-07
3.31118e-09 1.12682e-07 0.000484482

0.000530076 2.83736e-05 5.54833e-08
2.83736e-05 0.000491106 6.62102e-08
5.54833e-08 6.62102e-08 0.000484295

0.000546399 -2.45369e-05 -1.7152e-07
-2.45369e-05 0.000497699 3.26925e-07
-1.7152e-07 3.26925e-07 0.000505072

0.000546399 2.6102e-05 2.392e-07
2.6102e-05 0.000500869 4.73762e-07
2.392e-07 4.73762e-07 0.000505432

0.000407181 -7.37137e-05 2.24313e-08
-7.37137e-05 0.000481627 4.38122e-08
2.24313e-08 4.38122e-08 0.000461315

0.0004086 7.33972e-05 -4.94011e-08
7.33972e-05 0.000481661 -1.35868e-07
-4.94011e-08 -1.35868e-07 0.000461895

0.000418884 -3.7759e-05 -1.2976e-07
-3.7759e-05 0.000350406 -2.78913e-08
-1.2976e-07 -2.78913e-08 0.000383578

0.000358331 -3.19674e-05 2.30867e-08
-3.19674e-05 0.000435424 1.36639e-07
2.30867e-08 1.36639e-07 0.000401618

0.000381719 6.19373e-05 -1.11532e-07
6.19373e-05 0.000381273 -6.56265e-08
-1.11532e-07 -6.56265e-08 0.000376462

0.000360845 -4.54931e-05 7.62297e-08
-4.54931e-05 0.00044838 5.84054e-08
7.62297e-08 5.84054e-08 0.000400088

0.00034166 -4.73697e-05 4.6687e-08
-4.73697e-05 0.000305106 4.26437e-08
4.6687e-08 4.26437e-08 0.000298438

0.000417325 3.74041e-05 -8.37613e-08
3.74041e-05 0.000349551 -1.14742e-07
-8.37613e-08 -1.14742e-07 0.000382747

0.000359531 3.2237e-05 1.87501e-08
3.2237e-05 0.000433292 1.22284e-07
1.87501e-08 1.22284e-07 0.000399868

0.000413451 -9.18565e-05 -1.14397e-07
-9.18565e-05 0.000449926 -4.24351e-08
-1.14397e-07 -4.24351e-08 0.000465617

0.000414341 9.21006e-05 1.5331e-09
9.21006e-05 0.000449373 -3.47142e-08
1.5331e-09 -3.47142e-08 0.000465598

0.000486608 -3.66822e-05 1.37332e-07
-3.66822e-05 0.000396386 -7.92914e-08
1.37332e-07 -7.92914e-08 0.000445666

0.000561855 -6.94153e-05 -1.92724e-07
-6.94153e-05 0.000618833 3.08034e-09
-1.92724e-07 3.08034e-09 0.000507223

0.000554547 6.95267e-05 -1.02354e-07
6.95267e-05 0.000509828 1.70886e-08
-1.02354e-07 1.70886e-08 0.000507948

0.000400621 -5.17019e-05 -5.10083e-08
-5.17019e-05 0.000471957 -1.27548e-08
-5.10083e-08 -1.27548e-08 0.000438503

0.000451274 6.53652e-05 -9.77703e-08
6.53652e-05 0.000374575 -1.16457e-09
-9.77703e-08 -1.16457e-09 0.000424257

0.000519182 3.66068e-06 -2.62668e-08
3.66068e-06 0.000445594 5.07505e-08
-2.62668e-08 5.07505e-08 0.000474706

0.000381267 -6.08314e-05 2.98945e-08
-6.08314e-05 0.000383853 -1.71781e-08
2.98945e-08 -1.71781e-08 0.000376629

0.000253395 3.91126e-05 -3.41344e-08
3.91126e-05 0.000267631 -1.58649e-07
-3.41344e-08 -1.58649e-07 0.000241045

0.000274586 3.868e-05 -1.06527e-07
3.868e-05 0.000236408 -6.92843e-08
-1.06527e-07 -6.92843e-08 0.000241192

0.000538238 7.62168e-06 9.65501e-09
7.62168e-06 0.000379356 8.95051e-08
9.65501e-09 8.95051e-08 0.000467783

0.000536916 -7.77456e-06 -7.01792e-08
-7.77456e-06 0.00037891 -1.8891e-08
-7.01792e-08 -1.8891e-08 0.000467784

0.000522183 -6.89576e-06 -5.04327e-08
-6.89576e-06 0.000450235 8.52117e-08
-5.04327e-08 8.52117e-08 0.000475714

0.000362962 4.29349e-05 -3.67105e-08
4.29349e-05 0.000446683 -1.52292e-07
-3.67105e-08 -1.52292e-07 0.000399475

0.000419088 -3.00043e-05 -1.39402e-07
-3.00043e-05 0.000338177 -2.0362e-08
-1.39402e-07 -2.0362e-08 0.000354049

0.000436975 -3.68478e-05 9.64958e-08
-3.68478e-05 0.000458564 2.20796e-07
9.64958e-08 2.20796e-07 0.000450234

0.000436146 3.69801e-05 -1.27473e-07
3.69801e-05 0.00045851 9.34462e-08
-1.27473e-07 9.34462e-08 0.000450465

0.000594366 -3.33412e-06 -1.08933e-07
-3.33412e-06 0.00064597 -1.30476e-08
-1.08933e-07 -1.30476e-08 0.000503345

0.000595773 3.16263e-06 2.12076e-07
3.16263e-06 0.000643914 -1.70115e-07
2.12076e-07 -1.70115e-07 0.000503594

0.000373575 -6.26788e-05 4.77249e-08
-6.26788e-05 0.000467502 2.70523e-08
4.77249e-08 2.70523e-08 0.000433299

0.00044423 5.00138e-05 -5.29793e-08
5.00138e-05 0.000354083 3.56849e-08
-5.29793e-08 3.56849e-08 0.000399422

0.000504923 -6.47689e-06 1.32459e-07
-6.47689e-06 0.000422144 1.08257e-07
1.32459e-07 1.08257e-07 0.000465232

0.000504994 6.58638e-06 -9.49415e-08
6.58638e-06 0.000422021 1.69232e-07
-9.49415e-08 1.69232e-07 0.000465078

0.000379428 -3.96402e-05 -9.84559e-08
-3.96402e-05 0.000456066 -7.61896e-08
-9.84559e-08 -7.61896e-08 0.000442937

0.000376779 -6.32946e-05 -3.18424e-08
-6.32946e-05 0.000437125 3.15522e-08
-3.18424e-08 3.15522e-08 0.000450996

0.000207211 -9.25814e-05 1.23931e-08
-9.25814e-05 0.000210746 4.41444e-08
1.23931e-08 4.41444e-08 0.000210977

0.000436365 -5.94051e-05 -3.93653e-08
-5.94051e-05 0.000487248 1.0989e-07
-3.93653e-08 1.0989e-07 0.00047252

0.00043655 6.06374e-05 -5.34868e-08
6.06374e-05 0.000486012 7.61179e-08
-5.34868e-08 7.61179e-08 0.000472189

0.000368142 -6.05969e-05 2.33529e-08
-6.05969e-05 0.000443825 -3.7266e-08
2.33529e-08 -3.7266e-08 0.000438961

0.000422396 3.22807e-05 1.77465e-07
3.22807e-05 0.00033899 8.15213e-08
1.77465e-07 8.15213e-08 0.000356199

0.000458073 -5.69248e-05 1.02872e-07
-5.69248e-05 0.000411924 2.58816e-09
1.02872e-07 2.58816e-09 0.000438892

0.000481767 -6.17652e-05 7.74714e-08
-6.17652e-05 0.000432128 -2.50609e-08
7.74714e-08 -2.50609e-08 0.000462979

0.000483592 6.11339e-05 -1.36773e-07
6.11339e-05 0.00042931 -1.62052e-08
-1.36773e-07 -1.62052e-08 0.000462255

0.000486598 -3.45894e-05 1.36944e-07
-3.45894e-05 0.000347421 7.70504e-08
1.36944e-07 7.70504e-08 0.000436741

0.000533142 1.52697e-05 3.9671e-09
1.52697e-05 0.000429222 1.17778e-07
3.9671e-09 1.17778e-07 0.000481708

0.000531949 -1.49401e-05 -7.99049e-08
-1.49401e-05 0.000430387 -6.72268e-08
-7.99049e-08 -6.72268e-08 0.000481541

0.000480154 -2.36701e-05 -3.99189e-08
-2.36701e-05 0.000610194 -1.52125e-07
-3.99189e-08 -1.52125e-07 0.000503803

0.000502392 5.30539e-05 -5.58366e-08
5.30539e-05 0.000597098 -3.01595e-08
-5.58366e-08 -3.01595e-08 0.000504217

0.000227936 7.50235e-06 -1.46797e-07
7.50235e-06 0.000135705 -3.13173e-08
-1.46797e-07 -3.13173e-08 0.000225343

0.000163715 1.49204e-05 -1.5176e-07
1.49204e-05 0.000208615 5.77621e-08
-1.5176e-07 5.77621e-08 0.000225805

0.000405264 5.82345e-05 2.02024e-07
5.82345e-05 0.000476748 3.69486e-08
2.02024e-07 3.69486e-08 0.000446355

0.000405192 -5.86258e-05 -3.72684e-08
-5.86258e-05 0.000475861 -1.97417e-07
-3.72684e-08 -1.97417e-07 0.000445973

0.000386441 -7.50363e-05 9.58012e-08
-7.50363e-05 0.00047724 -3.86916e-08
9.58012e-08 -3.86916e-08 0.000444154

0.000197691 -3.89904e-05 2.71795e-08
-3.89904e-05 0.000190606 -1.19499e-07
2.71795e-08 -1.19499e-07 0.000221233

0.000204235 -3.2155e-05 -3.24147e-08
-3.2155e-05 0.000191956 5.11383e-08
-3.24147e-08 5.11383e-08 0.000221772

0.000498839 5.16777e-05 -1.15277e-08
5.16777e-05 0.000602953 3.4053e-07
-1.15277e-08 3.4053e-07 0.000510037

0.000498839 -5.49818e-05 1.74337e-08
-5.49818e-05 0.000597852 3.514e-07
1.74337e-08 3.514e-07 0.000510033

0.000441943 -7.11984e-05 4.94155e-08
-7.11984e-05 0.00039931 -4.30083e-08
4.94155e-08 -4.30083e-08 0.000432978

0.000375675 -5.75683e-05 7.47654e-08
-5.75683e-05 0.000411321 5.947e-08
7.47654e-08 5.947e-08 0.000386736

0.000405448 5.64539e-05 1.85378e-07
5.64539e-05 0.000446558 -6.91964e-08
1.85378e-07 -6.91964e-08 0.000438749

0.000405475 -5.68105e-05 -9.37584e-08
-5.68105e-05 0.000446317 1.21779e-07
-9.37584e-08 1.21779e-07 0.000438527

0.00037723 -6.68804e-05 6.10202e-08
-6.68804e-05 0.000433339 7.77543e-08
6.10202e-08 7.77543e-08 0.000409177

0.000376718 5.78771e-05 -5.82187e-08
5.78771e-05 0.000410159 -1.57589e-07
-5.82187e-08 -1.57589e-07 0.000386422

0.000257329 -2.15069e-05 -1.85859e-07
-2.15069e-05 0.00031814 -4.55195e-08
-1.85859e-07 -4.55195e-08 0.000269052

0.000257001 1.76333e-05 1.26951e-07
1.76333e-05 0.000320887 1.79738e-07
1.26951e-07 1.79738e-07 0.000267645

0.000324687 1.51781e-05 -5.22078e-08
1.51781e-05 0.000247254 -1.05853e-07
-5.22078e-08 -1.05853e-07 0.000265022

0.000377912 6.66801e-05 -1.00011e-08
6.66801e-05 0.000433121 -8.78716e-08
-1.00011e-08 -8.78716e-08 0.000408735

0.000229083 -9.91894e-06 -1.38062e-07
-9.91894e-06 0.000293697 -7.97922e-08
-1.38062e-07 -7.97922e-08 0.000248406

0.00030472 -5.82647e-06 -9.05901e-08
-5.82647e-06 0.000210928 4.43328e-08
-9.05901e-08 4.43328e-08 0.000248908

0.000423782 -5.45148e-05 -2.51929e-08
-5.45148e-05 0.000473281 -1.9998e-07
-2.51929e-08 -1.9998e-07 0.000461664

0.000424397 5.39573e-05 -1.39e-08
5.39573e-05 0.00047438 -4.78842e-09
-1.39e-08 -4.78842e-09 0.000462091

0.00043127 -4.11755e-05 9.76529e-08
-4.11755e-05 0.000477087 2.19416e-07
9.76529e-08 2.19416e-07 0.000465233

0.000431359 4.16298e-05 -6.38955e-08
4.16298e-05 0.000476172 1.68544e-07
-6.38955e-08 1.68544e-07 0.00046545

0.00020266 3.53119e-05 1.43595e-07
3.53119e-05 0.000180664 1.51254e-07
1.43595e-07 1.51254e-07 0.000218671

0.000198247 3.44363e-05 -2.21065e-07
3.44363e-05 0.000182045 -5.37279e-08
-2.21065e-07 -5.37279e-08 0.00021744

0.000405139 5.20348e-05 1.001e-07
5.20348e-05 0.000440373 -1.3041e-07
1.001e-07 -1.3041e-07 0.000421294

0.000404816 -5.23911e-05 8.00583e-10
-5.23911e-05 0.000440383 5.47516e-08
8.00583e-10 5.47516e-08 0.000421195

0.000473545 -4.93968e-05 -2.01682e-08
-4.93968e-05 0.000545745 -2.9351e-08
-2.01682e-08 -2.9351e-08 0.000495321

0.000494875 2.24555e-05 -1.04531e-08
2.24555e-05 0.000507162 2.51952e-07
-1.04531e-08 2.51952e-07 0.000495112

0.000416663 -5.66751e-05 -4.87124e-08
-5.66751e-05 0.000501504 -1.59749e-07
-4.87124e-08 -1.59749e-07 0.000470489

0.000417373 5.6665e-05 -6.52884e-08
5.6665e-05 0.000500623 -8.62664e-08
-6.52884e-08 -8.62664e-08 0.000470649

0.000513805 3.63553e-06 -4.79421e-09
3.63553e-06 0.000422271 1.12942e-07
-4.79421e-09 1.12942e-07 0.000481178

0.000513824 -3.12567e-06 -1.16753e-07
-3.12567e-06 0.000422867 -4.689e-08
-1.16753e-07 -4.689e-08 0.000481218

0.000425456 -6.29228e-05 4.07097e-08
-6.29228e-05 0.000432106 -2.56042e-08
4.07097e-08 -2.56042e-08 0.000448832

0.000427634 6.45553e-05 1.28369e-07
6.45553e-05 0.000429153 -2.43031e-08
1.28369e-07 -2.43031e-08 0.000447892

0.000548219 1.55125e-05 3.37207e-08
1.55125e-05 0.000466724 1.74033e-08
3.37207e-08 1.74033e-08 0.000495136

0.00054358 2.91289e-06 1.24478e-07
2.91289e-06 0.000494017 -6.65826e-08
1.24478e-07 -6.65826e-08 0.000504535

0.000548313 -1.58757e-05 1.51408e-07
-1.58757e-05 0.000467202 7.96357e-09
1.51408e-07 7.96357e-09 0.000495371

0.000544615 -4.13569e-06 -2.08595e-07
-4.13569e-06 0.000492097 -3.25183e-07
-2.08595e-07 -3.25183e-07 0.000504606

0.000480967 2.59454e-06 5.95758e-08
2.59454e-06 0.000549538 -2.49476e-08
5.95758e-08 -2.49476e-08 0.000497461

0.000567115 6.34094e-05 1.03988e-07
6.34094e-05 0.000521579 9.9072e-08
1.03988e-07 9.9072e-08 0.000494412

0.000567352 -6.22683e-05 -4.65353e-08
-6.22683e-05 0.000521326 1.46872e-07
-4.65353e-08 1.46872e-07 0.000494252

0.000446425 -3.42921e-05 -1.42316e-08
-3.42921e-05 0.000608376 -4.32554e-08
-1.42316e-08 -4.32554e-08 0.000498431

0.000499541 -2.934e-05 1.56565e-07
-2.934e-05 0.000517048 -2.93703e-07
1.56565e-07 -2.93703e-07 0.000501225

0.000758115 -3.95673e-05 -1.86894e-06
-3.95673e-05 0.000395679 -1.46881e-06
-1.86894e-06 -1.46881e-06 0.000510903

0.000496004 3.19551e-05 5.57669e-07
3.19551e-05 0.000524498 7.96121e-07
5.57669e-07 7.96121e-07 0.000501944

0.000748285 3.79072e-05 -2.77922e-06
3.79072e-05 0.000406874 1.02833e-06
-2.77922e-06 1.02833e-06 0.000511805

0.000519819 -4.00919e-05 7.53366e-08
-4.00919e-05 0.00050305 -1.70577e-07
7.53366e-08 -1.70577e-07 0.000497281

0.000468347 -2.85019e-05 3.51727e-08
-2.85019e-05 0.000510271 -1.43979e-07
3.51727e-08 -1.43979e-07 0.000485648

0.000536447 -2.26676e-06 9.04677e-09
-2.26676e-06 0.000496812 -4.77556e-07
9.04677e-09 -4.77556e-07 0.000507247

0.000518478 4.22275e-05 -4.28163e-08
4.22275e-05 0.000504002 -1.14087e-07
-4.28163e-08 -1.14087e-07 0.000497681

0.000469592 2.9741e-05 -1.50677e-08
2.9741e-05 0.000508902 -9.57106e-08
-1.50677e-08 -9.57106e-08 0.000485715

0.000535665 2.48663e-06 3.07704e-08
2.48663e-06 0.000503502 -4.54854e-07
3.07704e-08 -4.54854e-07 0.000507984

0.000467682 -2.40677e-05 1.97825e-08
-2.40677e-05 0.000501469 4.46027e-08
1.97825e-08 4.46027e-08 0.000489624

0.000520651 -1.39385e-05 8.66784e-08
-1.39385e-05 0.000502641 6.54366e-08
8.66784e-08 6.54366e-08 0.000499082

0.00046883 2.47675e-05 -1.07191e-08
2.47675e-05 0.000501363 -4.24258e-08
-1.07191e-08 -4.24258e-08 0.00048989

0.000520651 1.4105e-05 -2.09398e-07
1.4105e-05 0.000502978 1.94489e-08
-2.09398e-07 1.94489e-08 0.000499305

0.000348425 5.52959e-05 -1.96031e-08
5.52959e-05 0.000412876 2.78027e-08
-1.96031e-08 2.78027e-08 0.000363246

0.000372503 1.12266e-05 -1.9115e-08
1.12266e-05 0.000490342 1.94294e-07
-1.9115e-08 1.94294e-07 0.000437571

0.000416641 2.99061e-05 -2.73115e-08
2.99061e-05 0.000462213 -3.09666e-08
-2.73115e-08 -3.09666e-08 0.000435367

0.000446529 -3.65195e-05 -1.09502e-07
-3.65195e-05 0.000326164 1.24539e-07
-1.09502e-07 1.24539e-07 0.000396136

0.000425969 -2.22419e-05 4.4634e-08
-2.22419e-05 0.000316747 4.14683e-08
4.4634e-08 4.14683e-08 0.000368904

0.0003712 1.70975e-05 -5.53538e-10
1.70975e-05 0.000530022 -2.15993e-08
-5.53538e-10 -2.15993e-08 0.000463318

0.000416459 3.05557e-05 -2.29028e-08
3.05557e-05 0.000471746 -8.22553e-08
-2.29028e-08 -8.22553e-08 0.000462601

0.00042603 -2.83887e-07 4.44692e-08
-2.83887e-07 0.000321762 -7.76046e-08
4.44692e-08 -7.76046e-08 0.000371067

0.000477717 1.37557e-05 4.16306e-08
1.37557e-05 0.000349381 4.89208e-08
4.16306e-08 4.89208e-08 0.00044961

0.00027706 4.7915e-05 1.74632e-08
4.7915e-05 0.000347265 7.71341e-08
1.74632e-08 7.71341e-08 0.000292254

0.000260511 3.77989e-05 7.08867e-08
3.77989e-05 0.000347445 -3.12921e-08
7.08867e-08 -3.12921e-08 0.000290255

0.000335628 3.79261e-05 -4.82982e-08
3.79261e-05 0.000267722 5.03335e-08
-4.82982e-08 5.03335e-08 0.000285445

0.000456951 -5.76683e-05 -6.08386e-09
-5.76683e-05 0.000488563 -9.35776e-08
-6.08386e-09 -9.35776e-08 0.000470804

0.000445139 -2.41284e-05 8.73573e-08
-2.41284e-05 0.000510096 -6.66471e-08
8.73573e-08 -6.66471e-08 0.000470959

0.000402713 -6.68475e-05 3.23171e-09
-6.68475e-05 0.000393508 1.17337e-07
3.23171e-09 1.17337e-07 0.000400774

0.000348051 5.35724e-05 -3.77201e-08
5.35724e-05 0.000431982 -2.09865e-07
-3.77201e-08 -2.09865e-07 0.000391479

0.000382491 6.27399e-05 9.14808e-08
6.27399e-05 0.000460349 1.35284e-07
9.14808e-08 1.35284e-07 0.000432383

0.000414325 -3.0208e-05 2.01088e-08
-3.0208e-05 0.00047092 -1.09584e-07
2.01088e-08 -1.09584e-07 0.000461202

0.000368716 -1.95733e-05 1.75649e-08
-1.95733e-05 0.000532851 -2.41765e-08
1.75649e-08 -2.41765e-08 0.000461226

0.000461136 1.66423e-05 7.88269e-08
1.66423e-05 0.00032982 9.58012e-08
7.88269e-08 9.58012e-08 0.000398858

0.000299053 1.56783e-05 4.97587e-08
1.56783e-05 0.000388509 1.29182e-08
4.97587e-08 1.29182e-08 0.000315082

0.00028276 6.74613e-06 3.48544e-08
6.74613e-06 0.000390377 2.38675e-08
3.48544e-08 2.38675e-08 0.000316742

0.000384441 6.6534e-06 9.12779e-08
6.6534e-06 0.000287723 -3.5407e-08
9.12779e-08 -3.5407e-08 0.000308963

0.000329016 3.79187e-05 3.84237e-08
3.79187e-05 0.000421379 3.91576e-08
3.84237e-08 3.91576e-08 0.000368027

0.000347366 6.16443e-05 -1.24452e-07
6.16443e-05 0.000400351 1.41506e-07
-1.24452e-07 1.41506e-07 0.000361581

0.000444203 1.08339e-05 -9.06732e-08
1.08339e-05 0.000327769 -1.32032e-07
-9.06732e-08 -1.32032e-07 0.000400859

0.000264433 2.84075e-05 5.19054e-08
2.84075e-05 0.000318594 1.42089e-07
5.19054e-08 1.42089e-07 0.000260785

0.000479888 -3.87216e-05 5.48938e-08
-3.87216e-05 0.000348856 -1.45994e-07
5.48938e-08 -1.45994e-07 0.000437804

0.000444604 2.62557e-06 1.32242e-08
2.62557e-06 0.000530182 -2.6955e-08
1.32242e-08 -2.6955e-08 0.000472719

0.000473862 7.90873e-07 3.04232e-08
7.90873e-07 0.000486212 -1.02984e-07
3.04232e-08 -1.02984e-07 0.000473614

0.000617572 2.58273e-05 -2.34693e-08
2.58273e-05 0.000470526 -8.84902e-08
-2.34693e-08 -8.84902e-08 0.000502585

0.000615591 -6.24369e-05 -3.39196e-08
-6.24369e-05 0.000510618 9.91225e-08
-3.39196e-08 9.91225e-08 0.000498231

0.000382725 -7.0364e-05 -9.04946e-08
-7.0364e-05 0.000401312 4.00073e-08
-9.04946e-08 4.00073e-08 0.000395957

0.000334567 -5.72214e-05 -2.86758e-08
-5.72214e-05 0.000398281 1.64946e-08
-2.86758e-08 1.64946e-08 0.000364075

0.00037871 -1.91802e-05 9.44745e-08
-1.91802e-05 0.000272659 -8.81997e-08
9.44745e-08 -8.81997e-08 0.000308644

0.000515316 1.04225e-05 1.80108e-09
1.04225e-05 0.000444151 -3.11991e-08
1.80108e-09 -3.11991e-08 0.000476208

0.000515641 -3.70468e-05 7.03622e-08
-3.70468e-05 0.000450527 -5.49027e-08
7.03622e-08 -5.49027e-08 0.000471216

0.000479388 -1.62107e-05 -4.55116e-08
-1.62107e-05 0.000350846 -1.50429e-07
-4.55116e-08 -1.50429e-07 0.000450064

0.00047559 -5.0678e-06 4.23464e-08
-5.0678e-06 0.000329953 6.12132e-08
4.23464e-08 6.12132e-08 0.000442057

0.000394648 -5.84965e-05 -4.40902e-08
-5.84965e-05 0.000337207 3.63492e-08
-4.40902e-08 3.63492e-08 0.000349407

0.000404561 2.69255e-05 9.29654e-08
2.69255e-05 0.000307202 -9.23468e-08
9.29654e-08 -9.23468e-08 0.000343783

0.000397793 -4.75769e-05 -4.7111e-08
-4.75769e-05 0.000303169 1.14061e-08
-4.7111e-08 1.14061e-08 0.000340485

0.000349715 3.91752e-05 -1.08696e-07
3.91752e-05 0.000475652 4.44588e-08
-1.08696e-07 4.44588e-08 0.000436729

0.000334659 -4.79087e-05 6.36668e-08
-4.79087e-05 0.000417001 1.0977e-07
6.36668e-08 1.0977e-07 0.000368487

0.000331214 4.56823e-05 3.15077e-08
4.56823e-05 0.000400055 4.72983e-08
3.15077e-08 4.72983e-08 0.000364843

0.000215909 -7.22368e-05 -1.8769e-07
-7.22368e-05 0.000219724 -7.30176e-08
-1.8769e-07 -7.30176e-08 0.000214916

0.000197142 4.44662e-05 1.02448e-07
4.44662e-05 0.000220054 -2.93515e-08
1.02448e-07 -2.93515e-08 0.000212748

0.000374441 -5.41712e-05 1.26216e-07
-5.41712e-05 0.000497479 -5.19233e-08
1.26216e-07 -5.19233e-08 0.000460807

0.000328828 3.60682e-05 3.77718e-08
3.60682e-05 0.000442216 2.33395e-08
3.77718e-08 2.33395e-08 0.000396509

0.000199538 7.31919e-06 1.01155e-07
7.31919e-06 0.00020694 1.10389e-08
1.01155e-07 1.10389e-08 0.000225323

0.000202248 -1.43796e-05 2.00211e-08
-1.43796e-05 0.00022534 -6.29944e-08
2.00211e-08 -6.29944e-08 0.000226622

0.000463286 -2.16906e-05 1.76927e-07
-2.16906e-05 0.000495808 -6.8967e-08
1.76927e-07 -6.8967e-08 0.000478188

0.000461228 4.52618e-05 7.81745e-08
4.52618e-05 0.000480486 -6.88915e-08
7.81745e-08 -6.88915e-08 0.000479878

0.000494671 3.53463e-07 2.27143e-08
3.53463e-07 0.000337285 1.16586e-07
2.27143e-08 1.16586e-07 0.000418197

0.000465798 -1.45086e-05 1.99244e-07
-1.45086e-05 0.000472499 8.80862e-08
1.99244e-07 8.80862e-08 0.000478097

0.000462056 4.23714e-05 7.06993e-08
4.23714e-05 0.000480188 -1.62849e-08
7.06993e-08 -1.62849e-08 0.00047932

0.000578259 4.71796e-05 -9.25353e-08
4.71796e-05 0.000457501 -2.74647e-08
-9.25353e-08 -2.74647e-08 0.000496611

0.000564272 -5.74053e-05 -1.53642e-07
-5.74053e-05 0.000501422 6.87197e-08
-1.53642e-07 6.87197e-08 0.00049287

0.000436323 -3.44805e-05 -1.08852e-07
-3.44805e-05 0.000441716 1.07465e-07
-1.08852e-07 1.07465e-07 0.000448216

0.000436005 4.56712e-05 -3.41591e-08
4.56712e-05 0.000432752 5.35398e-08
-3.41591e-08 5.35398e-08 0.000450379

0.000466048 -3.64912e-06 -6.00232e-08
-3.64912e-06 0.00059072 -1.45604e-07
-6.00232e-08 -1.45604e-07 0.000491476

0.000475478 1.66e-05 7.51956e-08
1.66e-05 0.000532883 -3.95212e-08
7.51956e-08 -3.95212e-08 0.000493554

0.000340838 -6.4776e-05 -5.29072e-08
-6.4776e-05 0.000415443 1.24607e-07
-5.29072e-08 1.24607e-07 0.000364203

0.000237585 6.63933e-06 4.71879e-09
6.63933e-06 0.000305839 -1.33149e-07
4.71879e-09 -1.33149e-07 0.000257252

0.000300967 8.75195e-06 -2.16927e-07
8.75195e-06 0.000244708 -5.60362e-08
-2.16927e-07 -5.60362e-08 0.000256696

0.000339421 3.44099e-05 1.22249e-07
3.44099e-05 0.000474104 9.29834e-08
1.22249e-07 9.29834e-08 0.000426171

0.000373134 5.04468e-05 -1.73002e-07
5.04468e-05 0.000455107 7.33784e-08
-1.73002e-07 7.33784e-08 0.000423071

0.00058588 -4.90597e-05 -4.45135e-07
-4.90597e-05 0.000504246 7.72465e-07
-4.45135e-07 7.72465e-07 0.000511016

0.000548289 7.41086e-05 8.66866e-07
7.41086e-05 0.000628806 8.37858e-07
8.66866e-07 8.37858e-07 0.000510727

0.00038414 4.61471e-05 -5.37895e-09
4.61471e-05 0.000359858 -6.09416e-08
-5.37895e-09 -6.09416e-08 0.000355796

0.000394703 7.7598e-05 2.33377e-08
7.7598e-05 0.000473188 7.75104e-09
2.33377e-08 7.75104e-09 0.000445223

0.000450693 2.9896e-05 1.07426e-09
2.9896e-05 0.000374197 -4.96703e-08
1.07426e-09 -4.96703e-08 0.000426631

0.000452819 -2.32792e-05 1.03451e-07
-2.32792e-05 0.000374303 -1.62761e-08
1.03451e-07 -1.62761e-08 0.000424619

0.000402487 7.41592e-05 -8.85983e-08
7.41592e-05 0.000452231 -1.03842e-07
-8.85983e-08 -1.03842e-07 0.000442191

0.000405067 -7.283e-05 -4.80105e-09
-7.283e-05 0.000484633 -9.30755e-08
-4.80105e-09 -9.30755e-08 0.000458085

0.000506601 -6.23369e-05 9.50158e-08
-6.23369e-05 0.000403275 5.3823e-08
9.50158e-08 5.3823e-08 0.000463925

0.000376866 -5.28382e-06 9.4673e-08
-5.28382e-06 0.000276854 -9.12209e-08
9.4673e-08 -9.12209e-08 0.00030978

0.000621246 7.33455e-06 -1.99314e-07
7.33455e-06 0.000574139 2.23911e-08
-1.99314e-07 2.23911e-08 0.000501869

0.000642305 -4.75889e-06 -4.70063e-08
-4.75889e-06 0.000494912 -7.67333e-08
-4.70063e-08 -7.67333e-08 0.000506466

0.000395071 5.69128e-05 6.80939e-08
5.69128e-05 0.000370462 1.18399e-08
6.80939e-08 1.18399e-08 0.00038608

0.000460486 2.14595e-05 8.33031e-08
2.14595e-05 0.000352825 2.01143e-08
8.33031e-08 2.01143e-08 0.000403422

0.000325673 4.87325e-05 -5.38287e-08
4.87325e-05 0.000346919 8.20652e-08
-5.38287e-08 8.20652e-08 0.000307694

0.000494225 1.1526e-05 -6.5433e-08
1.1526e-05 0.000529305 -7.37296e-08
-6.5433e-08 -7.37296e-08 0.000500766

0.000501709 3.39905e-05 4.43759e-08
3.39905e-05 0.000606922 -1.20209e-07
4.43759e-08 -1.20209e-07 0.000497292

0.000508758 3.08021e-05 -1.89269e-08
3.08021e-05 0.000393252 6.17695e-08
-1.89269e-08 6.17695e-08 0.000470068

0.000369703 -1.24438e-05 1.96408e-08
-1.24438e-05 0.000492893 1.08146e-08
1.96408e-08 1.08146e-08 0.00043599

0.000414672 -2.81538e-05 3.02181e-08
-2.81538e-05 0.000465045 2.32317e-08
3.02181e-08 2.32317e-08 0.00043466

0.000498413 9.02403e-06 -4.01186e-08
9.02403e-06 0.000347292 7.41424e-08
-4.01186e-08 7.41424e-08 0.000437974

0.000502518 -6.93552e-06 -5.58182e-09
-6.93552e-06 0.000345334 -6.79003e-08
-5.58182e-09 -6.79003e-08 0.000436894

0.000347512 -4.87492e-05 9.65381e-08
-4.87492e-05 0.000325141 2.06025e-08
9.65381e-08 2.06025e-08 0.000303509

0.000447362 1.02153e-07 -1.02948e-07
1.02153e-07 0.000316686 4.5597e-09
-1.02948e-07 4.5597e-09 0.000369671

0.000498668 -7.91172e-06 -1.19478e-07
-7.91172e-06 0.000389645 9.70228e-08
-1.19478e-07 9.70228e-08 0.000458084

0.000486332 1.60435e-05 -9.99169e-08
1.60435e-05 0.000400721 -1.37814e-07
-9.99169e-08 -1.37814e-07 0.000458952

0.000461356 -2.03401e-05 -6.68132e-08
-2.03401e-05 0.000363868 1.2226e-07
-6.68132e-08 1.2226e-07 0.000401786

0.000350995 -5.74932e-05 -1.16694e-07
-5.74932e-05 0.000417358 4.24749e-08
-1.16694e-07 4.24749e-08 0.000368859

0.000502249 -4.47893e-06 1.62951e-09
-4.47893e-06 0.000378494 -3.00896e-08
1.62951e-09 -3.00896e-08 0.00044029

0.000496632 1.03113e-05 -1.50396e-08
1.03113e-05 0.000377178 -4.83099e-08
-1.50396e-08 -4.83099e-08 0.000441845

0.000449991 2.37821e-05 -5.2525e-08
2.37821e-05 0.000355913 -6.10678e-08
-5.2525e-08 -6.10678e-08 0.000411692

0.000343332 -7.32111e-05 1.00963e-07
-7.32111e-05 0.000333861 5.9026e-08
1.00963e-07 5.9026e-08 0.000329754

0.000378703 7.07275e-05 3.82593e-08
7.07275e-05 0.000444779 -3.95218e-08
3.82593e-08 -3.95218e-08 0.000445222

0.000397202 6.9397e-05 -3.88153e-08
6.9397e-05 0.000479896 6.34498e-08
-3.88153e-08 6.34498e-08 0.000448706

0.000370858 5.2113e-05 -1.36993e-07
5.2113e-05 0.000449497 -8.77588e-09
-1.36993e-07 -8.77588e-09 0.000450568

0.000412339 2.57116e-05 2.83282e-08
2.57116e-05 0.000299414 -6.4677e-08
2.83282e-08 -6.4677e-08 0.000343967

0.000313777 -5.08103e-05 3.85853e-08
-5.08103e-05 0.000269439 3.27897e-08
3.85853e-08 3.27897e-08 0.000270616

0.000443273 4.24056e-05 9.93224e-08
4.24056e-05 0.000384283 1.9189e-07
9.93224e-08 1.9189e-07 0.000431364

0.000449143 -4.54125e-05 -1.98705e-08
-4.54125e-05 0.000356249 -1.57383e-07
-1.98705e-08 -1.57383e-07 0.000403505

0.000321923 -4.34529e-05 -3.30443e-08
-4.34529e-05 0.000264601 -1.16946e-07
-3.30443e-08 -1.16946e-07 0.0002727

0.000403539 -7.32964e-05 1.00455e-08
-7.32964e-05 0.000355051 -6.44877e-09
1.00455e-08 -6.44877e-09 0.000382861

0.000363698 1.98029e-06 5.39867e-08
1.98029e-06 0.000447492 1.08795e-08
5.39867e-08 1.08795e-08 0.000419838

0.000327262 3.22166e-07 -1.77118e-07
3.22166e-07 0.000491087 1.13063e-07
-1.77118e-07 1.13063e-07 0.000421735

0.000347885 6.21697e-05 -1.37215e-07
6.21697e-05 0.00035293 5.87336e-09
-1.37215e-07 5.87336e-09 0.000338347

0.000347832 -5.19711e-05 9.34295e-08
-5.19711e-05 0.000275163 1.01882e-07
9.34295e-08 1.01882e-07 0.000291845

0.000405464 -7.57227e-05 4.87258e-08
-7.57227e-05 0.000432386 -1.82452e-07
4.87258e-08 -1.82452e-07 0.000442407

0.00034273 -6.76812e-05 -8.21477e-09
-6.76812e-05 0.000377192 -1.56326e-07
-8.21477e-09 -1.56326e-07 0.000338265

0.000338491 -6.83567e-05 -6.0727e-09
-6.83567e-05 0.000367988 -1.37426e-07
-6.0727e-09 -1.37426e-07 0.000337436

0.000440151 3.52062e-05 -8.13515e-08
3.52062e-05 0.000373575 2.35049e-08
-8.13515e-08 2.35049e-08 0.000406731

0.000521287 2.21891e-05 1.1822e-08
2.21891e-05 0.000323855 1.9617e-08
1.1822e-08 1.9617e-08 0.000467718

0.00051185 -3.46886e-05 -9.7871e-08
-3.46886e-05 0.000346768 -8.55183e-08
-9.7871e-08 -8.55183e-08 0.000463751

0.000315608 3.89839e-05 7.25621e-08
3.89839e-05 0.000404902 6.77211e-08
7.25621e-08 6.77211e-08 0.000346464

0.000294093 2.64318e-05 4.1224e-08
2.64318e-05 0.000418121 3.97363e-08
4.1224e-08 3.97363e-08 0.000350034

0.000261656 -5.40128e-06 2.47942e-08
-5.40128e-06 0.000378734 4.77221e-09
2.47942e-08 4.77221e-09 0.000301947

0.000249397 -7.3094e-06 -1.45117e-07
-7.3094e-06 0.000385173 -2.55584e-08
-1.45117e-07 -2.55584e-08 0.000303298

0.000380613 -4.97813e-06 3.45523e-08
-4.97813e-06 0.00025244 -2.00277e-07
3.45523e-08 -2.00277e-07 0.000297214

0.000367612 -6.15052e-05 -2.06197e-08
-6.15052e-05 0.000331318 1.31151e-07
-2.06197e-08 1.31151e-07 0.000336967

0.000495912 -4.49121e-05 -5.69245e-07
-4.49121e-05 0.00056493 8.60349e-08
-5.69245e-07 8.60349e-08 0.000508158

0.00062699 -1.78365e-05 1.40977e-07
-1.78365e-05 0.000627193 -1.50843e-07
1.40977e-07 -1.50843e-07 0.000503608

0.000384557 4.33985e-05 1.31116e-08
4.33985e-05 0.000311956 4.98329e-08
1.31116e-08 4.98329e-08 0.00033833

0.00041766 -2.95372e-05 2.35992e-08
-2.95372e-05 0.000302686 -4.51786e-08
2.35992e-08 -4.51786e-08 0.000346951

0.000325876 2.70721e-05 -5.17955e-08
2.70721e-05 0.000261941 1.25788e-08
-5.17955e-08 1.25788e-08 0.000275685

0.000349609 4.44992e-05 -7.40386e-08
4.44992e-05 0.000442012 -6.87187e-08
-7.40386e-08 -6.87187e-08 0.000418417

0.000494656 5.47473e-07 3.00965e-08
5.47473e-07 0.000338549 -9.44655e-08
3.00965e-08 -9.44655e-08 0.000417349

0.000401879 6.77368e-05 2.78595e-08
6.77368e-05 0.000482214 -2.05215e-09
2.78595e-08 -2.05215e-09 0.00045997

0.000358816 5.38097e-05 -9.9234e-08
5.38097e-05 0.000498746 -9.06475e-08
-9.9234e-08 -9.06475e-08 0.000463369

0.000309909 3.50983e-05 3.69337e-08
3.50983e-05 0.000347221 -3.23786e-08
3.69337e-08 -3.23786e-08 0.000305998

0.000334091 3.92213e-05 -5.01556e-08
3.92213e-05 0.000323318 4.06225e-08
-5.01556e-08 4.06225e-08 0.00030181

0.000389607 -8.22226e-05 -4.15612e-08
-8.22226e-05 0.000470004 8.71775e-08
-4.15612e-08 8.71775e-08 0.000440154

0.000329665 2.15645e-05 -3.34825e-08
2.15645e-05 0.000262829 -3.91459e-08
-3.34825e-08 -3.91459e-08 0.000277546

0.000373813 6.05138e-05 3.75151e-08
6.05138e-05 0.000434606 -4.22022e-08
3.75151e-08 -4.22022e-08 0.000452918

0.000377254 7.39718e-05 1.48384e-07
7.39718e-05 0.000446033 -6.45385e-08
1.48384e-07 -6.45385e-08 0.000413056

0.000525454 -1.01232e-06 -1.44346e-08
-1.01232e-06 0.000340399 -1.278e-08
-1.44346e-08 -1.278e-08 0.000447256

0.000390194 -5.58932e-05 -5.69424e-08
-5.58932e-05 0.000434445 9.73617e-08
-5.69424e-08 9.73617e-08 0.000451813

0.000392606 6.03688e-05 3.48845e-08
6.03688e-05 0.000397435 1.7772e-07
3.48845e-08 1.7772e-07 0.000389827

0.000308677 -2.97919e-05 7.9672e-08
-2.97919e-05 0.000391264 -2.64802e-08
7.9672e-08 -2.64802e-08 0.00032134

0.000288488 -2.77467e-05 2.29611e-08
-2.77467e-05 0.000395773 -1.21281e-07
2.29611e-08 -1.21281e-07 0.000322233

0.00038503 -2.10955e-05 -5.1515e-08
-2.10955e-05 0.00030079 -1.86797e-08
-5.1515e-08 -1.86797e-08 0.000315276

0.000367127 -5.55131e-05 -1.02289e-08
-5.55131e-05 0.000374524 -1.58537e-07
-1.02289e-08 -1.58537e-07 0.000348693

0.000327728 -3.45671e-06 -1.75279e-07
-3.45671e-06 0.000454509 7.61927e-08
-1.75279e-07 7.61927e-08 0.000386207

0.000363977 -6.22058e-07 5.22049e-08
-6.22058e-07 0.000439455 4.66237e-08
5.22049e-08 4.66237e-08 0.000383723

0.000300797 -5.9555e-05 -3.25703e-08
-5.9555e-05 0.00032863 -5.54888e-08
-3.25703e-08 -5.54888e-08 0.000290551

0.000285203 -5.79583e-05 -2.50201e-08
-5.79583e-05 0.000338934 9.86201e-08
-2.50201e-08 9.86201e-08 0.000292629

0.000523408 -2.83841e-06 -7.58208e-08
-2.83841e-06 0.000350642 8.03033e-08
-7.58208e-08 8.03033e-08 0.00044817

0.00052754 2.96608e-06 -5.23563e-08
2.96608e-06 0.000347848 -7.53305e-08
-5.23563e-08 -7.53305e-08 0.000447547

0.000372589 5.60781e-05 -3.21496e-08
5.60781e-05 0.000427914 -8.66248e-08
-3.21496e-08 -8.66248e-08 0.000424482

0.000360033 -4.78957e-05 4.79901e-08
-4.78957e-05 0.000494856 -2.46954e-08
4.79901e-08 -2.46954e-08 0.000461769

0.000435694 -7.31188e-05 -5.0673e-08
-7.31188e-05 0.00039461 1.30413e-07
-5.0673e-08 1.30413e-07 0.00042847

0.000463677 2.80956e-05 1.14692e-07
2.80956e-05 0.000433608 4.98458e-08
1.14692e-07 4.98458e-08 0.000464585

0.000470793 -8.51797e-06 1.80664e-07
-8.51797e-06 0.000443216 1.16e-07
1.80664e-07 1.16e-07 0.000463118

0.000451241 -3.03971e-05 9.57827e-08
-3.03971e-05 0.000417379 -1.03827e-07
9.57827e-08 -1.03827e-07 0.000428728

0.000449281 3.70543e-05 -9.86287e-09
3.70543e-05 0.000400653 7.87065e-08
-9.86287e-09 7.87065e-08 0.000430898

0.000209383 -3.0351e-05 -6.248e-08
-3.0351e-05 0.000142478 -1.98231e-07
-6.248e-08 -1.98231e-07 0.000225854

0.000333274 5.81306e-05 2.44852e-08
5.81306e-05 0.000369844 -4.53917e-08
2.44852e-08 -4.53917e-08 0.000339694

0.000162188 2.16583e-05 3.63025e-08
2.16583e-05 0.000206909 -8.72625e-08
3.63025e-08 -8.72625e-08 0.000225562

0.000388569 6.5388e-05 -1.88492e-09
6.5388e-05 0.00042542 1.16376e-07
-1.88492e-09 1.16376e-07 0.000412222

0.000316942 -4.59971e-05 6.514e-08
-4.59971e-05 0.000414772 1.65522e-08
6.514e-08 1.65522e-08 0.000350679

0.000295594 -4.07862e-05 -7.39467e-08
-4.07862e-05 0.000415787 1.28449e-07
-7.39467e-08 1.28449e-07 0.000351496

0.000516961 -1.41012e-05 -1.62114e-07
-1.41012e-05 0.000501978 -1.78039e-07
-1.62114e-07 -1.78039e-07 0.000497838

0.000491607 3.88332e-05 -1.9049e-07
3.88332e-05 0.00053412 1.39875e-07
-1.9049e-07 1.39875e-07 0.000498145

0.000411398 4.34838e-05 4.37807e-09
4.34838e-05 0.000377384 1.4064e-07
4.37807e-09 1.4064e-07 0.000393084

0.000447399 -4.45905e-06 -1.02447e-07
-4.45905e-06 0.000321825 -1.18719e-07
-1.02447e-07 -1.18719e-07 0.000369572

0.000367334 4.89233e-05 -2.12592e-08
4.89233e-05 0.000322389 5.87775e-08
-2.12592e-08 5.87775e-08 0.000335742

0.000341082 -2.77152e-05 2.50083e-08
-2.77152e-05 0.000484774 1.35081e-08
2.50083e-08 1.35081e-08 0.000425672

0.000373768 -4.65417e-05 -4.92168e-08
-4.65417e-05 0.000456834 -1.53912e-08
-4.92168e-08 -1.53912e-08 0.000423715

0.000388268 -8.42666e-05 3.15646e-08
-8.42666e-05 0.000493551 -1.27486e-07
3.15646e-08 -1.27486e-07 0.000446512

0.000411618 -4.732e-05 -2.28718e-08
-4.732e-05 0.0003934 -7.54272e-08
-2.28718e-08 -7.54272e-08 0.000390937

0.00038839 7.83087e-05 -1.03361e-09
7.83087e-05 0.000473442 4.8911e-09
-1.03361e-09 4.8911e-09 0.000445849

0.000449308 3.62213e-05 -7.83556e-08
3.62213e-05 0.00050066 -9.20137e-08
-7.83556e-08 -9.20137e-08 0.000472891

0.00045518 5.46787e-05 6.3165e-08
5.46787e-05 0.000483694 -4.36083e-09
6.3165e-08 -4.36083e-09 0.0004723

0.000378071 -7.4003e-05 9.34149e-08
-7.4003e-05 0.000464314 7.20145e-09
9.34149e-08 7.20145e-09 0.000420671

0.000385941 6.70077e-05 3.46656e-08
6.70077e-05 0.000450128 -2.04382e-08
3.46656e-08 -2.04382e-08 0.000419457

0.000337987 8.4126e-05 9.5289e-09
8.4126e-05 0.000455568 4.50092e-09
9.5289e-09 4.50092e-09 0.000452152

0.000303463 7.81229e-06 7.75741e-08
7.81229e-06 0.000449421 -6.08484e-08
7.75741e-08 -6.08484e-08 0.00037613

0.000327095 1.83602e-05 8.66344e-08
1.83602e-05 0.000429714 2.79481e-08
8.66344e-08 2.79481e-08 0.000372632

0.000405508 5.23935e-05 -5.91697e-08
5.23935e-05 0.000397125 8.58566e-08
-5.91697e-08 8.58566e-08 0.000416127

0.000366466 4.38424e-05 -2.46557e-08
4.38424e-05 0.000361005 8.78457e-09
-2.46557e-08 8.78457e-09 0.000351492

0.000334399 -4.56903e-05 6.74006e-08
-4.56903e-05 0.000439336 3.08758e-08
6.74006e-08 3.08758e-08 0.000397662

0.000402615 -7.92367e-05 -8.24843e-08
-7.92367e-05 0.000489425 -6.5853e-08
-8.24843e-08 -6.5853e-08 0.000457391

0.000233808 2.58924e-05 -1.1222e-08
2.58924e-05 0.000271289 1.35316e-08
-1.1222e-08 1.35316e-08 0.000238062

0.000263074 2.696e-05 9.0077e-08
2.696e-05 0.000241626 -8.48238e-08
9.0077e-08 -8.48238e-08 0.000238128

0.00031283 -5.87747e-05 1.06597e-08
-5.87747e-05 0.000328243 1.19786e-07
1.06597e-08 1.19786e-07 0.00029878

0.000404819 -5.48668e-05 2.26871e-08
-5.48668e-05 0.000411278 -1.14385e-07
2.26871e-08 -1.14385e-07 0.000413359

0.000461708 -1.6429e-05 -7.66837e-08
-1.6429e-05 0.000330612 -1.32734e-07
-7.66837e-08 -1.32734e-07 0.000397912

0.000545329 5.99115e-05 3.94585e-07
5.99115e-05 0.000577615 -2.98807e-07
3.94585e-07 -2.98807e-07 0.000509118

0.000598751 -6.44027e-05 1.30604e-08
-6.44027e-05 0.00050354 -3.30302e-07
1.30604e-08 -3.30302e-07 0.000509299

0.000375256 -8.0583e-05 4.22905e-08
-8.0583e-05 0.000458559 -1.77628e-08
4.22905e-08 -1.77628e-08 0.000416266

0.000504668 1.45506e-05 -4.86617e-08
1.45506e-05 0.000470756 -9.37671e-08
-4.86617e-08 -9.37671e-08 0.000491879

0.000513029 -6.06047e-05 -5.36114e-08
-6.06047e-05 0.000515022 1.03569e-07
-5.36114e-08 1.03569e-07 0.000488303

0.000457824 -2.16185e-05 -1.55273e-07
-2.16185e-05 0.00033902 9.96808e-08
-1.55273e-07 9.96808e-08 0.00041762

0.00035184 -8.35323e-05 -1.13933e-07
-8.35323e-05 0.000449559 1.82486e-09
-1.13933e-07 1.82486e-09 0.0004505

0.000249599 -5.14846e-05 6.96554e-08
-5.14846e-05 0.000271205 3.82794e-08
6.96554e-08 3.82794e-08 0.000248318

0.00026493 3.71529e-05 9.39566e-08
3.71529e-05 0.000262841 1.83849e-08
9.39566e-08 1.83849e-08 0.000249444

0.00024595 -3.06995e-05 -1.19157e-07
-3.06995e-05 0.000320016 2.0029e-08
-1.19157e-07 2.0029e-08 0.000263596

0.00025226 -3.35914e-05 6.68591e-08
-3.35914e-05 0.000323417 5.31372e-09
6.68591e-08 5.31372e-09 0.000268333

0.000325121 -2.54093e-05 1.16704e-07
-2.54093e-05 0.000245173 7.97202e-08
1.16704e-07 7.97202e-08 0.000262588

0.000329117 4.55311e-05 -4.11308e-08
4.55311e-05 0.000319125 3.23018e-08
-4.11308e-08 3.23018e-08 0.000302466

0.000384674 -8.95953e-05 1.17183e-07
-8.95953e-05 0.000485732 1.23563e-08
1.17183e-07 1.23563e-08 0.00044473

0.000215828 4.99427e-06 -2.02652e-08
4.99427e-06 0.000308902 1.2036e-07
-2.02652e-08 1.2036e-07 0.0002489

0.000304262 -1.38807e-05 -5.99438e-08
-1.38807e-05 0.000215331 -6.87173e-08
-5.99438e-08 -6.87173e-08 0.000250245

0.000464302 6.90105e-06 1.45311e-07
6.90105e-06 0.000556836 5.1964e-08
1.45311e-07 5.1964e-08 0.000485785

0.000473191 -3.63186e-05 3.78202e-08
-3.63186e-05 0.000507928 -3.71959e-09
3.78202e-08 -3.71959e-09 0.000487096

0.00047736 -4.18163e-05 9.82525e-09
-4.18163e-05 0.00039071 1.34953e-07
9.82525e-09 1.34953e-07 0.000439079

0.000495247 -2.57842e-06 3.14631e-08
-2.57842e-06 0.000295217 7.43688e-08
3.14631e-08 7.43688e-08 0.000451757

0.000281757 -4.4809e-05 3.58691e-09
-4.4809e-05 0.000364424 -1.44627e-07
3.58691e-09 -1.44627e-07 0.000312585

0.000296132 -4.51836e-05 -2.03727e-08
-4.51836e-05 0.000372392 -1.46067e-07
-2.03727e-08 -1.46067e-07 0.000313582

0.000465633 -2.41349e-06 -1.86333e-07
-2.41349e-06 0.000335294 -5.60566e-08
-1.86333e-07 -5.60566e-08 0.00042018

0.000351423 -6.15036e-05 -1.21332e-07
-6.15036e-05 0.000443295 1.09938e-07
-1.21332e-07 1.09938e-07 0.000396529

0.000508069 1.17665e-06 -2.45914e-07
1.17665e-06 0.000478318 -7.92804e-08
-2.45914e-07 -7.92804e-08 0.000488038

0.000484912 1.82964e-05 -2.2806e-07
1.82964e-05 0.000495015 9.55975e-08
-2.2806e-07 9.55975e-08 0.000488655

0.000448292 -5.79927e-05 -7.75401e-08
-5.79927e-05 0.000409272 1.12316e-07
-7.75401e-08 1.12316e-07 0.000434536

0.00038202 -5.9168e-05 -8.56263e-08
-5.9168e-05 0.000421995 -1.19192e-07
-8.56263e-08 -1.19192e-07 0.000421125

0.000477462 -4.16773e-05 2.57222e-08
-4.16773e-05 0.000345259 -1.80405e-07
2.57222e-08 -1.80405e-07 0.000430458

0.000360919 -5.30028e-05 1.07998e-07
-5.30028e-05 0.000439256 8.26912e-09
1.07998e-07 8.26912e-09 0.000418417

0.000199364 -9.92334e-05 -9.27567e-08
-9.92334e-05 0.000208991 -1.26431e-07
-9.27567e-08 -1.26431e-07 0.000208691

0.000335227 -2.28437e-05 8.36563e-08
-2.28437e-05 0.000427367 5.77022e-08
8.36563e-08 5.77022e-08 0.000373758

0.000310809 -1.71118e-05 -8.30902e-08
-1.71118e-05 0.000446988 1.08665e-07
-8.30902e-08 1.08665e-07 0.00037593

0.000446708 -8.56113e-06 3.189e-08
-8.56113e-06 0.000589042 -1.36397e-07
3.189e-08 -1.36397e-07 0.000488108

0.000477188 -1.02595e-05 8.97906e-09
-1.02595e-05 0.000501452 2.27511e-08
8.97906e-09 2.27511e-08 0.000490525

0.00053052 -5.87229e-06 -6.74979e-09
-5.87229e-06 0.000365854 -1.3491e-07
-6.74979e-09 -1.3491e-07 0.000462112

0.000519078 2.85989e-06 -9.60657e-08
2.85989e-06 0.000372854 5.39175e-08
-9.60657e-08 5.39175e-08 0.000462681

0.000456007 4.39528e-05 2.04788e-07
4.39528e-05 0.000429848 -8.90991e-08
2.04788e-07 -8.90991e-08 0.000461193

0.000471626 -7.89486e-05 1.83799e-07
-7.89486e-05 0.000423672 -8.64332e-09
1.83799e-07 -8.64332e-09 0.000456977

0.000502756 1.56224e-05 -6.81365e-08
1.56224e-05 0.000496211 -1.09433e-08
-6.81365e-08 -1.09433e-08 0.000486592

0.000529858 -2.74192e-05 -7.9187e-08
-2.74192e-05 0.000489833 -6.21483e-09
-7.9187e-08 -6.21483e-09 0.000484183

0.000544077 -2.9623e-05 2.90864e-07
-2.9623e-05 0.000507796 -3.1405e-07
2.90864e-07 -3.1405e-07 0.000505585

0.000534788 9.10985e-05 -2.92476e-07
9.10985e-05 0.000574003 -2.58614e-07
-2.92476e-07 -2.58614e-07 0.000505624

0.000406354 -8.07499e-05 -7.08173e-08
-8.07499e-05 0.000491398 -1.06843e-07
-7.08173e-08 -1.06843e-07 0.000460807

0.000384986 9.97498e-05 1.16358e-07
9.97498e-05 0.00045118 -2.50166e-08
1.16358e-07 -2.50166e-08 0.000466553

0.000414147 4.03864e-05 2.88784e-08
4.03864e-05 0.000348113 2.84517e-08
2.88784e-08 2.84517e-08 0.000384647

0.000339871 -3.42076e-05 2.32745e-08
-3.42076e-05 0.000452039 1.94984e-09
2.32745e-08 1.94984e-09 0.00040114

0.000372146 -5.20904e-05 -1.78211e-08
-5.20904e-05 0.000447336 1.6797e-07
-1.78211e-08 1.6797e-07 0.000398929

0.000415022 -4.28711e-05 2.12911e-08
-4.28711e-05 0.000357931 1.36102e-07
2.12911e-08 1.36102e-07 0.000383473

0.000372711 3.91224e-05 -1.76218e-07
3.91224e-05 0.000439146 -9.6877e-08
-1.76218e-07 -9.6877e-08 0.000396451

0.000339058 2.33049e-05 1.20119e-07
2.33049e-05 0.000455219 -3.54007e-08
1.20119e-07 -3.54007e-08 0.000400258

0.000376842 5.5937e-05 1.10547e-07
5.5937e-05 0.000373911 1.20573e-07
1.10547e-07 1.20573e-07 0.000378568

0.000418987 6.70104e-05 1.98311e-08
6.70104e-05 0.000475104 8.5274e-08
1.98311e-08 8.5274e-08 0.000463453

0.000414651 -8.92515e-05 1.65226e-08
-8.92515e-05 0.000450092 7.83246e-08
1.65226e-08 7.83246e-08 0.000464461

0.000380903 -6.86173e-05 -9.19174e-08
-6.86173e-05 0.000386898 -8.74857e-08
-9.19174e-08 -8.74857e-08 0.000376168

0.000480938 1.93007e-05 1.14277e-07
1.93007e-05 0.000396099 1.86462e-07
1.14277e-07 1.86462e-07 0.000447442

0.000629224 -3.16874e-05 -2.86811e-07
-3.16874e-05 0.00061105 -1.2476e-07
-2.86811e-07 -1.2476e-07 0.00050273

0.00051338 1.81413e-05 2.28083e-08
1.81413e-05 0.000530435 2.11799e-07
2.28083e-08 2.11799e-07 0.000507486

0.000404825 -6.77757e-05 -5.99159e-09
-6.77757e-05 0.000471352 -4.48899e-08
-5.99159e-09 -4.48899e-08 0.000437538

0.00044718 -6.69095e-05 -7.81396e-08
-6.69095e-05 0.000376772 1.03953e-07
-7.81396e-08 1.03953e-07 0.000423929

0.000518755 -5.60803e-06 -6.53078e-08
-5.60803e-06 0.000445615 -8.61114e-09
-6.53078e-08 -8.61114e-09 0.000475117

0.000249942 -4.68889e-05 -1.17614e-07
-4.68889e-05 0.000267702 5.40773e-09
-1.17614e-07 5.40773e-09 0.000240695

0.000272588 -4.17631e-05 -6.47032e-08
-4.17631e-05 0.000244004 7.2817e-08
-6.47032e-08 7.2817e-08 0.00024156

0.000531926 4.42207e-06 1.76314e-07
4.42207e-06 0.00038925 9.23835e-08
1.76314e-07 9.23835e-08 0.000469254

0.000511529 -3.79626e-06 6.10161e-08
-3.79626e-06 0.000398958 -1.30857e-07
6.10161e-08 -1.30857e-07 0.000469592

0.000526853 -4.34001e-07 1.73154e-09
-4.34001e-07 0.00041358 5.42564e-08
1.73154e-09 5.42564e-08 0.000479299

0.000412493 2.8794e-05 3.11239e-08
2.8794e-05 0.000330914 3.02161e-08
3.11239e-08 3.02161e-08 0.00035438

0.000433814 -4.29934e-05 -1.31257e-07
-4.29934e-05 0.000466809 -7.24728e-08
-1.31257e-07 -7.24728e-08 0.000450234

0.000434292 5.24057e-05 -2.87532e-08
5.24057e-05 0.000434112 1.04924e-08
-2.87532e-08 1.04924e-08 0.000453162

0.000591769 -4.76475e-05 -2.53747e-08
-4.76475e-05 0.000484955 -9.95256e-08
-2.53747e-08 -9.95256e-08 0.000508777

0.00059398 -5.18053e-06 -5.81243e-08
-5.18053e-06 0.000646654 2.51573e-07
-5.81243e-08 2.51573e-07 0.000503713

0.000376472 -7.6133e-05 4.08741e-08
-7.6133e-05 0.000469222 -2.59944e-08
4.08741e-08 -2.59944e-08 0.000432489

0.000440576 -5.34436e-05 5.58588e-08
-5.34436e-05 0.000359841 -1.02127e-10
5.58588e-08 -1.02127e-10 0.00039995

0.000486516 1.17953e-05 -1.10456e-07
1.17953e-05 0.000442411 2.89794e-07
-1.10456e-07 2.89794e-07 0.000466706

0.000499079 1.75626e-06 -1.26452e-07
1.75626e-06 0.000432591 -2.14346e-07
-1.26452e-07 -2.14346e-07 0.000465759

0.000378378 -3.04939e-05 1.25817e-07
-3.04939e-05 0.000470459 -5.69066e-08
1.25817e-07 -5.69066e-08 0.000440756

0.000375081 -5.68655e-05 5.3094e-08
-5.68655e-05 0.000442978 -1.77836e-08
5.3094e-08 -1.77836e-08 0.000448729

0.000215288 8.40351e-05 1.10845e-07
8.40351e-05 0.000201543 1.10598e-07
1.10845e-07 1.10598e-07 0.000210571

0.000437356 4.47461e-05 7.45876e-08
4.47461e-05 0.000492682 -2.02729e-08
7.45876e-08 -2.02729e-08 0.000472767

0.000436325 -5.83157e-05 -2.15869e-08
-5.83157e-05 0.000484987 -9.77338e-10
-2.15869e-08 -9.77338e-10 0.000471385

0.000359894 -5.37875e-05 9.33221e-08
-5.37875e-05 0.000458008 -6.67811e-08
9.33221e-08 -6.67811e-08 0.00043698

0.000418271 -3.56008e-05 1.13605e-08
-3.56008e-05 0.000344006 1.4415e-07
1.13605e-08 1.4415e-07 0.000356978

0.000442696 3.94014e-05 7.56758e-08
3.94014e-05 0.000429652 -1.74528e-07
7.56758e-08 -1.74528e-07 0.000438975

0.000455534 4.04907e-05 1.6172e-07
4.04907e-05 0.00046265 7.31701e-08
1.6172e-07 7.31701e-08 0.000463039

0.000481594 -6.34201e-05 1.24957e-07
-6.34201e-05 0.000428918 -1.81427e-07
1.24957e-07 -1.81427e-07 0.000461265

0.000480815 1.56045e-05 1.10735e-07
1.56045e-05 0.000345299 7.56727e-10
1.10735e-07 7.56727e-10 0.000438565

0.000507452 -7.46425e-06 9.23703e-08
-7.46425e-06 0.000463211 2.49789e-08
9.23703e-08 2.49789e-08 0.000483194

0.000527167 1.11994e-05 1.74835e-07
1.11994e-05 0.000439449 9.97473e-08
1.74835e-07 9.97473e-08 0.000483012

0.000500484 1.96509e-05 -2.14074e-07
1.96509e-05 0.000639579 -1.98639e-07
-2.14074e-07 -1.98639e-07 0.000499542

0.000494727 4.12419e-06 6.2851e-08
4.12419e-06 0.000578154 1.71126e-07
6.2851e-08 1.71126e-07 0.000503662

0.000215467 -2.11742e-05 -3.94502e-08
-2.11742e-05 0.000161538 -8.32921e-08
-3.94502e-08 -8.32921e-08 0.000225778

0.000142522 -1.44173e-05 -7.65085e-08
-1.44173e-05 0.000223714 7.07734e-08
-7.65085e-08 7.07734e-08 0.000225689

0.000404414 -6.71422e-05 -2.03344e-09
-6.71422e-05 0.000484908 1.34368e-07
-2.03344e-09 1.34368e-07 0.000445731

0.000403816 5.82784e-05 1.00797e-07
5.82784e-05 0.000441244 -1.09402e-07
1.00797e-07 -1.09402e-07 0.000450397

0.000387319 -8.95638e-05 8.93068e-10
-8.95638e-05 0.000485671 2.86804e-08
8.93068e-10 2.86804e-08 0.0004432

0.000201498 2.29767e-05 8.41093e-08
2.29767e-05 0.000197509 -1.25279e-07
8.41093e-08 -1.25279e-07 0.000221287

0.000209114 3.46778e-05 -6.98131e-08
3.46778e-05 0.000186467 8.27401e-08
-6.98131e-08 8.27401e-08 0.000221661

0.000421299 7.17927e-05 -1.9683e-08
7.17927e-05 0.000658396 7.75519e-08
-1.9683e-08 7.75519e-08 0.000510888

0.000494012 -5.71871e-05 -3.8172e-07
-5.71871e-05 0.000603097 -6.88956e-07
-3.8172e-07 -6.88956e-07 0.000510961

0.000419875 5.40113e-05 -2.23907e-07
5.40113e-05 0.000421431 8.39671e-08
-2.23907e-07 8.39671e-08 0.000431526

0.000376149 -6.45804e-05 2.53222e-08
-6.45804e-05 0.000414607 1.13003e-07
2.53222e-08 1.13003e-07 0.00038642

0.00040437 -6.41713e-05 2.05868e-08
-6.41713e-05 0.00045274 6.54991e-09
2.05868e-08 6.54991e-09 0.000438416

0.000406079 6.45414e-05 1.08414e-07
6.45414e-05 0.00042912 -6.08324e-08
1.08414e-07 -6.08324e-08 0.00044215

0.000378405 -7.49503e-05 9.53975e-08
-7.49503e-05 0.000438156 2.00186e-08
9.53975e-08 2.00186e-08 0.000408861

0.000372144 5.19553e-05 1.42287e-07
5.19553e-05 0.000400998 6.66565e-08
1.42287e-07 6.66565e-08 0.000389117

0.000243492 -2.74431e-05 -1.43005e-07
-2.74431e-05 0.000324748 -1.58865e-08
-1.43005e-07 -1.58865e-08 0.000269354

0.000256901 -2.3362e-05 3.54113e-08
-2.3362e-05 0.00032319 6.19431e-08
3.54113e-08 6.19431e-08 0.000267235

0.000326972 -1.94259e-05 7.15144e-08
-1.94259e-05 0.000249479 -1.95184e-07
7.15144e-08 -1.95184e-07 0.000265465

0.000372212 5.79672e-05 -1.66522e-08
5.79672e-05 0.000418463 -1.66149e-07
-1.66522e-08 -1.66149e-07 0.000412102

0.000217357 -2.81238e-06 -4.93434e-08
-2.81238e-06 0.000304689 -1.36685e-07
-4.93434e-08 -1.36685e-07 0.000249795

0.000300594 5.86574e-06 -2.07464e-07
5.86574e-06 0.000225491 4.45089e-08
-2.07464e-07 4.45089e-08 0.000248466

0.000423199 -6.15264e-05 -1.33968e-08
-6.15264e-05 0.000481682 1.3678e-07
-1.33968e-08 1.3678e-07 0.000461496

0.000427551 7.5137e-05 -4.22843e-08
7.5137e-05 0.000446874 -1.37063e-07
-4.22843e-08 -1.37063e-07 0.000465453

0.000430195 -4.89247e-05 -8.93689e-08
-4.89247e-05 0.000486182 -1.22592e-07
-8.93689e-08 -1.22592e-07 0.000465226

0.000430304 6.65757e-05 -7.05933e-08
6.65757e-05 0.000473155 -3.89323e-08
-7.05933e-08 -3.89323e-08 0.000467926

0.000189151 -4.35276e-05 -1.00026e-07
-4.35276e-05 0.000196556 -4.79679e-08
-1.00026e-07 -4.79679e-08 0.000217633

0.000187472 -4.31754e-05 5.3461e-08
-4.31754e-05 0.000199481 -1.38948e-07
5.3461e-08 -1.38948e-07 0.000218316

0.000404678 5.49077e-05 -3.07759e-08
5.49077e-05 0.000416014 -1.60719e-07
-3.07759e-08 -1.60719e-07 0.000424595

0.000403474 -5.93768e-05 3.44273e-08
-5.93768e-05 0.000446394 -3.26161e-09
3.44273e-08 -3.26161e-09 0.00042103

0.00049089 -1.66098e-05 -1.70797e-07
-1.66098e-05 0.000559484 7.03711e-08
-1.70797e-07 7.03711e-08 0.000491442

0.000489298 -1.857e-05 3.47522e-08
-1.857e-05 0.000505806 -3.54095e-09
3.47522e-08 -3.54095e-09 0.000494405

0.000415589 -6.39154e-05 3.9543e-09
-6.39154e-05 0.000512125 1.07099e-07
3.9543e-09 1.07099e-07 0.000470215

0.000401092 6.81792e-05 8.67113e-08
6.81792e-05 0.000491356 6.75155e-08
8.67113e-08 6.75155e-08 0.000473914

0.000508215 -6.95367e-07 -2.52121e-07
-6.95367e-07 0.000432092 -1.35897e-07
-2.52121e-07 -1.35897e-07 0.000482007

0.00048639 1.43084e-05 -2.40522e-07
1.43084e-05 0.000445593 2.08708e-07
-2.40522e-07 2.08708e-07 0.000482554

0.000416756 6.03109e-05 -2.1606e-07
6.03109e-05 0.000460033 9.99617e-08
-2.1606e-07 9.99617e-08 0.00044721

0.000426111 -6.43471e-05 5.16933e-08
-6.43471e-05 0.000429056 -1.78794e-07
5.16933e-08 -1.78794e-07 0.000444935

0.000470616 -2.63356e-05 1.53941e-08
-2.63356e-05 0.000556409 2.13722e-07
1.53941e-08 2.13722e-07 0.000496824

0.000531759 2.67443e-05 -6.16679e-08
2.67443e-05 0.000497823 -6.50611e-09
-6.16679e-08 -6.50611e-09 0.000497835

0.000567421 -6.34086e-05 -1.44002e-07
-6.34086e-05 0.000521357 3.76965e-08
-1.44002e-07 3.76965e-08 0.000494407

0.000467465 -1.12463e-05 1.75929e-07
-1.12463e-05 0.000611338 -2.44884e-07
1.75929e-07 -2.44884e-07 0.000494185

0.000513772 1.71163e-05 6.97869e-08
1.71163e-05 0.000496321 8.15782e-09
6.97869e-08 8.15782e-09 0.000496767

0.000479991 1.30121e-06 -2.61637e-08
1.30121e-06 0.000554521 9.69511e-08
-2.61637e-08 9.69511e-08 0.000505617

0.000543682 -1.94566e-05 1.33152e-07
-1.94566e-05 0.000475953 1.30797e-07
1.33152e-07 1.30797e-07 0.000496757

0.000539189 -6.00981e-06 -2.15712e-07
-6.00981e-06 0.000504688 -1.9204e-07
-2.15712e-07 -1.9204e-07 0.000505552

0.000497389 -3.25401e-05 -1.2053e-06
-3.25401e-05 0.000525115 2.04113e-06
-1.2053e-06 2.04113e-06 0.00050135

0.000516888 8.51517e-05 -2.44785e-07
8.51517e-05 0.000591834 -4.08352e-07
-2.44785e-07 -4.08352e-07 0.000502067

0.000661647 1.924e-05 2.51638e-06
1.924e-05 0.000646846 -4.12725e-07
2.51638e-06 -4.12725e-07 0.00051102

0.000738648 -4.47876e-05 -4.53003e-06
-4.47876e-05 0.000422912 -2.32454e-06
-4.53003e-06 -2.32454e-06 0.000511403

0.000519126 -4.55631e-05 1.46626e-07
-4.55631e-05 0.000514653 -8.11195e-09
1.46626e-07 -8.11195e-09 0.00049737

0.00046546 -3.3259e-05 -2.04369e-08
-3.3259e-05 0.00052189 1.02515e-07
-2.04369e-08 1.02515e-07 0.000485581

0.000541663 7.80257e-05 1.37733e-07
7.80257e-05 0.000513308 1.71465e-07
1.37733e-07 1.71465e-07 0.00049835

0.000473164 4.37757e-05 4.18981e-09
4.37757e-05 0.000497985 8.30328e-08
4.18981e-09 8.30328e-08 0.000487497

0.000532286 8.94278e-05 -2.58819e-08
8.94278e-05 0.000608793 9.29135e-07
-2.58819e-08 9.29135e-07 0.000507544

0.000534586 -9.51391e-06 1.83682e-07
-9.51391e-06 0.000517 1.6348e-07
1.83682e-07 1.6348e-07 0.000507665

0.000464937 -2.95991e-05 -2.37695e-08
-2.95991e-05 0.000510694 1.4335e-07
-2.37695e-08 1.4335e-07 0.000489824

0.00051592 -1.794e-05 -1.28559e-07
-1.794e-05 0.000513011 1.10717e-07
-1.28559e-07 1.10717e-07 0.000499533

0.000477842 7.33944e-05 -1.63716e-08
7.33944e-05 0.000521415 -1.68913e-07
-1.63716e-08 -1.68913e-07 0.000490988

0.000489222 4.90143e-05 -1.59798e-07
4.90143e-05 0.000535497 -1.24247e-07
-1.59798e-07 -1.24247e-07 0.000499921

0.000371714 1.73678e-05 -1.70672e-08
1.73678e-05 0.000494252 -2.26144e-08
-1.70672e-08 -2.26144e-08 0.000440137

0.000461143 -6.75948e-06 -7.22187e-08
-6.75948e-06 0.000496136 -1.54165e-07
-7.22187e-08 -1.54165e-07 0.000468554

0.000463865 1.62833e-05 9.9497e-08
1.62833e-05 0.000328414 -7.5143e-08
9.9497e-08 -7.5143e-08 0.000393728

0.000445485 3.82608e-06 3.09657e-08
3.82608e-06 0.000320114 -1.15551e-07
3.09657e-08 -1.15551e-07 0.000365778

0.000371019 1.97207e-05 -2.28137e-08
1.97207e-05 0.000533661 4.42188e-08
-2.28137e-08 4.42188e-08 0.000465756

0.000463039 5.0186e-06 -4.53676e-08
5.0186e-06 0.000513631 1.58171e-07
-4.53676e-08 1.58171e-07 0.000499535

0.000448127 -6.53922e-06 5.12847e-09
-6.53922e-06 0.000320659 8.64299e-08
5.12847e-09 8.64299e-08 0.000369124

0.000512344 -3.7229e-06 4.49145e-08
-3.7229e-06 0.000362394 8.78389e-08
4.49145e-08 8.78389e-08 0.000445748

0.000263834 -3.79532e-05 -4.0245e-08
-3.79532e-05 0.000348354 8.3768e-09
-4.0245e-08 8.3768e-09 0.000290256

0.000297056 6.15593e-05 -1.88462e-09
6.15593e-05 0.00036326 -6.05908e-08
-1.88462e-09 -6.05908e-08 0.000300908

0.000343792 5.84349e-05 5.84315e-08
5.84349e-05 0.000280174 7.1838e-08
5.84315e-08 7.1838e-08 0.000295753

0.000475987 7.08522e-05 -4.80483e-08
7.08522e-05 0.000518557 3.35267e-08
-4.80483e-08 3.35267e-08 0.000489878

0.000440901 -2.49388e-05 1.133e-09
-2.49388e-05 0.000512794 -5.70574e-08
1.133e-09 -5.70574e-08 0.000473832

0.000407689 6.02509e-05 7.13896e-08
6.02509e-05 0.000439327 -1.21593e-07
7.13896e-08 -1.21593e-07 0.000406846

0.000439364 5.33731e-05 4.55205e-09
5.33731e-05 0.00051084 6.55033e-08
4.55205e-09 6.55033e-08 0.000483739

0.000363914 -1.97684e-05 -4.24631e-08
-1.97684e-05 0.00053496 -3.05537e-08
-4.24631e-08 -3.05537e-08 0.000463965

0.000471912 -1.18519e-05 -5.24534e-08
-1.18519e-05 0.00034138 -3.77653e-09
-5.24534e-08 -3.77653e-09 0.000417737

0.000320121 2.8076e-05 -1.38124e-08
2.8076e-05 0.00040742 -3.80405e-08
-1.38124e-08 -3.80405e-08 0.000327602

0.000282841 -7.01985e-06 2.06358e-08
-7.01985e-06 0.000397071 1.25268e-07
2.06358e-08 1.25268e-07 0.000318416

0.000394555 2.88594e-05 9.21837e-08
2.88594e-05 0.000297213 5.00968e-08
9.21837e-08 5.00968e-08 0.00031989

0.00040826 -2.98648e-05 2.91539e-08
-2.98648e-05 0.000307854 9.6994e-08
2.91539e-08 9.6994e-08 0.000344876

0.000340177 5.18275e-05 6.27132e-08
5.18275e-05 0.000421875 -1.12857e-07
6.27132e-08 -1.12857e-07 0.000373308

0.000404521 -3.90678e-05 -2.15847e-08
-3.90678e-05 0.000433924 -1.79438e-07
-2.15847e-08 -1.79438e-07 0.000393633

0.000469627 -1.93661e-05 -1.96981e-10
-1.93661e-05 0.000327488 8.8567e-08
-1.96981e-10 8.8567e-08 0.000399083

0.000282979 3.89091e-05 -5.38488e-08
3.89091e-05 0.000327718 -1.57366e-07
-5.38488e-08 -1.57366e-07 0.000268484

0.000503383 4.47385e-06 -9.42777e-08
4.47385e-06 0.000349965 6.53894e-08
-9.42777e-08 6.53894e-08 0.000435965

0.000312079 4.19527e-05 6.22529e-08
4.19527e-05 0.000271683 7.40085e-08
6.22529e-08 7.40085e-08 0.000265731

0.000441621 4.80694e-06 3.76483e-08
4.80694e-06 0.000534588 2.07173e-08
3.76483e-08 2.07173e-08 0.000475225

0.000500156 2.43679e-05 -1.04392e-07
2.43679e-05 0.000523065 1.35228e-07
-1.04392e-07 1.35228e-07 0.000503182

0.000527281 -6.29068e-05 -1.20958e-07
-6.29068e-05 0.000533385 2.93348e-08
-1.20958e-07 2.93348e-08 0.000504056

0.000552857 2.68542e-05 -1.35649e-07
2.68542e-05 0.000509263 9.75963e-10
-1.35649e-07 9.75963e-10 0.000504175

0.000389143 -8.7785e-06 -3.03099e-08
-8.7785e-06 0.000290979 1.28216e-07
-3.03099e-08 1.28216e-07 0.000309495

0.000389414 7.30989e-05 -3.94537e-08
7.30989e-05 0.00043044 -3.37705e-08
-3.94537e-08 -3.37705e-08 0.000402556

0.000489761 1.09763e-05 -7.91216e-08
1.09763e-05 0.000475602 6.00259e-08
-7.91216e-08 6.00259e-08 0.000474941

0.00047436 -3.36177e-05 -4.84694e-08
-3.36177e-05 0.000466802 5.32884e-08
-4.84694e-08 5.32884e-08 0.000478147

0.000526027 -4.47779e-06 8.32586e-08
-4.47779e-06 0.000350712 5.75504e-08
8.32586e-08 5.75504e-08 0.000446993

0.000338778 6.08531e-05 -3.50573e-09
6.08531e-05 0.000400299 -2.45873e-08
-3.50573e-09 -2.45873e-08 0.00036964

0.000383459 -5.57482e-05 9.37602e-08
-5.57482e-05 0.000426881 -2.56724e-08
9.37602e-08 -2.56724e-08 0.00038906

0.00040469 -3.93308e-05 1.9027e-08
-3.93308e-05 0.000339812 2.96595e-08
1.9027e-08 2.96595e-08 0.000354631

0.000513059 -9.20857e-06 5.44959e-08
-9.20857e-06 0.00034004 -7.6652e-08
5.44959e-08 -7.6652e-08 0.000437596

0.000359785 7.16949e-05 9.00421e-08
7.16949e-05 0.00043259 7.78481e-09
9.00421e-08 7.78481e-09 0.000371416

0.000334492 -4.94798e-05 -9.63084e-08
-4.94798e-05 0.000397837 -1.09372e-07
-9.63084e-08 -1.09372e-07 0.000365375

0.000366338 6.64208e-05 -7.40903e-08
6.64208e-05 0.000436834 1.41864e-07
-7.40903e-08 1.41864e-07 0.000376862

0.000328577 -3.9567e-05 8.81839e-08
-3.9567e-05 0.000425945 8.87288e-08
8.81839e-08 8.87288e-08 0.000370268

0.00046462 -3.28481e-05 1.55156e-08
-3.28481e-05 0.000492015 -5.65814e-08
1.55156e-08 -5.65814e-08 0.000477491

0.000359494 4.58985e-05 4.99441e-08
4.58985e-05 0.000474488 4.33778e-08
4.99441e-08 4.33778e-08 0.000439294

0.000360774 -5.7663e-05 -1.85388e-07
-5.7663e-05 0.000336976 1.20294e-08
-1.85388e-07 1.20294e-08 0.000333526

0.000224239 -5.07486e-05 -1.76937e-07
-5.07486e-05 0.000216698 1.15536e-07
-1.76937e-07 1.15536e-07 0.000220056

0.00020305 -5.48695e-05 -3.24997e-08
-5.48695e-05 0.000231705 -2.94079e-07
-3.24997e-08 -2.94079e-07 0.000219291

0.000423825 8.5635e-05 -1.89881e-09
8.5635e-05 0.00051484 1.60553e-08
-1.89881e-09 1.60553e-08 0.000474417

0.00036628 -5.58704e-05 1.68731e-07
-5.58704e-05 0.000500069 6.39204e-09
1.68731e-07 6.39204e-09 0.000463913

0.000208282 -1.11186e-05 -5.43941e-09
-1.11186e-05 0.000208171 1.65695e-07
-5.43941e-09 1.65695e-07 0.000229702

0.000212641 -1.16226e-05 1.33002e-07
-1.16226e-05 0.000220502 1.30495e-07
1.33002e-07 1.30495e-07 0.000230842

0.000516917 4.95436e-05 -1.85594e-09
4.95436e-05 0.000463709 -1.1038e-07
-1.85594e-09 -1.1038e-07 0.000481044

0.000554587 -3.72424e-05 -1.17923e-07
-3.72424e-05 0.000481086 2.38131e-08
-1.17923e-07 2.38131e-08 0.000517322

0.000473668 -1.82953e-06 1.14838e-07
-1.82953e-06 0.000348375 5.65002e-08
1.14838e-07 5.65002e-08 0.000437441

0.000511291 6.95628e-05 -5.28748e-08
6.95628e-05 0.000460589 2.48668e-07
-5.28748e-08 2.48668e-07 0.00048113

0.000551528 -5.01816e-05 -9.12703e-08
-5.01816e-05 0.000450456 2.1138e-07
-9.12703e-08 2.1138e-07 0.000512032

0.000339623 4.92113e-05 7.27212e-08
4.92113e-05 0.000443308 1.25921e-08
7.27212e-08 1.25921e-08 0.000400803

0.000404255 -3.85603e-05 -4.52584e-08
-3.85603e-05 0.000462936 1.17163e-07
-4.52584e-08 1.17163e-07 0.000426387

0.000549059 2.38615e-05 6.23551e-08
2.38615e-05 0.000475953 1.30797e-07
6.23551e-08 1.30797e-07 0.000496736

0.000518336 -3.13051e-05 -2.80539e-08
-3.13051e-05 0.000496321 8.15782e-09
-2.80539e-08 8.15782e-09 0.000496686

0.000468473 7.41236e-05 1.03114e-07
7.41236e-05 0.000418251 1.40474e-07
1.03114e-07 1.40474e-07 0.000454204

0.00050986 -5.90494e-05 1.15374e-07
-5.90494e-05 0.00043031 -6.63291e-08
1.15374e-07 -6.63291e-08 0.000480836

0.000336944 -3.97593e-05 -1.00443e-07
-3.97593e-05 0.000273319 9.48656e-08
-1.00443e-07 9.48656e-08 0.000285193

0.000465215 -1.94672e-06 -8.98908e-08
-1.94672e-06 0.000592906 -8.07338e-09
-8.98908e-08 -8.07338e-09 0.000493782

0.00052321 1.50074e-05 2.84241e-08
1.50074e-05 0.000564609 -4.06838e-08
2.84241e-08 -4.06838e-08 0.000541274

0.000237902 -6.79121e-06 -5.18489e-08
-6.79121e-06 0.000311986 2.46894e-08
-5.18489e-08 2.46894e-08 0.000257507

0.000308118 -8.25095e-06 1.54869e-07
-8.25095e-06 0.000244223 -7.42766e-08
1.54869e-07 -7.42766e-08 0.000256163

0.000343674 4.18953e-05 -7.2785e-08
4.18953e-05 0.000473501 1.72914e-08
-7.2785e-08 1.72914e-08 0.000428812

0.000424944 -2.39801e-05 5.29289e-08
-2.39801e-05 0.000490038 -6.45326e-08
5.29289e-08 -6.45326e-08 0.000459338

0.000628619 -1.41072e-05 -8.44938e-07
-1.41072e-05 0.000670624 -4.62587e-07
-8.44938e-07 -4.62587e-07 0.000508963

0.000657052 -4.58406e-05 -1.89867e-07
-4.58406e-05 0.000522255 1.36368e-07
-1.89867e-07 1.36368e-07 0.00055179

0.00046695 6.63028e-05 -1.0375e-07
6.63028e-05 0.000372989 -1.37003e-07
-1.0375e-07 -1.37003e-07 0.000433686

0.000491067 -4.35725e-05 -1.16624e-07
-4.35725e-05 0.00038155 -7.02377e-08
-1.16624e-07 -7.02377e-08 0.000450861

0.000386531 1.12891e-06 -6.9151e-09
1.12891e-06 0.000279163 -3.39476e-08
-6.9151e-09 -3.39476e-08 0.000306407

0.000447402 1.97041e-06 -5.73882e-08
1.97041e-06 0.000333604 -1.12877e-09
-5.73882e-08 -1.12877e-09 0.000385422

0.000414889 3.23174e-05 -8.69878e-08
3.23174e-05 0.000307345 -8.48176e-08
-8.69878e-08 -8.48176e-08 0.000338441

0.000492586 1.17624e-05 -5.3771e-08
1.17624e-05 0.000413711 -5.17689e-08
-5.3771e-08 -5.17689e-08 0.000466007

0.000452745 -2.2355e-05 8.79534e-08
-2.2355e-05 0.000592496 1.33691e-07
8.79534e-08 1.33691e-07 0.000507779

0.000520249 1.1637e-05 4.65071e-07
1.1637e-05 0.0005304 -2.77717e-07
4.65071e-07 -2.77717e-07 0.000507919

0.000341551 5.5883e-05 -3.09957e-08
5.5883e-05 0.000363844 -5.85112e-08
-3.09957e-08 -5.85112e-08 0.000314415

0.000394206 -4.85931e-05 6.58945e-08
-4.85931e-05 0.000368188 -1.64526e-08
6.58945e-08 -1.64526e-08 0.000386858

0.000456612 5.28812e-05 4.75584e-09
5.28812e-05 0.000358077 -4.96264e-08
4.75584e-09 -4.96264e-08 0.000412305

0.000517506 2.2537e-05 -3.72922e-07
2.2537e-05 0.000561283 5.69437e-08
-3.72922e-07 5.69437e-08 0.000538226

0.000499339 3.38333e-05 1.64505e-07
3.38333e-05 0.000608294 5.38086e-08
1.64505e-07 5.38086e-08 0.0004996

0.000478715 -2.81152e-05 -8.36639e-08
-2.81152e-05 0.000428541 -1.04567e-07
-8.36639e-08 -1.04567e-07 0.000470135

0.000440554 4.36767e-05 1.08367e-08
4.36767e-05 0.000494598 -4.1948e-08
1.08367e-08 -4.1948e-08 0.000455861

0.000365381 -8.2885e-06 -4.26028e-08
-8.2885e-06 0.000498497 -3.29602e-08
-4.26028e-08 -3.29602e-08 0.000438875

0.000492595 3.29269e-05 -4.04903e-08
3.29269e-05 0.000345455 -2.35644e-09
-4.04903e-08 -2.35644e-09 0.00045082

0.000503758 -6.80408e-06 8.538e-08
-6.80408e-06 0.000342725 7.50344e-08
8.538e-08 7.50344e-08 0.000459328

0.000368219 -4.34443e-05 9.79529e-08
-4.34443e-05 0.000340337 -6.56678e-08
9.79529e-08 -6.56678e-08 0.000319873

0.000508494 5.9256e-05 1.27374e-07
5.9256e-05 0.000389114 -3.8686e-09
1.27374e-07 -3.8686e-09 0.000466226

0.000529095 -3.68261e-05 -2.41656e-08
-3.68261e-05 0.000380028 3.00368e-08
-2.41656e-08 3.00368e-08 0.000484181

0.000469011 -2.86671e-05 -6.17477e-08
-2.86671e-05 0.000372573 -1.19551e-07
-6.17477e-08 -1.19551e-07 0.000424697

0.000487322 4.33386e-05 -1.20173e-08
4.33386e-05 0.000378987 -1.49774e-07
-1.20173e-08 -1.49774e-07 0.000450455

0.000496955 -2.16964e-05 6.07685e-08
-2.16964e-05 0.000384061 -5.9982e-08
6.07685e-08 -5.9982e-08 0.000465787

0.000462004 -1.83685e-05 8.12539e-08
-1.83685e-05 0.000359797 -9.01092e-08
8.12539e-08 -9.01092e-08 0.000410649

0.000399153 7.76176e-05 -4.33231e-08
7.76176e-05 0.000436515 4.1807e-08
-4.33231e-08 4.1807e-08 0.000447529

0.000504336 -6.68826e-05 -5.09633e-08
-6.68826e-05 0.000472155 4.37626e-08
-5.09633e-08 4.37626e-08 0.00049054

0.000396495 5.24284e-05 1.18584e-08
5.24284e-05 0.000377935 8.64903e-08
1.18584e-08 8.64903e-08 0.000356502

0.000475715 -4.84856e-05 6.03649e-09
-4.84856e-05 0.000511553 -3.8722e-08
6.03649e-09 -3.8722e-08 0.000504031

0.000375158 5.40831e-05 -2.56793e-08
5.40831e-05 0.000449723 -9.91092e-08
-2.56793e-08 -9.91092e-08 0.000452969

0.000415503 4.80171e-05 7.27876e-08
4.80171e-05 0.000310464 4.11153e-08
7.27876e-08 4.11153e-08 0.000355107

0.000435714 -4.24522e-05 1.08769e-07
-4.24522e-05 0.00039323 -6.91395e-09
1.08769e-07 -6.91395e-09 0.000432876

0.000460407 1.7615e-05 6.65532e-08
1.7615e-05 0.000370575 -1.78183e-07
6.65532e-08 -1.78183e-07 0.000403091

0.000359586 6.81051e-05 9.2018e-08
6.81051e-05 0.000371282 5.147e-08
9.2018e-08 5.147e-08 0.000345786

0.000407372 5.48836e-05 8.10327e-08
5.48836e-05 0.00037641 1.32355e-07
8.10327e-08 1.32355e-07 0.000386422

0.000397587 2.18533e-05 -1.38975e-07
2.18533e-05 0.00048352 -1.19799e-07
-1.38975e-07 -1.19799e-07 0.000444324

0.000326009 5.81674e-06 -3.98974e-08
5.81674e-06 0.00049447 -3.43654e-08
-3.98974e-08 -3.43654e-08 0.000424517

0.000368193 -4.19781e-05 9.31016e-08
-4.19781e-05 0.000284041 5.34144e-08
9.31016e-08 5.34144e-08 0.000305664

0.000381908 -7.55363e-05 6.99583e-08
-7.55363e-05 0.000443053 -1.59038e-07
6.99583e-08 -1.59038e-07 0.000449694

0.000402571 8.34196e-05 -3.98046e-08
8.34196e-05 0.000482237 -2.29004e-09
-3.98046e-08 -2.29004e-09 0.000446014

0.00038542 -6.17407e-05 7.65102e-08
-6.17407e-05 0.000391372 1.17364e-07
7.65102e-08 1.17364e-07 0.000358936

0.000342174 7.37133e-05 1.26507e-08
7.37133e-05 0.000378778 1.10048e-07
1.26507e-08 1.10048e-07 0.000344105

0.000445478 -3.42608e-05 1.16081e-07
-3.42608e-05 0.000369604 -1.37045e-08
1.16081e-07 -1.37045e-08 0.000407616

0.000512356 -9.04895e-06 7.94225e-08
-9.04895e-06 0.000372854 5.39175e-08
7.94225e-08 5.39175e-08 0.000464075

0.000527361 2.45562e-06 -7.19799e-08
2.45562e-06 0.000365854 -1.3491e-07
-7.19799e-08 -1.3491e-07 0.0004622

0.000388862 -5.785e-05 4.21294e-08
-5.785e-05 0.000399106 -1.28069e-07
4.21294e-08 -1.28069e-07 0.000393627

0.000283504 1.18337e-05 -1.62356e-07
1.18337e-05 0.000400557 -8.95918e-08
-1.62356e-07 -8.95918e-08 0.000315987

0.000250772 9.70751e-06 8.03126e-08
9.70751e-06 0.000390055 1.07916e-07
8.03126e-08 1.07916e-07 0.000305988

0.000385938 1.07182e-05 2.54229e-08
1.07182e-05 0.000264176 -1.42067e-07
2.54229e-08 -1.42067e-07 0.000308938

0.000343528 6.12922e-05 4.2272e-08
6.12922e-05 0.000329274 -3.46009e-08
4.2272e-08 -3.46009e-08 0.00030949

0.00040172 -6.02982e-05 -3.00672e-08
-6.02982e-05 0.000342339 5.50308e-08
-3.00672e-08 5.50308e-08 0.000356583

0.000504944 6.8876e-05 -2.32502e-07
6.8876e-05 0.000591936 1.01474e-07
-2.32502e-07 1.01474e-07 0.000543874

0.000625501 -1.81968e-05 2.6108e-07
-1.81968e-05 0.000628606 2.31841e-08
2.6108e-07 2.31841e-08 0.000505901

0.000431371 -2.02105e-05 -8.78242e-08
-2.02105e-05 0.000313559 -1.84391e-08
-8.78242e-08 -1.84391e-08 0.000362807

0.000357873 5.39552e-05 6.18895e-08
5.39552e-05 0.00043886 3.73208e-09
6.18895e-08 3.73208e-09 0.000421435

0.000449397 -6.14077e-05 4.55039e-08
-6.14077e-05 0.000470116 4.29411e-08
4.55039e-08 4.29411e-08 0.00045505

0.000477236 2.80065e-05 1.18248e-07
2.80065e-05 0.000346467 1.13657e-07
1.18248e-07 1.13657e-07 0.000433061

0.00033885 5.71887e-05 7.25863e-08
5.71887e-05 0.000433818 1.8295e-07
7.25863e-08 1.8295e-07 0.000361863

0.000293963 -2.51212e-05 2.87814e-08
-2.51212e-05 0.00042047 1.06004e-07
2.87814e-08 1.06004e-07 0.000352314

0.0003609 5.77145e-05 -6.39899e-08
5.77145e-05 0.000501002 -1.60472e-08
-6.39899e-08 -1.60472e-08 0.000465714

0.000494729 -2.38258e-05 5.12937e-08
-2.38258e-05 0.000529106 5.94026e-08
5.12937e-08 5.94026e-08 0.000521899

0.000388738 5.86189e-05 -6.05182e-08
5.86189e-05 0.000434353 -1.99306e-08
-6.05182e-08 -1.99306e-08 0.000454907

0.000497383 -5.88706e-05 -8.03975e-09
-5.88706e-05 0.000504259 -1.10358e-07
-8.03975e-09 -1.10358e-07 0.000509554

0.000514028 5.16925e-06 -5.28946e-08
5.16925e-06 0.000292677 -1.24306e-08
-5.28946e-08 -1.24306e-08 0.000466218

0.000372273 7.39836e-05 7.8115e-08
7.39836e-05 0.000332431 -8.31973e-09
7.8115e-08 -8.31973e-09 0.00034247

0.000403285 8.91597e-05 -6.03174e-09
8.91597e-05 0.00050841 9.06129e-08
-6.03174e-09 9.06129e-08 0.000454567

0.000376169 -6.56274e-05 -4.98296e-09
-6.56274e-05 0.000435194 6.54781e-08
-4.98296e-09 6.54781e-08 0.000457081

0.000370407 6.27743e-05 8.07225e-08
6.27743e-05 0.000362897 2.62096e-08
8.07225e-08 2.62096e-08 0.000356755

0.000311712 -3.85478e-05 -2.04709e-08
-3.85478e-05 0.00034807 9.67264e-09
-2.04709e-08 9.67264e-09 0.000303445

0.00037951 -5.76803e-05 -1.00397e-07
-5.76803e-05 0.000418957 8.21738e-08
-1.00397e-07 8.21738e-08 0.000418318

0.000339011 -1.16978e-05 -1.10946e-07
-1.16978e-05 0.000409821 -1.1721e-07
-1.10946e-07 -1.1721e-07 0.000337595

0.000291643 3.24401e-05 -1.90571e-08
3.24401e-05 0.000402684 5.45413e-08
-1.90571e-08 5.45413e-08 0.000325766

0.000397238 -1.26097e-05 -2.47623e-08
-1.26097e-05 0.000312323 -3.97731e-08
-2.47623e-08 -3.97731e-08 0.000329177

0.000400718 -5.37482e-05 -2.61373e-08
-5.37482e-05 0.000388159 -7.6032e-09
-2.61373e-08 -7.6032e-09 0.000371186

0.000325821 8.52099e-06 -4.11119e-08
8.52099e-06 0.000461699 -9.94511e-09
-4.11119e-08 -9.94511e-09 0.000389026

0.000396698 1.24523e-05 -1.28644e-07
1.24523e-05 0.000464414 8.75861e-08
-1.28644e-07 8.75861e-08 0.000404883

0.000328625 -5.10553e-05 1.01285e-07
-5.10553e-05 0.000343595 -6.38748e-08
1.01285e-07 -6.38748e-08 0.000306079

0.000296243 6.41425e-05 -3.82482e-08
6.41425e-05 0.00033841 5.97804e-09
-3.82482e-08 5.97804e-09 0.000298235

0.000483245 1.22907e-05 -6.11197e-08
1.22907e-05 0.000352655 1.11031e-09
-6.11197e-08 1.11031e-09 0.000463106

0.00048558 7.99111e-08 -8.78582e-09
7.99111e-08 0.000346151 5.64478e-08
-8.78582e-09 5.64478e-08 0.000469326

0.000390542 6.47492e-05 -3.61289e-08
6.47492e-05 0.000423164 4.66122e-08
-3.61289e-08 4.66122e-08 0.00042749

0.000459908 -5.39153e-05 -1.20505e-08
-5.39153e-05 0.000474659 1.77636e-08
-1.20505e-08 1.77636e-08 0.000462806

0.000417961 8.79584e-05 1.68562e-07
8.79584e-05 0.000517165 7.53451e-08
1.68562e-07 7.53451e-08 0.000471652

0.000351382 -4.93817e-05 -9.85087e-08
-4.93817e-05 0.000497334 1.01861e-07
-9.85087e-08 1.01861e-07 0.000465238

0.000414741 5.79109e-05 -8.38997e-08
5.79109e-05 0.000436988 -1.73276e-07
-8.38997e-08 -1.73276e-07 0.000432842

0.000336546 3.61243e-05 7.59437e-09
3.61243e-05 0.000271833 -9.28644e-08
7.59437e-09 -9.28644e-08 0.000277974

0.000351873 -3.25264e-05 -8.73627e-08
-3.25264e-05 0.000433425 -1.76345e-07
-8.73627e-08 -1.76345e-07 0.000370563

0.000298152 4.43041e-05 -8.86674e-08
4.43041e-05 0.000421261 -1.19962e-07
-8.86674e-08 -1.19962e-07 0.000354973

0.000507024 5.26816e-05 -1.20446e-07
5.26816e-05 0.000419496 1.47147e-07
-1.20446e-07 1.47147e-07 0.000468106

0.000534084 -3.07753e-05 9.35787e-08
-3.07753e-05 0.000431555 -6.68144e-08
9.35787e-08 -6.68144e-08 0.000494478

0.000450446 -5.06416e-05 9.73825e-08
-5.06416e-05 0.000401668 8.5261e-09
9.73825e-08 8.5261e-09 0.000417685

0.000467507 6.21706e-05 -1.08866e-07
6.21706e-05 0.000394598 -7.83919e-08
-1.08866e-07 -7.83919e-08 0.000436039

0.000490686 -4.41131e-05 -9.71519e-08
-4.41131e-05 0.000419988 1.54822e-07
-9.71519e-08 1.54822e-07 0.000458155

0.000224679 -1.68788e-05 1.32169e-07
-1.68788e-05 0.000148519 -1.93571e-07
1.32169e-07 -1.93571e-07 0.000233642

0.000144931 -2.0175e-05 -1.27444e-07
-2.0175e-05 0.000216599 -2.07922e-07
-1.27444e-07 -2.07922e-07 0.000232695

0.000573077 7.00375e-05 -1.81725e-07
7.00375e-05 0.000508533 3.94128e-08
-1.81725e-07 3.94128e-08 0.00049831

0.000601973 -5.02137e-05 7.85411e-08
-5.02137e-05 0.000469095 2.05013e-07
7.85411e-08 2.05013e-07 0.000530677

0.000425908 6.90883e-05 -1.07178e-08
6.90883e-05 0.000377198 4.52825e-08
-1.07178e-08 4.52825e-08 0.00039935

0.000340266 3.25785e-05 -1.40306e-08
3.25785e-05 0.000261808 -3.12081e-08
-1.40306e-08 -3.12081e-08 0.000276518

0.000393892 6.12879e-05 7.41498e-08
6.12879e-05 0.000488679 -7.37488e-08
7.41498e-08 -7.37488e-08 0.000439966

0.000333633 -2.32149e-05 1.59487e-07
-2.32149e-05 0.000491512 6.85472e-08
1.59487e-07 6.85472e-08 0.000428803

0.000337271 -5.88203e-05 -1.20068e-07
-5.88203e-05 0.000364124 8.55232e-08
-1.20068e-07 8.55232e-08 0.000337502

0.000448428 3.79301e-05 -8.76912e-08
3.79301e-05 0.000503216 -1.44975e-08
-8.76912e-08 -1.44975e-08 0.000475238

0.000502368 -2.1479e-05 6.29256e-08
-2.1479e-05 0.00052938 6.01631e-08
6.29256e-08 6.01631e-08 0.000521148

0.000398715 4.63176e-05 -6.09777e-08
4.63176e-05 0.000318896 -1.38795e-07
-6.09777e-08 -1.38795e-07 0.000335622

0.000443137 2.46738e-05 -6.87724e-08
2.46738e-05 0.000327738 1.18592e-07
-6.87724e-08 1.18592e-07 0.000383381

0.000348269 8.6032e-05 -1.37839e-08
8.6032e-05 0.000455747 -9.80292e-08
-1.37839e-08 -9.80292e-08 0.000454374

0.000513144 -4.38625e-05 3.33437e-08
-4.38625e-05 0.000510405 -4.12022e-08
3.33437e-08 -4.12022e-08 0.000515516

0.000366597 7.12676e-05 -7.88992e-08
7.12676e-05 0.000466766 -2.17406e-08
-7.88992e-08 -2.17406e-08 0.000407239

0.000328255 -3.80633e-05 1.05008e-07
-3.80633e-05 0.000445727 -1.43419e-07
1.05008e-07 -1.43419e-07 0.00040087

0.000426702 7.74538e-05 -1.47687e-07
7.74538e-05 0.000391028 -7.2769e-08
-1.47687e-07 -7.2769e-08 0.000420794

0.000470875 -6.65418e-05 -7.56273e-08
-6.65418e-05 0.000413895 1.57944e-07
-7.56273e-08 1.57944e-07 0.000444095

0.000311174 2.21047e-05 -1.56064e-07
2.21047e-05 0.000452154 4.4185e-08
-1.56064e-07 4.4185e-08 0.000380048

0.00037354 -1.40134e-06 5.68567e-08
-1.40134e-06 0.000456502 1.74935e-07
5.68567e-08 1.74935e-07 0.000398125

0.000234916 -2.52261e-05 -6.74487e-08
-2.52261e-05 0.000275488 -1.51022e-07
-6.74487e-08 -1.51022e-07 0.000238085

0.000269605 -2.42782e-05 -7.84617e-09
-2.42782e-05 0.000241437 -9.03192e-08
-7.84617e-09 -9.03192e-08 0.000237829

0.000458092 4.00234e-05 -6.59693e-09
4.00234e-05 0.000340601 1.55072e-07
-6.59693e-09 1.55072e-07 0.000411316

0.00066709 1.16754e-05 -5.09195e-07
1.16754e-05 0.000571881 3.45462e-07
-5.09195e-07 3.45462e-07 0.000507556

0.000658601 -4.32403e-05 -6.11023e-08
-4.32403e-05 0.000500767 -1.73534e-07
-6.11023e-08 -1.73534e-07 0.000546124

0.000470966 -5.86399e-05 -1.04834e-08
-5.86399e-05 0.000534068 6.19055e-09
-1.04834e-08 6.19055e-09 0.000493974

0.000480767 1.83267e-05 -1.23103e-07
1.83267e-05 0.000509088 3.80898e-09
-1.23103e-07 3.80898e-09 0.000493333

0.000497277 -3.37037e-06 -1.10807e-07
-3.37037e-06 0.000339971 4.60637e-08
-1.10807e-07 4.60637e-08 0.000415165

0.00039644 9.58032e-05 -1.6585e-09
9.58032e-05 0.000505365 8.32861e-08
-1.6585e-09 8.32861e-08 0.00045382

0.000333813 -8.97643e-05 -1.7661e-08
-8.97643e-05 0.000455617 4.68649e-08
-1.7661e-08 4.68649e-08 0.000454892

0.000255612 4.80327e-05 -5.56756e-08
4.80327e-05 0.00027585 1.21165e-07
-5.56756e-08 1.21165e-07 0.000252594

0.000281568 5.02142e-05 -7.43996e-08
5.02142e-05 0.000273269 -9.66919e-08
-7.43996e-08 -9.66919e-08 0.00025492

0.00026131 -1.8336e-05 -1.56799e-07
-1.8336e-05 0.000337725 1.6121e-07
-1.56799e-07 1.6121e-07 0.000275948

0.000253975 3.8233e-05 -6.56459e-08
3.8233e-05 0.000327761 -2.04572e-08
-6.56459e-08 -2.04572e-08 0.000271361

0.000332946 -9.07152e-06 1.44103e-08
-9.07152e-06 0.00025334 1.24921e-07
1.44103e-08 1.24921e-07 0.000273215

0.000232006 2.23115e-05 1.45135e-07
2.23115e-05 0.000322325 -9.55845e-08
1.45135e-07 -9.55845e-08 0.000257992

0.00030648 2.61295e-05 -1.17027e-08
2.61295e-05 0.000229232 -1.82034e-07
-1.17027e-08 -1.82034e-07 0.000256244

0.000460177 6.81356e-06 -1.5883e-10
6.81356e-06 0.000562022 -5.97023e-08
-1.5883e-10 -5.97023e-08 0.000488444

0.000489761 5.03572e-05 -1.0415e-07
5.03572e-05 0.000544752 1.4835e-07
-1.0415e-07 1.4835e-07 0.000508773

0.000490913 8.36061e-06 1.29801e-07
8.36061e-06 0.000408749 1.23061e-07
1.29801e-07 1.23061e-07 0.00044092

0.000525306 -1.65897e-06 1.07341e-07
-1.65897e-06 0.000340399 -1.27799e-08
1.07341e-07 -1.27799e-08 0.000446615

0.000323124 -3.01946e-05 8.05082e-08
-3.01946e-05 0.000388313 1.13514e-07
8.05082e-08 1.13514e-07 0.000330539

0.00029142 4.56329e-05 -3.08449e-08
4.56329e-05 0.00037121 6.87466e-08
-3.08449e-08 6.87466e-08 0.000318565

0.000496947 -2.24384e-06 -1.02657e-07
-2.24384e-06 0.000337134 3.93852e-09
-1.02657e-07 3.93852e-09 0.000417173

0.000542366 3.93696e-05 -1.59399e-08
3.93696e-05 0.000478902 2.34781e-07
-1.59399e-08 2.34781e-07 0.00049008

0.000567885 -2.82188e-05 3.35325e-08
-2.82188e-05 0.000464594 2.5805e-07
3.35325e-08 2.5805e-07 0.000519869

0.000440652 3.8078e-05 -6.68739e-08
3.8078e-05 0.000451271 -1.83139e-07
-6.68739e-08 -1.83139e-07 0.000438449

0.000376842 -6.28001e-05 -1.26679e-07
-6.28001e-05 0.000429595 -4.10678e-08
-1.26679e-07 -4.10678e-08 0.00042803

0.000389694 8.00038e-05 -3.87478e-08
8.00038e-05 0.00048191 -1.78593e-09
-3.87478e-08 -1.78593e-09 0.000426462

0.000491434 8.28448e-06 1.00376e-07
8.28448e-06 0.000357604 -1.64241e-07
1.00376e-07 -1.64241e-07 0.000431142

0.000342945 5.78092e-05 -1.33843e-08
5.78092e-05 0.00032675 -1.28223e-07
-1.33843e-08 -1.28223e-07 0.000305045

0.00034917 -4.80179e-05 -6.14117e-08
-4.80179e-05 0.000448393 -1.18286e-08
-6.14117e-08 -1.18286e-08 0.000422861

0.000391742 8.59274e-05 -4.53596e-08
8.59274e-05 0.000474964 1.76153e-09
-4.53596e-08 1.76153e-09 0.000425698

0.000205614 0.000100481 -1.30096e-07
0.000100481 0.000213951 -1.56481e-07
-1.30096e-07 -1.56481e-07 0.000210809

0.000303808 -5.9202e-06 -1.03099e-08
-5.9202e-06 0.000453377 3.21493e-09
-1.03099e-08 3.21493e-09 0.00037807

0.00035467 3.26163e-05 1.56288e-07
3.26163e-05 0.000454856 -3.41512e-08
1.56288e-07 -3.41512e-08 0.000389975

0.000444148 -7.6296e-06 5.59993e-08
-7.6296e-06 0.000593557 -8.68761e-08
5.59993e-08 -8.68761e-08 0.000490525

0.000505014 3.98337e-05 -1.63954e-07
3.98337e-05 0.00053743 -2.13991e-07
-1.63954e-07 -2.13991e-07 0.000521747

0.000522255 3.22288e-05 -7.03342e-08
3.22288e-05 0.000337852 -1.0974e-08
-7.03342e-08 -1.0974e-08 0.000473447

0.000537881 -2.23908e-05 3.9956e-08
-2.23908e-05 0.000316876 -6.54561e-09
3.9956e-08 -6.54561e-09 0.000486027

0.00044538 4.40546e-05 1.97963e-07
4.40546e-05 0.000456004 -5.29669e-08
1.97963e-07 -5.29669e-08 0.000460029

0.000438796 -6.51382e-05 2.06892e-07
-6.51382e-05 0.000451714 1.26127e-07
2.06892e-07 1.26127e-07 0.000464381

0.0004712 3.69551e-05 -1.15407e-07
3.69551e-05 0.000525448 -2.9224e-08
-1.15407e-07 -2.9224e-08 0.000488843

0.000476279 -5.16309e-05 -2.84997e-10
-5.16309e-05 0.000497588 4.9562e-08
-2.84997e-10 4.9562e-08 0.000490316

0.000599256 6.75295e-05 1.42155e-08
6.75295e-05 0.000565578 3.14842e-07
1.42155e-08 3.14842e-07 0.0005045

0.000634411 -4.77767e-05 -3.45062e-08
-4.77767e-05 0.000500319 -1.71978e-07
-3.45062e-08 -1.71978e-07 0.000545104

0.000407081 9.49915e-05 4.00151e-10
9.49915e-05 0.000449342 -6.64877e-09
4.00151e-10 -6.64877e-09 0.000467809

0.000555514 -5.07768e-05 -7.71176e-10
-5.07768e-05 0.000497966 -1.11945e-07
-7.71176e-10 -1.11945e-07 0.000528815

0.00042659 7.06174e-05 1.2941e-08
7.06174e-05 0.000353522 -5.08253e-08
1.2941e-08 -5.08253e-08 0.000393215

0.000394508 6.05352e-05 7.99297e-08
6.05352e-05 0.000469848 -1.13541e-07
7.99297e-08 -1.13541e-07 0.00041352

0.00033405 -2.39974e-05 1.31039e-07
-2.39974e-05 0.000460987 -1.27224e-07
1.31039e-07 -1.27224e-07 0.000403488

0.000430691 -7.0592e-05 -2.01686e-08
-7.0592e-05 0.000395111 -1.2687e-08
-2.01686e-08 -1.2687e-08 0.000402711

0.000336521 -3.82788e-05 -8.97479e-08
-3.82788e-05 0.00032149 -6.27888e-08
-8.97479e-08 -6.27888e-08 0.000299469

0.00045186 -5.11866e-05 7.48525e-08
-5.11866e-05 0.000365582 -9.69154e-08
7.48525e-08 -9.69154e-08 0.000405581

0.000387401 7.74856e-05 8.71052e-08
7.74856e-05 0.000375621 3.18986e-08
8.71052e-08 3.18986e-08 0.00038437

0.000381717 -0.000104093 -3.32672e-08
-0.000104093 0.000459612 7.46721e-08
-3.32672e-08 7.46721e-08 0.000470197

0.00041403 8.2493e-05 7.56505e-08
8.2493e-05 0.000503635 1.14323e-07
7.56505e-08 1.14323e-07 0.000467079

0.000485371 -1.82043e-05 -1.06825e-07
-1.82043e-05 0.000404152 -8.28816e-08
-1.06825e-07 -8.28816e-08 0.000447235

0.000626561 -3.2082e-05 -8.67186e-08
-3.2082e-05 0.000612513 1.2212e-07
-8.67186e-08 1.2212e-07 0.000505056

0.000534686 2.62806e-05 1.38645e-07
2.62806e-05 0.000579756 -5.31242e-08
1.38645e-07 -5.31242e-08 0.000536043

0.00044111 3.20265e-05 -7.92298e-08
3.20265e-05 0.000398687 1.90158e-07
-7.92298e-08 1.90158e-07 0.000428274

0.000529182 -1.26832e-05 -1.17731e-07
-1.26832e-05 0.000427201 -2.68618e-08
-1.17731e-07 -2.68618e-08 0.000476619

0.000265566 -3.59476e-05 -1.16718e-07
-3.59476e-05 0.000288617 -2.19241e-07
-1.16718e-07 -2.19241e-07 0.000250876

0.00029292 -3.40585e-05 1.66169e-07
-3.40585e-05 0.000251259 1.31466e-07
1.66169e-07 1.31466e-07 0.00025096

0.000524715 1.05988e-05 -7.38388e-08
1.05988e-05 0.000387779 -6.6223e-09
-7.38388e-08 -6.6223e-09 0.000476932

0.000537281 2.75416e-06 6.71383e-08
2.75416e-06 0.000375283 2.45981e-08
6.71383e-08 2.45981e-08 0.000494423

0.000512009 8.98147e-07 4.71112e-08
8.98147e-07 0.000445241 -5.70042e-08
4.71112e-08 -5.70042e-08 0.000478118

0.000425027 -2.81168e-05 5.05504e-08
-2.81168e-05 0.000467724 1.79642e-07
5.05504e-08 1.79642e-07 0.000428349

0.000343589 3.74285e-05 -7.19107e-08
3.74285e-05 0.000456989 1.06911e-07
-7.19107e-08 1.06911e-07 0.000404213

0.000415781 5.63951e-05 7.20069e-08
5.63951e-05 0.000337894 -4.66128e-09
7.20069e-08 -4.66128e-09 0.000363951

0.000470722 6.48344e-05 1.12217e-07
6.48344e-05 0.000423456 6.79233e-08
1.12217e-07 6.79233e-08 0.000455817

0.000511487 -5.05391e-05 1.24445e-07
-5.05391e-05 0.000462654 5.92822e-09
1.24445e-07 5.92822e-09 0.000487981

0.000546762 7.90662e-06 -1.01916e-07
7.90662e-06 0.000512355 2.13438e-07
-1.01916e-07 2.13438e-07 0.000510701

0.000527594 -7.17004e-05 -4.44716e-08
-7.17004e-05 0.000624729 -4.13662e-07
-4.44716e-08 -4.13662e-07 0.000510279

0.000448265 2.81615e-05 -8.60067e-08
2.81615e-05 0.000389225 1.85201e-07
-8.60067e-08 1.85201e-07 0.000402242

0.000509133 4.46788e-05 1.30069e-07
4.46788e-05 0.000434272 -1.22314e-07
1.30069e-07 -1.22314e-07 0.000471215

0.000529204 -3.38895e-05 -2.94188e-08
-3.38895e-05 0.000430454 -1.97737e-07
-2.94188e-08 -1.97737e-07 0.000494105

0.000370378 -2.72706e-05 1.72441e-07
-2.72706e-05 0.000479387 5.95427e-08
1.72441e-07 5.95427e-08 0.000443974

0.000425182 7.77819e-05 8.79936e-09
7.77819e-05 0.000496488 -1.1919e-07
8.79936e-09 -1.1919e-07 0.000452382

0.000407166 9.93614e-05 1.4951e-07
9.93614e-05 0.000506054 1.01072e-07
1.4951e-07 1.01072e-07 0.000454654

0.000366981 -5.94105e-05 -1.26573e-07
-5.94105e-05 0.000444471 6.51776e-08
-1.26573e-07 6.51776e-08 0.000452662

0.000228419 0.000114489 1.93887e-08
0.000114489 0.000230948 2.48084e-07
1.93887e-08 2.48084e-07 0.000218125

0.000430499 6.13742e-05 1.58358e-07
6.13742e-05 0.000521344 -5.41166e-08
1.58358e-07 -5.41166e-08 0.000475087

0.000406216 -7.04024e-05 -4.71457e-08
-7.04024e-05 0.000495433 4.64981e-08
-4.71457e-08 4.64981e-08 0.000477662

0.000346649 -5.46834e-05 -6.19747e-08
-5.46834e-05 0.000464291 -1.53635e-08
-6.19747e-08 -1.53635e-08 0.000440651

0.00039124 8.51671e-05 -2.31047e-08
8.51671e-05 0.000495125 -1.0954e-07
-2.31047e-08 -1.0954e-07 0.000444395

0.000434955 -3.7815e-05 -9.35039e-08
-3.7815e-05 0.000355032 2.95739e-08
-9.35039e-08 2.95739e-08 0.000376005

0.000435942 -4.54225e-05 9.72421e-08
-4.54225e-05 0.000426809 1.98872e-07
9.72421e-08 1.98872e-07 0.000442009

0.000437247 5.02684e-05 1.86692e-07
5.02684e-05 0.000486166 -2.09989e-08
1.86692e-07 -2.09989e-08 0.000464665

0.000437726 -6.77455e-05 1.3114e-07
-6.77455e-05 0.000447258 -1.59428e-07
1.3114e-07 -1.59428e-07 0.000467554

0.000485369 -1.7772e-05 -1.06984e-07
-1.7772e-05 0.000355914 -1.80296e-08
-1.06984e-07 -1.80296e-08 0.000436892

0.000524582 1.90313e-05 -9.57078e-08
1.90313e-05 0.000474881 -1.15315e-07
-9.57078e-08 -1.15315e-07 0.000487278

0.000543558 -1.95215e-05 1.00309e-07
-1.95215e-05 0.000441639 -1.40269e-07
1.00309e-07 -1.40269e-07 0.000510015

0.000496461 1.98718e-05 3.99887e-08
1.98718e-05 0.000641194 -6.579e-09
3.99887e-08 -6.579e-09 0.000501879

0.000514998 2.76516e-05 2.29603e-07
2.76516e-05 0.000602853 3.92646e-08
2.29603e-07 3.92646e-08 0.000533702

0.000218427 2.12643e-05 1.43925e-07
2.12643e-05 0.000160825 6.67676e-08
1.43925e-07 6.67676e-08 0.000228149

0.000163863 2.1483e-05 1.68215e-07
2.1483e-05 0.000228996 7.85399e-08
1.68215e-07 7.85399e-08 0.000227955

0.000430766 6.17917e-05 7.59559e-08
6.17917e-05 0.000432418 -9.14549e-08
7.59559e-08 -9.14549e-08 0.000452575

0.000500007 -6.43926e-05 -5.81111e-08
-6.43926e-05 0.000483122 3.57772e-08
-5.81111e-08 3.57772e-08 0.00049303

0.000215134 4.23803e-05 -2.93829e-08
4.23803e-05 0.000210028 -2.74174e-07
-2.93829e-08 -2.74174e-07 0.000229379

0.000208135 4.70415e-05 8.73988e-08
4.70415e-05 0.000210446 2.58671e-07
8.73988e-08 2.58671e-07 0.00022951

0.000623311 -1.62061e-05 -2.19041e-07
-1.62061e-05 0.000579015 -3.1702e-07
-2.19041e-07 -3.1702e-07 0.000544978

0.000621106 -9.41139e-06 3.49924e-07
-9.41139e-06 0.000648149 -4.35042e-07
3.49924e-07 -4.35042e-07 0.000508956

0.00040858 -6.14177e-05 -4.84251e-08
-6.14177e-05 0.000419429 7.46212e-08
-4.84251e-08 7.46212e-08 0.000436152

0.000436534 7.90481e-05 1.01799e-07
7.90481e-05 0.00041792 7.33425e-08
1.01799e-07 7.33425e-08 0.000444965

0.000501733 -6.71453e-05 -4.00223e-08
-6.71453e-05 0.000448024 -7.95732e-08
-4.00223e-08 -7.95732e-08 0.000478358

0.00038747 6.97892e-05 1.08466e-07
6.97892e-05 0.000401936 -4.902e-09
1.08466e-07 -4.902e-09 0.000393386

0.00043852 -5.51804e-05 -1.64796e-08
-5.51804e-05 0.000424986 -6.32368e-09
-1.64796e-08 -6.32368e-09 0.000416061

0.00027732 -1.02147e-05 -1.12966e-07
-1.02147e-05 0.000340944 1.73051e-07
-1.12966e-07 1.73051e-07 0.000278801

0.000245328 2.83498e-05 1.15544e-07
2.83498e-05 0.000330455 -4.38292e-08
1.15544e-07 -4.38292e-08 0.000271914

0.000334668 -4.25125e-06 -4.56815e-08
-4.25125e-06 0.000261348 -1.50487e-07
-4.56815e-08 -1.50487e-07 0.000275314

0.00038747 7.39555e-05 1.72812e-09
7.39555e-05 0.000414012 -1.59598e-07
1.72812e-09 -1.59598e-07 0.000415678

0.000454149 -7.25441e-05 -1.64751e-08
-7.25441e-05 0.000442522 -6.33114e-09
-1.64751e-08 -6.33114e-09 0.000444092

0.000219313 4.27393e-06 1.56206e-07
4.27393e-06 0.000310029 4.66646e-09
1.56206e-07 4.66646e-09 0.000251593

0.000306254 -1.71825e-08 1.34819e-07
-1.71825e-08 0.000231573 8.58746e-08
1.34819e-07 8.58746e-08 0.000250576

0.000467279 7.51535e-05 -3.10204e-08
7.51535e-05 0.000436218 -1.12126e-07
-3.10204e-08 -1.12126e-07 0.000466934

0.000536231 -5.35819e-05 6.17029e-08
-5.35819e-05 0.000477589 1.26181e-08
6.17029e-08 1.26181e-08 0.000510113

0.000465584 7.53241e-05 -3.33537e-08
7.53241e-05 0.000455408 -1.04036e-07
-3.33537e-08 -1.04036e-07 0.000469633

0.000530171 -6.50535e-05 7.62077e-08
-6.50535e-05 0.000470875 6.29064e-08
7.62077e-08 6.29064e-08 0.000506914

0.000197081 4.34894e-05 -1.2662e-07
4.34894e-05 0.000199113 -1.10495e-07
-1.2662e-07 -1.10495e-07 0.000219694

0.000196683 4.02358e-05 3.00525e-08
4.02358e-05 0.000204401 -1.43713e-07
3.00525e-08 -1.43713e-07 0.000219172

0.000427971 7.07579e-05 -1.4424e-07
7.07579e-05 0.000410432 -1.03176e-07
-1.4424e-07 -1.03176e-07 0.000428107

0.00047225 -5.84398e-05 -9.81111e-08
-5.84398e-05 0.000450719 -3.78712e-08
-9.81111e-08 -3.78712e-08 0.000457153

0.000510615 4.59953e-05 2.09117e-07
4.59953e-05 0.000544173 1.66593e-07
2.09117e-07 1.66593e-07 0.000521198

0.000487126 -1.53133e-05 3.11491e-08
-1.53133e-05 0.000564508 -6.15256e-08
3.11491e-08 -6.15256e-08 0.000493877

0.000426264 5.88919e-05 1.22229e-08
5.88919e-05 0.000487759 -4.35622e-08
1.22229e-08 -4.35622e-08 0.00047479

0.000543894 -6.79628e-05 4.6729e-08
-6.79628e-05 0.000503928 3.63615e-08
4.6729e-08 3.63615e-08 0.000526883

0.000539926 5.30231e-05 3.00919e-08
5.30231e-05 0.000432686 -1.84746e-07
3.00919e-08 -1.84746e-07 0.000485577

0.000566945 -3.50936e-05 -1.73901e-08
-3.50936e-05 0.000417326 -2.05229e-07
-1.73901e-08 -2.05229e-07 0.000511016

0.000418594 7.19997e-05 -2.77097e-08
7.19997e-05 0.000485481 -1.75958e-08
-2.77097e-08 -1.75958e-08 0.000448104

0.000400148 -6.00095e-05 6.91145e-08
-6.00095e-05 0.000447495 -1.60343e-07
6.91145e-08 -1.60343e-07 0.000452701

0.000487885 4.36992e-05 -1.32182e-07
4.36992e-05 0.000591954 -1.23428e-07
-1.32182e-07 -1.23428e-07 0.000519961

0.000510661 5.02522e-05 -2.82025e-08
5.02522e-05 0.000525353 2.98573e-08
-2.82025e-08 2.98573e-08 0.000500084

0.000527907 -9.04518e-05 1.07437e-07
-9.04518e-05 0.000526554 -2.43227e-08
1.07437e-07 -2.43227e-08 0.000500654

0.000463619 -1.25179e-05 -1.70463e-08
-1.25179e-05 0.000613336 1.04032e-07
-1.70463e-08 1.04032e-07 0.000496749

0.00057316 5.32233e-05 1.11847e-07
5.32233e-05 0.000498866 3.92742e-08
1.11847e-07 3.92742e-08 0.000498228

0.000619415 1.1894e-05 2.27097e-07
1.1894e-05 0.000535747 -6.73775e-08
2.27097e-07 -6.73775e-08 0.000504757

0.000599838 -4.85899e-05 -1.72149e-07
-4.85899e-05 0.000453719 6.26616e-08
-1.72149e-07 6.26616e-08 0.000525627

0.000633947 -1.60297e-05 -5.64189e-08
-1.60297e-05 0.000484772 1.6976e-07
-5.64189e-08 1.6976e-07 0.000537436

0.000545267 6.36733e-05 -2.64939e-07
6.36733e-05 0.000591022 -5.91421e-07
-2.64939e-07 -5.91421e-07 0.000501078

0.000689715 -2.99675e-05 -5.78924e-06
-2.99675e-05 0.000659556 3.28593e-06
-5.78924e-06 3.28593e-06 0.000509397

0.000691686 -4.3936e-05 -6.65115e-07
-4.3936e-05 0.000505235 -2.23942e-07
-6.65115e-07 -2.23942e-07 0.000556527

0.000647934 -5.48044e-05 -2.47831e-07
-5.48044e-05 0.000514348 4.09197e-07
-2.47831e-07 4.09197e-07 0.000557396

0.000572776 6.03656e-05 6.5491e-08
6.03656e-05 0.000517788 -9.05578e-08
6.5491e-08 -9.05578e-08 0.000497656

0.000518131 2.63785e-05 1.08983e-07
2.63785e-05 0.000496738 -6.17561e-08
1.08983e-07 -6.17561e-08 0.000487581

0.000580167 3.1676e-05 -4.26926e-09
3.1676e-05 0.000625002 2.32488e-07
-4.26926e-09 2.32488e-07 0.000506259

0.000638002 -4.2031e-05 -7.58857e-08
-4.2031e-05 0.000498444 1.48564e-07
-7.58857e-08 1.48564e-07 0.0005507

0.000634176 -4.90038e-05 -9.08743e-08
-4.90038e-05 0.000515908 7.91565e-08
-9.08743e-08 7.91565e-08 0.000552244

0.000577661 -3.4728e-05 8.3198e-08
-3.4728e-05 0.000515232 4.32189e-08
8.3198e-08 4.32189e-08 0.000538043

0.000525199 6.9698e-05 1.15114e-07
6.9698e-05 0.000497083 1.33599e-08
1.15114e-07 1.33599e-08 0.000491137

0.000581548 3.32544e-05 -1.8973e-07
3.32544e-05 0.000514317 1.08298e-07
-1.8973e-07 1.08298e-07 0.000499453

0.000580761 -5.24417e-05 1.03936e-07
-5.24417e-05 0.000483952 -2.10891e-07
1.03936e-07 -2.10891e-07 0.000531682

0.000606132 -3.08131e-05 2.74428e-08
-3.08131e-05 0.000494963 -2.34715e-07
2.74428e-08 -2.34715e-07 0.000537199

0.000558569 5.90067e-06 -1.1222e-08
5.90067e-06 0.000561281 2.99695e-08
-1.1222e-08 2.99695e-08 0.000574748

0.000607122 -2.95654e-06 -3.85556e-08
-2.95654e-06 0.000585054 -6.99473e-08
-3.85556e-08 -6.99473e-08 0.000588381

0.000593304 1.09406e-05 3.36186e-08
1.09406e-05 0.000559316 6.91e-09
3.36186e-08 6.91e-09 0.000574387

0.000560686 -1.14041e-05 6.23123e-08
-1.14041e-05 0.000516418 -1.36429e-08
6.23123e-08 -1.36429e-08 0.000565866

0.000562748 1.75166e-06 1.15157e-07
1.75166e-06 0.000530274 1.54409e-08
1.15157e-07 1.54409e-08 0.000569567

0.000609244 -1.55575e-05 -5.01257e-08
-1.55575e-05 0.000591211 6.46283e-08
-5.01257e-08 6.46283e-08 0.00058776

0.000590275 2.87508e-05 3.8717e-08
2.87508e-05 0.000554739 -5.23923e-08
3.8717e-08 -5.23923e-08 0.000572126

0.00056402 -2.51248e-06 1.12146e-07
-2.51248e-06 0.000526006 3.70331e-08
1.12146e-07 3.70331e-08 0.000569325

0.000566956 1.29244e-05 6.86918e-08
1.29244e-05 0.000487217 -7.01018e-09
6.86918e-08 -7.01018e-09 0.00054725

0.000571859 2.36655e-06 1.91139e-08
2.36655e-06 0.000562497 -7.36575e-08
1.91139e-08 -7.36575e-08 0.000581125

0.000572499 -2.38708e-06 -1.81169e-08
-2.38708e-06 0.000563833 -1.00152e-07
-1.81169e-08 -1.00152e-07 0.000581381

0.00059019 1.60588e-06 -1.25193e-07
1.60588e-06 0.000599924 -1.05458e-07
-1.25193e-07 -1.05458e-07 0.000597598

0.000613027 -1.61744e-05 1.39998e-07
-1.61744e-05 0.000537 6.56503e-08
1.39998e-07 6.56503e-08 0.000563128

0.000626213 1.01298e-06 1.23132e-07
1.01298e-06 0.000599365 -7.67647e-08
1.23132e-07 -7.67647e-08 0.000589629

0.00055876 2.10974e-05 -1.03438e-08
2.10974e-05 0.000551484 1.70017e-07
-1.03438e-08 1.70017e-07 0.000571515

0.000546512 3.0248e-05 -2.45526e-08
3.0248e-05 0.000548387 -6.78846e-08
-2.45526e-08 -6.78846e-08 0.00056137

0.000593703 -2.8058e-05 2.79177e-08
-2.8058e-05 0.00055859 1.33789e-07
2.79177e-08 1.33789e-07 0.000575708

0.000605989 1.47579e-05 -1.00982e-07
1.47579e-05 0.000590118 6.02022e-08
-1.00982e-07 6.02022e-08 0.000586065

0.000603682 1.34916e-06 -1.47097e-07
1.34916e-06 0.000617174 5.12209e-09
-1.47097e-07 5.12209e-09 0.000606948

0.000567683 2.9474e-06 -8.13815e-08
2.9474e-06 0.000575982 1.21426e-07
-8.13815e-08 1.21426e-07 0.000583008

0.000567854 -3.50564e-06 3.77552e-08
-3.50564e-06 0.000576658 7.12088e-09
3.77552e-08 7.12088e-09 0.000583179

0.000590662 -3.55487e-06 -1.7096e-07
-3.55487e-06 0.000606388 -7.59217e-08
-1.7096e-07 -7.59217e-08 0.000600026

0.000559163 9.56067e-06 8.37137e-08
9.56067e-06 0.000552464 -7.49606e-08
8.37137e-08 -7.49606e-08 0.000572973

0.000560138 7.91878e-06 -1.03704e-07
7.91878e-06 0.000535932 -5.78956e-08
-1.03704e-07 -5.78956e-08 0.000572662

0.000547667 7.5834e-06 2.46988e-08
7.5834e-06 0.000552289 -7.80455e-08
2.46988e-08 -7.80455e-08 0.00056981

0.000594294 -4.76938e-06 1.32427e-07
-4.76938e-06 0.000592653 -1.97526e-08
1.32427e-07 -1.97526e-08 0.000594606

0.00056453 9.57672e-06 3.41899e-08
9.57672e-06 0.000516278 6.81359e-08
3.41899e-08 6.81359e-08 0.000565071

0.000567332 1.29003e-06 -2.13218e-08
1.29003e-06 0.000574051 -1.48577e-07
-2.13218e-08 -1.48577e-07 0.000583089

0.000567889 -1.29892e-05 -1.18989e-07
-1.29892e-05 0.000484867 -5.58154e-08
-1.18989e-07 -5.58154e-08 0.000555912

0.000584949 -3.33729e-06 2.07659e-08
-3.33729e-06 0.000596018 -2.32414e-08
2.07659e-08 -2.32414e-08 0.000595635

0.000624172 -2.50941e-06 -6.88033e-08
-2.50941e-06 0.000578812 7.1888e-08
-6.88033e-08 7.1888e-08 0.000581286

0.000625149 4.10268e-06 -1.57648e-07
4.10268e-06 0.000568631 2.39355e-08
-1.57648e-07 2.39355e-08 0.000579904

0.000583837 -1.4339e-05 1.07296e-07
-1.4339e-05 0.000562505 -7.1571e-08
1.07296e-07 -7.1571e-08 0.000560345

0.000584356 1.47751e-05 -6.03655e-08
1.47751e-05 0.000563649 -2.25121e-07
-6.03655e-08 -2.25121e-07 0.000560437

0.000565652 -3.278e-06 -4.58748e-08
-3.278e-06 0.000546171 -8.82637e-08
-4.58748e-08 -8.82637e-08 0.000575155

0.000542078 2.72937e-06 3.32807e-08
2.72937e-06 0.000548625 -6.78924e-08
3.32807e-08 -6.78924e-08 0.000566306

0.00055153 -2.31239e-05 -2.79945e-08
-2.31239e-05 0.000551579 2.35346e-08
-2.79945e-08 2.35346e-08 0.000563094

0.000550314 2.41338e-05 -1.31954e-07
2.41338e-05 0.000552257 1.2185e-07
-1.31954e-07 1.2185e-07 0.000562973

0.000569574 -1.14603e-05 9.49195e-08
-1.14603e-05 0.000484728 -6.52605e-08
9.49195e-08 -6.52605e-08 0.000543882

0.000589923 -6.48283e-06 8.53066e-08
-6.48283e-06 0.000604988 4.30583e-08
8.53066e-08 4.30583e-08 0.000597069

0.000557542 1.72621e-07 -1.02525e-07
1.72621e-07 0.000547709 -5.00509e-08
-1.02525e-07 -5.00509e-08 0.000572771

0.000567333 9.84361e-06 7.03231e-08
9.84361e-06 0.000481992 -3.5017e-08
7.03231e-08 -3.5017e-08 0.000545299

0.000559264 -8.75955e-06 3.1246e-08
-8.75955e-06 0.000553738 -2.25633e-08
3.1246e-08 -2.25633e-08 0.000573271

0.000557435 -5.86054e-06 7.51121e-08
-5.86054e-06 0.000562073 2.45384e-08
7.51121e-08 2.45384e-08 0.000574654

0.000608376 -1.21418e-05 1.11488e-08
-1.21418e-05 0.000599928 -1.2912e-08
1.11488e-08 -1.2912e-08 0.000595858

0.000562647 4.62211e-07 3.66134e-08
4.62211e-07 0.000547721 -3.80512e-08
3.66134e-08 -3.80512e-08 0.000575043

0.000571521 5.01109e-06 4.54899e-08
5.01109e-06 0.000570139 2.14846e-08
4.54899e-08 2.14846e-08 0.000584738

0.000578908 5.78795e-06 6.77253e-08
5.78795e-06 0.000584146 3.83666e-08
6.77253e-08 3.83666e-08 0.000591389

0.000575563 -4.49076e-05 1.90075e-08
-4.49076e-05 0.000520614 1.98459e-08
1.90075e-08 1.98459e-08 0.00055632

0.000577931 -2.41629e-06 7.11674e-08
-2.41629e-06 0.000585803 9.65037e-08
7.11674e-08 9.65037e-08 0.000590521

0.00056662 2.98614e-06 -9.96147e-08
2.98614e-06 0.000569955 1.44819e-08
-9.96147e-08 1.44819e-08 0.000582322

0.000620828 8.24506e-06 -1.78367e-07
8.24506e-06 0.000626409 -2.06853e-08
-1.78367e-07 -2.06853e-08 0.000612382

0.000620828 -8.40112e-06 -1.80847e-07
-8.40112e-06 0.000626472 1.83488e-08
-1.80847e-07 1.83488e-08 0.000612378

0.000608261 -2.91889e-06 1.09077e-07
-2.91889e-06 0.000619707 -8.97329e-08
1.09077e-07 -8.97329e-08 0.000608727

0.000619091 2.32043e-06 -1.55466e-07
2.32043e-06 0.000629064 1.40479e-07
-1.55466e-07 1.40479e-07 0.00061293

0.000619535 -4.05261e-06 -1.58575e-07
-4.05261e-06 0.000629315 -1.38398e-07
-1.58575e-07 -1.38398e-07 0.000612926

0.000593362 -1.02692e-05 1.32058e-07
-1.02692e-05 0.000601204 -2.43724e-08
1.32058e-07 -2.43724e-08 0.000595146

0.000574412 -1.87411e-05 -7.39433e-08
-1.87411e-05 0.000534031 -8.39136e-08
-7.39433e-08 -8.39136e-08 0.000551961

0.000574361 1.95784e-05 6.27048e-08
1.95784e-05 0.000534031 -6.21971e-08
6.27048e-08 -6.21971e-08 0.000552077

0.000611435 5.09055e-06 6.3591e-08
5.09055e-06 0.000623107 2.48827e-08
6.3591e-08 2.48827e-08 0.00060949

0.000609537 -4.67501e-06 6.42441e-08
-4.67501e-06 0.000623329 -7.95902e-09
6.42441e-08 -7.95902e-09 0.000609488

0.000564001 3.0249e-06 9.80629e-08
3.0249e-06 0.000552538 -1.98239e-08
9.80629e-08 -1.98239e-08 0.000577798

0.000606148 2.67374e-05 4.48043e-08
2.67374e-05 0.000560751 1.30125e-07
4.48043e-08 1.30125e-07 0.000561114

0.000640502 -2.18677e-05 -6.59687e-08
-2.18677e-05 0.000614159 -5.47689e-09
-6.59687e-08 -5.47689e-09 0.000587044

0.000590538 6.67319e-06 1.03727e-07
6.67319e-06 0.00060558 3.81874e-08
1.03727e-07 3.81874e-08 0.000597163

0.000567612 -3.08675e-06 -1.70461e-07
-3.08675e-06 0.000575455 1.1399e-07
-1.70461e-07 1.1399e-07 0.000583718

0.000567426 -4.52484e-06 -1.54124e-07
-4.52484e-06 0.000561038 1.47248e-07
-1.54124e-07 1.47248e-07 0.000579669

0.00059512 -1.00738e-05 -8.85914e-08
-1.00738e-05 0.000601406 -3.41117e-08
-8.85914e-08 -3.41117e-08 0.000592038

0.000573709 2.75194e-05 9.8e-08
2.75194e-05 0.00054562 -3.92004e-08
9.8e-08 -3.92004e-08 0.000570058

0.000639707 4.60337e-06 -5.08002e-07
4.60337e-06 0.0006478 -1.965e-07
-5.08002e-07 -1.965e-07 0.000616881

0.000639707 -4.60337e-06 -5.0888e-07
-4.60337e-06 0.0006478 1.95663e-07
-5.0888e-07 1.95663e-07 0.000616879

0.000560316 3.67553e-05 3.04561e-08
3.67553e-05 0.000525171 3.3955e-08
3.04561e-08 3.3955e-08 0.000548555

0.000608178 2.15322e-06 -1.54413e-08
2.15322e-06 0.000620639 1.44685e-08
-1.54413e-08 1.44685e-08 0.000608458

0.000607414 -2.66189e-06 -3.67786e-08
-2.66189e-06 0.000620789 1.25888e-07
-3.67786e-08 1.25888e-07 0.000608486

0.000519522 1.79773e-05 7.62847e-08
1.79773e-05 0.00054871 1.19922e-07
7.62847e-08 1.19922e-07 0.000555615

0.000609569 1.23576e-05 3.04856e-08
1.23576e-05 0.000610761 -1.12939e-07
3.04856e-08 -1.12939e-07 0.000592653

0.000563766 3.29585e-06 -7.26883e-08
3.29585e-06 0.000545654 9.75969e-08
-7.26883e-08 9.75969e-08 0.000575235

0.000564204 -5.71681e-06 -1.10502e-07
-5.71681e-06 0.000534026 7.35739e-08
-1.10502e-07 7.35739e-08 0.000572985

0.000555095 -2.72224e-05 -4.88936e-08
-2.72224e-05 0.000518395 1.15701e-07
-4.88936e-08 1.15701e-07 0.000560969

0.00054781 3.02595e-05 -1.11426e-07
3.02595e-05 0.000588237 -2.50627e-07
-1.11426e-07 -2.50627e-07 0.000558706

0.000549518 -3.17562e-05 -2.49114e-07
-3.17562e-05 0.000586053 9.37788e-08
-2.49114e-07 9.37788e-08 0.000558556

0.000561929 4.80188e-06 1.99852e-08
4.80188e-06 0.000562208 -7.37176e-08
1.99852e-08 -7.37176e-08 0.000578029

0.000552482 7.32399e-06 -1.60212e-08
7.32399e-06 0.000538535 -1.35162e-07
-1.60212e-08 -1.35162e-07 0.000570452

0.000604629 -6.65916e-06 -1.4862e-07
-6.65916e-06 0.000616011 3.0974e-08
-1.4862e-07 3.0974e-08 0.000606697

0.000633689 -7.86664e-07 -1.32719e-07
-7.86664e-07 0.000624818 -2.17141e-08
-1.32719e-07 -2.17141e-08 0.000583063

0.000657294 2.22372e-05 -1.76358e-07
2.22372e-05 0.000555535 7.63288e-08
-1.76358e-07 7.63288e-08 0.000571756

0.000554062 2.90421e-05 -1.41073e-07
2.90421e-05 0.000520873 8.09483e-08
-1.41073e-07 8.09483e-08 0.000560819

0.000595869 -9.34628e-06 2.20911e-08
-9.34628e-06 0.000565305 3.41727e-08
2.20911e-08 3.41727e-08 0.000577986

0.00060425 3.02949e-06 -9.96623e-08
3.02949e-06 0.000581974 7.75424e-08
-9.96623e-08 7.75424e-08 0.000586429

0.000608796 1.44094e-07 -1.9588e-08
1.44094e-07 0.000623534 4.3328e-08
-1.9588e-08 4.3328e-08 0.000610318

0.000608623 -3.43432e-08 1.27201e-07
-3.43432e-08 0.000623439 -7.74896e-08
1.27201e-07 -7.74896e-08 0.000610348

0.000589034 6.48302e-06 -5.30999e-08
6.48302e-06 0.000600144 1.70718e-07
-5.30999e-08 1.70718e-07 0.000597399

0.000598305 -3.50535e-06 1.56422e-08
-3.50535e-06 0.00061366 8.66457e-08
1.56422e-08 8.66457e-08 0.000604766

0.000613795 2.18735e-06 -1.73624e-07
2.18735e-06 0.000625558 1.68753e-07
-1.73624e-07 1.68753e-07 0.000611833

0.000614704 -2.24634e-06 -1.56217e-07
-2.24634e-06 0.000625612 -1.41838e-07
-1.56217e-07 -1.41838e-07 0.000611835

0.000604821 6.26365e-06 2.98848e-08
6.26365e-06 0.000616173 -2.24116e-08
2.98848e-08 -2.24116e-08 0.000606674

0.000594416 4.36999e-06 5.97328e-08
4.36999e-06 0.00059322 -1.84604e-08
5.97328e-08 -1.84604e-08 0.000594622

0.000610951 5.60165e-06 -2.53485e-08
5.60165e-06 0.000621524 1.31245e-08
-2.53485e-08 1.31245e-08 0.000610327

0.000611202 -6.11552e-06 8.77012e-08
-6.11552e-06 0.000621346 1.15373e-07
8.77012e-08 1.15373e-07 0.000610358

0.000562339 1.22101e-05 4.48985e-08
1.22101e-05 0.000515271 4.46446e-08
4.48985e-08 4.46446e-08 0.000565132

0.0006111 -7.11355e-06 6.11392e-08
-7.11355e-06 0.000611625 -5.16576e-08
6.11392e-08 -5.16576e-08 0.000603585

0.000558714 2.05186e-06 -1.16763e-08
2.05186e-06 0.000548878 2.50086e-08
-1.16763e-08 2.50086e-08 0.000573072

0.000526908 2.8491e-05 3.52806e-08
2.8491e-05 0.000539794 -1.21673e-08
3.52806e-08 -1.21673e-08 0.000544528

0.000609965 -8.22379e-06 2.96808e-08
-8.22379e-06 0.000609049 2.20052e-08
2.96808e-08 2.20052e-08 0.000596784

0.000596973 1.03664e-06 9.67382e-08
1.03664e-06 0.000609233 4.38062e-08
9.67382e-08 4.38062e-08 0.00060244

0.000543854 1.78481e-05 1.53687e-08
1.78481e-05 0.000529517 -1.85521e-07
1.53687e-08 -1.85521e-07 0.000566422

0.00056127 -1.00206e-05 1.1401e-07
-1.00206e-05 0.000519674 1.19538e-07
1.1401e-07 1.19538e-07 0.000566112

0.000558004 -2.37135e-06 8.67519e-08
-2.37135e-06 0.000552341 -1.23862e-08
8.67519e-08 -1.23862e-08 0.000575547

0.000549947 -7.16532e-06 1.53787e-08
-7.16532e-06 0.000539795 4.63261e-08
1.53787e-08 4.63261e-08 0.000570749

0.000585823 1.93656e-05 3.49443e-08
1.93656e-05 0.000569971 7.59229e-09
3.49443e-08 7.59229e-09 0.000582528

0.000588956 -1.71368e-05 9.25715e-08
-1.71368e-05 0.000575269 -2.45317e-09
9.25715e-08 -2.45317e-09 0.000584186

0.000589686 -2.05622e-06 -4.19293e-08
-2.05622e-06 0.000600968 -1.21464e-07
-4.19293e-08 -1.21464e-07 0.000597858

0.000518165 -1.91411e-05 3.5442e-08
-1.91411e-05 0.000549105 -4.96321e-08
3.5442e-08 -4.96321e-08 0.000555227

0.000592428 1.3341e-06 1.31926e-07
1.3341e-06 0.000598059 -1.39072e-07
1.31926e-07 -1.39072e-07 0.000596559

0.000590998 -2.4469e-06 9.37384e-08
-2.4469e-06 0.000597591 1.13324e-07
9.37384e-08 1.13324e-07 0.000596396

0.000553898 8.27555e-06 -3.76007e-08
8.27555e-06 0.000538635 -1.36344e-07
-3.76007e-08 -1.36344e-07 0.000567943

0.000566257 2.4035e-05 -9.53639e-08
2.4035e-05 0.000466048 1.54267e-07
-9.53639e-08 1.54267e-07 0.000540555

0.000566898 -2.07328e-05 1.27786e-07
-2.07328e-05 0.000465849 -2.45134e-08
1.27786e-07 -2.45134e-08 0.000540474

0.000576404 1.06017e-05 -1.42298e-07
1.06017e-05 0.000562054 -2.57647e-08
-1.42298e-07 -2.57647e-08 0.00058068

0.000545951 -6.43572e-06 8.60457e-09
-6.43572e-06 0.000553353 -1.95059e-08
8.60457e-09 -1.95059e-08 0.00056994

0.000578447 8.44412e-06 -4.11899e-08
8.44412e-06 0.000578415 1.34462e-07
-4.11899e-08 1.34462e-07 0.000586905

0.00057925 -8.4495e-06 4.25393e-08
-8.4495e-06 0.00057857 5.73001e-09
4.25393e-08 5.73001e-09 0.000587048

0.000594907 8.74434e-07 -6.5169e-08
8.74434e-07 0.000601013 1.9683e-07
-6.5169e-08 1.9683e-07 0.000599408

0.000587877 -5.58008e-06 -1.28681e-07
-5.58008e-06 0.000599758 -1.2709e-07
-1.28681e-07 -1.2709e-07 0.000597164

0.000593181 1.36956e-06 -7.3767e-09
1.36956e-06 0.000606101 1.27576e-07
-7.3767e-09 1.27576e-07 0.000599834

0.000686237 8.67736e-06 3.69506e-07
8.67736e-06 0.000613532 -1.80976e-07
3.69506e-07 -1.80976e-07 0.000579734

0.000687012 -4.29564e-05 1.85146e-07
-4.29564e-05 0.000593894 -3.83093e-08
1.85146e-07 -3.83093e-08 0.000573168

0.000596542 -3.83925e-07 5.24836e-08
-3.83925e-07 0.000609219 -5.28942e-08
5.24836e-08 -5.28942e-08 0.00060267

0.000602684 -3.59544e-06 3.78259e-08
-3.59544e-06 0.000605885 -1.01443e-07
3.78259e-08 -1.01443e-07 0.0005977

0.000607839 3.11411e-06 1.0774e-07
3.11411e-06 0.000619642 -5.14824e-08
1.0774e-07 -5.14824e-08 0.000608699

0.000575838 -1.00528e-05 2.41237e-08
-1.00528e-05 0.000562955 3.93688e-08
2.41237e-08 3.93688e-08 0.000580459

0.000620462 -1.91455e-05 2.59274e-08
-1.91455e-05 0.000607062 3.0143e-08
2.59274e-08 3.0143e-08 0.00059414

0.000548008 5.07556e-05 4.71124e-08
5.07556e-05 0.000522319 -2.15919e-09
4.71124e-08 -2.15919e-09 0.000546301

0.000611637 8.24317e-06 5.18602e-08
8.24317e-06 0.000611867 7.22404e-08
5.18602e-08 7.22404e-08 0.000603661

0.000609927 -8.73135e-06 5.98147e-08
-8.73135e-06 0.000615129 -5.64132e-08
5.98147e-08 -5.64132e-08 0.000603362

0.000553713 1.72262e-05 -7.31779e-08
1.72262e-05 0.000548786 1.07242e-07
-7.31779e-08 1.07242e-07 0.000563065

0.000608912 -1.04413e-07 -1.29638e-07
-1.04413e-07 0.00062752 -1.06452e-08
-1.29638e-07 -1.06452e-08 0.000611205

0.000593099 -4.45771e-07 3.43421e-08
-4.45771e-07 0.000604451 -9.33217e-09
3.43421e-08 -9.33217e-09 0.00059959

0.000525484 -2.86709e-05 -1.20087e-08
-2.86709e-05 0.000540512 9.25249e-08
-1.20087e-08 9.25249e-08 0.000544347

0.000591842 -6.94445e-06 5.11733e-08
-6.94445e-06 0.000607947 1.69219e-07
5.11733e-08 1.69219e-07 0.000599497

0.000558815 -3.12515e-06 1.0038e-07
-3.12515e-06 0.000563795 -9.2387e-08
1.0038e-07 -9.2387e-08 0.00057859

0.000544 -3.23816e-06 -7.36592e-08
-3.23816e-06 0.000548164 1.01844e-07
-7.36592e-08 1.01844e-07 0.00056612

0.000584538 2.78682e-06 -3.81789e-08
2.78682e-06 0.000582883 1.32747e-07
-3.81789e-08 1.32747e-07 0.000589651

0.000584961 -3.13826e-06 -1.02358e-07
-3.13826e-06 0.000582628 -7.21007e-08
-1.02358e-07 -7.21007e-08 0.000589622

0.00059179 2.87044e-06 4.6323e-08
2.87044e-06 0.000607514 -5.07209e-08
4.6323e-08 -5.07209e-08 0.00060036

0.000592861 5.80804e-06 7.10052e-09
5.80804e-06 0.000607354 -2.76036e-07
7.10052e-09 -2.76036e-07 0.000599514

0.00058761 -3.67698e-06 9.35382e-08
-3.67698e-06 0.000577347 -2.18644e-08
9.35382e-08 -2.18644e-08 0.000584959

0.000587278 4.60642e-06 4.19123e-08
4.60642e-06 0.000576085 -1.32342e-07
4.19123e-08 -1.32342e-07 0.000583951

0.000584846 -4.44868e-07 -1.11724e-07
-4.44868e-07 0.000593432 1.36167e-07
-1.11724e-07 1.36167e-07 0.000593823

0.000585371 8.87312e-07 -1.07322e-07
8.87312e-07 0.0005942 -1.37194e-07
-1.07322e-07 -1.37194e-07 0.00059381

0.00061283 2.07316e-06 -1.05156e-07
2.07316e-06 0.000624045 2.97367e-08
-1.05156e-07 2.97367e-08 0.000611268

0.000612883 -1.94518e-06 -1.12873e-07
-1.94518e-06 0.000623972 -3.60662e-08
-1.12873e-07 -3.60662e-08 0.000611273

0.000603247 -9.95111e-06 6.8835e-09
-9.95111e-06 0.000611338 -8.79071e-08
6.8835e-09 -8.79071e-08 0.000600867

0.000540732 -4.60278e-05 -1.01777e-07
-4.60278e-05 0.000525859 6.29943e-08
-1.01777e-07 6.29943e-08 0.000542869

0.000528583 6.6467e-07 -6.5935e-08
6.6467e-07 0.000548391 -7.53501e-08
-6.5935e-08 -7.53501e-08 0.000564908

0.000562529 1.99685e-06 7.02949e-08
1.99685e-06 0.000561276 4.0056e-08
7.02949e-08 4.0056e-08 0.000578588

0.000582261 -4.51288e-06 -8.55585e-08
-4.51288e-06 0.000592704 -2.99866e-08
-8.55585e-08 -2.99866e-08 0.000590421

0.000615526 6.94587e-06 -7.58061e-08
6.94587e-06 0.000623213 2.07745e-08
-7.58061e-08 2.07745e-08 0.000611583

0.000618622 -6.69832e-06 -6.95895e-08
-6.69832e-06 0.000623424 -4.63728e-09
-6.95895e-08 -4.63728e-09 0.000611582

0.000609335 8.6459e-06 -8.04987e-09
8.6459e-06 0.000618003 9.88547e-08
-8.04987e-09 9.88547e-08 0.000607852

0.000608312 -7.81823e-06 -1.81075e-08
-7.81823e-06 0.000618131 -9.32668e-08
-1.81075e-08 -9.32668e-08 0.000607852

0.00057277 -1.27353e-06 8.57456e-08
-1.27353e-06 0.00058146 -1.8771e-08
8.57456e-08 -1.8771e-08 0.000586902

0.000583801 -1.00227e-06 8.65224e-08
-1.00227e-06 0.000592443 2.12965e-08
8.65224e-08 2.12965e-08 0.000593861

0.000581663 5.29722e-06 1.05214e-08
5.29722e-06 0.000593214 -1.14448e-08
1.05214e-08 -1.14448e-08 0.000590366

0.000627727 1.83864e-06 1.49232e-07
1.83864e-06 0.000635146 2.23494e-07
1.49232e-07 2.23494e-07 0.00061549

0.000630347 -2.94953e-07 1.46144e-07
-2.94953e-07 0.000635146 -2.24299e-07
1.46144e-07 -2.24299e-07 0.000615487

0.000601549 -7.48214e-06 1.2191e-07
-7.48214e-06 0.000611926 4.69544e-08
1.2191e-07 4.69544e-08 0.000603822

0.000567407 -2.96805e-06 6.92761e-08
-2.96805e-06 0.000549936 4.29607e-08
6.92761e-08 4.29607e-08 0.000577729

0.000598243 4.025e-06 1.63012e-08
4.025e-06 0.000613784 -7.40044e-08
1.63012e-08 -7.40044e-08 0.00060477

0.000573097 -2.53393e-05 -7.02127e-08
-2.53393e-05 0.000554984 -1.21904e-08
-7.02127e-08 -1.21904e-08 0.000572622

0.000597625 1.28305e-05 -4.27984e-08
1.28305e-05 0.000593071 1.05191e-07
-4.27984e-08 1.05191e-07 0.000590708

0.000556677 1.59952e-06 3.35541e-08
1.59952e-06 0.000557838 -4.14934e-08
3.35541e-08 -4.14934e-08 0.000576055

0.000610659 9.16685e-06 7.49073e-08
9.16685e-06 0.000614879 4.5845e-09
7.49073e-08 4.5845e-09 0.000603432

0.000601529 6.88838e-06 1.90415e-07
6.88838e-06 0.000611939 -1.00339e-07
1.90415e-07 -1.00339e-07 0.000603759

0.000509323 4.58099e-05 6.94037e-09
4.58099e-05 0.000527977 3.12118e-08
6.94037e-09 3.12118e-08 0.000537226

0.000626819 -2.29281e-07 -8.05373e-08
-2.29281e-07 0.000604561 3.71048e-08
-8.05373e-08 3.71048e-08 0.000590559

0.000612865 2.29201e-05 9.10452e-08
2.29201e-05 0.000525682 -5.03203e-09
9.10452e-08 -5.03203e-09 0.000560253

0.000603771 1.08625e-05 7.568e-08
1.08625e-05 0.000611524 5.81266e-08
7.568e-08 5.81266e-08 0.000600955

0.000536495 2.23278e-05 1.22816e-08
2.23278e-05 0.000547297 7.88215e-08
1.22816e-08 7.88215e-08 0.000560947

0.000556314 -2.7218e-06 -3.40977e-08
-2.7218e-06 0.000548896 -6.42562e-08
-3.40977e-08 -6.42562e-08 0.00057401

0.000619397 -1.44627e-05 1.37544e-08
-1.44627e-05 0.000607838 2.05591e-08
1.37544e-08 2.05591e-08 0.000600269

0.000559809 -2.18582e-05 7.18341e-08
-2.18582e-05 0.000551536 6.9775e-08
7.18341e-08 6.9775e-08 0.00057107

0.000572496 1.48383e-05 -1.39383e-07
1.48383e-05 0.000569334 -3.40068e-08
-1.39383e-07 -3.40068e-08 0.000580846

0.000604063 -3.47756e-06 -3.75164e-08
-3.47756e-06 0.000616962 -9.04516e-08
-3.75164e-08 -9.04516e-08 0.00060537

0.000589184 -1.1168e-05 -1.32616e-07
-1.1168e-05 0.000584053 8.46293e-08
-1.32616e-07 8.46293e-08 0.000588926

0.000624418 1.68158e-05 -1.77152e-08
1.68158e-05 0.000605813 -9.60481e-08
-1.77152e-08 -9.60481e-08 0.000594891

0.000568609 2.2382e-06 -1.70285e-07
2.2382e-06 0.00056897 1.1597e-07
-1.70285e-07 1.1597e-07 0.00058311

0.000568983 -1.14539e-06 -1.38014e-07
-1.14539e-06 0.00056169 1.48837e-07
-1.38014e-07 1.48837e-07 0.000581632

0.000601628 3.99273e-06 -3.75558e-08
3.99273e-06 0.000616819 9.45918e-08
-3.75558e-08 9.45918e-08 0.000605373

0.00060427 -8.25037e-07 2.76487e-08
-8.25037e-07 0.000617277 -8.01767e-08
2.76487e-08 -8.01767e-08 0.000606924

0.000643032 2.21876e-06 -4.93822e-07
2.21876e-06 0.000640016 -2.30627e-07
-4.93822e-07 -2.30627e-07 0.000616733

0.000640856 -4.97405e-06 -4.94739e-07
-4.97405e-06 0.000639361 2.29698e-07
-4.94739e-07 2.29698e-07 0.00061673

0.000602581 4.16845e-06 -2.43439e-08
4.16845e-06 0.00060527 9.2841e-09
-2.43439e-08 9.2841e-09 0.000597705

0.000541745 -2.63941e-05 -1.47396e-07
-2.63941e-05 0.000559207 -1.29091e-07
-1.47396e-07 -1.29091e-07 0.000561287

0.000540454 2.69289e-05 1.90234e-07
2.69289e-05 0.000560483 -2.77622e-07
1.90234e-07 -2.77622e-07 0.000561347

0.000569507 -3.67463e-06 -3.46371e-08
-3.67463e-06 0.000504431 4.27871e-08
-3.46371e-08 4.27871e-08 0.000558961

0.000508311 -4.51154e-05 -2.92504e-08
-4.51154e-05 0.000529243 6.7211e-08
-2.92504e-08 6.7211e-08 0.000536873

0.000582499 2.817e-06 -3.76372e-08
2.817e-06 0.00059149 9.99953e-11
-3.76372e-08 9.99953e-11 0.000592994

0.000569377 4.62052e-07 -8.27953e-08
4.62052e-07 0.000561118 3.29057e-08
-8.27953e-08 3.29057e-08 0.000581462

0.000580616 5.14132e-06 6.79459e-10
5.14132e-06 0.000586906 3.81353e-08
6.79459e-10 3.81353e-08 0.000591311

0.000581445 -4.83503e-06 -4.29282e-08
-4.83503e-06 0.000586812 -7.50651e-08
-4.29282e-08 -7.50651e-08 0.000591603

0.000587234 2.22471e-06 -1.96792e-07
2.22471e-06 0.000595149 2.16842e-08
-1.96792e-07 2.16842e-08 0.000595979

0.000618859 1.37757e-05 4.93082e-08
1.37757e-05 0.000608057 -3.72268e-08
4.93082e-08 -3.72268e-08 0.000600258

0.000574386 4.42534e-06 7.23306e-08
4.42534e-06 0.000575305 -1.20117e-07
7.23306e-08 -1.20117e-07 0.000586113

0.000587908 1.20152e-06 3.03119e-08
1.20152e-06 0.000593224 8.72988e-09
3.03119e-08 8.72988e-09 0.000595633

0.000608634 -1.63817e-05 -6.44737e-08
-1.63817e-05 0.000554554 -3.52846e-07
-6.44737e-08 -3.52846e-07 0.000563066

0.000641598 1.70029e-05 1.69977e-07
1.70029e-05 0.000600369 1.91132e-08
1.69977e-07 1.91132e-08 0.00058769

0.000560884 -1.8697e-05 -1.61864e-07
-1.8697e-05 0.000529383 8.1104e-09
-1.61864e-07 8.1104e-09 0.000562767

0.000567986 -3.1367e-06 8.03942e-08
-3.1367e-06 0.00044966 -2.28427e-08
8.03942e-08 -2.28427e-08 0.000533822

0.00058368 -7.41685e-06 -1.00894e-07
-7.41685e-06 0.000594801 -7.38649e-08
-1.00894e-07 -7.38649e-08 0.000593134

0.000582811 6.9803e-06 -1.0113e-07
6.9803e-06 0.000595375 5.75002e-08
-1.0113e-07 5.75002e-08 0.000593303

0.000569352 -2.28595e-06 -2.97878e-08
-2.28595e-06 0.000493901 1.63209e-08
-2.97878e-08 1.63209e-08 0.000558407

0.000593573 1.02252e-05 6.24819e-08
1.02252e-05 0.000601303 -5.84803e-08
6.24819e-08 -5.84803e-08 0.000594995

0.000624442 5.62227e-06 1.2894e-07
5.62227e-06 0.00063079 2.47407e-07
1.2894e-07 2.47407e-07 0.0006144

0.000622542 -6.70426e-06 1.27976e-07
-6.70426e-06 0.000630879 -2.45708e-07
1.27976e-07 -2.45708e-07 0.000614396

0.000546047 -6.92609e-06 2.97724e-08
-6.92609e-06 0.000547996 -1.60969e-07
2.97724e-08 -1.60969e-07 0.000566249

0.000535693 -2.28186e-05 -8.9922e-08
-2.28186e-05 0.000547209 2.55773e-08
-8.9922e-08 2.55773e-08 0.000560749

0.000560827 -1.9888e-05 -1.63033e-07
-1.9888e-05 0.000510972 -3.85731e-09
-1.63033e-07 -3.85731e-09 0.000561211

0.000564843 5.84346e-07 1.48493e-08
5.84346e-07 0.000549943 -5.33875e-08
1.48493e-08 -5.33875e-08 0.000577119

0.000550731 -1.69498e-05 4.90123e-08
-1.69498e-05 0.000549449 8.78196e-08
4.90123e-08 8.78196e-08 0.000562765

0.000569076 -3.94791e-06 1.08355e-07
-3.94791e-06 0.000569274 -8.22584e-08
1.08355e-07 -8.22584e-08 0.00058459

0.000571625 -1.39729e-05 -1.71481e-08
-1.39729e-05 0.000571468 -6.91548e-08
-1.71481e-08 -6.91548e-08 0.00058116

0.000588931 1.03911e-05 -6.00327e-08
1.03911e-05 0.000579955 -1.68253e-07
-6.00327e-08 -1.68253e-07 0.000588397

0.00062868 -1.68215e-05 -6.73045e-08
-1.68215e-05 0.000591657 6.31007e-08
-6.73045e-08 6.31007e-08 0.000580104

0.000621741 1.23085e-05 -1.68354e-07
1.23085e-05 0.000589556 8.67093e-08
-1.68354e-07 8.67093e-08 0.000578673

0.000612903 4.06125e-07 -5.61614e-08
4.06125e-07 0.000628275 -3.42668e-08
-5.61614e-08 -3.42668e-08 0.000612525

0.000612619 -4.66472e-07 -4.98538e-08
-4.66472e-07 0.000628275 4.60776e-08
-4.98538e-08 4.60776e-08 0.00061253

0.000533684 -1.22656e-05 2.19499e-07
-1.22656e-05 0.000545691 -7.73906e-08
2.19499e-07 -7.73906e-08 0.000564162

0.000533085 1.25273e-05 -1.61188e-07
1.25273e-05 0.000547038 1.13511e-07
-1.61188e-07 1.13511e-07 0.000563782

0.000532089 -6.41621e-06 -1.7399e-07
-6.41621e-06 0.000565607 -1.49306e-08
-1.7399e-07 -1.49306e-08 0.000554999

0.000531014 7.38354e-06 2.35747e-07
7.38354e-06 0.000564985 -8.40559e-08
2.35747e-07 -8.40559e-08 0.000554926

0.000637525 -1.44905e-06 2.41252e-07
-1.44905e-06 0.000639606 -1.87626e-07
2.41252e-07 -1.87626e-07 0.000616107

0.000636337 -1.2734e-06 2.39052e-07
-1.2734e-06 0.000638944 1.86772e-07
2.39052e-07 1.86772e-07 0.000616104

0.000622036 8.62663e-06 -6.21166e-08
8.62663e-06 0.000614634 3.22148e-08
-6.21166e-08 3.22148e-08 0.000607001

0.000621122 -8.28317e-06 -4.46954e-08
-8.28317e-06 0.000614793 -7.91998e-08
-4.46954e-08 -7.91998e-08 0.000607007

0.000598932 -2.55222e-06 1.36581e-07
-2.55222e-06 0.000614893 -1.24325e-08
1.36581e-07 -1.24325e-08 0.000604514

0.000577436 -1.00911e-05 -7.12371e-08
-1.00911e-05 0.000559355 -1.92401e-08
-7.12371e-08 -1.92401e-08 0.000575023

0.000593976 2.08511e-06 -8.49761e-08
2.08511e-06 0.00059205 -1.4115e-07
-8.49761e-08 -1.4115e-07 0.000591253

0.000565019 -4.52644e-06 1.02813e-07
-4.52644e-06 0.000554076 -8.9842e-08
1.02813e-07 -8.9842e-08 0.000577577

0.000599377 2.05067e-06 2.12682e-07
2.05067e-06 0.000614983 6.31356e-09
2.12682e-07 6.31356e-09 0.000604454

0.000572974 8.25689e-06 1.00251e-07
8.25689e-06 0.000562975 7.97916e-08
1.00251e-07 7.97916e-08 0.000575095

0.000595682 -3.54817e-06 -5.85034e-08
-3.54817e-06 0.000610951 7.18719e-08
-5.85034e-08 7.18719e-08 0.000601653

0.000495471 -2.86782e-05 4.23779e-08
-2.86782e-05 0.000543688 7.48476e-08
4.23779e-08 7.48476e-08 0.000540858

0.000496212 2.868e-05 -1.92158e-08
2.868e-05 0.000543039 -2.95523e-08
-1.92158e-08 -2.95523e-08 0.000540883

0.000594938 2.94552e-06 -1.30457e-07
2.94552e-06 0.000610763 -1.56383e-07
-1.30457e-07 -1.56383e-07 0.000601588

0.000559222 2.16125e-05 1.08517e-07
2.16125e-05 0.000530262 -1.52698e-07
1.08517e-07 -1.52698e-07 0.000562299

0.000709052 4.8102e-06 9.14584e-08
4.8102e-06 0.000532602 1.33321e-07
9.14584e-08 1.33321e-07 0.000570312

0.00067928 -1.02475e-05 4.28953e-08
-1.02475e-05 0.000638459 -2.64962e-07
4.28953e-08 -2.64962e-07 0.000580849

0.000609954 4.703e-06 2.62601e-08
4.703e-06 0.000598422 5.80643e-08
2.62601e-08 5.80643e-08 0.000593368

0.000544763 -1.62456e-05 3.71505e-08
-1.62456e-05 0.000529648 -6.17311e-08
3.71505e-08 -6.17311e-08 0.000566979

0.000565785 -3.07875e-05 9.15811e-08
-3.07875e-05 0.00051955 6.09952e-08
9.15811e-08 6.09952e-08 0.000552191

0.000582055 -1.66533e-06 1.6221e-08
-1.66533e-06 0.000586388 -1.09492e-07
1.6221e-08 -1.09492e-07 0.000591938

0.000579919 4.86265e-07 1.3347e-07
4.86265e-07 0.000595012 3.59481e-08
1.3347e-07 3.59481e-08 0.000593874

0.000619093 3.14187e-06 1.03846e-07
3.14187e-06 0.000625526 1.644e-07
1.03846e-07 1.644e-07 0.000613082

0.000619104 -3.11324e-06 1.00464e-07
-3.11324e-06 0.000625529 -1.30741e-07
1.00464e-07 -1.30741e-07 0.000613083

0.000565671 3.09986e-05 -1.13839e-07
3.09986e-05 0.000520761 9.08523e-08
-1.13839e-07 9.08523e-08 0.000552244

0.000595245 -3.69391e-06 -8.71052e-08
-3.69391e-06 0.000591828 1.1855e-07
-8.71052e-08 1.1855e-07 0.00059181

0.000596457 -6.48051e-06 9.37144e-08
-6.48051e-06 0.000610409 -4.44099e-08
9.37144e-08 -4.44099e-08 0.000602438

0.000612536 9.35006e-06 8.30075e-08
9.35006e-06 0.00062047 1.8082e-07
8.30075e-08 1.8082e-07 0.00060874

0.000610916 -1.00102e-05 8.81221e-08
-1.00102e-05 0.000620815 -1.98095e-07
8.81221e-08 -1.98095e-07 0.000608737

0.000574234 -4.55162e-05 1.04556e-07
-4.55162e-05 0.000550726 -8.88261e-08
1.04556e-07 -8.88261e-08 0.000558628

0.00057388 4.61093e-05 -1.03769e-07
4.61093e-05 0.000552096 2.62618e-08
-1.03769e-07 2.62618e-08 0.000558598

0.000605761 1.34806e-05 -1.90943e-08
1.34806e-05 0.000606181 3.97785e-08
-1.90943e-08 3.97785e-08 0.000596624

0.000555979 -5.78025e-06 1.45833e-07
-5.78025e-06 0.000539276 2.76866e-08
1.45833e-07 2.76866e-08 0.000568515

0.000614068 8.31819e-06 -1.79434e-07
8.31819e-06 0.000627852 -9.0692e-08
-1.79434e-07 -9.0692e-08 0.000612307

0.000614924 -6.73624e-06 -1.62026e-07
-6.73624e-06 0.000627705 9.38749e-08
-1.62026e-07 9.38749e-08 0.000612305

0.000578881 -2.02999e-05 1.27395e-08
-2.02999e-05 0.00054518 -6.98682e-08
1.27395e-08 -6.98682e-08 0.000563535

0.000551803 -3.87832e-05 -9.06511e-08
-3.87832e-05 0.000525884 7.75356e-08
-9.06511e-08 7.75356e-08 0.000544967

0.000575991 -5.75185e-06 -2.12453e-08
-5.75185e-06 0.000584498 5.26949e-08
-2.12453e-08 5.26949e-08 0.000590553

0.000516626 2.90608e-06 -1.95012e-08
2.90608e-06 0.00056404 -2.8978e-08
-1.95012e-08 -2.8978e-08 0.00055207

0.000516335 -2.55909e-06 -4.49323e-08
-2.55909e-06 0.000563748 -1.02404e-07
-4.49323e-08 -1.02404e-07 0.000552039

0.000544186 -3.85229e-05 2.45465e-08
-3.85229e-05 0.000537076 -6.60949e-08
2.45465e-08 -6.60949e-08 0.000557631

0.000595629 6.64999e-06 3.95838e-08
6.64999e-06 0.000609988 1.46659e-07
3.95838e-08 1.46659e-07 0.000602604

0.000544938 7.64798e-06 4.78594e-09
7.64798e-06 0.000548295 3.39078e-09
4.78594e-09 3.39078e-09 0.000565749

0.000524325 2.38884e-06 1.49634e-07
2.38884e-06 0.000553433 1.58507e-07
1.49634e-07 1.58507e-07 0.000559426

0.000524289 -3.08199e-06 -1.77764e-07
-3.08199e-06 0.000554345 5.10213e-08
-1.77764e-07 5.10213e-08 0.000559269

0.000559209 2.41303e-05 1.08088e-07
2.41303e-05 0.000506601 2.04472e-08
1.08088e-07 2.04472e-08 0.000560419

0.000618471 3.98651e-06 1.75809e-07
3.98651e-06 0.000632484 -1.93283e-07
1.75809e-07 -1.93283e-07 0.000614321

0.000618471 -3.98651e-06 1.6521e-07
-3.98651e-06 0.000632484 1.91069e-07
1.6521e-07 1.91069e-07 0.000614318

0.000644259 -1.18983e-06 3.97219e-07
-1.18983e-06 0.000611636 -1.77244e-07
3.97219e-07 -1.77244e-07 0.000575493

0.000641121 2.20452e-05 -1.37489e-07
2.20452e-05 0.000612227 -8.17425e-08
-1.37489e-07 -8.17425e-08 0.000579544

0.000572329 1.87265e-06 2.20265e-07
1.87265e-06 0.000582579 -2.24791e-09
2.20265e-07 -2.24791e-09 0.000587597

0.000576738 -1.18749e-06 1.59361e-09
-1.18749e-06 0.000560247 -1.34843e-07
1.59361e-09 -1.34843e-07 0.000581239

0.000607876 9.11608e-06 -1.70617e-07
9.11608e-06 0.000619312 -1.93361e-07
-1.70617e-07 -1.93361e-07 0.000606312

0.000608636 -9.08585e-06 -1.61317e-07
-9.08585e-06 0.000619107 1.96877e-07
-1.61317e-07 1.96877e-07 0.000606314

0.000609379 9.84891e-06 3.58329e-08
9.84891e-06 0.000609347 -3.53351e-08
3.58329e-08 -3.53351e-08 0.000597554

0.000577454 2.01632e-06 -3.35025e-08
2.01632e-06 0.000583575 -7.81641e-08
-3.35025e-08 -7.81641e-08 0.000589461

0.000585253 -9.73547e-07 1.10478e-07
-9.73547e-07 0.00058576 7.31666e-08
1.10478e-07 7.31666e-08 0.000593102

0.000640178 -8.18155e-06 -4.60295e-08
-8.18155e-06 0.000645749 -1.77951e-07
-4.60295e-08 -1.77951e-07 0.000616983

0.000636717 2.8656e-06 -4.49836e-08
2.8656e-06 0.000646404 1.77139e-07
-4.49836e-08 1.77139e-07 0.000616986

0.000526921 -3.86831e-07 9.19839e-08
-3.86831e-07 0.000547696 7.77683e-08
9.19839e-08 7.77683e-08 0.000564411

0.000601692 7.09657e-06 -7.06464e-09
7.09657e-06 0.000605208 5.46265e-08
-7.06464e-09 5.46265e-08 0.000600406

0.000609241 5.4364e-06 -2.09863e-07
5.4364e-06 0.000617289 2.8403e-08
-2.09863e-07 2.8403e-08 0.000606404

0.000609447 -6.61051e-06 -1.99783e-07
-6.61051e-06 0.000617676 -4.83924e-08
-1.99783e-07 -4.83924e-08 0.000606405

0.000601817 4.56232e-06 6.11326e-08
4.56232e-06 0.000611715 -3.58687e-08
6.11326e-08 -3.58687e-08 0.000601877

0.000601078 -6.37687e-06 -3.00133e-08
-6.37687e-06 0.00060468 2.27838e-08
-3.00133e-08 2.27838e-08 0.000600393

0.000574991 -2.34771e-07 -6.23999e-08
-2.34771e-07 0.000584406 2.10499e-08
-6.23999e-08 2.10499e-08 0.000588045

0.000574996 -1.15683e-07 6.45177e-08
-1.15683e-07 0.000585702 -8.89246e-08
6.45177e-08 -8.89246e-08 0.000588354

0.000585208 -1.45794e-06 -1.58319e-07
-1.45794e-06 0.000600598 1.85847e-07
-1.58319e-07 1.85847e-07 0.000596979

0.000601038 -3.97086e-06 -1.6921e-08
-3.97086e-06 0.000611738 4.17586e-08
-1.6921e-08 4.17586e-08 0.000601865

0.000575046 -4.31183e-06 2.04417e-07
-4.31183e-06 0.000575622 7.79127e-08
2.04417e-07 7.79127e-08 0.000586821

0.000565746 2.29719e-06 -1.22214e-07
2.29719e-06 0.000559246 -1.07661e-07
-1.22214e-07 -1.07661e-07 0.00057952

0.000617128 8.28813e-06 1.004e-07
8.28813e-06 0.000619247 -2.50834e-07
1.004e-07 -2.50834e-07 0.000608805

0.00061662 -8.43035e-06 1.16093e-07
-8.43035e-06 0.000619063 2.50491e-07
1.16093e-07 2.50491e-07 0.000608804

0.00061506 5.69061e-06 1.89512e-07
5.69061e-06 0.000625615 5.33971e-08
1.89512e-07 5.33971e-08 0.000610285

0.000614553 -5.80256e-06 2.05495e-07
-5.80256e-06 0.00062568 -5.94518e-08
2.05495e-07 -5.94518e-08 0.000610283

0.000569082 -3.62116e-06 1.08887e-07
-3.62116e-06 0.000576774 -7.52238e-08
1.08887e-07 -7.52238e-08 0.000585455

0.00056952 -4.20006e-06 3.042e-08
-4.20006e-06 0.000569231 -8.8472e-08
3.042e-08 -8.8472e-08 0.000582349

0.00060547 -9.6029e-06 -5.41241e-08
-9.6029e-06 0.00061543 5.61388e-08
-5.41241e-08 5.61388e-08 0.000604675

0.000602756 9.24271e-06 -5.60665e-08
9.24271e-06 0.000615152 -8.06186e-08
-5.60665e-08 -8.06186e-08 0.000604675

0.000644249 -5.92067e-06 3.64947e-07
-5.92067e-06 0.000553215 -3.77855e-07
3.64947e-07 -3.77855e-07 0.000574463

0.000634174 -3.35078e-07 -1.18562e-07
-3.35078e-07 0.000602414 3.59143e-08
-1.18562e-07 3.59143e-08 0.000582896

0.000618661 5.49221e-06 -6.32195e-08
5.49221e-06 0.000624325 2.90596e-08
-6.32195e-08 2.90596e-08 0.000609722

0.000618317 -5.42914e-06 -6.05748e-08
-5.42914e-06 0.000624314 -2.96215e-08
-6.05748e-08 -2.96215e-08 0.000609719

0.00062396 3.38823e-06 7.44813e-08
3.38823e-06 0.000630152 -2.49208e-07
7.44813e-08 -2.49208e-07 0.000614013

0.000621671 -2.71101e-06 7.43227e-08
-2.71101e-06 0.000630102 2.41231e-07
7.43227e-08 2.41231e-07 0.000614009

0.00053183 -6.92744e-06 1.03284e-07
-6.92744e-06 0.000554229 5.51779e-08
1.03284e-07 5.51779e-08 0.000558967

0.000533407 6.91128e-06 4.55459e-08
6.91128e-06 0.000553149 1.61686e-07
4.55459e-08 1.61686e-07 0.000559326

0.000613058 -3.81825e-05 -1.20285e-07
-3.81825e-05 0.000561392 1.88287e-07
-1.20285e-07 1.88287e-07 0.00056006

0.000536628 1.85101e-06 -6.60469e-08
1.85101e-06 0.000569933 1.2294e-07
-6.60469e-08 1.2294e-07 0.000552616

0.00062781 1.66018e-06 -1.71025e-07
1.66018e-06 0.000635715 -5.93649e-08
-1.71025e-07 -5.93649e-08 0.00061571

0.00063799 -3.31284e-06 -4.74388e-08
-3.31284e-06 0.000636201 -1.73732e-07
-4.74388e-08 -1.73732e-07 0.000616493

0.000626101 -1.13047e-06 -1.66321e-07
-1.13047e-06 0.000635874 6.15406e-08
-1.66321e-07 6.15406e-08 0.000615712

0.000639371 5.11043e-06 -4.65857e-08
5.11043e-06 0.000636061 1.72343e-07
-4.65857e-08 1.72343e-07 0.000616495

0.000640046 2.33221e-05 2.03578e-07
2.33221e-05 0.000623674 -3.06676e-07
2.03578e-07 -3.06676e-07 0.000586192

0.000536046 -1.83341e-06 2.166e-08
-1.83341e-06 0.00057 1.17622e-07
2.166e-08 1.17622e-07 0.000552654

0.000633637 -4.95529e-07 2.36401e-07
-4.95529e-07 0.000639053 4.81243e-07
2.36401e-07 4.81243e-07 0.000614965

0.000659425 -8.33313e-06 2.01777e-06
-8.33313e-06 0.000642121 -1.71992e-06
2.01777e-06 -1.71992e-06 0.000616884

0.000659425 8.33313e-06 2.01913e-06
8.33313e-06 0.000642121 1.71946e-06
2.01913e-06 1.71946e-06 0.000616886

0.000633637 1.81937e-06 2.38138e-07
1.81937e-06 0.000634468 -4.80523e-07
2.38138e-07 -4.80523e-07 0.000614968

0.000635377 -2.29629e-06 -9.66209e-08
-2.29629e-06 0.000629597 -2.35467e-08
-9.66209e-08 -2.35467e-08 0.000614342

0.000625287 -8.84257e-06 -9.57943e-08
-8.84257e-06 0.000625351 -2.29994e-08
-9.57943e-08 -2.29994e-08 0.000612533

0.000635174 -3.3394e-06 4.48268e-08
-3.3394e-06 0.000643606 -6.78562e-07
4.48268e-08 -6.78562e-07 0.000616274

0.000635377 2.24974e-06 -9.45244e-08
2.24974e-06 0.000629165 2.37229e-08
-9.45244e-08 2.37229e-08 0.000614345

0.000635174 3.3394e-06 4.68604e-08
3.3394e-06 0.000643606 6.78447e-07
4.68604e-08 6.78447e-07 0.000616276

0.000625287 8.55269e-06 -9.38783e-08
8.55269e-06 0.000625242 2.3295e-08
-9.38783e-08 2.3295e-08 0.000612536

0.000626113 3.26042e-06 -8.19664e-08
3.26042e-06 0.000631042 -1.22667e-07
-8.19664e-08 -1.22667e-07 0.000613716

0.000628812 6.36553e-06 1.16177e-07
6.36553e-06 0.000632714 -6.09584e-08
1.16177e-07 -6.09584e-08 0.000615355

0.000626113 -3.56501e-06 -8.40641e-08
-3.56501e-06 0.000630791 1.20735e-07
-8.40641e-08 1.20735e-07 0.000613712

0.000631903 -6.82023e-06 1.13188e-07
-6.82023e-06 0.000632257 5.93047e-08
1.13188e-07 5.93047e-08 0.000615351

0.000329427 4.25217e-05 7.37982e-08
4.25217e-05 0.000426424 -9.13401e-08
7.37982e-08 -9.13401e-08 0.000370681

0.000462204 6.76505e-06 -3.85538e-08
6.76505e-06 0.000495874 2.98115e-08
-3.85538e-08 2.98115e-08 0.000468482

0.00036948 1.25061e-05 -7.01598e-08
1.25061e-05 0.000494779 3.14956e-08
-7.01598e-08 3.14956e-08 0.000440249

0.000460285 2.2076e-05 -1.28554e-08
2.2076e-05 0.000328177 4.53116e-08
-1.28554e-08 4.53116e-08 0.000394532

0.000444821 6.27503e-06 -3.84553e-08
6.27503e-06 0.000315468 3.12206e-08
-3.84553e-08 3.12206e-08 0.000366505

0.000464068 -4.83483e-06 -3.26952e-08
-4.83483e-06 0.000513493 -3.83444e-08
-3.26952e-08 -3.83444e-08 0.000499465

0.000368125 1.86739e-05 -7.07638e-08
1.86739e-05 0.000534581 3.85016e-08
-7.07638e-08 3.85016e-08 0.000465886

0.000447995 -5.99966e-06 -2.94564e-08
-5.99966e-06 0.000328254 -3.3331e-08
-2.94564e-08 -3.3331e-08 0.000369144

0.000517989 4.88419e-06 3.86837e-08
4.88419e-06 0.00036076 7.25777e-11
3.86837e-08 7.25777e-11 0.000445622

0.00026981 3.82507e-05 3.00012e-08
3.82507e-05 0.000352714 8.81774e-08
3.00012e-08 8.81774e-08 0.000296374

0.000290374 -6.21101e-05 1.02328e-07
-6.21101e-05 0.00035702 -1.33266e-07
1.02328e-07 -1.33266e-07 0.000294482

0.000361383 3.79362e-05 5.6481e-08
3.79362e-05 0.000281717 1.04526e-07
5.6481e-08 1.04526e-07 0.0003013

0.000475788 -7.0689e-05 3.54766e-09
-7.0689e-05 0.000519165 3.66234e-08
3.54766e-09 3.66234e-08 0.000489618

0.00044244 -2.46463e-05 -1.51654e-07
-2.46463e-05 0.000512551 -6.8864e-08
-1.51654e-07 -6.8864e-08 0.000474144

0.000329352 3.66079e-05 7.49248e-08
3.66079e-05 0.000443617 8.79517e-08
7.49248e-08 8.79517e-08 0.000399486

0.000347348 4.21987e-05 -1.37375e-07
4.21987e-05 0.000479537 -1.02342e-07
-1.37375e-07 -1.02342e-07 0.000439446

0.000366078 -2.04237e-05 5.13646e-08
-2.04237e-05 0.000535911 -1.92936e-07
5.13646e-08 -1.92936e-07 0.000464297

0.000438941 -5.28898e-05 8.12056e-08
-5.28898e-05 0.000511141 -1.05869e-08
8.12056e-08 -1.05869e-08 0.000483477

0.00046 -3.763e-05 -1.43647e-07
-3.763e-05 0.00034006 3.93028e-08
-1.43647e-07 3.93028e-08 0.000412045

0.000284223 1.17789e-05 9.31124e-08
1.17789e-05 0.000401176 -3.43316e-08
9.31124e-08 -3.43316e-08 0.000319965

0.000317177 -2.42283e-05 1.20854e-07
-2.42283e-05 0.000403682 -9.77071e-08
1.20854e-07 -9.77071e-08 0.00032578

0.000397034 8.41037e-06 1.30123e-07
8.41037e-06 0.000304963 5.70878e-08
1.30123e-07 5.70878e-08 0.000323107

0.00033916 4.98325e-05 -9.98549e-08
4.98325e-05 0.000398373 1.00595e-07
-9.98549e-08 1.00595e-07 0.00036843

0.000414915 -3.41948e-05 -1.2644e-07
-3.41948e-05 0.000309852 -7.59828e-08
-1.2644e-07 -7.59828e-08 0.00034511

0.000388536 5.44446e-05 -3.62132e-08
5.44446e-05 0.00039872 1.03924e-07
-3.62132e-08 1.03924e-07 0.000394724

0.000405213 3.85077e-05 -9.68545e-10
3.85077e-05 0.000431966 4.65487e-08
-9.68545e-10 4.65487e-08 0.000393811

0.00047355 -1.13495e-05 -3.31723e-08
-1.13495e-05 0.000328455 -3.18497e-08
-3.31723e-08 -3.18497e-08 0.000399107

0.000264752 2.60661e-05 2.10301e-08
2.60661e-05 0.000324925 7.15547e-08
2.10301e-08 7.15547e-08 0.000264522

0.000497007 1.28078e-05 1.0775e-08
1.28078e-05 0.000351956 6.0948e-10
1.0775e-08 6.0948e-10 0.000436073

0.000323074 2.39166e-05 6.32306e-08
2.39166e-05 0.000278155 1.08359e-07
6.32306e-08 1.08359e-07 0.000269651

0.000500557 -2.40017e-05 1.1185e-08
-2.40017e-05 0.00052288 -5.54011e-08
1.1185e-08 -5.54011e-08 0.000503038

0.000440892 3.25355e-06 2.302e-07
3.25355e-06 0.000535574 -7.84844e-08
2.302e-07 -7.84844e-08 0.000475338

0.000553669 -2.6263e-05 8.63767e-08
-2.6263e-05 0.000510167 -2.05829e-07
8.63767e-08 -2.05829e-07 0.000503599

0.000526059 6.20032e-05 1.2205e-07
6.20032e-05 0.000533129 5.03246e-08
1.2205e-07 5.03246e-08 0.00050427

0.000389576 -1.67035e-05 -1.08809e-07
-1.67035e-05 0.000298469 -8.52365e-08
-1.08809e-07 -8.52365e-08 0.000309804

0.000380246 5.75624e-05 -1.68691e-07
5.75624e-05 0.000417699 -5.27989e-08
-1.68691e-07 -5.27989e-08 0.000417693

0.000473691 3.28765e-05 -3.45466e-08
3.28765e-05 0.000463954 -1.84001e-08
-3.45466e-08 -1.84001e-08 0.000475534

0.000490773 -9.16193e-06 -1.17053e-07
-9.16193e-06 0.000477672 1.23423e-07
-1.17053e-07 1.23423e-07 0.0004774

0.000520418 4.76852e-06 2.6405e-08
4.76852e-06 0.00035262 -8.07005e-11
2.6405e-08 -8.07005e-11 0.000447105

0.000384539 5.41998e-05 7.28352e-08
5.41998e-05 0.000426865 -5.18314e-08
7.28352e-08 -5.18314e-08 0.000389376

0.000411195 -4.31193e-05 -1.03959e-07
-4.31193e-05 0.000355629 7.35001e-08
-1.03959e-07 7.35001e-08 0.000355291

0.0005187 -5.47591e-07 3.78779e-08
-5.47591e-07 0.000337678 1.39009e-08
3.78779e-08 1.39009e-08 0.000437548

0.00035587 -7.36622e-05 -9.19516e-08
-7.36622e-05 0.000425633 -1.06837e-08
-9.19516e-08 -1.06837e-08 0.000367724

0.000364938 -6.41628e-05 2.03222e-08
-6.41628e-05 0.000435578 1.09872e-07
2.03222e-08 1.09872e-07 0.000374709

0.00046462 3.2905e-05 -7.86054e-08
3.2905e-05 0.000491638 -8.03491e-08
-7.86054e-08 -8.03491e-08 0.000477649

0.000373335 -7.34555e-05 -1.41987e-08
-7.34555e-05 0.000350678 8.12397e-08
-1.41987e-08 8.12397e-08 0.000334887

0.000223373 -7.35373e-05 6.64867e-08
-7.35373e-05 0.000217888 -4.70786e-08
6.64867e-08 -4.70786e-08 0.000218016

0.000214745 -7.80015e-05 -6.97559e-08
-7.80015e-05 0.000236078 -8.19671e-09
-6.97559e-08 -8.19671e-09 0.000221132

0.000423695 -8.60056e-05 1.73632e-08
-8.60056e-05 0.000515034 4.18532e-08
1.73632e-08 4.18532e-08 0.000473942

0.000220579 -2.90506e-05 -7.2579e-08
-2.90506e-05 0.000215158 -5.61495e-08
-7.2579e-08 -5.61495e-08 0.000233326

0.000206446 -2.44171e-05 1.21341e-07
-2.44171e-05 0.000222668 -4.4432e-08
1.21341e-07 -4.4432e-08 0.000229374

0.000555835 3.71168e-05 1.3252e-07
3.71168e-05 0.000481086 -4.29723e-08
1.3252e-07 -4.29723e-08 0.000517615

0.000515863 -4.8889e-05 -3.45267e-09
-4.8889e-05 0.000465076 1.54093e-07
-3.45267e-09 1.54093e-07 0.000481064

0.000474117 -2.53564e-05 2.98423e-08
-2.53564e-05 0.000347072 1.01814e-07
2.98423e-08 1.01814e-07 0.000434564

0.0005527 5.03056e-05 1.22989e-07
5.03056e-05 0.000450763 2.40957e-08
1.22989e-07 2.40957e-08 0.000512323

0.000510413 -6.85017e-05 -6.58823e-08
-6.85017e-05 0.000458947 -2.85259e-07
-6.58823e-08 -2.85259e-07 0.000481148

0.000404985 3.8291e-05 4.16331e-09
3.8291e-05 0.000462377 1.10892e-07
4.16331e-09 1.10892e-07 0.000426554

0.000549981 -2.39884e-05 1.3375e-07
-2.39884e-05 0.000475953 -9.02021e-08
1.3375e-07 -9.02021e-08 0.000496421

0.000517771 3.1679e-05 6.28838e-08
3.1679e-05 0.000496958 3.55837e-08
6.28838e-08 3.55837e-08 0.000496966

0.000509799 5.85577e-05 -7.22113e-08
5.85577e-05 0.000431035 -4.94273e-11
-7.22113e-08 -4.94273e-11 0.000481046

0.000469464 -7.51976e-05 2.08253e-08
-7.51976e-05 0.000417554 -1.40507e-07
2.08253e-08 -1.40507e-07 0.000454283

0.00034615 -5.08703e-05 1.49582e-07
-5.08703e-05 0.000275796 3.76249e-08
1.49582e-07 3.76249e-08 0.000286278

0.000523074 -1.45938e-05 -3.439e-08
-1.45938e-05 0.000564713 2.05423e-08
-3.439e-08 2.05423e-08 0.000541251

0.000463698 -2.9274e-06 -3.14992e-08
-2.9274e-06 0.000592662 -5.03611e-08
-3.14992e-08 -5.03611e-08 0.00049392

0.000339174 -6.26008e-05 -3.62746e-08
-6.26008e-05 0.000401242 3.31995e-08
-3.62746e-08 3.31995e-08 0.000371155

0.000253574 -2.17101e-05 -5.52738e-08
-2.17101e-05 0.000316156 8.8267e-08
-5.52738e-08 8.8267e-08 0.000261545

0.000310176 -1.97996e-05 1.57328e-07
-1.97996e-05 0.000250416 3.24891e-08
1.57328e-07 3.24891e-08 0.000257216

0.00042538 2.42425e-05 7.08898e-08
2.42425e-05 0.000489728 -4.85727e-08
7.08898e-08 -4.85727e-08 0.000459393

0.000337768 3.61226e-05 5.41258e-08
3.61226e-05 0.000477218 -5.75182e-08
5.41258e-08 -5.75182e-08 0.000428989

0.000658998 4.81819e-05 2.27895e-07
4.81819e-05 0.000522256 -8.18454e-08
2.27895e-07 -8.18454e-08 0.000552358

0.000623367 1.51944e-05 -3.37565e-07
1.51944e-05 0.000670625 -6.81264e-07
-3.37565e-07 -6.81264e-07 0.00050902

0.000368653 5.44624e-05 -2.01294e-08
5.44624e-05 0.000451925 1.14721e-07
-2.01294e-08 1.14721e-07 0.000453261

0.000491783 4.34631e-05 4.951e-08
4.34631e-05 0.000379995 6.00711e-08
4.951e-08 6.00711e-08 0.000449864

0.000467391 -6.642e-05 -9.09165e-08
-6.642e-05 0.000374367 -2.04812e-08
-9.09165e-08 -2.04812e-08 0.000434821

0.000381606 7.54854e-05 8.67818e-08
7.54854e-05 0.000442493 4.86415e-08
8.67818e-08 4.86415e-08 0.000448727

0.000374386 -5.72667e-05 -5.9695e-08
-5.72667e-05 0.000497453 -3.29587e-08
-5.9695e-08 -3.29587e-08 0.000463618

0.000386865 -5.63652e-06 -1.34533e-07
-5.63652e-06 0.000275334 9.30743e-08
-1.34533e-07 9.30743e-08 0.000306235

0.000448144 -2.18739e-05 -7.69446e-08
-2.18739e-05 0.000326569 3.52922e-09
-7.69446e-08 3.52922e-09 0.00038297

0.000409423 2.66875e-05 -1.76093e-07
2.66875e-05 0.0003073 6.66774e-08
-1.76093e-07 6.66774e-08 0.000338903

0.000477352 2.97927e-05 -4.3516e-08
2.97927e-05 0.000419956 2.11571e-08
-4.3516e-08 2.11571e-08 0.00046629

0.00045365 1.90432e-05 -1.37579e-08
1.90432e-05 0.000588574 1.13331e-07
-1.37579e-08 1.13331e-07 0.000508005

0.000520868 -1.49077e-05 -2.41002e-08
-1.49077e-05 0.000529696 -2.61016e-07
-2.41002e-08 -2.61016e-07 0.000507478

0.0003278 4.3241e-05 -3.59341e-08
4.3241e-05 0.000351745 9.27449e-08
-3.59341e-08 9.27449e-08 0.000311353

0.000406777 -5.57687e-05 3.08131e-08
-5.57687e-05 0.000384798 -5.91052e-08
3.08131e-08 -5.91052e-08 0.000387113

0.000468938 2.99814e-05 -4.82094e-08
2.99814e-05 0.000373097 -1.86194e-08
-4.82094e-08 -1.86194e-08 0.000424556

0.00049924 3.25365e-05 4.81599e-07
3.25365e-05 0.000607812 7.44499e-08
4.81599e-07 7.44499e-08 0.000499717

0.000517917 -2.22705e-05 1.47364e-07
-2.22705e-05 0.000561283 6.47539e-08
1.47364e-07 6.47539e-08 0.000538148

0.000494053 -8.07509e-06 -1.53911e-07
-8.07509e-06 0.000421444 -4.18946e-08
-1.53911e-07 -4.18946e-08 0.000469713

0.000440135 -4.3166e-05 8.26226e-08
-4.3166e-05 0.000494814 1.36789e-08
8.26226e-08 1.36789e-08 0.000455524

0.000367238 -1.42311e-05 7.08504e-08
-1.42311e-05 0.000498408 6.30657e-08
7.08504e-08 6.30657e-08 0.000439158

0.000502156 9.73672e-06 1.07264e-07
9.73672e-06 0.000343683 -5.03298e-09
1.07264e-07 -5.03298e-09 0.000458307

0.000494729 -2.99404e-05 1.25399e-07
-2.99404e-05 0.000344682 4.17029e-08
1.25399e-07 4.17029e-08 0.000452188

0.000350755 -6.1168e-05 -1.15436e-07
-6.1168e-05 0.000323174 1.51881e-07
-1.15436e-07 1.51881e-07 0.000310876

0.000528972 3.74803e-05 -1.03983e-07
3.74803e-05 0.000379602 -1.55658e-07
-1.03983e-07 -1.55658e-07 0.000484249

0.000508496 -5.84689e-05 1.73465e-07
-5.84689e-05 0.00038991 -6.91451e-08
1.73465e-07 -6.91451e-08 0.000466467

0.000457536 -5.2299e-05 -1.44575e-07
-5.2299e-05 0.000356946 2.77441e-08
-1.44575e-07 2.77441e-08 0.000412668

0.000340284 -5.27769e-05 -2.35473e-08
-5.27769e-05 0.000424699 4.95877e-08
-2.35473e-08 4.95877e-08 0.000375426

0.000495519 2.28642e-05 9.59379e-08
2.28642e-05 0.000385657 5.36097e-08
9.59379e-08 5.36097e-08 0.000464678

0.000489186 -4.21909e-05 1.16247e-07
-4.21909e-05 0.000377096 -8.50343e-09
1.16247e-07 -8.50343e-09 0.000451822

0.000467371 -1.37244e-05 -2.29186e-08
-1.37244e-05 0.000368609 -5.43443e-08
-2.29186e-08 -5.43443e-08 0.000410532

0.000504537 6.58953e-05 1.31644e-07
6.58953e-05 0.000472444 1.18137e-07
1.31644e-07 1.18137e-07 0.000490861

0.000387722 4.35275e-05 -1.35494e-08
4.35275e-05 0.000358407 -3.14589e-09
-1.35494e-08 -3.14589e-09 0.00035527

0.000376229 6.58396e-05 9.20742e-08
6.58396e-05 0.000436148 6.56887e-08
9.20742e-08 6.56887e-08 0.000456593

0.000475715 4.86504e-05 -3.21527e-08
4.86504e-05 0.000511583 7.17683e-09
-3.21527e-08 7.17683e-09 0.000504146

0.000429162 2.42207e-05 -9.58247e-08
2.42207e-05 0.000312717 -4.75426e-08
-9.58247e-08 -4.75426e-08 0.000360528

0.00044332 -3.23498e-05 4.38774e-08
-3.23498e-05 0.000403821 -1.27607e-07
4.38774e-08 -1.27607e-07 0.000432395

0.000454299 2.02505e-05 2.52468e-08
2.02505e-05 0.000358493 1.43469e-07
2.52468e-08 1.43469e-07 0.000403485

0.0003395 5.23719e-05 -1.03234e-07
5.23719e-05 0.000358647 3.09274e-08
-1.03234e-07 3.09274e-08 0.000342171

0.000389473 4.93922e-05 -2.73731e-08
4.93922e-05 0.000366561 -1.40379e-08
-2.73731e-08 -1.40379e-08 0.000384223

0.00032469 6.45835e-07 3.12024e-08
6.45835e-07 0.000494436 8.36678e-08
3.12024e-08 8.36678e-08 0.000424562

0.000398044 -2.15547e-05 6.72813e-09
-2.15547e-05 0.000483719 5.31178e-08
6.72813e-09 5.31178e-08 0.000444103

0.00035086 -6.16179e-05 -1.03584e-07
-6.16179e-05 0.000281845 -1.39095e-07
-1.03584e-07 -1.39095e-07 0.000299853

0.000402614 -8.39267e-05 -5.29699e-08
-8.39267e-05 0.000482008 -1.24916e-09
-5.29699e-08 -1.24916e-09 0.000447784

0.000343427 -7.43814e-05 -2.53023e-08
-7.43814e-05 0.000381285 -3.57672e-08
-2.53023e-08 -3.57672e-08 0.000344987

0.000386552 6.0297e-05 5.7305e-08
6.0297e-05 0.000388687 -1.81228e-07
5.7305e-08 -1.81228e-07 0.000359231

0.000451021 -2.72885e-05 -2.65206e-08
-2.72885e-05 0.000387785 -6.22465e-08
-2.65206e-08 -6.22465e-08 0.000407373

0.000528383 -2.16821e-06 1.20267e-08
-2.16821e-06 0.000364581 2.6279e-08
1.20267e-08 2.6279e-08 0.000463874

0.000513255 8.74547e-06 2.05329e-08
8.74547e-06 0.00037349 -7.36121e-09
2.05329e-08 -7.36121e-09 0.000462405

0.000293886 2.73339e-05 6.86098e-08
2.73339e-05 0.000419934 -9.35439e-08
6.86098e-08 -9.35439e-08 0.000351634

0.000400521 -6.64079e-05 3.74043e-08
-6.64079e-05 0.00042286 -2.81512e-08
3.74043e-08 -2.81512e-08 0.000394421

0.000250175 -8.8305e-06 -8.29518e-08
-8.8305e-06 0.000391389 -9.14338e-08
-8.29518e-08 -9.14338e-08 0.000306919

0.0002849 -1.10582e-05 2.83919e-08
-1.10582e-05 0.000398752 -7.08234e-08
2.83919e-08 -7.08234e-08 0.00031511

0.000385654 -1.51966e-05 1.42991e-07
-1.51966e-05 0.00026335 9.4133e-08
1.42991e-07 9.4133e-08 0.000308621

0.000361666 4.35394e-05 4.44428e-08
4.35394e-05 0.000343253 2.5232e-08
4.44428e-08 2.5232e-08 0.000318517

0.000373633 -7.62162e-05 1.84239e-08
-7.62162e-05 0.000331244 2.59932e-08
1.84239e-08 2.59932e-08 0.000344829

0.000624483 -1.84274e-05 5.19443e-07
-1.84274e-05 0.00062754 6.24505e-08
5.19443e-07 6.24505e-08 0.00050605

0.000508349 -6.81156e-05 4.35716e-07
-6.81156e-05 0.000591322 -2.66857e-08
4.35716e-07 -2.66857e-08 0.000543755

0.000418736 -4.49269e-05 7.96271e-08
-4.49269e-05 0.000309859 9.25735e-08
7.96271e-08 9.25735e-08 0.000357357

0.000449654 6.10422e-05 -1.08472e-07
6.10422e-05 0.000469712 1.87729e-08
-1.08472e-07 1.87729e-08 0.00045529

0.000477658 4.3733e-06 1.96441e-08
4.3733e-06 0.000348928 -6.90679e-08
1.96441e-08 -6.90679e-08 0.00043673

0.000338129 -5.51207e-05 3.49052e-08
-5.51207e-05 0.000432586 1.05629e-07
3.49052e-08 1.05629e-07 0.000360108

0.000355432 5.75422e-05 1.45688e-08
5.75422e-05 0.000500721 3.94896e-08
1.45688e-08 3.94896e-08 0.000466102

0.000495055 2.3649e-05 -1.69906e-08
2.3649e-05 0.000529082 -2.56984e-08
-1.69906e-08 -2.56984e-08 0.000521925

0.000401015 -7.86445e-05 -1.37528e-08
-7.86445e-05 0.000437755 3.54513e-09
-1.37528e-08 3.54513e-09 0.00044815

0.000497846 5.84323e-05 6.74454e-08
5.84323e-05 0.000505112 -1.12376e-07
6.74454e-08 -1.12376e-07 0.000509958

0.00034785 4.61868e-05 -1.32634e-07
4.61868e-05 0.000444294 -1.19407e-07
-1.32634e-07 -1.19407e-07 0.000422221

0.000513862 -5.74495e-06 -2.31915e-08
-5.74495e-06 0.000292677 -9.25302e-08
-2.31915e-08 -9.25302e-08 0.000466377

0.000402707 5.74316e-05 -9.21104e-08
5.74316e-05 0.000341559 -7.49013e-08
-9.21104e-08 -7.49013e-08 0.000354086

0.000402925 -8.88203e-05 -2.86364e-08
-8.88203e-05 0.000508537 -7.41508e-08
-2.86364e-08 -7.41508e-08 0.000453927

0.000401546 5.14781e-05 -8.67459e-08
5.14781e-05 0.000387667 -3.81164e-09
-8.67459e-08 -3.81164e-09 0.000371954

0.000328003 -5.06656e-05 7.59416e-08
-5.06656e-05 0.000358358 -1.34997e-07
7.59416e-08 -1.34997e-07 0.000306306

0.000395592 -7.30086e-05 3.47418e-08
-7.30086e-05 0.000453058 -2.4223e-08
3.47418e-08 -2.4223e-08 0.000418269

0.000292208 -3.25123e-05 -3.56917e-08
-3.25123e-05 0.00040473 -1.18351e-07
-3.56917e-08 -1.18351e-07 0.000326875

0.000340023 1.22972e-05 -1.30122e-07
1.22972e-05 0.000407938 -1.5597e-07
-1.30122e-07 -1.5597e-07 0.00033765

0.000391894 -3.14877e-05 1.56525e-07
-3.14877e-05 0.000303838 6.65531e-08
1.56525e-07 6.65531e-08 0.000325472

0.000372788 -6.68113e-05 1.89783e-08
-6.68113e-05 0.000362585 1.27859e-08
1.89783e-08 1.27859e-08 0.000356015

0.000325136 -3.0622e-06 3.20992e-08
-3.0622e-06 0.000463354 6.56335e-08
3.20992e-08 6.56335e-08 0.000389051

0.000397132 -1.19029e-05 1.07135e-08
-1.19029e-05 0.0004638 -2.69267e-08
1.07135e-08 -2.69267e-08 0.000404665

0.000296172 -6.61989e-05 -2.71464e-08
-6.61989e-05 0.000336218 2.03937e-07
-2.71464e-08 2.03937e-07 0.000296676

0.000329124 4.90058e-05 1.52674e-09
4.90058e-05 0.000346008 4.68594e-08
1.52674e-09 4.68594e-08 0.000307881

0.000486727 -3.02995e-08 -9.72152e-08
-3.02995e-08 0.000347401 2.93307e-08
-9.72152e-08 2.93307e-08 0.000469409

0.000481341 -1.20581e-05 5.37075e-08
-1.20581e-05 0.000352263 2.75519e-08
5.37075e-08 2.75519e-08 0.000463415

0.000460912 5.2958e-05 -5.324e-08
5.2958e-05 0.000474631 -5.38934e-09
-5.324e-08 -5.38934e-09 0.00046308

0.000417768 -8.76937e-05 5.64874e-09
-8.76937e-05 0.000516996 4.60379e-08
5.64874e-09 4.60379e-08 0.000471223

0.000407503 5.97516e-05 2.41532e-07
5.97516e-05 0.000417874 -2.19638e-08
2.41532e-07 -2.19638e-08 0.000434077

0.000330612 2.78685e-05 5.00674e-08
2.78685e-05 0.000269281 -9.44416e-08
5.00674e-08 -9.44416e-08 0.000276594

0.000352655 3.28404e-05 -5.02634e-08
3.28404e-05 0.00043155 4.42332e-08
-5.02634e-08 4.42332e-08 0.00037059

0.000534287 3.04596e-05 1.03427e-07
3.04596e-05 0.000432691 -5.29098e-09
1.03427e-07 -5.29098e-09 0.000494635

0.000508323 -5.34908e-05 -1.59399e-07
-5.34908e-05 0.0004185 -1.44514e-07
-1.59399e-07 -1.44514e-07 0.0004682

0.000491426 4.37595e-05 4.4262e-08
4.37595e-05 0.000420063 1.20205e-07
4.4262e-08 1.20205e-07 0.000458382

0.000467834 -6.30141e-05 -9.12208e-08
-6.30141e-05 0.000393979 -2.39967e-08
-9.12208e-08 -2.39967e-08 0.000436044

0.000207945 -3.15241e-05 3.82467e-08
-3.15241e-05 0.00014929 -1.88383e-08
3.82467e-08 -1.88383e-08 0.000229953

0.000144398 -3.68379e-05 -4.14189e-09
-3.68379e-05 0.0002193 -6.77416e-08
-4.14189e-09 -6.77416e-08 0.000233091

0.00029647 -4.18168e-05 -9.58981e-08
-4.18168e-05 0.000422465 5.99011e-08
-9.58981e-08 5.99011e-08 0.000356532

0.000601973 4.94458e-05 -1.15e-07
4.94458e-05 0.000469496 1.40185e-07
-1.15e-07 1.40185e-07 0.000531044

0.000573077 -7.08054e-05 -1.66474e-07
-7.08054e-05 0.000508132 -5.16026e-09
-1.66474e-07 -5.16026e-09 0.000498322

0.000451405 5.06399e-05 -4.78143e-08
5.06399e-05 0.000401857 4.83719e-08
-4.78143e-08 4.83719e-08 0.000418484

0.000336421 2.07814e-05 2.84304e-09
2.07814e-05 0.000262471 4.02026e-08
2.84304e-09 4.02026e-08 0.000276063

0.000393892 -6.072e-05 -6.94633e-09
-6.072e-05 0.000488846 -3.131e-08
-6.94633e-09 -3.131e-08 0.000439539

0.000339336 -2.88848e-05 -4.6022e-08
-2.88848e-05 0.000490755 6.23972e-09
-4.6022e-08 6.23972e-09 0.000429366

0.000356289 -7.22869e-05 -9.24257e-08
-7.22869e-05 0.000374885 -6.77407e-09
-9.24257e-08 -6.77407e-09 0.000340012

0.000387917 -5.88723e-05 -1.32526e-08
-5.88723e-05 0.000434538 2.07656e-09
-1.32526e-08 2.07656e-09 0.000455451

0.000424512 -6.78814e-05 6.9335e-08
-6.78814e-05 0.00037583 5.92863e-08
6.9335e-08 5.92863e-08 0.000398709

0.000335349 8.91793e-05 5.43644e-08
8.91793e-05 0.000460477 1.2341e-07
5.43644e-08 1.2341e-07 0.000455051

0.000502608 2.13649e-05 -1.86054e-08
2.13649e-05 0.000529349 -2.55927e-08
-1.86054e-08 -2.55927e-08 0.000521143

0.000446934 3.69054e-05 -6.39963e-08
3.69054e-05 0.000503029 4.46275e-08
-6.39963e-08 4.46275e-08 0.00047543

0.000390164 -6.4941e-05 6.57309e-08
-6.4941e-05 0.000425326 -4.35498e-08
6.57309e-08 -4.35498e-08 0.000428752

0.000378178 6.39678e-05 -1.60485e-07
6.39678e-05 0.000429114 -1.10146e-07
-1.60485e-07 -1.10146e-07 0.000428166

0.000390011 4.24548e-05 -5.21644e-08
4.24548e-05 0.000313584 -1.56883e-07
-5.21644e-08 -1.56883e-07 0.000335573

0.000443899 5.95087e-08 -7.0785e-08
5.95087e-08 0.000334749 -6.12492e-08
-7.0785e-08 -6.12492e-08 0.000386553

0.000513144 4.40564e-05 -5.54111e-09
4.40564e-05 0.00051044 9.59351e-09
-5.54111e-09 9.59351e-09 0.000515802

0.000365715 -7.06661e-05 3.01356e-08
-7.06661e-05 0.000467077 -2.55519e-08
3.01356e-08 -2.55519e-08 0.000405829

0.000301133 1.08267e-05 7.60099e-09
1.08267e-05 0.000455349 7.89205e-08
7.60099e-09 7.89205e-08 0.000377944

0.000471505 6.63164e-05 3.67817e-08
6.63164e-05 0.000413948 1.21287e-07
3.67817e-08 1.21287e-07 0.00044448

0.000374034 1.77831e-06 -2.86608e-08
1.77831e-06 0.000456037 -8.38556e-09
-2.86608e-08 -8.38556e-09 0.000398065

0.000356236 -4.87257e-05 6.89981e-08
-4.87257e-05 0.000493695 -7.80566e-08
6.89981e-08 -7.80566e-08 0.000464542

0.000250405 -4.14273e-05 -5.80818e-08
-4.14273e-05 0.00027393 5.66265e-08
-5.80818e-08 5.66265e-08 0.000240676

0.000275028 -4.24582e-05 -1.07413e-07
-4.24582e-05 0.00024629 6.3846e-09
-1.07413e-07 6.3846e-09 0.000239426

0.000470718 1.47782e-05 -4.66307e-08
1.47782e-05 0.000342788 -4.70793e-08
-4.66307e-08 -4.70793e-08 0.000417793

0.000426152 -7.72896e-05 1.29383e-07
-7.72896e-05 0.000390719 7.94492e-09
1.29383e-07 7.94492e-09 0.000420672

0.000659689 4.45501e-05 1.44966e-07
4.45501e-05 0.000500768 -2.81431e-07
1.44966e-07 -2.81431e-07 0.000546598

0.000663934 -1.31093e-05 -4.90603e-07
-1.31093e-05 0.000571881 -3.12938e-07
-4.90603e-07 -3.12938e-07 0.000507572

0.000360733 -5.50906e-05 2.37167e-08
-5.50906e-05 0.000441963 -6.40652e-08
2.37167e-08 -6.40652e-08 0.000424178

0.000482075 -1.649e-05 1.61128e-07
-1.649e-05 0.000509214 -2.21487e-07
1.61128e-07 -2.21487e-07 0.00049324

0.000469663 5.773e-05 -2.85059e-09
5.773e-05 0.000534075 2.21162e-08
-2.85059e-09 2.21162e-08 0.000493853

0.000496429 5.37646e-06 2.84496e-08
5.37646e-06 0.000335371 2.12704e-08
2.84496e-08 2.12704e-08 0.000415257

0.000395957 -9.5176e-05 4.1254e-08
-9.5176e-05 0.000504895 2.84577e-08
4.1254e-08 2.84577e-08 0.000452999

0.000276697 3.19249e-05 9.7523e-08
3.19249e-05 0.000279166 9.46447e-08
9.7523e-08 9.46447e-08 0.000257621

0.000267936 3.0722e-05 7.68334e-08
3.0722e-05 0.000269685 -9.31891e-08
7.68334e-08 -9.31891e-08 0.000252658

0.000240931 -3.70502e-05 6.43717e-10
-3.70502e-05 0.000327393 1.79695e-07
6.43717e-10 1.79695e-07 0.000269012

0.0002745 1.83792e-05 1.00911e-07
1.83792e-05 0.000337759 1.42747e-07
1.00911e-07 1.42747e-07 0.000278635

0.000324992 -3.10782e-05 -1.56248e-07
-3.10782e-05 0.000247701 -9.12287e-08
-1.56248e-07 -9.12287e-08 0.000269566

0.000346624 -8.71222e-05 -2.19969e-08
-8.71222e-05 0.000452416 -1.22058e-08
-2.19969e-08 -1.22058e-08 0.000454435

0.000213909 1.96994e-06 5.14358e-08
1.96994e-06 0.000314975 8.0794e-08
5.14358e-08 8.0794e-08 0.000253175

0.000314883 2.5496e-06 1.35052e-08
2.5496e-06 0.00022839 -6.37954e-08
1.35052e-08 -6.37954e-08 0.000257313

0.000460829 5.71604e-06 -1.08766e-07
5.71604e-06 0.000559807 1.89183e-08
-1.08766e-07 1.89183e-08 0.000488564

0.000490108 -4.97901e-05 5.28357e-08
-4.97901e-05 0.000544727 1.37503e-07
5.28357e-08 1.37503e-07 0.000508622

0.000481714 2.02317e-05 -8.46673e-08
2.02317e-05 0.000397788 -1.80359e-08
-8.46673e-08 -1.80359e-08 0.00044076

0.000522958 3.15112e-06 2.63773e-08
3.15112e-06 0.000340399 1.6659e-16
2.63773e-08 1.6659e-16 0.000446644

0.000290318 -4.69833e-05 9.12014e-09
-4.69833e-05 0.000372835 -6.47851e-08
9.12014e-09 -6.47851e-08 0.0003196

0.000324109 3.02167e-05 -3.58063e-08
3.02167e-05 0.00038786 -2.6963e-07
-3.58063e-08 -2.6963e-07 0.000330727

0.000496733 4.25698e-06 2.89624e-08
4.25698e-06 0.000338527 1.84722e-08
2.89624e-08 1.84722e-08 0.000417193

0.000339577 -4.82973e-05 -1.7976e-08
-4.82973e-05 0.000444246 -3.15246e-08
-1.7976e-08 -3.15246e-08 0.00040338

0.000568334 2.78909e-05 -1.32107e-07
2.78909e-05 0.00046541 1.20023e-07
-1.32107e-07 1.20023e-07 0.000520169

0.000540679 -3.85543e-05 3.81897e-08
-3.85543e-05 0.000477112 -2.46346e-07
3.81897e-08 -2.46346e-07 0.000490095

0.000429367 4.57103e-05 6.00322e-08
4.57103e-05 0.0004255 1.40405e-07
6.00322e-08 1.40405e-07 0.000437898

0.000390909 -8.08471e-05 2.91373e-08
-8.08471e-05 0.000482526 -5.05069e-08
2.91373e-08 -5.05069e-08 0.000427673

0.000482259 2.08574e-05 -7.31693e-08
2.08574e-05 0.000353487 9.96377e-08
-7.31693e-08 9.96377e-08 0.000430888

0.000330735 4.1912e-05 2.29154e-08
4.1912e-05 0.000316265 -1.40206e-07
2.29154e-08 -1.40206e-07 0.000303436

0.000390756 -8.69162e-05 4.99202e-08
-8.69162e-05 0.000477119 -4.11961e-08
4.99202e-08 -4.11961e-08 0.000424871

0.000207721 7.69809e-05 4.59836e-08
7.69809e-05 0.000209523 5.33671e-08
4.59836e-08 5.33671e-08 0.000212278

0.000352693 -3.17144e-05 -2.05928e-08
-3.17144e-05 0.000454983 -4.03018e-08
-2.05928e-08 -4.03018e-08 0.000388976

0.000311089 -1.84136e-05 -1.16944e-07
-1.84136e-05 0.000454282 1.31325e-08
-1.16944e-07 1.31325e-08 0.000379352

0.00044318 -8.56402e-06 2.54368e-07
-8.56402e-06 0.000595474 -2.20167e-07
2.54368e-07 -2.20167e-07 0.00049068

0.000505378 -3.94157e-05 1.90635e-08
-3.94157e-05 0.000537902 -1.01595e-07
1.90635e-08 -1.01595e-07 0.000521614

0.000537105 2.18537e-05 -8.37271e-08
2.18537e-05 0.000318148 4.70235e-08
-8.37271e-08 4.70235e-08 0.000486107

0.000522322 -3.24729e-05 1.71818e-08
-3.24729e-05 0.00033658 7.47589e-08
1.71818e-08 7.47589e-08 0.000473675

0.000439305 6.67135e-05 -1.72637e-07
6.67135e-05 0.000442076 3.79122e-08
-1.72637e-07 3.79122e-08 0.00046135

0.000444829 -4.26097e-05 -2.07141e-07
-4.26097e-05 0.000462328 9.77239e-08
-2.07141e-07 9.77239e-08 0.000463226

0.000474657 5.13178e-05 3.52441e-09
5.13178e-05 0.000497111 -5.24825e-09
3.52441e-09 -5.24825e-09 0.000490206

0.000472275 -3.53152e-05 2.10289e-07
-3.53152e-05 0.000526352 -1.2414e-08
2.10289e-07 -1.2414e-08 0.000488899

0.000635006 4.81459e-05 3.78019e-08
4.81459e-05 0.000500431 -2.75162e-07
3.78019e-08 -2.75162e-07 0.000545528

0.00060176 -6.87976e-05 3.93076e-08
-6.87976e-05 0.000565578 -2.81938e-07
3.93076e-08 -2.81938e-07 0.000504519

0.000554935 4.99343e-05 -2.8618e-08
4.99343e-05 0.000498693 -1.33323e-07
-2.8618e-08 -1.33323e-07 0.000529127

0.000406912 -9.44959e-05 8.46117e-08
-9.44959e-05 0.000448132 -1.76573e-08
8.46117e-08 -1.76573e-08 0.000467783

0.000452804 5.20941e-05 -3.06906e-08
5.20941e-05 0.00036696 -2.11869e-08
-3.06906e-08 -2.11869e-08 0.000407078

0.000394712 -5.92621e-05 -9.71183e-09
-5.92621e-05 0.000470043 -5.03443e-08
-9.71183e-09 -5.03443e-08 0.000412429

0.000338047 -3.53457e-05 -5.61512e-08
-3.53457e-05 0.000459249 -5.29271e-08
-5.61512e-08 -5.29271e-08 0.000405072

0.000346106 -5.2544e-05 1.5564e-07
-5.2544e-05 0.000334623 -5.16337e-08
1.5564e-07 -5.16337e-08 0.000301181

0.000425164 -6.89188e-05 7.02099e-08
-6.89188e-05 0.000352327 6.33306e-08
7.02099e-08 6.33306e-08 0.000391928

0.000337303 2.36875e-05 5.71506e-08
2.36875e-05 0.000459407 1.02453e-07
5.71506e-08 1.02453e-07 0.000402195

0.000430684 6.97152e-05 -3.08223e-08
6.97152e-05 0.000397026 4.60466e-08
-3.08223e-08 4.60466e-08 0.000403564

0.000382274 0.000103411 -5.55094e-08
0.000103411 0.000459504 1.86082e-08
-5.55094e-08 1.86082e-08 0.000470347

0.000412404 -8.39092e-05 -1.01064e-07
-8.39092e-05 0.000504344 -5.06109e-08
-1.01064e-07 -5.06109e-08 0.000466715

0.000387926 -7.93355e-05 -1.75271e-08
-7.93355e-05 0.000372935 4.40311e-08
-1.75271e-08 4.40311e-08 0.000383658

0.000494334 -5.51251e-06 -3.32946e-08
-5.51251e-06 0.0004164 -1.54802e-07
-3.32946e-08 -1.54802e-07 0.000446817

0.000534307 -2.66085e-05 -5.95169e-07
-2.66085e-05 0.000579756 2.0164e-07
-5.95169e-07 2.0164e-07 0.000535953

0.000626535 -2.92805e-05 -3.69649e-07
-2.92805e-05 0.000611487 3.97177e-07
-3.69649e-07 3.97177e-07 0.000505195

0.000373104 -3.10941e-05 -6.09136e-08
-3.10941e-05 0.000478044 1.64017e-08
-6.09136e-08 1.64017e-08 0.00044398

0.00042913 4.27423e-05 4.48722e-08
4.27423e-05 0.000388464 -6.34952e-08
4.48722e-08 -6.34952e-08 0.000426553

0.000511433 -3.30321e-06 1.87201e-08
-3.30321e-06 0.000440564 -3.07921e-09
1.87201e-08 -3.07921e-09 0.000476843

0.000244939 -5.37656e-05 2.71301e-08
-5.37656e-05 0.000283251 -7.19004e-08
2.71301e-08 -7.19004e-08 0.000246091

0.000277985 -4.81723e-05 1.75926e-08
-4.81723e-05 0.000246313 -8.37268e-08
1.75926e-08 -8.37268e-08 0.000247343

0.00053645 -2.04762e-06 7.74931e-08
-2.04762e-06 0.000378519 -1.53176e-07
7.74931e-08 -1.53176e-07 0.000494576

0.000525566 -9.89357e-06 -9.44853e-08
-9.89357e-06 0.000384062 -5.31837e-08
-9.44853e-08 -5.31837e-08 0.000477093

0.000530358 1.08049e-05 9.47835e-09
1.08049e-05 0.000430375 1.75309e-08
9.47835e-09 1.75309e-08 0.00047784

0.000425459 2.81914e-05 7.20092e-08
2.81914e-05 0.000466842 6.66475e-08
7.20092e-08 6.66475e-08 0.000428415

0.000429571 3.65791e-05 -9.62506e-08
3.65791e-05 0.0003569 -7.24247e-08
-9.62506e-08 -7.24247e-08 0.00037429

0.000511532 4.96684e-05 -3.73266e-08
4.96684e-05 0.000462678 -2.78079e-07
-3.73266e-08 -2.78079e-07 0.000488287

0.000471823 -6.53392e-05 2.29518e-08
-6.53392e-05 0.000423837 -1.23437e-07
2.29518e-08 -1.23437e-07 0.000455805

0.000547728 -8.53775e-06 2.95535e-08
-8.53775e-06 0.000504134 1.23279e-07
2.95535e-08 1.23279e-07 0.000509682

0.000526625 7.10569e-05 5.829e-08
7.10569e-05 0.000624729 -3.5127e-07
5.829e-08 -3.5127e-07 0.000510555

0.000359835 -5.6144e-05 4.49148e-08
-5.6144e-05 0.000460002 5.90693e-08
4.49148e-08 5.90693e-08 0.000440482

0.000441888 3.63024e-05 8.53972e-08
3.63024e-05 0.000369232 -3.01509e-08
8.53972e-08 -3.01509e-08 0.000401081

0.000529123 3.35768e-05 -1.12693e-07
3.35768e-05 0.000431959 2.27174e-07
-1.12693e-07 2.27174e-07 0.000494263

0.000509056 -4.58243e-05 1.80061e-07
-4.58243e-05 0.00043399 2.16819e-07
1.80061e-07 2.16819e-07 0.000471301

0.000424932 -7.77607e-05 1.13616e-08
-7.77607e-05 0.000497537 -4.40404e-08
1.13616e-08 -4.40404e-08 0.000451815

0.000406379 -9.93428e-05 -2.20995e-09
-9.93428e-05 0.000506001 3.57659e-08
-2.20995e-09 3.57659e-08 0.000454078

0.000215993 9.15794e-05 -1.63209e-08
9.15794e-05 0.000226171 -5.94519e-08
-1.63209e-08 -5.94519e-08 0.000216303

0.000406493 7.04051e-05 -4.58978e-08
7.04051e-05 0.000494203 -7.54274e-10
-4.58978e-08 -7.54274e-10 0.000477477

0.0004294 -6.20522e-05 -9.1983e-08
-6.20522e-05 0.00052304 -3.21732e-08
-9.1983e-08 -3.21732e-08 0.000475456

0.000390705 -8.55753e-05 5.15084e-08
-8.55753e-05 0.000496037 -3.12113e-08
5.15084e-08 -3.12113e-08 0.000443747

0.000421444 -5.80482e-05 8.43398e-08
-5.80482e-05 0.000338116 5.27325e-08
8.43398e-08 5.27325e-08 0.000365692

0.000443819 -3.82947e-05 4.04575e-08
-3.82947e-05 0.000457047 -6.65525e-08
4.04575e-08 -6.65525e-08 0.000441117

0.000438866 6.68069e-05 -1.32692e-07
6.68069e-05 0.000446447 -9.6966e-08
-1.32692e-07 -9.6966e-08 0.00046694

0.000437029 -5.32936e-05 -2.06509e-07
-5.32936e-05 0.00049263 1.0011e-07
-2.06509e-07 1.0011e-07 0.000465622

0.000494333 -5.23108e-06 -3.35531e-08
-5.23108e-06 0.000358151 -5.02737e-08
-3.35531e-08 -5.02737e-08 0.000436691

0.000542673 1.97659e-05 1.21149e-07
1.97659e-05 0.000441639 6.38008e-08
1.21149e-07 6.38008e-08 0.000510272

0.000525468 -1.87869e-05 -1.34048e-07
-1.87869e-05 0.000474881 1.43451e-07
-1.34048e-07 1.43451e-07 0.000487278

0.000514854 -2.77184e-05 -2.76043e-07
-2.77184e-05 0.00060208 -1.22501e-07
-2.76043e-07 -1.22501e-07 0.000533573

0.00049713 2.20374e-05 2.53794e-08
2.20374e-05 0.000640743 -4.05986e-09
2.53794e-08 -4.05986e-09 0.000502061

0.00023369 7.17514e-06 -5.0092e-08
7.17514e-06 0.00016142 -7.10432e-08
-5.0092e-08 -7.10432e-08 0.000232073

0.000163288 5.74338e-06 -3.7295e-08
5.74338e-06 0.00022762 1.89623e-07
-3.7295e-08 1.89623e-07 0.000227818

0.000499839 6.37388e-05 2.71135e-08
6.37388e-05 0.000483127 2.34922e-07
2.71135e-08 2.34922e-07 0.000493353

0.000429837 -6.37521e-05 9.84316e-08
-6.37521e-05 0.000432235 1.37475e-07
9.84316e-08 1.37475e-07 0.000452559

0.000374258 -6.0277e-05 1.10653e-07
-6.0277e-05 0.000444335 -3.08264e-08
1.10653e-07 -3.08264e-08 0.00045204

0.000203236 2.2257e-05 -1.50049e-08
2.2257e-05 0.00020403 -4.53607e-08
-1.50049e-08 -4.53607e-08 0.000225838

0.000203717 2.44184e-05 9.07886e-10
2.44184e-05 0.000205586 -5.67742e-08
9.07886e-10 -5.67742e-08 0.00022803

0.000623922 1.06907e-05 3.6086e-07
1.06907e-05 0.000648149 4.6061e-07
3.6086e-07 4.6061e-07 0.000508969

0.000624397 1.7517e-05 -1.22583e-07
1.7517e-05 0.000579016 -3.83654e-08
-1.22583e-07 -3.83654e-08 0.000545428

0.000413984 -5.64129e-05 8.20252e-08
-5.64129e-05 0.000447846 -3.10957e-08
8.20252e-08 -3.10957e-08 0.000435057

0.000388068 -7.0562e-05 -2.48521e-08
-7.0562e-05 0.000402528 3.15053e-08
-2.48521e-08 3.15053e-08 0.00039376

0.000501514 6.63289e-05 -5.21267e-08
6.63289e-05 0.000448053 -2.70376e-07
-5.21267e-08 -2.70376e-07 0.000478676

0.000436093 -8.01749e-05 1.34352e-07
-8.01749e-05 0.00041807 -6.5507e-08
1.34352e-07 -6.5507e-08 0.000445022

0.000387644 -7.40687e-05 5.99332e-08
-7.40687e-05 0.000412582 -8.10047e-08
5.99332e-08 -8.10047e-08 0.000416266

0.000439201 5.42074e-05 3.0326e-08
5.42074e-05 0.000425178 -5.93068e-08
3.0326e-08 -5.93068e-08 0.000416455

0.000246454 -2.41476e-05 -3.39986e-08
-2.41476e-05 0.000333977 1.70312e-07
-3.39986e-08 1.70312e-07 0.000271982

0.000275982 1.51319e-05 -2.49688e-08
1.51319e-05 0.000338572 1.58984e-07
-2.49688e-08 1.58984e-07 0.000278941

0.000328233 -2.20349e-05 -1.22674e-07
-2.20349e-05 0.000262535 6.26501e-08
-1.22674e-07 6.26501e-08 0.000274476

0.000455128 7.16724e-05 -2.78591e-08
7.16724e-05 0.000442348 -1.43636e-07
-2.78591e-08 -1.43636e-07 0.000444429

0.000237435 -1.75265e-05 -8.21001e-08
-1.75265e-05 0.0003155 9.08483e-08
-8.21001e-08 9.08483e-08 0.000256674

0.000308537 -1.18722e-05 1.426e-07
-1.18722e-05 0.000228354 1.50131e-07
1.426e-07 1.50131e-07 0.00025057

0.000537754 5.30955e-05 7.32859e-08
5.30955e-05 0.000477598 2.43847e-07
7.32859e-08 2.43847e-07 0.000510419

0.000466473 -7.73907e-05 -1.57968e-07
-7.73907e-05 0.000436373 1.9187e-07
-1.57968e-07 1.9187e-07 0.000466855

0.00053149 6.49254e-05 1.57455e-07
6.49254e-05 0.000470873 -4.79935e-08
1.57455e-07 -4.79935e-08 0.000507168

0.000465908 -7.54183e-05 -1.79416e-07
-7.54183e-05 0.000456417 1.18656e-07
-1.79416e-07 1.18656e-07 0.000469639

0.000200313 2.77353e-05 4.1095e-08
2.77353e-05 0.000202692 -1.12963e-08
4.1095e-08 -1.12963e-08 0.00022244

0.000199403 2.66911e-05 -1.30756e-07
2.66911e-05 0.000201557 3.92759e-08
-1.30756e-07 3.92759e-08 0.000219959

0.000472978 5.77559e-05 7.11649e-08
5.77559e-05 0.00045044 -1.81916e-07
7.11649e-08 -1.81916e-07 0.000457533

0.000427306 -7.08479e-05 1.22515e-07
-7.08479e-05 0.00040926 -5.71124e-08
1.22515e-07 -5.71124e-08 0.000428128

0.000510731 -4.51947e-05 -2.31549e-07
-4.51947e-05 0.000544122 1.54064e-07
-2.31549e-07 1.54064e-07 0.000521056

0.000487337 -1.47283e-05 2.77964e-08
-1.47283e-05 0.000562098 1.09664e-08
2.77964e-08 1.09664e-08 0.00049406

0.000544018 6.62149e-05 -7.44146e-08
6.62149e-05 0.000503454 9.66499e-09
-7.44146e-08 9.66499e-09 0.000527098

0.000427451 -5.85042e-05 3.96768e-08
-5.85042e-05 0.000485946 -1.4623e-07
3.96768e-08 -1.4623e-07 0.000474778

0.000567486 3.43568e-05 -1.41865e-07
3.43568e-05 0.000417975 2.08963e-07
-1.41865e-07 2.08963e-07 0.000511272

0.000537893 -5.3674e-05 9.49256e-08
-5.3674e-05 0.000432587 2.69825e-07
9.49256e-08 2.69825e-07 0.000485583

0.000401595 6.02916e-05 2.01464e-07
6.02916e-05 0.00044688 -1.0717e-07
2.01464e-07 -1.0717e-07 0.000451944

0.000416451 -6.99586e-05 1.47551e-08
-6.99586e-05 0.000492141 1.03381e-07
1.47551e-08 1.03381e-07 0.000450738

0.000512994 -4.88333e-05 2.59439e-08
-4.88333e-05 0.00052574 1.14027e-07
2.59439e-08 1.14027e-07 0.000499406

0.000488397 -4.39265e-05 6.38668e-08
-4.39265e-05 0.000591841 3.05553e-08
6.38668e-08 3.05553e-08 0.000519861

0.000600005 4.92264e-05 6.7509e-09
4.92264e-05 0.000453719 -2.14052e-08
6.7509e-09 -2.14052e-08 0.000525946

0.000636096 1.57493e-05 -1.88659e-07
1.57493e-05 0.000484772 1.59427e-07
-1.88659e-07 1.59427e-07 0.000537821

0.000574703 -5.32234e-05 9.89207e-08
-5.32234e-05 0.000498866 -3.00675e-08
9.89207e-08 -3.00675e-08 0.000498236

0.000621565 -1.16133e-05 2.40799e-07
-1.16133e-05 0.000535747 1.01226e-07
2.40799e-07 1.01226e-07 0.000504768

0.00046391 -1.19889e-05 -1.41676e-07
-1.19889e-05 0.000613469 3.37994e-07
-1.41676e-07 3.37994e-07 0.000496827

0.000527424 9.00178e-05 -6.26474e-08
9.00178e-05 0.000525329 -5.00796e-08
-6.26474e-08 -5.00796e-08 0.000500913

0.00065268 5.36739e-05 -7.79693e-07
5.36739e-05 0.00051447 -1.2979e-06
-7.79693e-07 -1.2979e-06 0.000558007

0.000667706 5.61021e-05 -2.1203e-06
5.61021e-05 0.000505241 1.69845e-06
-2.1203e-06 1.69845e-06 0.000557236

0.000662987 6.00807e-06 9.01752e-07
6.00807e-06 0.000633922 2.58324e-07
9.01752e-07 2.58324e-07 0.000509455

0.000539382 -6.5102e-05 -3.68502e-07
-6.5102e-05 0.000608873 5.5962e-07
-3.68502e-07 5.5962e-07 0.00050115

0.000642958 4.05836e-05 2.50149e-07
4.05836e-05 0.000497124 2.63119e-07
2.50149e-07 2.63119e-07 0.000551105

0.000579725 3.29257e-05 -1.1973e-07
3.29257e-05 0.00051471 1.81854e-08
-1.1973e-07 1.81854e-08 0.000538229

0.000636521 5.33604e-05 2.05269e-07
5.33604e-05 0.000516823 4.70952e-07
2.05269e-07 4.70952e-07 0.00055282

0.00057393 -6.00856e-05 5.04251e-08
-6.00856e-05 0.000514287 -7.53859e-08
5.04251e-08 -7.53859e-08 0.00049773

0.000581897 -3.04373e-05 2.22411e-08
-3.04373e-05 0.00061804 -2.05902e-07
2.22411e-08 -2.05902e-07 0.00050628

0.000518216 -2.68143e-05 1.31376e-07
-2.68143e-05 0.000494654 -1.28991e-07
1.31376e-07 -1.28991e-07 0.000487659

0.000583197 5.29448e-05 -1.49028e-07
5.29448e-05 0.000483953 -3.40823e-07
-1.49028e-07 -3.40823e-07 0.000531999

0.00060592 3.09559e-05 -5.57283e-08
3.09559e-05 0.000495445 -3.69881e-07
-5.57283e-08 -3.69881e-07 0.000537582

0.000525199 -6.97683e-05 1.18831e-07
-6.97683e-05 0.000498803 2.47319e-08
1.18831e-07 2.47319e-08 0.00049116

0.000581548 -3.39207e-05 -1.73583e-07
-3.39207e-05 0.000515666 -6.63346e-08
-1.73583e-07 -6.63346e-08 0.000499471

SCALARS pressure float
LOOKUP_TABLE default
-2.42344
-0.0722644
0.0704883
-0.0483236
-2.02293
4.42267
4.48519
-2.28083
1.36886
-4.42366
-4.88646
-4.74154
2.6825
2.58963
-0.0231552
1.20765
4.6124
4.59683
-0.386049
-5.24255
-5.47421
-5.84808
-1.85445
-2.0616
-1.23364
-2.51392
-0.0314947
-9.85057
1.61948
-9.91045
3.03608
3.07452
10.4897
10.5347
-5.90213
0.524136
3.79343
4.14018
1.3735
-2.25216
-3.15629
1.19774
-1.95768
-2.49236
0.814306
-3.24805
-9.57897
-9.5535
2.96949
-12.9958
-12.4622
3.29415
3.31659
-0.1589
4.21383
4.22161
-0.352996
8.52449
8.56917
1.78375
1.80866
-4.95721
8.09811
8.067
-2.21201
-10.3419
-10.2216
0.877202
1.15086
14.0258
14.019
1.28609
1.06365
1.02084
1.9109
2.7053
-4.68071
-3.22077
4.8458
14.942
14.7878
-5.60702
-0.208183
-1.17212
11.0102
10.9871
5.12057
0.215389
0.142959
1.03854
1.09947
-5.97494
-2.42533
2.4187
2.43853
-1.28558
-2.57863
0.593394
0.668855
-0.176133
0.912704
-3.37975
1.40659
0.923963
-2.50885
2.4108
-0.707941
-2.16615
-0.0827077
2.09901
2.07085
-4.87923
1.93467
-3.49817
-3.47582
-0.624634
3.39465
3.09769
-2.06164
-1.3124
-3.87674
-4.06128
-4.48444
-6.17204
-2.57323
14.9914
14.9377
-2.41057
-0.512057
-0.225957
-2.12533
2.43071
2.79201
0.929659
0.751709
-0.0889061
1.14619
-2.65822
1.4316
-3.21919
-5.88688
0.453113
-5.35677
-5.28399
-5.7659
-3.31489
-2.47319
-2.42687
-5.28931
-4.96571
1.60837
1.61943
-0.293713
2.40544
1.7341
-7.23223
-2.5066
2.57657
2.54493
-0.153114
-0.108642
-17.8306
-17.7053
-2.30747
6.69671
6.69924
-1.47608
-7.12747
-2.43775
1.44902
1.30138
-3.06039
0.765662
-1.57533
1.51968
2.80761
2.95484
-0.242249
0.0218076
-3.04363
0.896112
-0.0294563
-1.00215
0.333153
-1.18685
1.96603
-8.85223
-8.85136
0.317095
-0.409936
11.0656
11.0679
-0.384046
7.79104
7.89609
-0.276622
1.45477
-7.20012
-6.71271
-8.51892
-8.52764
-8.91168
0.821425
-7.20859
-7.57614
5.6555
5.65518
0.130888
1.69609
-3.99916
-3.93273
0.00579977
-0.272087
4.51242
4.53553
0.632869
0.0827068
1.52149
-4.47136
-0.0262974
-10.3569
-1.00359
-1.16924
7.27821
7.2781
2.03963
2.05985
4.20536
4.01876
5.58292
5.55329
9.44892
9.4505
1.72402
1.7503
-0.815121
-1.32186
-1.50026
-6.18761
-0.904414
-1.31292
-1.46508
3.02933
3.07139
-1.46125
0.622183
16.0113
15.9979
0.235855
2.14189
3.48246
-8.98803
-8.9788
2.72835
2.75668
3.60609
-1.49979
-3.53757
1.02637
1.04679
16.8783
16.4576
0.966215
-1.27743
2.16784
2.14079
0.520903
1.21688
-10.5367
3.40492
3.43362
1.3428
-3.54688
0.73658
3.06146
3.11709
2.09042
3.7625
3.74677
10.6512
10.6452
-17.4593
-16.6218
0.557116
0.56792
0.849269
-13.5964
-13.5248
12.4118
12.4102
1.85945
-1.45116
1.18924
1.20658
-0.292212
-1.41086
-8.53223
-7.81509
-8.83266
-0.31745
-7.70473
-7.61794
2.12644
2.12809
2.43354
2.44769
-13.9435
-13.746
-0.352893
-0.396226
8.43759
8.40664
2.23068
2.26009
4.87449
4.87669
1.53687
1.50638
9.36179
6.7652
9.86404
6.77152
9.86518
9.32686
10.0063
10.0327
9.72851
8.79401
8.78506
9.73508
6.93551
3.56538
11.4945
6.94749
11.4911
3.57759
5.56412
7.1067
5.57027
7.12153
0.478505
1.31286
0.675948
-1.29121
4.81661
4.08258
-1.06486
2.90087
-5.14731
-6.05707
-6.1018
2.44499
3.07439
-0.571813
3.98854
4.93047
0.260247
-4.89495
-5.18189
-5.76905
-2.2435
-1.50646
1.00505
-10.1526
2.84947
3.51975
2.81306
6.64504
8.68876
-0.172236
-1.8395
-4.74931
3.34544
3.67159
3.97059
-0.914549
3.6985
-3.09184
-1.07803
-2.68707
-2.3519
-1.884
2.28257
1.45308
-2.14938
-2.04556
-25.8759
-26.2829
3.99762
3.2535
0.00928341
-16.3348
-16.8134
5.17382
4.51597
0.286521
5.19697
5.70513
0.641637
6.20079
7.67678
3.03064
2.81235
6.03554
8.60209
-9.84663
-9.83542
1.27104
2.09645
11.332
16.0605
-2.38083
2.0312
2.05101
5.08361
-4.55323
9.52435
6.43812
0.277772
-0.816042
-5.54218
6.89651
11.3995
4.10338
0.67203
1.43797
1.9496
1.8725
-6.06506
-1.98878
3.39517
3.3656
-0.453158
1.22353
0.97204
0.470877
-3.0205
1.78044
3.25853
3.97898
1.33033
-2.36748
-9.00064
2.06694
-0.0294935
-8.73123
0.0835809
1.94762
2.36209
-2.24255
-5.59784
2.93759
1.86554
-3.07705
-3.44435
0.0939223
5.015
5.31394
-2.38495
-0.562542
-4.54704
-4.99053
-5.45003
-2.03562
15.1749
4.95031
-2.63927
-2.12844
-7.74695
1.81831
0.000799606
0.222312
-1.41643
4.52212
2.99754
-5.78842
-6.47125
-7.7559
1.31972
4.61777
1.72704
4.11322
1.56157
1.45576
-4.30449
-4.80843
-4.88018
-2.29933
-1.88917
-1.021
-6.22685
-5.73615
1.46781
1.53658
2.03848
0.208436
4.45291
2.75906
2.04602
-1.70132
3.56176
4.19405
-0.409699
1.20321
0.383971
-13.0774
-3.10283
-14.039
-2.24307
7.97419
8.50299
-1.124
-1.81656
-2.67596
1.69533
1.74625
3.18013
2.75401
1.63288
5.14498
0.630059
-0.809507
1.65869
1.17116
-3.24832
0.178404
-0.730541
-13.8387
-13.7191
-5.89543
0.354804
11.9283
12.7305
5.11236
8.01587
1.63326
1.70202
4.81529
-10.8894
-10.2627
-8.62045
-8.77399
-8.94215
-4.86978
-10.3029
-10.0779
3.88553
6.04029
1.43831
5.22862
-4.18571
-3.80345
1.24135
6.00319
5.94016
1.23676
1.35522
0.384452
2.49186
1.67314
0.316788
-27.0528
-0.837968
-0.888145
4.44227
7.55948
2.87387
2.7996
3.37617
4.16366
3.41177
4.56226
11.7453
8.80011
2.80124
5.47259
-0.182179
0.210131
-0.20022
-0.863048
0.107807
-0.985935
-1.00715
4.47441
2.9778
1.46795
5.76076
16.4738
2.14386
4.20414
-13.0531
-12.5381
3.52097
3.20142
2.71989
0.0682854
-3.28876
3.16516
1.79045
5.93636
14.831
-0.237856
2.9543
2.90037
0.942568
2.10797
3.90847
1.47494
-27.9441
3.88034
3.46043
2.67658
1.59766
-2.68987
1.49833
2.80917
2.97653
2.70765
4.10928
4.48745
10.9073
7.4681
-14.8686
-14.1663
1.22789
3.24392
-18.0578
-17.5235
15.7766
14.2785
1.65792
2.15188
2.89494
-0.900475
-0.349554
-8.37182
-8.50024
-8.94364
0.348757
1.37875
-10.9627
-11.0836
4.50858
3.20086
3.92146
3.61255
-18.3524
-18.3523
0.199037
1.39291
5.99912
8.89865
4.56403
3.32701
6.73281
6.42731
2.82318
1.64192
8.9769
12.5139
9.37188
13.0091
7.09568
6.63157
9.92032
9.76233
13.3409
11.8473
4.42955
9.02912
9.44612
4.99927
14.5207
7.86748
9.53894
5.35482
6.05731
9.23564
7.53514
9.04596
-1.78247
0.750386
1.63963
0.432431
-1.20432
4.61069
4.86916
-1.58069
2.82584
-5.22612
-5.83823
-5.85349
3.66314
2.742
0.785428
2.57728
4.72604
4.827
0.286849
-5.02289
-4.99871
-5.77036
-1.02824
-2.19575
-0.411798
-1.88875
0.894289
-10.4517
2.16102
-10.7454
3.65473
3.63204
6.62216
6.62439
-5.3449
1.45226
3.36464
3.15656
3.46621
-1.77622
-2.35779
3.35701
-1.04537
-1.75983
1.38696
-3.14366
-25.9753
-26.8077
4.44115
-17.5284
-16.065
4.75386
4.77047
0.221623
5.99152
5.95332
0.0733009
6.12919
6.18349
3.00591
3.01982
-6.17989
7.60767
8.17358
-1.77959
-9.84134
-9.9406
1.46389
2.30294
17.2411
16.7336
4.1585
2.22047
2.17789
3.08421
3.31984
-4.82832
-2.07839
-3.14319
3.97155
6.46639
6.42321
-5.59281
0.0147393
-0.825892
8.51047
11.0935
3.98508
1.60365
1.09487
1.93592
1.98917
-6.35346
3.55845
3.52864
-0.845621
-1.85408
0.903562
0.948339
0.240397
1.92429
-2.59136
4.09124
1.60158
-2.36269
1.93266
-0.274482
-2.23505
-0.013481
2.34606
2.31129
-5.68709
3.14512
-3.19183
-3.2873
0.315476
4.79779
4.44397
-1.56798
-0.568306
-4.62377
-4.69986
-5.51471
-6.43974
-2.22953
12.2126
9.95417
-2.22449
0.298279
0.132531
-1.51975
5.18834
2.91854
1.94578
1.64812
1.95324
1.72041
-2.54968
4.1566
-3.00339
-5.99961
1.50435
-4.55289
-4.53243
-5.06425
-2.96795
-1.33953
-1.33907
-5.802
-5.95346
1.38342
1.38468
0.415245
5.42376
1.72907
-7.72197
-2.17923
3.7052
3.67787
-1.01746
0.446498
0.452623
-14.1683
-13.2524
-2.02137
8.81546
8.74594
-7.8688
2.17893
1.6659
-2.93854
1.63947
5.04838
3.05073
3.906
0.476537
1.45852
-0.998414
-2.8498
-1.96205
1.72244
0.927256
-0.577394
1.34195
-0.827122
2.38696
-13.7895
-14.0066
0.350927
1.36913
13.3214
13.0674
0.401369
5.07107
5.04432
1.36768
5.18916
-11.0197
-10.3942
-8.95136
-8.79767
-9.00795
1.6611
-10.1155
-10.9107
5.59005
5.38822
1.17915
4.80044
-4.18639
-4.16132
1.05055
0.107703
6.16803
6.16471
1.32364
1.53742
2.19972
-5.09523
1.89532
-27.1502
-0.605594
-0.850715
6.53881
6.49845
2.85363
2.86227
3.35587
3.36057
3.41771
3.41031
12.4221
12.2228
2.99572
3.01128
-0.0278359
0.15802
-0.72433
-0.552199
-6.28373
-0.0720402
-0.049832
4.60338
4.61905
1.52691
8.93777
15.2045
0.82895
1.69112
2.81251
-0.807243
-13.2953
-12.7598
3.25224
3.30584
2.73262
-0.608757
-3.27522
1.98471
1.97697
5.91303
5.92381
1.58332
-0.191928
3.11431
3.11722
2.69296
4.14295
-27.8343
3.88581
3.85497
3.0546
-3.19038
1.43295
2.87518
2.79483
2.55588
4.67935
4.65226
9.9643
9.43286
-14.298
-14.6465
1.51678
1.50155
1.5768
-17.4757
-17.9368
14.3492
14.5787
1.79642
-0.831796
2.31949
2.32206
0.597005
-0.855303
-8.41503
-8.83286
-8.87154
0.567239
-11.0723
-10.8308
3.44305
3.41728
3.86588
3.88953
-18.4139
-18.5434
0.33616
0.317119
7.49435
8.47158
3.5564
3.63921
6.6189
6.60205
2.79556
2.77819
9.18244
12.807
9.17428
12.9149
9.59231
6.62649
6.62071
8.35041
14.058
13.3594
13.951
12.8763
9.84217
5.30277
15.5327
9.85171
5.34855
15.2067
7.91336
9.4043
7.86511
9.35509
-2.37526
1.34373
0.510664
0.564992
-1.14804
4.07887
4.81471
-1.17524
3.67792
-5.6851
-5.61341
-5.9786
3.00936
2.43719
0.0461125
0.0938438
1.51106
4.94943
3.99251
0.322775
-5.2565
-4.70054
-5.59453
-1.66417
-1.89239
1.10565
-10.3709
2.39399
2.81587
3.54373
8.65467
6.63664
0.046736
-1.12707
-4.63986
3.90439
3.13906
3.54177
3.52689
-2.90694
-2.70144
-2.40818
2.30043
-1.70768
-1.01247
-26.4434
-25.7527
4.0233
0.647464
-16.0136
-16.9921
4.50121
5.16882
0.288963
5.74683
5.19323
7.61917
6.24798
2.80862
3.03269
6.03046
8.50354
-1.88732
-9.66848
-9.76279
2.11564
1.42113
16.5427
11.2852
-2.69878
1.5624
2.05715
2.01894
2.1597
3.09152
4.11949
-4.64039
6.45356
9.50583
0.0980081
-0.392337
-5.70165
11.4189
6.89628
5.21788
1.43179
0.651174
1.98791
1.85568
-6.33637
-1.80407
3.41921
3.34651
-0.888994
-2.01305
0.919696
1.26909
0.693764
-2.6509
3.25475
1.57554
3.97631
-2.33124
-8.89319
2.52724
-0.188556
-8.60302
0.0583973
2.37938
1.93179
-2.44722
-5.7167
2.58211
-3.33444
-3.26697
-0.0188845
5.5641
4.64565
-2.17339
-1.70486
-4.82111
-4.77828
-5.48482
-2.35074
15.3436
4.94975
-2.56558
-2.19304
-7.85854
1.78637
0.206739
3.10685
4.52512
-5.51576
-6.12249
1.82127
-7.79332
4.62514
0.159395
1.73347
4.11372
-0.690582
-4.80252
-4.31218
-5.10087
-3.13525
-0.946802
-1.96945
-6.12112
-5.91771
1.53235
1.47315
1.99911
4.45334
1.83529
4.21101
3.54009
0.381514
1.20125
-13.2442
-2.70692
-14.0853
0.735683
-2.23965
-1.53705
8.57332
7.96071
-0.461866
-2.02753
-2.44154
1.6734
1.6898
1.30276
-1.06658
1.78196
2.75493
3.30212
0.303859
0.233058
5.14476
-0.629672
-0.802786
1.66467
-2.50045
0.640081
2.55039
-13.7493
-13.6577
-5.6449
1.18095
0.300121
11.89
12.9695
0.229096
7.97803
5.08028
1.49044
4.81422
-10.568
-10.6187
-8.80412
-8.58857
-9.06754
-5.26717
1.54516
-10.5191
-10.0901
3.88685
6.08092
1.22808
5.33084
-3.70657
-4.22413
1.51153
0.0720081
5.94186
6.00988
1.41293
1.71783
2.23851
1.46656
-27.4174
-0.920463
-0.918628
4.43939
7.55407
2.76865
2.88737
4.38623
3.39294
4.61652
3.44364
11.9357
8.78342
2.78876
5.47393
0.100126
0.228028
-0.946078
-0.20427
-0.95443
-0.0306824
-0.274028
3.16127
4.43501
-0.910136
1.75815
5.76238
16.3383
0.780892
1.7644
2.79223
-13.1326
-12.6383
3.1625
3.58346
4.20892
-2.79471
1.80204
3.16076
14.7069
5.90257
1.49603
-0.146845
2.91234
2.95626
2.09163
3.89136
-27.6102
3.63315
3.76303
2.69681
-3.15628
1.26965
2.77861
2.86837
2.88343
4.11333
4.51544
7.46893
10.9029
-14.6377
-14.1874
1.22684
3.23769
1.24232
-18.0539
-17.4126
15.7069
14.5059
1.87601
-0.912797
2.15635
2.89074
0.427994
-0.308504
-7.94985
-8.79505
-8.9486
1.36491
-10.7643
-11.0797
3.22951
4.50502
3.5982
3.9217
-18.4157
-18.5023
1.38261
0.203378
5.99773
8.86975
3.25117
4.56711
6.44655
6.72174
1.99269
2.5508
9.83898
9.82011
6.64933
7.09834
9.36105
12.9697
8.97446
12.6186
13.4455
9.02471
4.42414
12.297
9.43463
4.95598
7.86488
5.3449
9.51805
14.8345
7.58278
9.09158
6.05817
9.21908
1.36394
-0.234664
-0.171191
-2.22907
4.09537
3.33362
-2.10275
1.39235
-6.07104
-6.36537
-5.87702
1.74879
2.51439
-1.28961
3.31214
4.18664
0.555071
-5.75335
-4.95872
-5.58024
-2.42429
-1.77398
-3.02301
0.0385604
-10.8077
1.56782
-10.6776
2.88194
2.33722
10.0504
10.0634
-5.99991
-0.335692
3.51563
4.89992
1.46081
-0.922586
-2.14537
-2.87629
1.38719
-2.752
-1.08704
-2.70009
-1.69655
0.307023
2.06295
-3.27155
-26.6681
-26.8323
2.03053
4.35956
-16.7787
-16.7439
3.45711
2.84116
2.01712
4.14044
4.04603
0.498109
-0.600514
8.29768
8.77944
2.59005
1.99546
-6.62222
6.05765
6.25745
-10.3654
-10.6943
2.14086
0.733234
4.96813
9.50746
1.77051
1.57496
-5.66641
-1.48785
-3.51858
4.6464
14.6477
14.2874
-6.37942
0.232477
0.194921
8.65279
6.97143
5.0259
-0.138913
1.50782
3.02456
3.11199
-6.72511
3.25612
3.64177
0.0301596
2.22113
2.55173
0.0302993
2.96234
0.629255
-3.76992
1.40824
4.01744
-2.15431
2.59515
-1.05612
-2.75915
-0.334118
1.27738
1.97502
-6.06584
3.61784
1.40041
-4.19965
-3.29589
0.0237392
3.56804
3.02427
-0.598406
-5.47336
-4.91533
-5.30953
-6.06472
-2.86113
12.1625
4.92409
-2.17414
1.85901
-0.307195
1.56797
-2.95413
-1.62245
4.53411
1.82457
4.26485
1.21654
5.63962
-2.61059
0.865768
4.96608
-2.28434
-6.32454
1.70983
-5.6127
-4.5064
-5.17297
-3.28682
-1.00577
-2.601
-6.83242
-5.8632
4.23842
4.70741
1.66811
-0.302641
1.70679
4.79578
1.85587
-8.44995
-2.82814
-1.64298
3.08981
2.7292
-1.07391
1.07751
0.602613
-13.9671
-13.9357
5.22902
5.93449
-0.491296
-8.42028
0.73546
1.92433
-2.98435
2.88137
2.69685
-3.64229
-1.12742
4.96364
0.45781
-0.617076
0.877094
1.38701
0.3499
-0.874274
-1.79154
-14.6083
-14.6488
0.740338
5.93765
8.54518
6.32714
7.4114
-0.265328
1.06904
5.49999
-11.1882
-11.1797
-9.38944
-8.868
-9.3753
-11.1386
-11.0641
4.01718
4.05158
0.16932
1.69604
-4.7509
-3.84591
0.125768
4.2933
4.39141
0.482736
2.00429
-0.420757
1.47122
-5.90346
1.87637
-0.338532
-28.2029
-0.713088
-1.46408
4.53129
5.53732
5.08717
5.89697
3.63391
4.15261
5.19487
5.98097
5.9874
7.13621
4.80122
0.980641
-0.0284267
-1.56339
0.19415
-1.30317
-6.71507
-0.723741
-0.283883
5.73929
2.72702
1.26599
5.75131
11.4173
1.94063
3.34181
-14.3913
-13.8492
3.84568
4.60179
3.42304
-1.66385
0.0340551
-2.48403
2.27598
1.1542
15.5139
10.3856
-1.38568
2.63198
2.96558
2.16943
0.0158174
0.504497
4.28458
-30.2741
2.93726
4.95968
3.21841
0.787747
-2.9292
1.86975
2.95975
4.36966
2.34022
2.88886
4.30169
7.54637
8.14657
-15.1674
-15.5227
2.76442
0.833102
-19.2817
-19.0027
7.19424
5.18917
2.53808
2.44331
1.03215
-0.709216
-1.75801
-9.61225
-8.30962
-9.4496
1.28776
-0.255515
-11.3238
-11.6083
3.39101
1.63606
3.40177
2.35761
-19.4001
-19.617
0.996343
-0.175889
6.30714
6.06862
3.95127
1.85393
5.00582
5.06162
0.944962
3.33189
6.91478
9.61934
8.32238
7.22331
6.19787
6.44416
6.86987
7.62795
7.51272
3.89379
8.56559
6.40986
6.33565
3.40636
6.34243
5.19676
8.07294
2.74271
5.09471
5.56519
4.637
5.66897
1.09952
0.0751256
0.351874
2.12543
1.5663
0.608699
1.63836
1.70368
2.05636
0.912996
0.844954
0.16568
0.597379
-0.275631
1.42276
1.5046
1.73051
0.618882
-0.103388
0.757756
0.756308
0.170026
1.24127
1.75294
1.53228
0.195134
1.84767
0.749252
2.78693
0.361102
0.437072
0.751066
6.75874
6.7602
1.18338
1.80335
3.53596
3.72537
1.60385
0.0438855
1.33859
1.77703
1.18565
1.11141
-0.12343
1.36356
0.925185
0.695188
1.79139
0.546069
0.810092
0.00331179
0.00198865
-0.185863
-0.011534
-0.0116099
0.0425547
6.32173
6.36406
-0.118627
-0.121677
1.26965
3.34126
0.668597
0.0504698
0.767222
0.873298
-0.023346
1.24984
0.585257
0.590103
0.704036
-0.13961
-0.1453
2.293
-0.408522
1.3215
1.66038
4.14267
9.5208
9.53889
1.00948
2.01445
-0.0837767
1.26872
3.41057
4.30577
0.459333
0.223208
-0.208794
-0.206389
0.238772
-0.0224417
-0.164428
-0.166041
-0.0718152
0.199167
-0.145809
-0.15195
2.21989
-0.34209
1.24731
1.23269
-0.492166
0.0363419
3.05894
2.06745
1.49744
2.08151
1.05522
0.805862
0.192373
2.31149
0.190788
0.214554
1.77265
3.25976
3.17276
0.842626
1.61517
0.606499
0.588047
0.147961
0.279976
0.0660048
0.889872
2.14094
0.0157654
-0.221856
-0.167112
0.813938
-0.722458
1.96646
-0.342194
-0.39842
0.933979
-0.354027
0.0873397
1.25786
-0.00311945
1.15209
1.73522
0.441943
0.44736
0.142568
0.0161234
0.358489
0.324847
0.27688
0.254935
-0.333632
-0.336925
-0.250499
1.66356
2.76402
1.00975
0.291565
-0.0811426
-0.0839454
-0.0808257
-0.0795059
0.60047
0.309175
0.276684
0.181668
0.183644
-0.0700079
1.22933
-0.022406
1.21317
0.222483
1.33929
-0.400386
-0.0627112
1.95734
-0.477283
0.831657
-0.222561
1.67343
1.43575
-0.710891
1.32297
0.933861
-0.120859
0.410473
-0.865584
0.955952
1.04749
-0.122203
-0.112406
0.535946
0.539519
-0.200254
5.77898
5.83433
1.61848
1.92012
0.3633
1.04315
0.496533
0.523889
0.280227
-0.730237
0.768382
0.327574
1.68933
0.0921945
1.79517
2.48061
0.292121
0.28802
2.1459
0.0210714
0.163847
0.163584
2.08298
1.71151
2.34783
1.31767
1.03522
1.05036
0.899037
0.495052
0.962579
1.30722
-0.263634
-0.256176
3.6175
3.71911
4.36893
4.43805
0.392965
0.396291
-0.436075
-0.441796
-0.0464871
0.594855
0.118724
1.14167
-0.0557738
0.608913
0.0278639
2.95237
2.98207
0.0369655
2.017
4.24916
0.117811
-0.235379
2.94026
2.98069
0.490036
0.394848
-0.259433
-0.262212
3.03859
0.167792
0.0341347
-0.0879354
-0.0908998
10.9755
11.0132
-0.317826
1.59096
-0.0465895
-0.0479592
0.455639
0.625196
0.732138
2.71101
2.75888
1.76119
0.0498733
2.1468
3.25178
3.28335
2.72107
-0.0582572
-0.0576049
1.88387
2.33126
0.571008
0.647895
-0.220131
-0.228467
-0.468743
0.559045
0.490548
0.674239
0.670824
2.83399
-0.0414369
-0.212192
-0.21496
-0.119902
-0.0333073
0.520244
0.485227
0.237263
-0.122521
0.73281
1.03282
-0.169823
-0.17213
-0.165846
-0.168541
0.792873
0.710066
-0.120098
-0.111687
2.59446
1.19681
-0.333268
-0.342744
-0.00819856
-0.00862443
1.92709
1.9253
3.79556
7.47383
0.326103
0.483414
0.323527
0.480504
0.864464
7.47143
0.568303
0.617533
0.614506
0.564868
0.349773
0.0432909
0.568372
0.347518
0.564481
0.0420803
0.0380352
0.411724
0.0385474
0.412931
-1.70048
-0.23084
1.39692
-0.0321433
-1.95424
3.31792
4.196
-2.39491
1.36086
-5.38876
-7.02857
-6.19328
1.72193
2.5474
0.750803
2.41616
4.14669
3.29586
0.7062
-4.94853
-5.72614
-5.75883
-1.02783
-2.65877
-0.407298
-2.97978
-0.0765504
-10.4887
1.61552
-11.0167
2.32512
2.88266
10.0937
10.067
-6.28665
1.6709
4.56641
3.88274
1.5187
-2.15257
-3.52067
1.24021
-2.629
-2.80195
0.326432
-4.01626
-26.8036
-27.6943
2.00189
-17.4664
-16.7889
2.81823
3.45116
1.87077
3.98608
4.15978
-0.599852
8.3465
8.7291
1.97727
2.59207
-6.88914
6.24844
6.10731
-0.812977
-10.7391
-10.8678
0.72235
2.25703
9.42755
4.97417
4.18312
1.52364
1.78274
3.5437
4.07034
-5.51331
-1.41633
-3.34797
4.80749
14.7408
14.4215
-5.88595
-0.655366
0.0180871
6.9692
8.63944
4.90322
-0.167413
1.47287
3.05561
3.10776
-6.12023
3.64162
3.21743
0.206247
-1.67681
2.3999
2.36174
-0.378649
0.658306
-2.94477
4.88495
1.40406
-2.32796
2.17381
-0.401379
-2.11557
0.260304
2.01149
1.24786
-5.76197
1.62527
-3.29161
-4.0659
-0.740039
3.30545
3.21024
-1.63836
-1.50193
-4.70833
-5.68977
-5.32648
-6.57408
-2.26275
4.92257
12.1319
-1.96619
-0.294693
1.71203
-3.0665
4.71977
1.83217
2.95018
1.21909
2.03391
5.64213
-3.14642
0.842777
-3.24421
-6.87496
0.0585867
-4.51901
-5.57034
-4.92311
-2.42717
-1.02479
-2.59249
-6.13875
-6.644
4.61269
4.3252
-0.290073
1.66967
2.45042
-8.25913
-2.80465
2.68752
3.12506
0.607116
1.08401
-13.4807
-13.9766
-1.41407
5.89936
5.228
-1.03404
-8.35561
0.709842
1.7661
-3.656
4.31055
-0.512321
5.30378
2.6945
2.87231
1.73617
1.90232
-3.27767
-1.21233
0.502774
-0.702258
-0.689714
0.367485
-1.79614
4.70705
-14.9125
-14.9162
0.580886
1.36988
8.5371
5.947
1.85721
7.49518
6.28205
0.00847966
1.04612
-11.8071
-10.6521
-8.84331
-9.40059
-9.14627
5.18426
-10.5634
-11.218
3.97465
4.0406
0.821873
1.78694
-3.75032
-4.73202
0.0489252
0.68834
4.35029
4.30401
1.64975
-0.32508
1.78294
-5.20208
-0.41555
-28.02
-1.47098
-0.970041
4.56178
5.52274
5.90017
5.10007
4.1324
3.89557
5.96657
5.1937
7.01462
5.99487
1.03715
4.82438
-0.627446
-1.68832
0.330797
-7.32042
-0.119714
-0.05906
-1.31552
5.73107
2.7318
-0.251383
0.487555
11.3976
5.75118
2.1916
2.33594
3.3905
-13.7152
-13.3152
4.45558
3.99667
3.45154
-1.63148
-2.92142
1.15035
2.29151
15.9299
10.4298
2.85044
-0.595596
2.91332
2.66558
-0.0417971
0.50159
-29.3066
4.9019
2.99206
0.750526
-2.51623
0.459102
4.29681
2.80575
2.03241
4.31614
2.86058
8.13842
7.53627
-15.6475
-15.5101
0.842677
2.80685
3.97447
-18.6299
-18.6342
5.19937
7.21048
1.62592
-0.736355
1.03282
2.4406
1.33076
-1.6988
-8.6953
-9.26495
-9.24315
-0.242961
-11.8573
-11.6013
1.61501
3.41031
2.33837
3.40869
-19.5582
-19.5004
-0.156646
0.970223
6.29019
6.07854
1.89034
3.8785
5.02757
5.01607
3.28032
1.079
9.57336
6.90911
6.86632
7.59955
6.19543
6.4545
7.18319
8.31474
6.12532
8.47028
3.89095
7.53072
5.01026
2.67938
7.90096
6.35907
6.34782
3.43232
4.52481
5.61275
5.10546
5.58051
