# vtk DataFile Version 3.0
vtk output at time 10
ASCII
DATASET UNSTRUCTURED_GRID
POINTS 626 float
-3.68058e-05 0.000978749 0 3.68058e-05 0.000978749 0 -0.000829194 0.00052125 0 
-0.0008235 0.0005 0 -0.000866 0.0004575 0 -0.000866 -0.0004575 0 
-0.0008235 -0.0005 0 -0.000829194 -0.00052125 0 -3.68058e-05 -0.000978749 0 
3.68058e-05 -0.000978749 0 0.000829194 -0.00052125 0 0.000866 -0.0004575 0 
0.000866 0.0004575 0 0.000829194 0.00052125 0 8.5e-05 0 0 
-3.68058e-05 0.000978749 -0.001 3.68058e-05 0.000978749 -0.001 -0.000829194 0.00052125 -0.001 
-0.0008235 0.0005 -0.001 -0.000866 0.0004575 -0.001 -0.000866 -0.0004575 -0.001 
-0.0008235 -0.0005 -0.001 -0.000829194 -0.00052125 -0.001 -3.68058e-05 -0.000978749 -0.001 
3.68058e-05 -0.000978749 -0.001 0.000829194 -0.00052125 -0.001 0.000866 -0.0004575 -0.001 
0.000866 0.0004575 -0.001 0.000829194 0.00052125 -0.001 8.5e-05 0 -0.001 
8.46223e-17 0.0009575 0 -0.000715996 0.000586607 0 -0.000602797 0.000651965 0 
-0.000489599 0.000717321 0 -0.000376401 0.000782678 0 -0.000263202 0.000848036 0 
-0.000150004 0.000913393 0 -0.000835948 0.000469948 0 -0.000866 -0.000326786 0 
-0.000866 -0.000196071 0 -0.000866 -6.53571e-05 0 -0.000866 6.53571e-05 0 
-0.000866 0.000196071 0 -0.000866 0.000326786 0 -0.000835948 -0.000469948 0 
-0.000150004 -0.000913393 0 -0.000263202 -0.000848036 0 -0.000376401 -0.000782678 0 
-0.000489599 -0.000717321 0 -0.000602797 -0.000651965 0 -0.000715996 -0.000586607 0 
8.47648e-17 -0.0009575 0 0.000715996 -0.000586607 0 0.000602797 -0.000651965 0 
0.000489599 -0.000717321 0 0.000376401 -0.000782678 0 0.000263202 -0.000848036 0 
0.000150004 -0.000913393 0 0.000829194 -0.00047875 0 0.000866 0.000326786 0 
0.000866 0.000196071 0 0.000866 6.53571e-05 0 0.000866 -6.53571e-05 0 
0.000866 -0.000196071 0 0.000866 -0.000326786 0 0.000829194 0.00047875 0 
0.000150004 0.000913393 0 0.000263202 0.000848036 0 0.000376401 0.000782678 0 
0.000489599 0.000717321 0 0.000602797 0.000651965 0 0.000715996 0.000586607 0 
5.29966e-05 6.64557e-05 0 -1.89143e-05 8.28689e-05 0 -7.65824e-05 3.68801e-05 0 
-7.65824e-05 -3.68801e-05 0 -1.89143e-05 -8.28689e-05 0 5.29966e-05 -6.64557e-05 0 
8.46223e-17 0.0009575 -0.001 -0.000715996 0.000586607 -0.001 -0.000602797 0.000651965 -0.001 
-0.000489599 0.000717321 -0.001 -0.000376401 0.000782678 -0.001 -0.000263202 0.000848036 -0.001 
-0.000150004 0.000913393 -0.001 -0.000835948 0.000469948 -0.001 -0.000866 -0.000326786 -0.001 
-0.000866 -0.000196071 -0.001 -0.000866 -6.53571e-05 -0.001 -0.000866 6.53571e-05 -0.001 
-0.000866 0.000196071 -0.001 -0.000866 0.000326786 -0.001 -0.000835948 -0.000469948 -0.001 
-0.000150004 -0.000913393 -0.001 -0.000263202 -0.000848036 -0.001 -0.000376401 -0.000782678 -0.001 
-0.000489599 -0.000717321 -0.001 -0.000602797 -0.000651965 -0.001 -0.000715996 -0.000586607 -0.001 
8.47648e-17 -0.0009575 -0.001 0.000715996 -0.000586607 -0.001 0.000602797 -0.000651965 -0.001 
0.000489599 -0.000717321 -0.001 0.000376401 -0.000782678 -0.001 0.000263202 -0.000848036 -0.001 
0.000150004 -0.000913393 -0.001 0.000829194 -0.00047875 -0.001 0.000866 0.000326786 -0.001 
0.000866 0.000196071 -0.001 0.000866 6.53571e-05 -0.001 0.000866 -6.53571e-05 -0.001 
0.000866 -0.000196071 -0.001 0.000866 -0.000326786 -0.001 0.000829194 0.00047875 -0.001 
0.000150004 0.000913393 -0.001 0.000263202 0.000848036 -0.001 0.000376401 0.000782678 -0.001 
0.000489599 0.000717321 -0.001 0.000602797 0.000651965 -0.001 0.000715996 0.000586607 -0.001 
5.29966e-05 6.64557e-05 -0.001 -1.89143e-05 8.28689e-05 -0.001 -7.65824e-05 3.68801e-05 -0.001 
-7.65824e-05 -3.68801e-05 -0.001 -1.89143e-05 -8.28689e-05 -0.001 5.29966e-05 -6.64557e-05 -0.001 
0.000131234 6.38474e-05 0 0.00012964 -6.2443e-05 0 3.13827e-05 0.0001394 0 
3.12554e-05 -0.000136939 0 -0.000140461 8.25467e-19 0 -8.90565e-05 -0.000102707 0 
-9.04142e-05 0.000102872 0 -0.000765769 -0.00025965 0 -0.000756873 0.000262774 0 
-0.00015609 0.000787505 0 -0.000155807 -0.00079355 0 0.000605069 0.000528035 0 
0.000608694 -0.00052497 0 0.000744069 0.000116929 0 -0.000494418 0.000596218 0 
-0.000483866 -0.000584648 0 0.000269496 0.000702219 0 0.000263201 -0.000717324 0 
0.000754429 -0.000127825 0 -0.000748858 5.84659e-07 0 -0.000747838 0.000373886 0 
-0.0006542 0.000324842 0 -0.000645137 0.000210123 0 -0.000550884 0.000274171 0 
-0.000538857 0.000163195 0 -0.00045062 0.000224461 0 -0.000438393 0.000123907 0 
-0.000354088 0.000181668 0 -0.000363908 0.000282171 0 -0.000270361 0.000239477 0 
-0.000279138 0.000337653 0 -0.000188888 0.000294791 0 -0.000196448 0.000393271 0 
-0.000104767 0.000348259 0 -0.000113332 0.000449012 0 -2.01066e-05 0.000403223 0 
-2.89189e-05 0.000507105 0 6.9524e-05 0.000461596 0 -0.000213644 0.000490203 0 
7.33757e-05 0.000357726 0 0.000163331 0.00041299 0 0.000163359 0.000313022 0 
0.000248077 0.000366368 0 0.000250914 0.000265758 0 0.000335709 0.000322266 0 
0.000340555 0.000218148 0 0.000427299 0.000276717 0 0.000431508 0.000173093 0 
0.000328731 0.000425633 0 0.00034586 0.000114823 0 0.000435362 7.05241e-05 0 
0.000350892 1.5455e-05 0 0.000441547 -3.11896e-05 0 0.000353547 -8.47783e-05 0 
0.000445767 -0.000132964 0 0.000356135 -0.000186358 0 0.000449094 -0.000234674 0 
0.000359978 -0.000287876 0 0.00026856 -0.000240545 0 0.000271895 -0.000341045 0 
0.000181792 -0.00029305 0 0.00018533 -0.000392851 0 9.75701e-05 -0.00034483 0 
9.98764e-05 -0.000444884 0 8.75116e-06 -0.000396343 0 1.20916e-05 -0.000500496 0 
-7.83929e-05 -0.000449843 0 -8.1471e-05 -0.000347249 0 -0.000171566 -0.000403733 0 
-0.000169889 -0.000298891 0 -0.000259867 -0.000354132 0 -0.000257696 -0.000249137 0 
-0.00034313 -0.000299896 0 -0.000344514 -0.000199127 0 -0.000434309 -0.000250039 0 
-0.000169832 -0.000505815 0 -0.000435227 -0.000146227 0 0.000280331 -0.000442424 0 
-0.000340889 8.76793e-05 0 -0.000515252 4.06198e-05 0 6.50491e-05 0.000568253 0 
0.00053278 1.74743e-05 0 0.000522071 0.000229831 0 -0.00037162 0.000391659 0 
-0.000255272 -0.000150439 0 -0.000442893 -0.000350705 0 0.000450067 -0.000332559 0 
0.000545175 -0.000276306 0 -0.000527797 -0.000197598 0 0.000105306 -0.000551033 0 
1.45836e-05 -0.000609147 0 0.00017145 0.000214453 0 0.000515525 0.000341711 0 
0.000636086 0.000290368 0 -0.000558657 0.000404468 0 -4.01232e-05 0.000616718 0 
6.60192e-05 0.000696422 0 -0.000101806 0.0002546 0 0.000271142 -3.88908e-05 0 
0.000179455 -0.00018534 0 -8.79553e-05 -0.000254307 0 -0.000749267 -0.000373451 0 
-0.000655941 -0.000323397 0 0.000709746 0.000466718 0 0.000698426 -0.000473086 0 
-5.25801e-05 -0.00084886 0 -4.93005e-05 0.000848038 0 0.000617396 -0.000413362 0 
0.000702056 -0.000369817 0 0.000131459 -0.000679171 0 2.48171e-05 -0.000715924 0 
-0.000664217 -0.00042729 0 -0.000528828 -8.80444e-05 0 -0.000611101 -0.000136672 0 
-0.000426972 -4.45841e-05 0 0.000800669 0.000378216 0 0.000821144 -0.000415062 0 
7.2799e-05 0.00088254 0 6.81831e-05 -0.00087503 0 0.000104963 -0.000788946 0 
-7.40696e-05 -0.000660054 0 0.000126061 0.000809943 0 0.000764361 0.000295682 0 
0.000166862 0.000630623 0 0.000516462 -0.00046707 0 -0.000563585 -0.000389606 0 
-0.000622598 -1.40238e-05 0 0.000629891 0.000171529 0 2.5614e-06 -0.000299794 0 
8.6901e-05 -0.00024329 0 0.000272045 -0.000136982 0 -0.00075148 0.000138321 0 
0.000209366 -0.000599589 0 0.000324913 -0.000630055 0 0.000614044 0.00041245 0 
0.00049651 -0.000573327 0 0.000394822 -0.000507321 0 -0.000173714 -0.000206698 0 
0.000264897 5.63722e-05 0 0.000247997 0.000152811 0 -4.63327e-05 -0.000920208 0 
9.18688e-05 0.000258626 0 -5.54111e-06 0.000290558 0 -0.000184219 0.000201484 0 
-0.000263559 0.000142267 0 -0.000256427 5.13624e-05 0 -0.000336894 -2.06179e-06 0 
-0.000228499 -4.2388e-05 0 -0.00017589 0.000106626 0 -0.000769947 -0.000133367 0 
0.000767591 -0.000500293 0 -5.05874e-05 0.000737978 0 0.000754456 -3.51771e-06 0 
0.00064691 -6.15298e-05 0 0.000630483 -0.00018134 0 0.000749187 -0.000265543 0 
-0.000760805 -0.000462521 0 0.000638155 6.09315e-05 0 -4.46661e-05 0.000922995 0 
-2.37945e-05 0.000207237 0 0.000776979 0.000500181 0 -0.000605691 0.000527596 0 
-0.000377914 -0.000653727 0 -0.000372325 -0.000526022 0 -0.000275829 -0.000589621 0 
-0.000254285 -0.000710579 0 -0.000379307 0.000656222 0 -0.000379818 0.00052718 0 
-0.000266817 0.000721555 0 -0.000150544 0.000668174 0 0.000381963 0.00065079 0 
0.000493113 0.000590432 0 0.000505439 0.000463708 0 -0.000269094 0.000596608 0 
0.000385815 0.000532045 0 0.000283599 0.0005899 0 -0.000176405 -0.000108505 0 
-0.000278769 -0.000475415 0 0.000185395 2.33014e-06 0 0.000186773 0.000517571 0 
0.000540032 -8.68444e-05 0 -0.000600694 -0.000514877 0 -0.00063703 8.98033e-05 0 
-0.000459677 0.000335729 0 -0.000338836 -0.000100751 0 -0.000457327 0.000432721 0 
-8.72007e-06 -0.000210238 0 0.000156073 0.000129496 0 -7.70692e-05 -0.000555049 0 
0.00036091 -0.000389728 0 0.000531628 0.000120564 0 -0.000285451 0.000435562 0 
0.000192719 -0.000494604 0 0.00041642 0.00039368 0 -0.000135943 0.000554637 0 
-0.000170665 -0.000610079 0 -0.000666304 0.000434981 0 -0.000758736 0.000479231 0 
-0.000470189 -0.000458901 0 0.000203433 -8.59809e-05 0 0.000101846 0.000170114 0 
-0.00035513 -0.00040726 0 0.000100184 -0.000165831 0 2.96286e-05 0.00081537 0 
0.000720946 0.000381836 0 -0.000539809 -0.000292001 0 0.00052211 -0.000182426 0 
-6.41339e-05 -0.000753908 0 0.000638039 -0.000299861 0 -0.000605136 -0.000230182 0 
-3.41638e-05 -0.000145561 0 -0.000104037 0.000172396 0 -0.000808575 -0.00042774 0 
-0.000807207 -0.000465052 0 -0.00080817 0.000429771 0 -0.000806589 0.000469738 0 
-9.50634e-05 -0.000178909 0 0.000247777 0.000445058 0 1.48293e-05 -0.000814201 0 
-4.11555e-05 0.000140955 0 0.000276104 -0.000536845 0 0.000765969 -0.000436638 0 
0.000780871 -0.000362769 0 0.000424176 -0.000642018 0 0.00053413 -0.000368009 0 
-0.000416333 4.17911e-05 0 -0.000133891 -6.23822e-05 0 4.2574e-05 0.000206312 0 
0.000141163 -0.000121542 0 0.000707423 0.000212137 0 0.000172327 0.000723882 0 
7.72652e-06 -0.00090254 0 -0.000134435 5.66935e-05 0 -0.000188826 3.70894e-05 0 
0.000197119 8.09714e-05 0 1.27801e-05 0.000917296 0 0.000800767 0.00044758 0 
-0.000686682 0.000507104 0 9.35831e-05 0.000110457 0 -0.000696793 -0.000509595 0 
-0.00068446 -8.52012e-05 0 -0.000691033 -0.000201242 0 5.24052e-05 -0.000189075 0 
-0.000151818 -0.000701092 0 -0.000296988 0.000518087 0 9.31023e-05 -0.000108117 0 
0.00044261 -0.000416726 0 0.000197044 -0.000784423 0 -0.000516861 0.000504567 0 
0.000298997 0.000502377 0 0.000131234 6.38474e-05 -0.001 0.00012964 -6.2443e-05 -0.001 
3.13827e-05 0.0001394 -0.001 3.12554e-05 -0.000136939 -0.001 -0.000140461 8.25467e-19 -0.001 
-8.90565e-05 -0.000102707 -0.001 -9.04142e-05 0.000102872 -0.001 -0.000765769 -0.00025965 -0.001 
-0.000756873 0.000262774 -0.001 -0.00015609 0.000787505 -0.001 -0.000155807 -0.00079355 -0.001 
0.000605069 0.000528035 -0.001 0.000608694 -0.00052497 -0.001 0.000744069 0.000116929 -0.001 
-0.000494418 0.000596218 -0.001 -0.000483866 -0.000584648 -0.001 0.000269496 0.000702219 -0.001 
0.000263201 -0.000717324 -0.001 0.000754429 -0.000127825 -0.001 -0.000748858 5.84659e-07 -0.001 
-0.000747838 0.000373886 -0.001 -0.0006542 0.000324842 -0.001 -0.000645137 0.000210123 -0.001 
-0.000550884 0.000274171 -0.001 -0.000538857 0.000163195 -0.001 -0.00045062 0.000224461 -0.001 
-0.000438393 0.000123907 -0.001 -0.000354088 0.000181668 -0.001 -0.000363908 0.000282171 -0.001 
-0.000270361 0.000239477 -0.001 -0.000279138 0.000337653 -0.001 -0.000188888 0.000294791 -0.001 
-0.000196448 0.000393271 -0.001 -0.000104767 0.000348259 -0.001 -0.000113332 0.000449012 -0.001 
-2.01066e-05 0.000403223 -0.001 -2.89189e-05 0.000507105 -0.001 6.9524e-05 0.000461596 -0.001 
-0.000213644 0.000490203 -0.001 7.33757e-05 0.000357726 -0.001 0.000163331 0.00041299 -0.001 
0.000163359 0.000313022 -0.001 0.000248077 0.000366368 -0.001 0.000250914 0.000265758 -0.001 
0.000335709 0.000322266 -0.001 0.000340555 0.000218148 -0.001 0.000427299 0.000276717 -0.001 
0.000431508 0.000173093 -0.001 0.000328731 0.000425633 -0.001 0.00034586 0.000114823 -0.001 
0.000435362 7.05241e-05 -0.001 0.000350892 1.5455e-05 -0.001 0.000441547 -3.11896e-05 -0.001 
0.000353547 -8.47783e-05 -0.001 0.000445767 -0.000132964 -0.001 0.000356135 -0.000186358 -0.001 
0.000449094 -0.000234674 -0.001 0.000359978 -0.000287876 -0.001 0.00026856 -0.000240545 -0.001 
0.000271895 -0.000341045 -0.001 0.000181792 -0.00029305 -0.001 0.00018533 -0.000392851 -0.001 
9.75701e-05 -0.00034483 -0.001 9.98764e-05 -0.000444884 -0.001 8.75116e-06 -0.000396343 -0.001 
1.20916e-05 -0.000500496 -0.001 -7.83929e-05 -0.000449843 -0.001 -8.1471e-05 -0.000347249 -0.001 
-0.000171566 -0.000403733 -0.001 -0.000169889 -0.000298891 -0.001 -0.000259867 -0.000354132 -0.001 
-0.000257696 -0.000249137 -0.001 -0.00034313 -0.000299896 -0.001 -0.000344514 -0.000199127 -0.001 
-0.000434309 -0.000250039 -0.001 -0.000169832 -0.000505815 -0.001 -0.000435227 -0.000146227 -0.001 
0.000280331 -0.000442424 -0.001 -0.000340889 8.76793e-05 -0.001 -0.000515252 4.06198e-05 -0.001 
6.50491e-05 0.000568253 -0.001 0.00053278 1.74743e-05 -0.001 0.000522071 0.000229831 -0.001 
-0.00037162 0.000391659 -0.001 -0.000255272 -0.000150439 -0.001 -0.000442893 -0.000350705 -0.001 
0.000450067 -0.000332559 -0.001 0.000545175 -0.000276306 -0.001 -0.000527797 -0.000197598 -0.001 
0.000105306 -0.000551033 -0.001 1.45836e-05 -0.000609147 -0.001 0.00017145 0.000214453 -0.001 
0.000515525 0.000341711 -0.001 0.000636086 0.000290368 -0.001 -0.000558657 0.000404468 -0.001 
-4.01232e-05 0.000616718 -0.001 6.60192e-05 0.000696422 -0.001 -0.000101806 0.0002546 -0.001 
0.000271142 -3.88908e-05 -0.001 0.000179455 -0.00018534 -0.001 -8.79553e-05 -0.000254307 -0.001 
-0.000749267 -0.000373451 -0.001 -0.000655941 -0.000323397 -0.001 0.000709746 0.000466718 -0.001 
0.000698426 -0.000473086 -0.001 -5.25801e-05 -0.00084886 -0.001 -4.93005e-05 0.000848038 -0.001 
0.000617396 -0.000413362 -0.001 0.000702056 -0.000369817 -0.001 0.000131459 -0.000679171 -0.001 
2.48171e-05 -0.000715924 -0.001 -0.000664217 -0.00042729 -0.001 -0.000528828 -8.80444e-05 -0.001 
-0.000611101 -0.000136672 -0.001 -0.000426972 -4.45841e-05 -0.001 0.000800669 0.000378216 -0.001 
0.000821144 -0.000415062 -0.001 7.2799e-05 0.00088254 -0.001 6.81831e-05 -0.00087503 -0.001 
0.000104963 -0.000788946 -0.001 -7.40696e-05 -0.000660054 -0.001 0.000126061 0.000809943 -0.001 
0.000764361 0.000295682 -0.001 0.000166862 0.000630623 -0.001 0.000516462 -0.00046707 -0.001 
-0.000563585 -0.000389606 -0.001 -0.000622598 -1.40238e-05 -0.001 0.000629891 0.000171529 -0.001 
2.5614e-06 -0.000299794 -0.001 8.6901e-05 -0.00024329 -0.001 0.000272045 -0.000136982 -0.001 
-0.00075148 0.000138321 -0.001 0.000209366 -0.000599589 -0.001 0.000324913 -0.000630055 -0.001 
0.000614044 0.00041245 -0.001 0.00049651 -0.000573327 -0.001 0.000394822 -0.000507321 -0.001 
-0.000173714 -0.000206698 -0.001 0.000264897 5.63722e-05 -0.001 0.000247997 0.000152811 -0.001 
-4.63327e-05 -0.000920208 -0.001 9.18688e-05 0.000258626 -0.001 -5.54111e-06 0.000290558 -0.001 
-0.000184219 0.000201484 -0.001 -0.000263559 0.000142267 -0.001 -0.000256427 5.13624e-05 -0.001 
-0.000336894 -2.06179e-06 -0.001 -0.000228499 -4.2388e-05 -0.001 -0.00017589 0.000106626 -0.001 
-0.000769947 -0.000133367 -0.001 0.000767591 -0.000500293 -0.001 -5.05874e-05 0.000737978 -0.001 
0.000754456 -3.51771e-06 -0.001 0.00064691 -6.15298e-05 -0.001 0.000630483 -0.00018134 -0.001 
0.000749187 -0.000265543 -0.001 -0.000760805 -0.000462521 -0.001 0.000638155 6.09315e-05 -0.001 
-4.46661e-05 0.000922995 -0.001 -2.37945e-05 0.000207237 -0.001 0.000776979 0.000500181 -0.001 
-0.000605691 0.000527596 -0.001 -0.000377914 -0.000653727 -0.001 -0.000372325 -0.000526022 -0.001 
-0.000275829 -0.000589621 -0.001 -0.000254285 -0.000710579 -0.001 -0.000379307 0.000656222 -0.001 
-0.000379818 0.00052718 -0.001 -0.000266817 0.000721555 -0.001 -0.000150544 0.000668174 -0.001 
0.000381963 0.00065079 -0.001 0.000493113 0.000590432 -0.001 0.000505439 0.000463708 -0.001 
-0.000269094 0.000596608 -0.001 0.000385815 0.000532045 -0.001 0.000283599 0.0005899 -0.001 
-0.000176405 -0.000108505 -0.001 -0.000278769 -0.000475415 -0.001 0.000185395 2.33014e-06 -0.001 
0.000186773 0.000517571 -0.001 0.000540032 -8.68444e-05 -0.001 -0.000600694 -0.000514877 -0.001 
-0.00063703 8.98033e-05 -0.001 -0.000459677 0.000335729 -0.001 -0.000338836 -0.000100751 -0.001 
-0.000457327 0.000432721 -0.001 -8.72007e-06 -0.000210238 -0.001 0.000156073 0.000129496 -0.001 
-7.70692e-05 -0.000555049 -0.001 0.00036091 -0.000389728 -0.001 0.000531628 0.000120564 -0.001 
-0.000285451 0.000435562 -0.001 0.000192719 -0.000494604 -0.001 0.00041642 0.00039368 -0.001 
-0.000135943 0.000554637 -0.001 -0.000170665 -0.000610079 -0.001 -0.000666304 0.000434981 -0.001 
-0.000758736 0.000479231 -0.001 -0.000470189 -0.000458901 -0.001 0.000203433 -8.59809e-05 -0.001 
0.000101846 0.000170114 -0.001 -0.00035513 -0.00040726 -0.001 0.000100184 -0.000165831 -0.001 
2.96286e-05 0.00081537 -0.001 0.000720946 0.000381836 -0.001 -0.000539809 -0.000292001 -0.001 
0.00052211 -0.000182426 -0.001 -6.41339e-05 -0.000753908 -0.001 0.000638039 -0.000299861 -0.001 
-0.000605136 -0.000230182 -0.001 -3.41638e-05 -0.000145561 -0.001 -0.000104037 0.000172396 -0.001 
-0.000808575 -0.00042774 -0.001 -0.000807207 -0.000465052 -0.001 -0.00080817 0.000429771 -0.001 
-0.000806589 0.000469738 -0.001 -9.50634e-05 -0.000178909 -0.001 0.000247777 0.000445058 -0.001 
1.48293e-05 -0.000814201 -0.001 -4.11555e-05 0.000140955 -0.001 0.000276104 -0.000536845 -0.001 
0.000765969 -0.000436638 -0.001 0.000780871 -0.000362769 -0.001 0.000424176 -0.000642018 -0.001 
0.00053413 -0.000368009 -0.001 -0.000416333 4.17911e-05 -0.001 -0.000133891 -6.23822e-05 -0.001 
4.2574e-05 0.000206312 -0.001 0.000141163 -0.000121542 -0.001 0.000707423 0.000212137 -0.001 
0.000172327 0.000723882 -0.001 7.72652e-06 -0.00090254 -0.001 -0.000134435 5.66935e-05 -0.001 
-0.000188826 3.70894e-05 -0.001 0.000197119 8.09714e-05 -0.001 1.27801e-05 0.000917296 -0.001 
0.000800767 0.00044758 -0.001 -0.000686682 0.000507104 -0.001 9.35831e-05 0.000110457 -0.001 
-0.000696793 -0.000509595 -0.001 -0.00068446 -8.52012e-05 -0.001 -0.000691033 -0.000201242 -0.001 
5.24052e-05 -0.000189075 -0.001 -0.000151818 -0.000701092 -0.001 -0.000296988 0.000518087 -0.001 
9.31023e-05 -0.000108117 -0.001 0.00044261 -0.000416726 -0.001 0.000197044 -0.000784423 -0.001 
-0.000516861 0.000504567 -0.001 0.000298997 0.000502377 -0.001 

CELLS 563 3941
6 14 304 127 29 554 377 
6 143 259 55 393 509 103 
6 300 319 174 550 569 424 
6 259 349 55 509 599 103 
6 50 365 307 98 615 557 
6 299 320 164 549 570 414 
6 126 304 14 376 554 29 
6 298 319 300 548 569 550 
6 205 240 238 455 490 488 
6 257 308 145 507 558 395 
6 130 352 273 380 602 523 
6 295 320 299 545 570 549 
6 324 327 289 574 577 539 
6 235 258 143 485 508 393 
6 50 307 49 98 557 97 
6 207 283 279 457 533 529 
6 143 373 235 393 623 485 
6 145 308 252 395 558 502 
6 194 303 196 444 553 446 
6 279 306 207 529 556 457 
6 206 305 163 456 555 413 
6 51 357 9 99 607 24 
6 238 252 205 488 502 455 
6 293 317 209 543 567 459 
6 207 316 283 457 566 533 
6 142 301 249 392 551 499 
6 273 359 130 523 609 380 
6 211 327 324 461 577 574 
6 169 265 217 419 515 467 
6 7 365 50 22 615 98 
6 283 316 253 533 566 503 
6 159 268 223 409 518 473 
6 274 337 132 524 587 382 
6 232 361 329 482 611 579 
6 231 266 45 481 516 93 
6 229 362 330 479 612 580 
6 9 244 57 24 494 105 
6 230 276 52 480 526 100 
6 209 311 293 459 561 543 
6 131 342 302 381 592 552 
6 270 271 204 520 521 454 
6 66 243 1 114 493 16 
6 59 241 12 107 491 27 
6 280 306 279 530 556 529 
6 269 337 274 519 587 524 
6 179 256 224 429 506 474 
6 163 305 166 413 555 416 
6 201 303 194 451 553 444 
6 280 332 306 530 582 556 
6 186 255 225 436 505 475 
6 210 310 273 460 560 523 
6 153 270 204 403 520 454 
6 136 231 45 386 481 93 
6 171 265 169 421 515 419 
6 138 230 52 388 480 100 
6 225 354 325 475 604 575 
6 36 284 232 84 534 482 
6 161 268 159 411 518 409 
6 71 286 229 119 536 479 
6 290 303 201 540 553 451 
6 139 355 60 389 605 108 
6 60 355 248 108 605 498 
6 273 352 302 523 602 552 
6 235 373 245 485 623 495 
6 67 356 247 115 606 497 
6 221 295 277 471 545 527 
6 142 356 67 392 606 115 
6 139 283 253 389 533 503 
6 203 315 262 453 565 512 
6 41 257 145 89 507 395 
6 36 232 135 84 482 385 
6 71 229 137 119 479 387 
6 254 255 188 504 505 438 
6 233 350 334 483 600 584 
6 262 346 203 512 596 453 
6 304 325 127 554 575 377 
6 222 329 247 472 579 497 
6 218 298 260 468 548 510 
6 290 321 291 540 571 541 
6 272 310 240 522 560 490 
6 269 274 270 519 524 520 
6 244 245 57 494 495 105 
6 49 307 141 97 557 391 
6 225 325 256 475 575 506 
6 273 310 272 523 560 522 
6 312 368 255 562 618 505 
6 249 305 206 499 555 456 
6 228 331 251 478 581 501 
6 302 342 263 552 592 513 
6 338 339 44 588 589 92 
6 190 254 188 440 504 438 
6 37 341 340 85 591 590 
6 138 233 230 388 483 480 
6 228 335 331 478 585 581 
6 181 256 179 431 506 429 
6 195 263 226 445 513 476 
6 268 285 223 518 535 473 
6 290 291 288 540 541 538 
6 219 330 248 469 580 498 
6 201 321 290 451 571 540 
6 240 310 202 490 560 452 
6 188 255 186 438 505 436 
6 270 274 271 520 524 521 
6 262 349 259 512 599 509 
6 141 324 289 391 574 539 
6 296 301 142 546 551 392 
6 247 356 222 497 606 472 
6 239 252 238 489 502 488 
6 254 312 255 504 562 505 
6 54 261 53 102 511 101 
6 289 327 303 539 577 553 
6 268 353 285 518 603 535 
6 273 302 210 523 552 460 
6 292 299 293 542 549 543 
6 278 283 139 528 533 389 
6 175 265 171 425 515 421 
6 227 338 38 477 588 86 
6 264 360 265 514 610 515 
6 43 340 146 91 590 396 
6 165 268 161 415 518 411 
6 205 351 240 455 601 490 
6 64 281 63 112 531 111 
6 288 291 47 538 541 95 
6 135 295 294 385 545 544 
6 42 257 41 90 507 89 
6 245 373 57 495 623 105 
6 31 363 323 79 613 573 
6 292 293 140 542 543 390 
6 267 353 268 517 603 518 
6 155 270 153 405 520 403 
6 244 344 245 494 594 495 
6 61 278 139 109 528 389 
6 135 294 35 385 544 83 
6 69 297 296 117 547 546 
6 186 225 184 436 475 434 
6 329 361 243 579 611 493 
6 255 328 225 505 578 475 
6 213 332 280 463 582 530 
6 39 275 133 87 525 383 
6 330 362 241 580 612 491 
6 195 226 193 445 476 443 
6 211 324 251 461 574 501 
6 151 153 152 401 403 402 
6 295 299 294 545 549 544 
6 265 313 217 515 563 467 
6 258 259 143 508 509 393 
6 251 331 211 501 581 461 
6 149 151 150 399 401 400 
6 293 370 317 543 620 567 
6 153 204 152 403 454 402 
6 151 152 150 401 402 400 
6 33 292 140 81 542 390 
6 210 263 197 460 513 447 
6 301 305 249 551 555 499 
6 298 300 297 548 550 547 
6 68 296 142 116 546 392 
6 321 369 291 571 619 541 
6 179 224 177 429 474 427 
6 167 267 165 417 517 415 
6 259 346 262 509 596 512 
6 303 327 196 553 577 446 
6 269 270 155 519 520 405 
6 265 360 313 515 610 563 
6 223 269 157 473 519 407 
6 157 269 155 407 519 405 
6 144 279 278 394 529 528 
6 169 217 167 419 467 417 
6 177 264 175 427 514 425 
6 267 268 165 517 518 415 
6 159 223 157 409 473 407 
6 232 277 135 482 527 385 
6 193 254 190 443 504 440 
6 217 267 167 467 517 417 
6 249 356 142 499 606 392 
6 184 256 181 434 506 431 
6 248 355 219 498 605 469 
6 229 260 137 479 510 387 
6 149 150 148 399 400 398 
6 64 348 281 112 598 531 
6 311 374 293 561 624 543 
6 264 265 175 514 515 425 
6 297 300 296 547 550 546 
6 141 289 288 391 539 538 
6 197 263 195 447 513 445 
6 218 260 219 468 510 469 
6 224 264 177 474 514 427 
6 137 298 297 387 548 547 
6 277 295 135 527 545 385 
6 133 228 227 383 478 477 
6 261 349 262 511 599 512 
6 221 277 222 471 527 472 
6 256 325 224 506 575 474 
6 199 210 197 449 460 447 
6 226 254 193 476 504 443 
6 144 278 62 394 528 110 
6 279 283 278 529 533 528 
6 289 290 288 539 540 538 
6 137 297 70 387 547 118 
6 34 294 292 82 544 542 
6 235 236 216 485 486 466 
6 141 288 48 391 538 96 
6 178 306 180 428 556 430 
6 185 186 184 435 436 434 
6 63 281 144 111 531 394 
6 225 256 184 475 506 434 
6 46 291 136 94 541 386 
6 147 149 148 397 399 398 
6 271 272 204 521 522 454 
6 233 334 234 483 584 484 
6 145 275 40 395 525 88 
6 220 322 287 470 572 537 
6 280 334 213 530 584 463 
6 144 280 279 394 530 529 
6 140 287 32 390 537 80 
6 154 155 153 404 405 403 
6 334 350 213 584 600 463 
6 176 177 175 426 427 425 
6 260 298 137 510 548 387 
6 33 140 32 81 390 80 
6 49 141 48 97 391 96 
6 56 143 55 104 393 103 
6 68 142 67 116 392 115 
6 63 144 62 111 394 110 
6 61 139 60 109 389 108 
6 148 308 257 398 558 507 
6 71 137 70 119 387 118 
6 53 138 52 101 388 100 
6 46 136 45 94 386 93 
6 36 135 35 84 385 83 
6 43 146 134 91 396 384 
6 133 227 38 383 477 86 
6 192 193 190 442 443 440 
6 293 374 140 543 624 390 
6 34 292 33 82 542 81 
6 207 306 178 457 556 428 
6 43 134 42 91 384 90 
6 39 133 38 87 383 86 
6 41 145 40 89 395 88 
6 194 195 193 444 445 443 
6 69 296 68 117 546 116 
6 294 299 292 544 549 542 
6 173 175 171 423 425 421 
6 260 330 219 510 580 469 
6 183 184 181 433 434 431 
6 134 257 42 384 507 90 
6 55 349 54 103 599 102 
6 163 165 161 413 415 411 
6 166 167 165 416 417 415 
6 210 302 263 460 552 513 
6 271 273 272 521 523 522 
6 53 261 138 101 511 388 
6 217 326 267 467 576 517 
6 289 303 290 539 553 540 
6 178 179 177 428 429 427 
6 238 240 202 488 490 452 
6 62 278 61 110 528 109 
6 35 294 34 83 544 82 
6 284 361 232 534 611 482 
6 70 297 69 118 547 117 
6 224 304 264 474 554 514 
6 156 157 155 406 407 405 
6 48 288 47 96 538 95 
6 221 320 295 471 570 545 
6 187 188 186 437 438 436 
6 47 291 46 95 541 94 
6 151 154 153 401 404 403 
6 286 362 229 536 612 479 
6 168 169 167 418 419 417 
6 40 275 39 88 525 87 
6 307 324 141 557 574 391 
6 300 301 296 550 551 546 
6 32 287 31 80 537 79 
6 147 220 149 397 470 399 
6 333 344 231 583 594 481 
6 299 370 293 549 620 543 
6 271 359 273 521 609 523 
6 224 325 304 474 575 554 
6 228 237 227 478 487 477 
6 305 375 343 555 625 593 
6 218 319 298 468 569 548 
6 240 351 272 490 601 522 
6 277 329 222 527 579 472 
6 253 355 139 503 605 389 
6 158 159 157 408 409 407 
6 236 246 216 486 496 466 
6 192 194 193 442 444 443 
6 220 309 149 470 559 399 
6 183 185 184 433 435 434 
6 196 197 195 446 447 445 
6 276 347 58 526 597 106 
6 136 333 231 386 583 481 
6 67 247 66 115 497 114 
6 60 248 59 108 498 107 
6 261 262 250 511 512 500 
6 173 176 175 423 426 425 
6 344 357 231 594 607 481 
6 144 281 280 394 531 530 
6 152 205 150 402 455 400 
6 163 166 165 413 416 415 
6 185 187 186 435 437 436 
6 233 234 230 483 484 480 
6 170 171 169 420 421 419 
6 146 147 134 396 397 384 
6 176 178 177 426 428 427 
6 285 337 223 535 587 473 
6 154 156 155 404 406 405 
6 263 342 226 513 592 476 
6 235 245 236 485 495 486 
6 160 161 159 410 411 409 
6 58 347 242 106 597 492 
6 166 168 167 416 418 417 
6 287 374 220 537 624 470 
6 189 190 188 439 440 438 
6 148 257 134 398 507 384 
6 194 196 195 444 446 445 
6 252 308 205 502 558 455 
6 285 345 337 535 595 587 
6 301 375 305 551 625 555 
6 180 181 179 430 431 429 
6 281 348 234 531 598 484 
6 198 199 197 448 449 447 
6 151 309 154 401 559 404 
6 228 367 335 478 617 585 
6 54 349 261 102 599 511 
6 156 158 157 406 408 407 
6 168 170 169 418 420 419 
6 200 202 199 450 452 449 
6 147 148 134 397 398 384 
6 158 160 159 408 410 409 
6 150 308 148 400 558 398 
6 253 316 208 503 566 458 
6 232 329 277 482 579 527 
6 178 180 179 428 430 429 
6 191 192 190 441 442 440 
6 214 238 202 464 488 452 
6 172 173 171 422 423 421 
6 187 189 188 437 439 438 
6 162 163 161 412 413 411 
6 228 251 237 478 501 487 
6 215 258 235 465 508 485 
6 182 183 181 432 433 431 
6 202 310 199 452 560 449 
6 219 253 208 469 503 458 
6 222 249 206 472 499 456 
6 196 198 197 446 448 447 
6 229 330 260 479 580 510 
6 132 358 274 382 608 524 
6 149 309 151 399 559 401 
6 226 312 254 476 562 504 
6 154 309 209 404 559 459 
6 77 129 76 125 379 124 
6 73 128 72 121 378 120 
6 76 131 75 124 381 123 
6 74 132 73 122 382 121 
6 75 130 74 123 380 122 
6 14 127 77 29 377 125 
6 72 126 14 120 376 29 
6 133 367 228 383 617 478 
6 237 282 227 487 532 477 
6 239 366 252 489 616 502 
6 200 214 202 450 464 452 
6 192 201 194 442 451 444 
6 170 172 171 420 422 421 
6 220 311 309 470 561 559 
6 198 200 199 448 450 449 
6 189 191 190 439 441 440 
6 146 323 322 396 573 572 
6 160 162 161 410 412 411 
6 251 307 237 501 557 487 
6 199 310 210 449 560 460 
6 57 373 56 105 623 104 
6 214 239 238 464 489 488 
6 182 212 183 432 462 433 
6 180 182 181 430 432 431 
6 146 322 147 396 572 397 
6 172 218 208 422 468 458 
6 172 208 173 422 458 423 
6 162 221 206 412 471 456 
6 162 206 163 412 456 413 
6 176 207 178 426 457 428 
6 272 351 204 522 601 454 
6 198 211 200 448 461 450 
6 182 213 212 432 463 462 
6 234 334 281 484 584 531 
6 154 209 156 404 459 406 
6 185 203 187 435 453 437 
6 168 174 170 418 424 420 
6 189 215 191 439 465 441 
6 215 216 191 465 466 441 
6 221 222 206 471 472 456 
6 158 164 160 408 414 410 
6 218 219 208 468 469 458 
6 205 308 150 455 558 400 
6 191 314 192 441 564 442 
6 215 235 216 465 485 466 
6 215 318 258 465 568 508 
6 152 351 205 402 601 455 
6 138 261 250 388 511 500 
6 192 314 201 442 564 451 
6 234 347 230 484 597 480 
6 226 342 312 476 592 562 
6 138 250 233 388 500 483 
6 147 322 220 397 572 470 
6 216 314 191 466 564 441 
6 306 332 180 556 582 430 
6 222 356 249 472 606 499 
6 128 345 285 378 595 535 
6 314 321 201 564 571 451 
6 212 315 183 462 565 433 
6 312 342 336 562 592 586 
6 282 339 338 532 589 588 
6 340 341 323 590 591 573 
6 309 311 209 559 561 459 
6 183 315 185 433 565 435 
6 208 316 173 458 566 423 
6 173 316 176 423 566 426 
6 3 341 37 18 591 85 
6 44 339 6 92 589 21 
6 252 366 145 502 616 395 
6 246 321 314 496 571 564 
6 246 314 216 496 564 466 
6 126 364 313 376 614 563 
6 156 317 158 406 567 408 
6 275 367 133 525 617 383 
6 176 316 207 426 566 457 
6 185 315 203 435 565 453 
6 180 332 182 430 582 432 
6 302 352 131 552 602 381 
6 251 324 307 501 574 557 
6 187 318 189 437 568 439 
6 172 319 218 422 569 468 
6 162 320 221 412 570 471 
6 305 343 166 555 593 416 
6 170 319 172 420 569 422 
6 158 317 164 408 567 414 
6 209 317 156 459 567 406 
6 285 353 128 535 603 378 
6 223 337 269 473 587 519 
6 160 320 162 410 570 412 
6 211 331 200 461 581 450 
6 174 319 170 424 569 420 
6 203 318 187 453 568 437 
6 189 318 215 439 568 465 
6 198 327 211 448 577 461 
6 164 320 160 414 570 410 
6 326 353 267 576 603 517 
6 236 344 333 486 594 583 
6 196 327 198 446 577 448 
6 219 355 253 469 605 503 
6 281 334 280 531 584 530 
6 274 359 271 524 609 521 
6 164 370 299 414 620 549 
6 174 375 300 424 625 550 
6 287 363 31 537 613 79 
6 243 361 1 493 611 16 
6 241 362 12 491 612 27 
6 307 365 237 557 615 487 
6 166 343 168 416 593 418 
6 200 331 214 450 581 464 
6 313 326 217 563 576 467 
6 9 357 244 24 607 494 
6 1 361 30 16 611 78 
6 12 362 65 27 612 113 
6 337 345 132 587 595 382 
6 242 348 64 492 598 112 
6 231 357 266 481 607 516 
6 182 332 213 432 582 463 
6 245 344 236 495 594 486 
6 258 346 259 508 596 509 
6 145 366 275 395 616 525 
6 291 369 136 541 619 386 
6 236 333 246 486 583 496 
6 331 335 214 581 585 464 
6 312 336 129 562 586 379 
6 315 372 262 565 622 512 
6 220 374 311 470 624 561 
6 140 374 287 390 624 537 
6 126 360 304 376 610 554 
6 230 347 276 480 597 526 
6 313 364 326 563 614 576 
6 56 373 143 104 623 393 
6 239 367 366 489 617 616 
6 204 351 152 454 601 402 
6 300 375 301 550 625 551 
6 214 335 239 464 585 489 
6 247 329 243 497 579 493 
6 262 372 250 512 622 500 
6 248 330 241 498 580 491 
6 318 346 258 568 596 508 
6 333 369 246 583 619 496 
6 282 338 227 532 588 477 
6 146 340 323 396 590 573 
6 304 360 264 554 610 514 
6 366 367 275 616 617 525 
6 129 336 76 379 586 124 
6 73 345 128 121 595 378 
6 76 336 131 124 586 381 
6 250 350 233 500 600 483 
6 129 371 328 379 621 578 
6 132 345 73 382 595 121 
6 168 343 174 418 593 424 
6 131 352 75 381 602 123 
6 66 247 243 114 497 493 
6 59 248 241 107 498 491 
6 74 358 132 122 608 382 
6 203 346 318 453 596 568 
6 313 360 126 563 610 376 
6 128 364 72 378 614 120 
6 128 353 326 378 603 576 
6 77 371 129 125 621 379 
6 129 368 312 379 618 562 
6 244 357 344 494 607 594 
6 328 354 225 578 604 475 
6 326 364 128 576 614 378 
6 75 352 130 123 602 380 
6 350 372 212 600 622 462 
6 136 369 333 386 619 583 
6 325 354 127 575 604 377 
6 213 350 212 463 600 462 
6 130 358 74 380 608 122 
6 250 372 350 500 622 600 
6 317 370 164 567 620 414 
6 72 364 126 120 614 376 
6 328 368 129 578 618 379 
6 127 371 77 377 621 125 
6 336 342 131 586 592 381 
6 212 372 315 462 622 565 
6 234 348 347 484 598 597 
6 8 266 51 23 516 99 
6 10 276 58 25 526 106 
6 246 369 321 496 619 571 
6 30 284 0 78 534 15 
6 65 286 13 113 536 28 
6 58 242 11 106 492 26 
6 266 357 51 516 607 99 
6 255 368 328 505 618 578 
6 347 348 242 597 598 492 
6 322 363 287 572 613 537 
6 323 363 322 573 613 572 
6 335 367 239 585 617 489 
6 30 361 284 78 611 534 
6 65 362 286 113 612 536 
6 237 365 282 487 615 532 
6 130 359 358 380 609 608 
6 343 375 174 593 625 424 
6 354 371 127 604 621 377 
6 328 371 354 578 621 604 
6 358 359 274 608 609 524 
6 0 284 36 15 534 84 
6 45 266 8 93 516 23 
6 52 276 10 100 526 25 
6 11 242 64 26 492 112 
6 13 286 71 28 536 119 
6 2 323 3 17 573 18 
6 31 323 2 79 573 17 
6 323 341 3 573 591 18 
6 37 340 4 85 590 19 
6 4 340 43 19 590 91 
6 38 338 5 86 588 20 
6 5 338 44 20 588 92 
6 6 282 7 21 532 22 
6 6 339 282 21 589 532 
6 282 365 7 532 615 22 

CELL_TYPES 563
13
13
13
13
13
13
13
13
13
13
13
13
13
13
13
13
13
13
13
13
13
13
13
13
13
13
13
13
13
13
13
13
13
13
13
13
13
13
13
13
13
13
13
13
13
13
13
13
13
13
13
13
13
13
13
13
13
13
13
13
13
13
13
13
13
13
13
13
13
13
13
13
13
13
13
13
13
13
13
13
13
13
13
13
13
13
13
13
13
13
13
13
13
13
13
13
13
13
13
13
13
13
13
13
13
13
13
13
13
13
13
13
13
13
13
13
13
13
13
13
13
13
13
13
13
13
13
13
13
13
13
13
13
13
13
13
13
13
13
13
13
13
13
13
13
13
13
13
13
13
13
13
13
13
13
13
13
13
13
13
13
13
13
13
13
13
13
13
13
13
13
13
13
13
13
13
13
13
13
13
13
13
13
13
13
13
13
13
13
13
13
13
13
13
13
13
13
13
13
13
13
13
13
13
13
13
13
13
13
13
13
13
13
13
13
13
13
13
13
13
13
13
13
13
13
13
13
13
13
13
13
13
13
13
13
13
13
13
13
13
13
13
13
13
13
13
13
13
13
13
13
13
13
13
13
13
13
13
13
13
13
13
13
13
13
13
13
13
13
13
13
13
13
13
13
13
13
13
13
13
13
13
13
13
13
13
13
13
13
13
13
13
13
13
13
13
13
13
13
13
13
13
13
13
13
13
13
13
13
13
13
13
13
13
13
13
13
13
13
13
13
13
13
13
13
13
13
13
13
13
13
13
13
13
13
13
13
13
13
13
13
13
13
13
13
13
13
13
13
13
13
13
13
13
13
13
13
13
13
13
13
13
13
13
13
13
13
13
13
13
13
13
13
13
13
13
13
13
13
13
13
13
13
13
13
13
13
13
13
13
13
13
13
13
13
13
13
13
13
13
13
13
13
13
13
13
13
13
13
13
13
13
13
13
13
13
13
13
13
13
13
13
13
13
13
13
13
13
13
13
13
13
13
13
13
13
13
13
13
13
13
13
13
13
13
13
13
13
13
13
13
13
13
13
13
13
13
13
13
13
13
13
13
13
13
13
13
13
13
13
13
13
13
13
13
13
13
13
13
13
13
13
13
13
13
13
13
13
13
13
13
13
13
13
13
13
13
13
13
13
13
13
13
13
13
13
13
13
13
13
13
13
13
13
13
13
13
13
13
13
13
13
13
13
13
13
13
13
13
13
13
13
13
13
13
13
13
13
13
13
13
13
13
13
13
13
13
13
13
13
13
13
13
13
13
13
13
13
13
13
13
13
13

POINT_DATA 626
VECTORS displacement float
-1.74037e-06 3.08964e-05 1.80199e-05
1.73212e-06 3.09154e-05 1.80648e-05
-2.59377e-05 1.69607e-05 1.80518e-05
-2.57926e-05 1.60028e-05 1.80165e-05
-2.76685e-05 1.39469e-05 1.80339e-05
-2.76615e-05 -1.39931e-05 1.80593e-05
-2.57638e-05 -1.60409e-05 1.80706e-05
-2.59339e-05 -1.69788e-05 1.81317e-05
-1.67396e-06 -3.09001e-05 1.80163e-05
1.7519e-06 -3.09016e-05 1.80666e-05
2.58951e-05 -1.69486e-05 1.80084e-05
2.76649e-05 -1.39108e-05 1.80082e-05
2.76204e-05 1.39634e-05 1.80564e-05
2.58665e-05 1.69609e-05 1.80109e-05
0 0 0
-1.74037e-06 3.08964e-05 -1.80199e-05
1.73212e-06 3.09154e-05 -1.80648e-05
-2.59377e-05 1.69607e-05 -1.80518e-05
-2.57926e-05 1.60028e-05 -1.80165e-05
-2.76685e-05 1.39469e-05 -1.80339e-05
-2.76615e-05 -1.39931e-05 -1.80593e-05
-2.57638e-05 -1.60409e-05 -1.80706e-05
-2.59339e-05 -1.69788e-05 -1.81317e-05
-1.67396e-06 -3.09001e-05 -1.80163e-05
1.7519e-06 -3.09016e-05 -1.80666e-05
2.58951e-05 -1.69486e-05 -1.80084e-05
2.76649e-05 -1.39108e-05 -1.80082e-05
2.76204e-05 1.39634e-05 -1.80564e-05
2.58665e-05 1.69609e-05 -1.80109e-05
0 0 0
2.48438e-08 3.00979e-05 1.79991e-05
-2.11017e-05 1.86772e-05 1.75157e-05
-1.72011e-05 1.9797e-05 1.68883e-05
-1.39814e-05 2.10156e-05 1.65233e-05
-1.11862e-05 2.26234e-05 1.65171e-05
-8.50798e-06 2.47873e-05 1.68689e-05
-5.55692e-06 2.75706e-05 1.75035e-05
-2.64002e-05 1.46517e-05 1.79984e-05
-2.67189e-05 -8.99533e-06 1.75433e-05
-2.57587e-05 -5.02666e-06 1.68934e-05
-2.52082e-05 -1.63338e-06 1.65397e-05
-2.52112e-05 1.60506e-06 1.65426e-05
-2.57509e-05 5.01406e-06 1.68916e-05
-2.67051e-05 8.96846e-06 1.75299e-05
-2.63872e-05 -1.4698e-05 1.80271e-05
-5.53021e-06 -2.7585e-05 1.74957e-05
-8.46058e-06 -2.47963e-05 1.68682e-05
-1.11495e-05 -2.26428e-05 1.65245e-05
-1.39452e-05 -2.10485e-05 1.65279e-05
-1.71836e-05 -1.98323e-05 1.69041e-05
-2.10953e-05 -1.87139e-05 1.75282e-05
8.96644e-08 -3.00827e-05 1.79942e-05
2.10852e-05 -1.85898e-05 1.74775e-05
1.72133e-05 -1.97255e-05 1.68404e-05
1.40083e-05 -2.09726e-05 1.648e-05
1.12044e-05 -2.25517e-05 1.65145e-05
8.56504e-06 -2.47346e-05 1.68417e-05
5.64364e-06 -2.75752e-05 1.7501e-05
2.60756e-05 -1.50315e-05 1.79932e-05
2.6667e-05 8.92235e-06 1.74676e-05
2.56746e-05 5.04072e-06 1.68759e-05
2.51604e-05 1.62052e-06 1.64915e-05
2.51575e-05 -1.59666e-06 1.64898e-05
2.57032e-05 -4.98861e-06 1.68558e-05
2.66491e-05 -8.90113e-06 1.74757e-05
2.60587e-05 1.50326e-05 1.79903e-05
5.62212e-06 2.75666e-05 1.74756e-05
8.49256e-06 2.47613e-05 1.68787e-05
1.11964e-05 2.25996e-05 1.64977e-05
1.3979e-05 2.09836e-05 1.64931e-05
1.71903e-05 1.97567e-05 1.68526e-05
2.10762e-05 1.85994e-05 1.74914e-05
0 0 0
0 0 0
0 0 0
0 0 0
0 0 0
0 0 0
2.48438e-08 3.00979e-05 -1.79991e-05
-2.11017e-05 1.86772e-05 -1.75157e-05
-1.72011e-05 1.9797e-05 -1.68883e-05
-1.39814e-05 2.10156e-05 -1.65233e-05
-1.11862e-05 2.26234e-05 -1.65171e-05
-8.50798e-06 2.47873e-05 -1.68689e-05
-5.55692e-06 2.75706e-05 -1.75035e-05
-2.64002e-05 1.46517e-05 -1.79984e-05
-2.67189e-05 -8.99533e-06 -1.75433e-05
-2.57587e-05 -5.02666e-06 -1.68934e-05
-2.52082e-05 -1.63338e-06 -1.65397e-05
-2.52112e-05 1.60506e-06 -1.65426e-05
-2.57509e-05 5.01406e-06 -1.68916e-05
-2.67051e-05 8.96846e-06 -1.75299e-05
-2.63872e-05 -1.4698e-05 -1.80271e-05
-5.53021e-06 -2.7585e-05 -1.74957e-05
-8.46058e-06 -2.47963e-05 -1.68682e-05
-1.11495e-05 -2.26428e-05 -1.65245e-05
-1.39452e-05 -2.10485e-05 -1.65279e-05
-1.71836e-05 -1.98323e-05 -1.69041e-05
-2.10953e-05 -1.87139e-05 -1.75282e-05
8.96644e-08 -3.00827e-05 -1.79942e-05
2.10852e-05 -1.85898e-05 -1.74775e-05
1.72133e-05 -1.97255e-05 -1.68404e-05
1.40083e-05 -2.09726e-05 -1.648e-05
1.12044e-05 -2.25517e-05 -1.65145e-05
8.56504e-06 -2.47346e-05 -1.68417e-05
5.64364e-06 -2.75752e-05 -1.7501e-05
2.60756e-05 -1.50315e-05 -1.79932e-05
2.6667e-05 8.92235e-06 -1.74676e-05
2.56746e-05 5.04072e-06 -1.68759e-05
2.51604e-05 1.62052e-06 -1.64915e-05
2.51575e-05 -1.59666e-06 -1.64898e-05
2.57032e-05 -4.98861e-06 -1.68558e-05
2.66491e-05 -8.90113e-06 -1.74757e-05
2.60587e-05 1.50326e-05 -1.79903e-05
5.62212e-06 2.75666e-05 -1.74756e-05
8.49256e-06 2.47613e-05 -1.68787e-05
1.11964e-05 2.25996e-05 -1.64977e-05
1.3979e-05 2.09836e-05 -1.64931e-05
1.71903e-05 1.97567e-05 -1.68526e-05
2.10762e-05 1.85994e-05 -1.74914e-05
0 0 0
0 0 0
0 0 0
0 0 0
0 0 0
0 0 0
1.79121e-06 8.57567e-07 4.54503e-06
1.73543e-06 -8.23983e-07 4.45374e-06
4.31359e-07 1.8471e-06 4.48803e-06
4.355e-07 -1.77821e-06 4.34922e-06
-1.84496e-06 2.09282e-08 4.41539e-06
-1.12156e-06 -1.30709e-06 4.14447e-06
-1.15763e-06 1.30502e-06 4.19317e-06
-2.24717e-05 -7.27449e-06 1.69672e-05
-2.21557e-05 7.35821e-06 1.69359e-05
-4.85137e-06 2.28566e-05 1.69044e-05
-4.84885e-06 -2.30892e-05 1.69312e-05
1.73894e-05 1.56067e-05 1.68972e-05
1.75367e-05 -1.55078e-05 1.69065e-05
2.10353e-05 3.15822e-06 1.62932e-05
-1.39278e-05 1.712e-05 1.64468e-05
-1.35665e-05 -1.67108e-05 1.63786e-05
7.75368e-06 1.97836e-05 1.63e-05
7.67081e-06 -2.02731e-05 1.63711e-05
2.14333e-05 -3.43756e-06 1.63688e-05
-2.10645e-05 6.57088e-09 1.62157e-05
-2.23789e-05 1.09795e-05 1.74198e-05
-1.87168e-05 9.23787e-06 1.65952e-05
-1.79503e-05 5.78502e-06 1.60058e-05
-1.49572e-05 7.43502e-06 1.54571e-05
-1.41993e-05 4.3001e-06 1.48019e-05
-1.15125e-05 5.73387e-06 1.40687e-05
-1.08394e-05 3.06345e-06 1.33491e-05
-8.38631e-06 4.29761e-06 1.2382e-05
-9.04319e-06 7.00133e-06 1.34317e-05
-6.19378e-06 5.47938e-06 1.16682e-05
-6.81662e-06 8.23534e-06 1.30561e-05
-4.27431e-06 6.66387e-06 1.14302e-05
-4.7918e-06 9.59349e-06 1.30701e-05
-2.39688e-06 7.98004e-06 1.17021e-05
-2.80801e-06 1.1148e-05 1.34502e-05
-4.74605e-07 9.57907e-06 1.24784e-05
-7.37065e-07 1.29742e-05 1.41155e-05
1.7281e-06 1.14979e-05 1.35101e-05
-5.52498e-06 1.26781e-05 1.44101e-05
1.68228e-06 8.21028e-06 1.17267e-05
3.99733e-06 1.01036e-05 1.3127e-05
3.69922e-06 7.0862e-06 1.14579e-05
6.05703e-06 8.95133e-06 1.30895e-05
5.75722e-06 6.09663e-06 1.17147e-05
8.34367e-06 8.0065e-06 1.34673e-05
8.09195e-06 5.18648e-06 1.24778e-05
1.09349e-05 7.08466e-06 1.41207e-05
1.07274e-05 4.31533e-06 1.34743e-05
8.51556e-06 1.10181e-05 1.44338e-05
7.92449e-06 2.63934e-06 1.17065e-05
1.06278e-05 1.73422e-06 1.30802e-05
7.93554e-06 3.58165e-07 1.14353e-05
1.07879e-05 -7.57808e-07 1.31002e-05
8.09816e-06 -1.93457e-06 1.16883e-05
1.10791e-05 -3.30713e-06 1.34592e-05
8.45543e-06 -4.4165e-06 1.24216e-05
1.14837e-05 -5.9924e-06 1.40833e-05
8.94015e-06 -7.12582e-06 1.34035e-05
6.13732e-06 -5.48529e-06 1.16206e-05
6.63315e-06 -8.28669e-06 1.29946e-05
4.09844e-06 -6.57765e-06 1.1291e-05
4.51565e-06 -9.53457e-06 1.29647e-05
2.23858e-06 -7.84525e-06 1.15768e-05
2.48057e-06 -1.0983e-05 1.33265e-05
2.24914e-07 -9.35789e-06 1.23314e-05
3.29444e-07 -1.27476e-05 1.40079e-05
-1.91215e-06 -1.11315e-05 1.33526e-05
-1.83802e-06 -7.90848e-06 1.15616e-05
-4.16078e-06 -9.85797e-06 1.30612e-05
-3.80765e-06 -6.71941e-06 1.12972e-05
-6.33477e-06 -8.64722e-06 1.30755e-05
-5.88151e-06 -5.68856e-06 1.16078e-05
-8.4851e-06 -7.42302e-06 1.33552e-05
-8.15377e-06 -4.72009e-06 1.23863e-05
-1.10763e-05 -6.39162e-06 1.40439e-05
-4.364e-06 -1.31002e-05 1.44068e-05
-1.07903e-05 -3.6444e-06 1.34146e-05
7.2135e-06 -1.13529e-05 1.42465e-05
-7.72889e-06 1.97941e-06 1.14726e-05
-1.31931e-05 1.03325e-06 1.41846e-05
1.72607e-06 1.50561e-05 1.49242e-05
1.3744e-05 4.61428e-07 1.43611e-05
1.38187e-05 6.08931e-06 1.49037e-05
-9.67704e-06 1.01784e-05 1.45055e-05
-5.4073e-06 -3.19252e-06 1.01646e-05
-1.16929e-05 -9.28092e-06 1.48614e-05
1.18614e-05 -8.74475e-06 1.47595e-05
1.47554e-05 -7.46027e-06 1.53743e-05
-1.39351e-05 -5.23463e-06 1.48339e-05
2.7909e-06 -1.44905e-05 1.47686e-05
4.23812e-07 -1.647e-05 1.53687e-05
3.51286e-06 4.38997e-06 9.56477e-06
1.39856e-05 9.28246e-06 1.54624e-05
1.78983e-05 8.13024e-06 1.62695e-05
-1.56472e-05 1.13747e-05 1.62026e-05
-1.09213e-06 1.67392e-05 1.54661e-05
1.90339e-06 1.95861e-05 1.62798e-05
-2.08855e-06 5.21181e-06 9.58124e-06
5.54516e-06 -7.83361e-07 9.5778e-06
3.58034e-06 -3.6778e-06 9.06663e-06
-1.77683e-06 -5.1704e-06 9.43354e-06
-2.24273e-05 -1.09906e-05 1.74405e-05
-1.8764e-05 -9.22464e-06 1.66192e-05
2.11088e-05 1.41385e-05 1.74717e-05
2.07155e-05 -1.42911e-05 1.74018e-05
-1.76122e-06 -2.53995e-05 1.7477e-05
-1.67892e-06 2.53636e-05 1.74817e-05
1.76808e-05 -1.18852e-05 1.66552e-05
2.06078e-05 -1.07314e-05 1.7083e-05
3.76881e-06 -1.89509e-05 1.61087e-05
7.6713e-07 -2.03089e-05 1.64513e-05
-1.93695e-05 -1.26273e-05 1.71101e-05
-1.3707e-05 -2.30288e-06 1.4445e-05
-1.65631e-05 -3.69484e-06 1.54484e-05
-1.03582e-05 -1.09452e-06 1.29287e-05
2.44067e-05 1.10525e-05 1.76174e-05
2.545e-05 -1.23803e-05 1.78134e-05
2.64412e-06 2.66765e-05 1.76262e-05
2.51613e-06 -2.63647e-05 1.75952e-05
3.33324e-06 -2.29897e-05 1.69963e-05
-2.05018e-06 -1.82869e-05 1.59206e-05
4.05143e-06 2.37477e-05 1.70974e-05
2.25726e-05 8.36403e-06 1.70863e-05
4.60532e-06 1.72823e-05 1.56975e-05
1.4401e-05 -1.30957e-05 1.61067e-05
-1.57592e-05 -1.09649e-05 1.61837e-05
-1.67699e-05 -3.80755e-07 1.53484e-05
1.72749e-05 4.67908e-06 1.56959e-05
6.5419e-08 -6.37702e-06 1.02497e-05
1.73899e-06 -4.84086e-06 9.07711e-06
5.84102e-06 -2.93077e-06 1.03602e-05
-2.14052e-05 3.74378e-06 1.64274e-05
5.71913e-06 -1.62454e-05 1.54785e-05
9.06708e-06 -1.74675e-05 1.59671e-05
1.75402e-05 1.186e-05 1.66403e-05
1.39689e-05 -1.63524e-05 1.63699e-05
1.07208e-05 -1.37643e-05 1.55207e-05
-3.54234e-06 -4.21351e-06 9.4846e-06
5.39058e-06 1.1367e-06 9.48288e-06
5.20969e-06 3.21771e-06 1.003e-05
-1.74632e-06 -2.83017e-05 1.78421e-05
1.88906e-06 5.29048e-06 9.5681e-06
-1.1364e-07 6.09522e-06 1.00215e-05
-3.77891e-06 4.1212e-06 9.56208e-06
-5.61361e-06 3.02929e-06 1.02675e-05
-5.15734e-06 1.03903e-06 9.19799e-06
-7.51487e-06 -6.1635e-08 1.11528e-05
-4.32772e-06 -8.0904e-07 8.36788e-06
-3.10392e-06 1.86953e-06 7.36194e-06
-2.20409e-05 -3.60131e-06 1.64842e-05
2.33627e-05 -1.56586e-05 1.78014e-05
-1.50442e-06 2.11293e-05 1.665e-05
2.12231e-05 -8.43642e-08 1.61948e-05
1.75905e-05 -1.64386e-06 1.5552e-05
1.73165e-05 -4.9328e-06 1.57408e-05
2.18514e-05 -7.43758e-06 1.6881e-05
-2.31391e-05 -1.4228e-05 1.7798e-05
1.72936e-05 1.64593e-06 1.54793e-05
-1.73058e-06 2.842e-05 1.78593e-05
-4.21439e-07 3.67786e-06 7.48294e-06
2.37277e-05 1.57128e-05 1.78498e-05
-1.74654e-05 1.56134e-05 1.69423e-05
-1.06069e-05 -1.84326e-05 1.62241e-05
-1.00815e-05 -1.43167e-05 1.55423e-05
-7.49432e-06 -1.6066e-05 1.55925e-05
-7.30874e-06 -2.0084e-05 1.63639e-05
-1.0685e-05 1.85016e-05 1.62358e-05
-1.03288e-05 1.43583e-05 1.55898e-05
-7.7584e-06 2.04552e-05 1.64128e-05
-4.24529e-06 1.85761e-05 1.60224e-05
1.07402e-05 1.83122e-05 1.61952e-05
1.38665e-05 1.6904e-05 1.63996e-05
1.40166e-05 1.29494e-05 1.60207e-05
-7.34838e-06 1.62591e-05 1.56089e-05
1.05063e-05 1.4521e-05 1.56156e-05
7.73487e-06 1.60635e-05 1.55844e-05
-3.11177e-06 -1.89591e-06 7.38101e-06
-7.24488e-06 -1.24002e-05 1.4598e-05
3.00427e-06 4.02995e-08 6.59027e-06
4.86402e-06 1.34989e-05 1.45909e-05
1.40513e-05 -2.2564e-06 1.45434e-05
-1.72582e-05 -1.51887e-05 1.69129e-05
-1.73354e-05 2.41598e-06 1.55684e-05
-1.21831e-05 8.89617e-06 1.49155e-05
-7.69287e-06 -2.28873e-06 1.15343e-05
-1.24275e-05 1.17915e-05 1.55107e-05
-1.42521e-07 -3.74857e-06 7.54173e-06
2.72614e-06 2.26868e-06 7.24002e-06
-2.00033e-06 -1.46246e-05 1.47804e-05
9.34868e-06 -1.00506e-05 1.43627e-05
1.38364e-05 3.15226e-06 1.4539e-05
-7.32722e-06 1.11798e-05 1.42339e-05
4.98848e-06 -1.27524e-05 1.43427e-05
1.10124e-05 1.04121e-05 1.48918e-05
-3.59009e-06 1.46593e-05 1.48802e-05
-4.62717e-06 -1.65872e-05 1.55195e-05
-1.94713e-05 1.28687e-05 1.71282e-05
-2.3084e-05 1.48305e-05 1.78088e-05
-1.28818e-05 -1.26633e-05 1.57826e-05
3.75509e-06 -1.58372e-06 7.89384e-06
1.76177e-06 2.91793e-06 7.07283e-06
-9.21428e-06 -1.05909e-05 1.45048e-05
1.72518e-06 -2.81897e-06 6.91974e-06
9.92844e-07 2.40725e-05 1.72751e-05
2.13286e-05 1.11733e-05 1.72652e-05
-1.46385e-05 -7.9392e-06 1.54562e-05
1.36839e-05 -4.77788e-06 1.46633e-05
-1.90634e-06 -2.17233e-05 1.67705e-05
1.80277e-05 -8.40383e-06 1.63096e-05
-1.6649e-05 -6.31724e-06 1.57526e-05
-4.32288e-07 -1.91961e-06 4.79084e-06
-1.80267e-06 2.99097e-06 7.16541e-06
-2.50053e-05 -1.29578e-05 1.78875e-05
-2.50803e-05 -1.44802e-05 1.79671e-05
-2.49985e-05 1.30096e-05 1.78712e-05
-2.50712e-05 1.46226e-05 1.79472e-05
-1.64599e-06 -3.12018e-06 7.19809e-06
6.31694e-06 1.13486e-05 1.40507e-05
5.32709e-07 -2.40418e-05 1.72688e-05
-5.22039e-07 1.807e-06 4.63763e-06
7.39433e-06 -1.43182e-05 1.5124e-05
2.32597e-05 -1.31849e-05 1.76944e-05
2.35889e-05 -1.05183e-05 1.7457e-05
1.19667e-05 -1.81779e-05 1.62622e-05
1.47037e-05 -1.01284e-05 1.57657e-05
-1.00101e-05 9.99545e-07 1.27317e-05
-1.73757e-06 -8.14755e-07 4.71596e-06
7.67906e-07 3.70277e-06 7.56066e-06
2.33962e-06 -1.99423e-06 6.54462e-06
2.01199e-05 5.8872e-06 1.64222e-05
5.06081e-06 2.05586e-05 1.64645e-05
3.41464e-07 -2.76286e-05 1.78194e-05
-1.7288e-06 7.08119e-07 4.59902e-06
-3.20675e-06 6.22132e-07 6.81301e-06
3.57182e-06 1.47319e-06 7.62402e-06
4.9825e-07 2.82711e-05 1.78924e-05
2.47142e-05 1.37086e-05 1.78836e-05
-2.0291e-05 1.5507e-05 1.73954e-05
1.17705e-06 1.36256e-06 4.45278e-06
-2.06016e-05 -1.56992e-05 1.74937e-05
-1.89647e-05 -2.31804e-06 1.5916e-05
-1.95238e-05 -5.57495e-06 1.63012e-05
9.04342e-07 -3.24293e-06 6.99464e-06
-4.35806e-06 -1.97535e-05 1.62908e-05
-7.92322e-06 1.38099e-05 1.50728e-05
1.16411e-06 -1.30236e-06 4.33241e-06
1.19132e-05 -1.12084e-05 1.52635e-05
6.12167e-06 -2.26547e-05 1.67882e-05
-1.44959e-05 1.43293e-05 1.62926e-05
7.91507e-06 1.32977e-05 1.49201e-05
1.79121e-06 8.57567e-07 -4.54503e-06
1.73543e-06 -8.23983e-07 -4.45374e-06
4.31359e-07 1.8471e-06 -4.48803e-06
4.355e-07 -1.77821e-06 -4.34922e-06
-1.84496e-06 2.09282e-08 -4.41539e-06
-1.12156e-06 -1.30709e-06 -4.14447e-06
-1.15763e-06 1.30502e-06 -4.19317e-06
-2.24717e-05 -7.27449e-06 -1.69672e-05
-2.21557e-05 7.35821e-06 -1.69359e-05
-4.85137e-06 2.28566e-05 -1.69044e-05
-4.84885e-06 -2.30892e-05 -1.69312e-05
1.73894e-05 1.56067e-05 -1.68972e-05
1.75367e-05 -1.55078e-05 -1.69065e-05
2.10353e-05 3.15822e-06 -1.62932e-05
-1.39278e-05 1.712e-05 -1.64468e-05
-1.35665e-05 -1.67108e-05 -1.63786e-05
7.75368e-06 1.97836e-05 -1.63e-05
7.67081e-06 -2.02731e-05 -1.63711e-05
2.14333e-05 -3.43756e-06 -1.63688e-05
-2.10645e-05 6.57088e-09 -1.62157e-05
-2.23789e-05 1.09795e-05 -1.74198e-05
-1.87168e-05 9.23787e-06 -1.65952e-05
-1.79503e-05 5.78502e-06 -1.60058e-05
-1.49572e-05 7.43502e-06 -1.54571e-05
-1.41993e-05 4.3001e-06 -1.48019e-05
-1.15125e-05 5.73387e-06 -1.40687e-05
-1.08394e-05 3.06345e-06 -1.33491e-05
-8.38631e-06 4.29761e-06 -1.2382e-05
-9.04319e-06 7.00133e-06 -1.34317e-05
-6.19378e-06 5.47938e-06 -1.16682e-05
-6.81662e-06 8.23534e-06 -1.30561e-05
-4.27431e-06 6.66387e-06 -1.14302e-05
-4.7918e-06 9.59349e-06 -1.30701e-05
-2.39688e-06 7.98004e-06 -1.17021e-05
-2.80801e-06 1.1148e-05 -1.34502e-05
-4.74605e-07 9.57907e-06 -1.24784e-05
-7.37065e-07 1.29742e-05 -1.41155e-05
1.7281e-06 1.14979e-05 -1.35101e-05
-5.52498e-06 1.26781e-05 -1.44101e-05
1.68228e-06 8.21028e-06 -1.17267e-05
3.99733e-06 1.01036e-05 -1.3127e-05
3.69922e-06 7.0862e-06 -1.14579e-05
6.05703e-06 8.95133e-06 -1.30895e-05
5.75722e-06 6.09663e-06 -1.17147e-05
8.34367e-06 8.0065e-06 -1.34673e-05
8.09195e-06 5.18648e-06 -1.24778e-05
1.09349e-05 7.08466e-06 -1.41207e-05
1.07274e-05 4.31533e-06 -1.34743e-05
8.51556e-06 1.10181e-05 -1.44338e-05
7.92449e-06 2.63934e-06 -1.17065e-05
1.06278e-05 1.73422e-06 -1.30802e-05
7.93554e-06 3.58165e-07 -1.14353e-05
1.07879e-05 -7.57808e-07 -1.31002e-05
8.09816e-06 -1.93457e-06 -1.16883e-05
1.10791e-05 -3.30713e-06 -1.34592e-05
8.45543e-06 -4.4165e-06 -1.24216e-05
1.14837e-05 -5.9924e-06 -1.40833e-05
8.94015e-06 -7.12582e-06 -1.34035e-05
6.13732e-06 -5.48529e-06 -1.16206e-05
6.63315e-06 -8.28669e-06 -1.29946e-05
4.09844e-06 -6.57765e-06 -1.1291e-05
4.51565e-06 -9.53457e-06 -1.29647e-05
2.23858e-06 -7.84525e-06 -1.15768e-05
2.48057e-06 -1.0983e-05 -1.33265e-05
2.24914e-07 -9.35789e-06 -1.23314e-05
3.29444e-07 -1.27476e-05 -1.40079e-05
-1.91215e-06 -1.11315e-05 -1.33526e-05
-1.83802e-06 -7.90848e-06 -1.15616e-05
-4.16078e-06 -9.85797e-06 -1.30612e-05
-3.80765e-06 -6.71941e-06 -1.12972e-05
-6.33477e-06 -8.64722e-06 -1.30755e-05
-5.88151e-06 -5.68856e-06 -1.16078e-05
-8.4851e-06 -7.42302e-06 -1.33552e-05
-8.15377e-06 -4.72009e-06 -1.23863e-05
-1.10763e-05 -6.39162e-06 -1.40439e-05
-4.364e-06 -1.31002e-05 -1.44068e-05
-1.07903e-05 -3.6444e-06 -1.34146e-05
7.2135e-06 -1.13529e-05 -1.42465e-05
-7.72889e-06 1.97941e-06 -1.14726e-05
-1.31931e-05 1.03325e-06 -1.41846e-05
1.72607e-06 1.50561e-05 -1.49242e-05
1.3744e-05 4.61428e-07 -1.43611e-05
1.38187e-05 6.08931e-06 -1.49037e-05
-9.67704e-06 1.01784e-05 -1.45055e-05
-5.4073e-06 -3.19252e-06 -1.01646e-05
-1.16929e-05 -9.28092e-06 -1.48614e-05
1.18614e-05 -8.74475e-06 -1.47595e-05
1.47554e-05 -7.46027e-06 -1.53743e-05
-1.39351e-05 -5.23463e-06 -1.48339e-05
2.7909e-06 -1.44905e-05 -1.47686e-05
4.23812e-07 -1.647e-05 -1.53687e-05
3.51286e-06 4.38997e-06 -9.56477e-06
1.39856e-05 9.28246e-06 -1.54624e-05
1.78983e-05 8.13024e-06 -1.62695e-05
-1.56472e-05 1.13747e-05 -1.62026e-05
-1.09213e-06 1.67392e-05 -1.54661e-05
1.90339e-06 1.95861e-05 -1.62798e-05
-2.08855e-06 5.21181e-06 -9.58124e-06
5.54516e-06 -7.83361e-07 -9.5778e-06
3.58034e-06 -3.6778e-06 -9.06663e-06
-1.77683e-06 -5.1704e-06 -9.43354e-06
-2.24273e-05 -1.09906e-05 -1.74405e-05
-1.8764e-05 -9.22464e-06 -1.66192e-05
2.11088e-05 1.41385e-05 -1.74717e-05
2.07155e-05 -1.42911e-05 -1.74018e-05
-1.76122e-06 -2.53995e-05 -1.7477e-05
-1.67892e-06 2.53636e-05 -1.74817e-05
1.76808e-05 -1.18852e-05 -1.66552e-05
2.06078e-05 -1.07314e-05 -1.7083e-05
3.76881e-06 -1.89509e-05 -1.61087e-05
7.6713e-07 -2.03089e-05 -1.64513e-05
-1.93695e-05 -1.26273e-05 -1.71101e-05
-1.3707e-05 -2.30288e-06 -1.4445e-05
-1.65631e-05 -3.69484e-06 -1.54484e-05
-1.03582e-05 -1.09452e-06 -1.29287e-05
2.44067e-05 1.10525e-05 -1.76174e-05
2.545e-05 -1.23803e-05 -1.78134e-05
2.64412e-06 2.66765e-05 -1.76262e-05
2.51613e-06 -2.63647e-05 -1.75952e-05
3.33324e-06 -2.29897e-05 -1.69963e-05
-2.05018e-06 -1.82869e-05 -1.59206e-05
4.05143e-06 2.37477e-05 -1.70974e-05
2.25726e-05 8.36403e-06 -1.70863e-05
4.60532e-06 1.72823e-05 -1.56975e-05
1.4401e-05 -1.30957e-05 -1.61067e-05
-1.57592e-05 -1.09649e-05 -1.61837e-05
-1.67699e-05 -3.80755e-07 -1.53484e-05
1.72749e-05 4.67908e-06 -1.56959e-05
6.5419e-08 -6.37702e-06 -1.02497e-05
1.73899e-06 -4.84086e-06 -9.07711e-06
5.84102e-06 -2.93077e-06 -1.03602e-05
-2.14052e-05 3.74378e-06 -1.64274e-05
5.71913e-06 -1.62454e-05 -1.54785e-05
9.06708e-06 -1.74675e-05 -1.59671e-05
1.75402e-05 1.186e-05 -1.66403e-05
1.39689e-05 -1.63524e-05 -1.63699e-05
1.07208e-05 -1.37643e-05 -1.55207e-05
-3.54234e-06 -4.21351e-06 -9.4846e-06
5.39058e-06 1.1367e-06 -9.48288e-06
5.20969e-06 3.21771e-06 -1.003e-05
-1.74632e-06 -2.83017e-05 -1.78421e-05
1.88906e-06 5.29048e-06 -9.5681e-06
-1.1364e-07 6.09522e-06 -1.00215e-05
-3.77891e-06 4.1212e-06 -9.56208e-06
-5.61361e-06 3.02929e-06 -1.02675e-05
-5.15734e-06 1.03903e-06 -9.19799e-06
-7.51487e-06 -6.1635e-08 -1.11528e-05
-4.32772e-06 -8.0904e-07 -8.36788e-06
-3.10392e-06 1.86953e-06 -7.36194e-06
-2.20409e-05 -3.60131e-06 -1.64842e-05
2.33627e-05 -1.56586e-05 -1.78014e-05
-1.50442e-06 2.11293e-05 -1.665e-05
2.12231e-05 -8.43642e-08 -1.61948e-05
1.75905e-05 -1.64386e-06 -1.5552e-05
1.73165e-05 -4.9328e-06 -1.57408e-05
2.18514e-05 -7.43758e-06 -1.6881e-05
-2.31391e-05 -1.4228e-05 -1.7798e-05
1.72936e-05 1.64593e-06 -1.54793e-05
-1.73058e-06 2.842e-05 -1.78593e-05
-4.21439e-07 3.67786e-06 -7.48294e-06
2.37277e-05 1.57128e-05 -1.78498e-05
-1.74654e-05 1.56134e-05 -1.69423e-05
-1.06069e-05 -1.84326e-05 -1.62241e-05
-1.00815e-05 -1.43167e-05 -1.55423e-05
-7.49432e-06 -1.6066e-05 -1.55925e-05
-7.30874e-06 -2.0084e-05 -1.63639e-05
-1.0685e-05 1.85016e-05 -1.62358e-05
-1.03288e-05 1.43583e-05 -1.55898e-05
-7.7584e-06 2.04552e-05 -1.64128e-05
-4.24529e-06 1.85761e-05 -1.60224e-05
1.07402e-05 1.83122e-05 -1.61952e-05
1.38665e-05 1.6904e-05 -1.63996e-05
1.40166e-05 1.29494e-05 -1.60207e-05
-7.34838e-06 1.62591e-05 -1.56089e-05
1.05063e-05 1.4521e-05 -1.56156e-05
7.73487e-06 1.60635e-05 -1.55844e-05
-3.11177e-06 -1.89591e-06 -7.38101e-06
-7.24488e-06 -1.24002e-05 -1.4598e-05
3.00427e-06 4.02995e-08 -6.59027e-06
4.86402e-06 1.34989e-05 -1.45909e-05
1.40513e-05 -2.2564e-06 -1.45434e-05
-1.72582e-05 -1.51887e-05 -1.69129e-05
-1.73354e-05 2.41598e-06 -1.55684e-05
-1.21831e-05 8.89617e-06 -1.49155e-05
-7.69287e-06 -2.28873e-06 -1.15343e-05
-1.24275e-05 1.17915e-05 -1.55107e-05
-1.42521e-07 -3.74857e-06 -7.54173e-06
2.72614e-06 2.26868e-06 -7.24002e-06
-2.00033e-06 -1.46246e-05 -1.47804e-05
9.34868e-06 -1.00506e-05 -1.43627e-05
1.38364e-05 3.15226e-06 -1.4539e-05
-7.32722e-06 1.11798e-05 -1.42339e-05
4.98848e-06 -1.27524e-05 -1.43427e-05
1.10124e-05 1.04121e-05 -1.48918e-05
-3.59009e-06 1.46593e-05 -1.48802e-05
-4.62717e-06 -1.65872e-05 -1.55195e-05
-1.94713e-05 1.28687e-05 -1.71282e-05
-2.3084e-05 1.48305e-05 -1.78088e-05
-1.28818e-05 -1.26633e-05 -1.57826e-05
3.75509e-06 -1.58372e-06 -7.89384e-06
1.76177e-06 2.91793e-06 -7.07283e-06
-9.21428e-06 -1.05909e-05 -1.45048e-05
1.72518e-06 -2.81897e-06 -6.91974e-06
9.92844e-07 2.40725e-05 -1.72751e-05
2.13286e-05 1.11733e-05 -1.72652e-05
-1.46385e-05 -7.9392e-06 -1.54562e-05
1.36839e-05 -4.77788e-06 -1.46633e-05
-1.90634e-06 -2.17233e-05 -1.67705e-05
1.80277e-05 -8.40383e-06 -1.63096e-05
-1.6649e-05 -6.31724e-06 -1.57526e-05
-4.32288e-07 -1.91961e-06 -4.79084e-06
-1.80267e-06 2.99097e-06 -7.16541e-06
-2.50053e-05 -1.29578e-05 -1.78875e-05
-2.50803e-05 -1.44802e-05 -1.79671e-05
-2.49985e-05 1.30096e-05 -1.78712e-05
-2.50712e-05 1.46226e-05 -1.79472e-05
-1.64599e-06 -3.12018e-06 -7.19809e-06
6.31694e-06 1.13486e-05 -1.40507e-05
5.32709e-07 -2.40418e-05 -1.72688e-05
-5.22039e-07 1.807e-06 -4.63763e-06
7.39433e-06 -1.43182e-05 -1.5124e-05
2.32597e-05 -1.31849e-05 -1.76944e-05
2.35889e-05 -1.05183e-05 -1.7457e-05
1.19667e-05 -1.81779e-05 -1.62622e-05
1.47037e-05 -1.01284e-05 -1.57657e-05
-1.00101e-05 9.99545e-07 -1.27317e-05
-1.73757e-06 -8.14755e-07 -4.71596e-06
7.67906e-07 3.70277e-06 -7.56066e-06
2.33962e-06 -1.99423e-06 -6.54462e-06
2.01199e-05 5.8872e-06 -1.64222e-05
5.06081e-06 2.05586e-05 -1.64645e-05
3.41464e-07 -2.76286e-05 -1.78194e-05
-1.7288e-06 7.08119e-07 -4.59902e-06
-3.20675e-06 6.22132e-07 -6.81301e-06
3.57182e-06 1.47319e-06 -7.62402e-06
4.9825e-07 2.82711e-05 -1.78924e-05
2.47142e-05 1.37086e-05 -1.78836e-05
-2.0291e-05 1.5507e-05 -1.73954e-05
1.17705e-06 1.36256e-06 -4.45278e-06
-2.06016e-05 -1.56992e-05 -1.74937e-05
-1.89647e-05 -2.31804e-06 -1.5916e-05
-1.95238e-05 -5.57495e-06 -1.63012e-05
9.04342e-07 -3.24293e-06 -6.99464e-06
-4.35806e-06 -1.97535e-05 -1.62908e-05
-7.92322e-06 1.38099e-05 -1.50728e-05
1.16411e-06 -1.30236e-06 -4.33241e-06
1.19132e-05 -1.12084e-05 -1.52635e-05
6.12167e-06 -2.26547e-05 -1.67882e-05
-1.44959e-05 1.43293e-05 -1.62926e-05
7.91507e-06 1.32977e-05 -1.49201e-05
SCALARS effective_fluid_pressure_TPM float
LOOKUP_TABLE default
663.81
663.81
663.81
663.81
663.81
663.81
663.81
663.81
663.81
663.81
663.81
663.81
663.81
663.81
133
663.81
663.81
663.81
663.81
663.81
663.81
663.81
663.81
663.81
663.81
663.81
663.81
663.81
663.81
133
663.81
559.33
519.753
501.929
501.7
518.881
558.951
663.81
560.994
519.847
502.371
502.48
519.779
560.616
663.81
558.619
518.752
501.874
502.091
520.247
560.632
663.81
557.876
518.097
500.664
501.358
517.947
558.464
663.81
557.517
519.035
500.995
500.927
518.469
556.957
663.81
557.673
519.049
501.168
501.03
518.457
558.677
133
133
133
133
133
133
663.81
559.33
519.753
501.929
501.7
518.881
558.951
663.81
560.994
519.847
502.371
502.48
519.779
560.616
663.81
558.619
518.752
501.874
502.091
520.247
560.632
663.81
557.876
518.097
500.664
501.358
517.947
558.464
663.81
557.517
519.035
500.995
500.927
518.469
556.957
663.81
557.673
519.049
501.168
501.03
518.457
558.677
133
133
133
133
133
133
228.018
226.094
226.805
223.881
225.293
219.629
220.643
528.237
527.249
525.631
527.007
525.657
526.709
497.833
502.67
500.713
498.074
500.585
500.367
493.463
561.509
518.073
494.168
479.906
460.567
442.527
424.336
401.462
426.555
384.646
417.044
379.006
417.207
385.329
426.671
403.634
443.627
428.356
449.49
385.937
418.603
379.599
417.617
385.568
427.043
403.562
443.737
427.442
450.085
385.413
417.469
379.016
417.824
384.937
426.879
402.259
442.802
425.737
383.434
415.446
375.708
414.655
382.409
423.708
400.19
440.956
424.514
382.146
417.083
375.973
417.4
383.229
424.555
401.554
441.927
449.88
426.011
445.248
380.124
443.918
464.487
447.975
463.962
452.635
350.369
462.707
460.243
477.613
461.976
459.85
477.518
336.775
479.984
504.964
502.728
480.05
505.27
337.187
336.998
325.689
333.92
562.383
518.747
566.575
561.371
566.892
566.746
520.89
541.76
497.75
512.832
541.107
450.681
476.742
413.969
578.493
609.942
578.646
575.013
533.61
493.61
537.276
536.973
484.185
497.237
502.446
472.312
484.232
352.208
325.939
354.632
502.553
476.879
487.498
519.961
501.138
477.075
335.043
334.906
347.172
612.354
336.876
347.044
336.763
352.664
328.706
372.668
310.221
288.402
503.816
607.299
520.182
492.848
477.487
485.499
525.564
599.274
475.728
614.803
291.004
614.702
527.788
493.658
477.395
478.566
500.427
493.964
478.593
501.62
494.3
492.87
501.372
494.373
479.039
479.204
478.208
288.907
453.803
271.596
454.21
452.841
526.073
478.629
464.412
381.49
479.664
292.274
285.702
460.676
448.855
453.189
445.085
447.913
462.795
462.454
479.109
542.499
600.633
486.634
299.887
282.09
452.228
278.8
551.264
551.023
479.931
457.221
525.297
507.286
487.729
233.478
284.183
613.413
635.187
614.046
635.542
284.902
440.58
552.103
230.242
466.733
589.216
565.03
494.935
489.185
409.357
231.871
292.699
270.783
506.993
508.288
606.733
229.421
276.619
294.03
617.776
617.689
557.525
226.288
561.531
487.45
502.503
280.48
503.172
465.563
223.779
472.754
518.654
502.089
461.637
228.018
226.094
226.805
223.881
225.293
219.629
220.643
528.237
527.249
525.631
527.007
525.657
526.709
497.833
502.67
500.713
498.074
500.585
500.367
493.463
561.509
518.073
494.168
479.906
460.567
442.527
424.336
401.462
426.555
384.646
417.044
379.006
417.207
385.329
426.671
403.634
443.627
428.356
449.49
385.937
418.603
379.599
417.617
385.568
427.043
403.562
443.737
427.442
450.085
385.413
417.469
379.016
417.824
384.937
426.879
402.259
442.802
425.737
383.434
415.446
375.708
414.655
382.409
423.708
400.19
440.956
424.514
382.146
417.083
375.973
417.4
383.229
424.555
401.554
441.927
449.88
426.011
445.248
380.124
443.918
464.487
447.975
463.962
452.635
350.369
462.707
460.243
477.613
461.976
459.85
477.518
336.775
479.984
504.964
502.728
480.05
505.27
337.187
336.998
325.689
333.92
562.383
518.747
566.575
561.371
566.892
566.746
520.89
541.76
497.75
512.832
541.107
450.681
476.742
413.969
578.493
609.942
578.646
575.013
533.61
493.61
537.276
536.973
484.185
497.237
502.446
472.312
484.232
352.208
325.939
354.632
502.553
476.879
487.498
519.961
501.138
477.075
335.043
334.906
347.172
612.354
336.876
347.044
336.763
352.664
328.706
372.668
310.221
288.402
503.816
607.299
520.182
492.848
477.487
485.499
525.564
599.274
475.728
614.803
291.004
614.702
527.788
493.658
477.395
478.566
500.427
493.964
478.593
501.62
494.3
492.87
501.372
494.373
479.039
479.204
478.208
288.907
453.803
271.596
454.21
452.841
526.073
478.629
464.412
381.49
479.664
292.274
285.702
460.676
448.855
453.189
445.085
447.913
462.795
462.454
479.109
542.499
600.633
486.634
299.887
282.09
452.228
278.8
551.264
551.023
479.931
457.221
525.297
507.286
487.729
233.478
284.183
613.413
635.187
614.046
635.542
284.902
440.58
552.103
230.242
466.733
589.216
565.03
494.935
489.185
409.357
231.871
292.699
270.783
506.993
508.288
606.733
229.421
276.619
294.03
617.776
617.689
557.525
226.288
561.531
487.45
502.503
280.48
503.172
465.563
223.779
472.754
518.654
502.089
461.637

CELL_DATA 563
TENSORS stress float
164.281 -24.8952 -4.98801e-12
-24.8952 28.0207 -5.35394e-12
-4.98801e-12 -5.35394e-12 -12.7041

-40.2436 -21.2706 1.33952e-12
-21.2706 -7.33701 -2.2539e-12
1.33952e-12 -2.2539e-12 -10.2086

-9.91624 27.9767 -7.22859e-12
27.9767 -1.10762 1.14161e-12
-7.22859e-12 1.14161e-12 -6.34914

-40.3322 -29.773 -1.72677e-12
-29.773 -12.8156 -4.84531e-12
-1.72677e-12 -4.84531e-12 -10.5744

-22.639 19.8855 1.09335e-12
19.8855 -1.91579 3.92079e-12
1.09335e-12 3.92079e-12 -22.9688

-27.0748 -18.0315 -9.54348e-13
-18.0315 15.8502 -2.70421e-12
-9.54348e-13 -2.70421e-12 -6.39995

160.937 26.4565 -2.55322e-12
26.4565 27.8984 8.02913e-12
-2.55322e-12 8.02913e-12 -13.3614

-5.94687 29.8871 -4.26266e-12
29.8871 -10.0877 -3.25665e-15
-4.26266e-12 -3.25665e-15 -7.26154

34.5492 5.47015 -2.31755e-12
5.47015 -19.0496 -1.9544e-12
-2.31755e-12 -1.9544e-12 -4.12055

11.8326 -7.46001 2.28469e-12
-7.46001 -48.1737 -1.88383e-12
2.28469e-12 -1.88383e-12 -8.92732

103.946 16.2745 -8.96705e-12
16.2745 -8.49078 9.82917e-13
-8.96705e-12 9.82917e-13 -22.5059

-34.5551 -13.4215 1.36528e-12
-13.4215 18.9214 2.19854e-12
1.36528e-12 2.19854e-12 -7.16608

-6.0111 27.7673 -3.30817e-12
27.7673 -4.58021 7.59689e-13
-3.30817e-12 7.59689e-13 -6.14757

-35.4673 -14.3062 1.24885e-12
-14.3062 7.82674 -4.8613e-13
1.24885e-12 -4.8613e-13 -9.11138

-23.599 33.235 4.69077e-12
33.235 -24.9376 -1.77943e-12
4.69077e-12 -1.77943e-12 -21.3178

21.2609 0.559606 7.3482e-13
0.559606 -32.2614 -3.08312e-12
7.3482e-13 -3.08312e-12 -5.57938

-48.8455 -17.9272 -2.17378e-12
-17.9272 6.32793 -5.30391e-12
-2.17378e-12 -5.30391e-12 -12.9176

11.6326 -2.6589 3.29603e-12
-2.6589 -43.1464 -1.34381e-12
3.29603e-12 -1.34381e-12 -8.01659

-11.3243 26.6106 4.28665e-12
26.6106 19.4696 -3.32179e-13
4.28665e-12 -3.32179e-13 -6.08543

21.7135 -4.18553 5.97448e-13
-4.18553 -35.2108 -8.96542e-13
5.97448e-13 -8.96542e-13 -6.72986

-24.4208 8.64817 3.63531e-12
8.64817 32.0518 2.7948e-12
3.63531e-12 2.7948e-12 -4.92876

-11.7821 6.27318 2.33001e-12
6.27318 -11.9458 -3.03757e-12
2.33001e-12 -3.03757e-12 -75.4534

22.6886 1.87154 -2.99257e-12
1.87154 -33.3896 -5.32685e-13
-2.99257e-12 -5.32685e-13 -6.66683

-12.3587 -27.6493 6.62877e-13
-27.6493 1.59552 1.16055e-13
6.62877e-13 1.16055e-13 -6.59203

21.2533 6.83308 -1.24108e-12
6.83308 -34.2227 -2.15235e-12
-1.24108e-12 -2.15235e-12 -6.7951

-37.8158 19.0678 -5.42122e-12
19.0678 2.64737 2.48572e-12
-5.42122e-12 2.48572e-12 -9.43746

106.36 4.1726 -8.91968e-12
4.1726 20.5194 4.96669e-12
-8.91968e-12 4.96669e-12 -12.1064

-5.28955 30.6729 -3.0429e-12
30.6729 -7.255 3.95832e-13
-3.0429e-12 3.95832e-13 -7.42838

27.8172 36.9917 -6.84608e-12
36.9917 26.3983 -9.80549e-13
-6.84608e-12 -9.80549e-13 -8.64704

-9.41756 10.2998 2.51651e-13
10.2998 -32.8574 2.3026e-12
2.51651e-13 2.3026e-12 -49.4002

19.7844 14.1834 1.36424e-12
14.1834 -29.2889 5.06114e-12
1.36424e-12 5.06114e-12 -5.98948

-4.21203 -17.7405 1.81188e-12
-17.7405 59.5135 2.38624e-12
1.81188e-12 2.38624e-12 -8.49129

66.1134 -42.0251 1.82373e-12
-42.0251 70.9608 -8.76336e-14
1.82373e-12 -8.76336e-14 -11.3147

-48.1003 5.9734 -4.27452e-12
5.9734 7.25208 2.28943e-12
-4.27452e-12 2.28943e-12 -40.9475

-26.2302 -4.83002 -1.03177e-13
-4.83002 1.75359 1.32723e-12
-1.03177e-13 1.32723e-12 -37.7178

-1.46393 20.9795 -2.58016e-12
20.9795 -39.417 3.56885e-12
-2.58016e-12 3.56885e-12 -41.0132

-43.8782 5.05692 7.36729e-12
5.05692 0.512796 -3.02573e-12
7.36729e-12 -3.02573e-12 -52.0769

-2.75252 -9.14872 5.7927e-12
-9.14872 -20.7217 4.76517e-13
5.7927e-12 4.76517e-13 -35.8163

-3.9641 -27.9318 -1.19608e-12
-27.9318 -4.59916 1.56734e-12
-1.19608e-12 1.56734e-12 -5.98344

65.4279 41.4452 -7.16701e-12
41.4452 72.9846 -4.81037e-12
-7.16701e-12 -4.81037e-12 -11.0274

60.0101 -17.9094 -8.96942e-12
-17.9094 0.1058 -3.42008e-12
-8.96942e-12 -3.42008e-12 -8.06747

-41.7108 -3.69844 -3.90547e-12
-3.69844 -1.18325 -8.22261e-12
-3.90547e-12 -8.22261e-12 -52.6105

-14.5622 19.5123 5.94014e-12
19.5123 -28.4877 6.81825e-13
5.94014e-12 6.81825e-13 -52.7186

18.0985 -12.2443 -1.18424e-13
-12.2443 -29.8276 1.69316e-12
-1.18424e-13 1.69316e-12 -6.21112

38.066 -43.2106 4.33431e-12
-43.2106 41.6858 -1.88531e-12
4.33431e-12 -1.88531e-12 -14.5904

58.0033 -18.0238 9.00021e-13
-18.0238 -2.30664 3.43311e-12
9.00021e-13 3.43311e-12 -7.92841

-21.3919 17.0452 4.37724e-12
17.0452 30.2545 2.2092e-12
4.37724e-12 2.2092e-12 -5.72408

-11.3453 19.2933 -1.69524e-12
19.2933 25.4506 3.31705e-12
-1.69524e-12 3.31705e-12 -3.91966

20.7417 -16.2622 -2.77941e-12
-16.2622 -33.036 -4.21885e-14
-2.77941e-12 -4.21885e-14 -7.29879

12.5721 -34.1105 -5.60322e-12
-34.1105 46.3183 -9.0831e-13
-5.60322e-12 -9.0831e-13 -10.4155

62.2093 19.1397 7.69518e-12
19.1397 2.791 2.73322e-12
7.69518e-12 2.73322e-12 -8.43395

46.4027 -25.23 -6.53581e-12
-25.23 5.11632 -3.4639e-14
-6.53581e-12 -3.4639e-14 -5.62216

-31.8219 19.4411 1.4803e-14
19.4411 -4.27526 -1.56556e-12
1.4803e-14 -1.56556e-12 -26.0272

36.9487 29.5819 -6.37357e-12
29.5819 14.4748 9.02389e-13
-6.37357e-12 9.02389e-13 -5.44469

-27.3864 -21.7627 -5.51322e-12
-21.7627 -8.20881 -7.64638e-13
-5.51322e-12 -7.64638e-13 -25.1913

64.7161 -42.6274 -8.05282e-13
-42.6274 43.9622 2.21334e-12
-8.05282e-13 2.21334e-12 -9.544

-27.6854 5.44762 2.0286e-12
5.44762 2.66414 -3.03875e-12
2.0286e-12 -3.03875e-12 -38.2223

-5.55022 -5.31854 -3.45383e-12
-5.31854 57.2519 -2.02386e-12
-3.45383e-12 -2.02386e-12 -5.46177

-0.198453 10.3604 -7.27448e-12
10.3604 -24.7909 -2.99718e-12
-7.27448e-12 -2.99718e-12 -38.2838

-26.4224 21.3622 -1.76688e-12
21.3622 12.19 -2.91204e-12
-1.76688e-12 -2.91204e-12 -6.85803

4.71539 5.74067 8.00545e-13
5.74067 -55.9097 4.9886e-13
8.00545e-13 4.9886e-13 -13.9498

0.539198 11.4324 -1.58984e-13
11.4324 -33.9764 -1.15108e-12
-1.58984e-13 -1.15108e-12 -14.8058

106.117 31.7665 -6.84489e-12
31.7665 37.7259 5.92119e-14
-6.84489e-12 5.92119e-14 -7.547

-35.4078 -6.02079 -9.56568e-13
-6.02079 10.5772 -2.85993e-12
-9.56568e-13 -2.85993e-12 -13.4482

-35.277 9.49742 -5.55556e-13
9.49742 1.23154 -3.31587e-14
-5.55556e-13 -3.31587e-14 -14.9259

-42.4872 -2.87392 1.2376e-12
-2.87392 21.0613 1.18246e-12
1.2376e-12 1.18246e-12 -11.2148

-44.8035 23.3475 3.8225e-13
23.3475 -5.87878 -1.39562e-12
3.8225e-13 -1.39562e-12 -13.8909

9.94745 8.44344 -1.9836e-14
8.44344 -42.2778 1.46934e-12
-1.9836e-14 1.46934e-12 -9.05846

-12.3055 -28.1721 2.34982e-12
-28.1721 1.68305 -1.9084e-12
2.34982e-12 -1.9084e-12 -6.66318

1.30644 -1.70726 -1.07188e-12
-1.70726 -55.3266 -1.0966e-12
-1.07188e-12 -1.0966e-12 -11.2786

-31.8114 -19.2176 1.37727e-12
-19.2176 -4.584 -1.202e-12
1.37727e-12 -1.202e-12 -25.8968

-27.9108 21.2588 -8.941e-14
21.2588 -8.33838 -2.87485e-12
-8.941e-14 -2.87485e-12 -25.9551

-0.661549 -16.5459 -1.65009e-12
-16.5459 61.5258 1.07742e-11
-1.65009e-12 1.07742e-11 -7.96649

-0.648637 -27.8704 2.94342e-12
-27.8704 -21.31 -6.33153e-12
2.94342e-12 -6.33153e-12 -12.7631

-14.0592 -25.075 2.16242e-12
-25.075 7.38987 7.84558e-13
2.16242e-12 7.84558e-13 -5.22701

91.459 -31.6513 -6.14856e-12
-31.6513 19.399 -1.94333e-12
-6.14856e-12 -1.94333e-12 -16.3861

-33.6263 3.21502 3.46168e-12
3.21502 9.17811 -2.18729e-12
3.46168e-12 -2.18729e-12 -18.5218

2.74596 28.8757 1.0895e-12
28.8757 -24.3671 -4.40685e-12
1.0895e-12 -4.40685e-12 -11.2923

-38.3427 19.6179 -1.77961e-12
19.6179 5.21712 2.34953e-12
-1.77961e-12 2.34953e-12 -9.21554

50.069 7.98101 -3.45205e-12
7.98101 -16.93 -5.38828e-13
-3.45205e-12 -5.38828e-13 -7.07218

59.8868 -33.8655 3.67587e-12
-33.8655 33.6999 -3.11691e-12
3.67587e-12 -3.11691e-12 -7.01609

-18.9145 -10.5635 6.97427e-12
-10.5635 -0.539005 2.17485e-12
6.97427e-12 2.17485e-12 -25.3731

-33.8468 23.844 -1.09779e-12
23.844 -11.9947 -2.23242e-12
-1.09779e-12 -2.23242e-12 -14.5075

58.0128 -32.3148 2.93336e-12
-32.3148 18.0334 -3.23889e-12
2.93336e-12 -3.23889e-12 -10.16

66.7037 10.7666 8.3548e-12
10.7666 8.4841 8.7456e-13
8.3548e-12 8.7456e-13 -5.10724

7.62819 -21.1629 -2.95941e-12
-21.1629 88.2571 -7.79939e-12
-2.95941e-12 -7.79939e-12 -11.9005

-33.9051 14.3916 3.82516e-12
14.3916 20.1901 6.48962e-13
3.82516e-12 6.48962e-13 -7.53272

8.45603 23.0881 4.51609e-12
23.0881 -26.012 -3.55035e-12
4.51609e-12 -3.55035e-12 -11.2749

34.7682 42.1125 -2.08781e-12
42.1125 46.0763 3.65574e-12
-2.08781e-12 3.65574e-12 -14.4521

-4.3856 16.4703 1.81373e-12
16.4703 -35.4627 1.07219e-11
1.81373e-12 1.07219e-11 -73.1266

-5.97124 -4.09972 -2.46321e-12
-4.09972 57.8111 2.08781e-12
-2.46321e-12 2.08781e-12 -5.45388

-1.81578 -16.5953 1.62178e-11
-16.5953 -39.3144 -2.44442e-12
1.62178e-11 -2.44442e-12 -73.9483

-3.32155 -27.2715 -2.88421e-12
-27.2715 -29.9604 2.70628e-12
-2.88421e-12 2.70628e-12 -21.5063

8.94593 27.3599 2.58342e-12
27.3599 -29.9241 5.18341e-12
2.58342e-12 5.18341e-12 -11.2335

45.6018 -24.3543 -3.6593e-13
-24.3543 5.00774 -1.79619e-12
-3.6593e-13 -1.79619e-12 -5.24785

10.0597 31.2539 -8.30743e-13
31.2539 47.0456 -1.60583e-12
-8.30743e-13 -1.60583e-12 -9.65692

14.2247 -10.6837 4.43438e-12
-10.6837 82.6503 2.20505e-12
4.43438e-12 2.20505e-12 -6.48018

-38.5421 21.9192 3.65189e-13
21.9192 2.93493 1.75593e-12
3.65189e-13 1.75593e-12 -8.55001

1.19025 16.7546 1.07085e-12
16.7546 -25.6612 3.25665e-12
1.07085e-12 3.25665e-12 -18.5259

-26.4743 15.118 -2.62205e-12
15.118 18.4063 -1.19016e-13
-2.62205e-12 -1.19016e-13 -5.69755

43.5556 15.9162 -1.71596e-12
15.9162 -7.26991 1.59828e-12
-1.71596e-12 1.59828e-12 -4.0808

12.5417 -21.4257 -1.61352e-12
-21.4257 57.8193 7.79939e-12
-1.61352e-12 7.79939e-12 -4.73426

65.8391 -29.3283 2.22637e-13
-29.3283 18.5831 -1.00779e-12
2.22637e-13 -1.00779e-12 -9.36509

-32.3049 -24.5151 -9.4591e-14
-24.5151 -7.26438 3.55419e-12
-9.4591e-14 3.55419e-12 -8.95672

-22.6135 27.3861 -3.2235e-12
27.3861 -10.3255 -1.05397e-12
-3.2235e-12 -1.05397e-12 -9.264

-38.2611 23.1332 3.29899e-12
23.1332 1.98672 4.49033e-12
3.29899e-12 4.49033e-12 -8.50602

-51.4335 13.1385 -6.46502e-12
13.1385 11.8988 8.54428e-13
-6.46502e-12 8.54428e-13 -16.4303

23.4296 9.34999 -5.50671e-13
9.34999 -29.4171 2.16168e-12
-5.50671e-13 2.16168e-12 -5.31214

3.74127 -4.65658 -2.56772e-12
-4.65658 79.2512 3.99799e-12
-2.56772e-12 3.99799e-12 -9.56022

-44.8361 -36.7481 1.88027e-12
-36.7481 -19.7837 4.43053e-13
1.88027e-12 4.43053e-13 -14.7383

-16.0417 27.3999 6.29274e-12
27.3999 1.33757 -6.69687e-13
6.29274e-12 -6.69687e-13 -6.9029

-5.03141 2.16726 4.5004e-12
2.16726 82.475 2.11031e-12
4.5004e-12 2.11031e-12 -13.4608

68.8811 34.5375 1.13687e-13
34.5375 15.4384 3.21106e-12
1.13687e-13 3.21106e-12 -10.7368

-31.2776 -22.9196 -4.87669e-12
-22.9196 -4.62146 -1.31243e-12
-4.87669e-12 -1.31243e-12 -8.5115

11.7156 5.7195 3.45117e-12
5.7195 -48.2225 -2.92418e-12
3.45117e-12 -2.92418e-12 -8.6223

42.9632 27.1415 -3.01625e-12
27.1415 10.4226 -2.64855e-12
-3.01625e-12 -2.64855e-12 -5.09365

-9.39259 12.7164 7.29787e-14
12.7164 -14.0055 3.19744e-14
7.29787e-14 3.19744e-14 -36.9574

70.1699 24.2787 2.26663e-12
24.2787 23.7372 8.88178e-13
2.26663e-12 8.88178e-13 -6.83206

-10.5613 -13.0252 -3.44554e-12
-13.0252 -13.8877 4.40181e-12
-3.44554e-12 4.40181e-12 -37.2945

-4.37441 0.777659 -2.16701e-12
0.777659 59.2582 -3.10389e-12
-2.16701e-12 -3.10389e-12 -4.84402

38.2647 -2.22972 -3.06718e-13
-2.22972 -23.7562 4.15127e-12
-3.06718e-13 4.15127e-12 -5.83054

3.58496 -15.7322 1.59768e-12
-15.7322 -53.8476 -6.12251e-13
1.59768e-12 -6.12251e-13 -21.0775

-42.178 24.3314 2.10545e-13
24.3314 -11.709 2.00136e-13
2.10545e-13 2.00136e-13 -11.1424

-46.7029 -13.5033 -2.64898e-12
-13.5033 11.0417 5.71395e-13
-2.64898e-12 5.71395e-13 -12.3263

5.79609 -7.98178 -3.3511e-12
-7.98178 -70.8036 1.02066e-12
-3.3511e-12 1.02066e-12 -14.8494

-49.4254 -22.2327 1.51005e-12
-22.2327 3.7401 -1.24375e-12
1.51005e-12 -1.24375e-12 -22.0551

-17.4188 -6.58093 3.16547e-12
-6.58093 -13.0853 -1.71781e-12
3.16547e-12 -1.71781e-12 -34.7037

-28.662 -29.8381 8.65382e-13
-29.8381 -9.37778 -3.67351e-12
8.65382e-13 -3.67351e-12 -8.97613

15.6432 11.4304 -2.56595e-12
11.4304 79.9951 1.75978e-12
-2.56595e-12 1.75978e-12 -6.56381

42.1883 -28.0826 -2.52361e-12
-28.0826 11.0213 3.55982e-12
-2.52361e-12 3.55982e-12 -5.05676

-47.0622 -13.7409 7.39409e-13
-13.7409 4.18514 3.12284e-12
7.39409e-13 3.12284e-12 -29.2363

2.95871 0.503288 3.18264e-14
0.503288 -56.6791 -1.64394e-12
3.18264e-14 -1.64394e-12 -10.9804

-39.245 -21.4746 7.87222e-13
-21.4746 -8.83627 -4.10694e-12
7.87222e-13 -4.10694e-12 -14.7411

-40.1008 25.638 -2.05406e-12
25.638 -14.6568 8.2497e-13
-2.05406e-12 8.2497e-13 -11.2855

32.1806 -31.395 5.44986e-12
-31.395 38.3377 3.68416e-12
5.44986e-12 3.68416e-12 -4.6684

-31.3959 -7.06944 5.12198e-12
-7.06944 1.69639 -1.26181e-12
5.12198e-12 -1.26181e-12 -40.9016

36.532 -33.0107 -3.33363e-12
-33.0107 71.86 -5.37407e-12
-3.33363e-12 -5.37407e-12 -7.18449

16.5736 -19.1341 -9.64562e-13
-19.1341 -25.8079 1.87228e-12
-9.64562e-13 1.87228e-12 -7.11981

1.49946 1.96583 -4.50832e-12
1.96583 -51.2721 2.61243e-12
-4.50832e-12 2.61243e-12 -15.3399

-12.8469 17.8341 -1.84327e-12
17.8341 -16.9149 4.21855e-12
-1.84327e-12 4.21855e-12 -40.9691

10.6823 20.1385 -4.0193e-12
20.1385 59.3145 -1.64017e-12
-4.0193e-12 -1.64017e-12 -4.37638

4.30881 27.146 1.26654e-12
27.146 -16.185 4.23661e-13
1.26654e-12 4.23661e-13 -8.10789

30.8311 -24.4535 3.97904e-12
-24.4535 -8.11424 2.48631e-12
3.97904e-12 2.48631e-12 -4.87248

-37.6981 -17.7966 -2.72105e-12
-17.7966 2.39503 4.50662e-12
-2.72105e-12 4.50662e-12 -9.84307

55.3806 34.9966 -5.15972e-12
34.9966 42.2395 3.51482e-12
-5.15972e-12 3.51482e-12 -6.6703

-39.921 -21.7798 -8.49099e-13
-21.7798 2.53061 3.19152e-13
-8.49099e-13 3.19152e-13 -9.37373

2.9594 30.7774 8.39625e-13
30.7774 -17.3469 -1.96465e-12
8.39625e-13 -1.96465e-12 -9.06048

18.4936 -25.184 1.93623e-13
-25.184 -19.3716 5.90343e-13
1.93623e-13 5.90343e-13 -6.33267

-15.6165 -25.0667 -5.9656e-13
-25.0667 5.88197 1.62359e-12
-5.9656e-13 1.62359e-12 -5.76578

42.6158 -18.6446 5.03301e-12
-18.6446 -9.14693 -2.09018e-12
5.03301e-12 -2.09018e-12 -5.37394

27.3664 -18.8048 -8.98837e-13
-18.8048 -20.3203 7.18151e-12
-8.98837e-13 7.18151e-12 -5.68421

-41.2969 -25.2781 -9.1808e-13
-25.2781 -14.9287 -6.94926e-13
-9.1808e-13 -6.94926e-13 -11.5411

29.7034 35.8891 -2.96296e-12
35.8891 25.1591 5.46999e-12
-2.96296e-12 5.46999e-12 -8.6595

-28.45 15.3401 -7.05643e-12
15.3401 18.4758 -2.39334e-12
-7.05643e-12 -2.39334e-12 -5.86269

-23.0537 26.3598 -1.97768e-13
26.3598 -12.517 5.54697e-12
-1.97768e-13 5.54697e-12 -9.93646

-41.998 25.4144 -1.06702e-13
25.4144 -11.5648 -2.04533e-12
-1.06702e-13 -2.04533e-12 -10.968

-37.2001 11.594 1.82756e-12
11.594 11.8167 6.34752e-13
1.82756e-12 6.34752e-13 -9.06053

64.2437 -8.20833 8.62125e-13
-8.20833 3.1837 3.10862e-15
8.62125e-13 3.10862e-15 -4.26903

8.70803 18.5653 1.92439e-12
18.5653 59.0818 -3.09086e-13
1.92439e-12 -3.09086e-13 -4.18086

-25.5535 -24.3228 1.99514e-12
-24.3228 0.457547 8.26302e-13
1.99514e-12 8.26302e-13 -7.20063

-1.13848 25.6051 4.47227e-12
25.6051 13.7202 -1.07292e-12
4.47227e-12 -1.07292e-12 -4.08016

32.2958 -35.5493 -1.76688e-12
-35.5493 21.6404 6.15152e-12
-1.76688e-12 6.15152e-12 -8.50063

59.3872 38.2354 -4.4551e-12
38.2354 17.7815 6.49318e-12
-4.4551e-12 6.49318e-12 -13.7521

12.0854 -33.2369 -9.03573e-13
-33.2369 42.8051 4.39352e-12
-9.03573e-13 4.39352e-12 -9.55825

30.4761 -31.0901 -4.41721e-12
-31.0901 36.7251 5.15736e-12
-4.41721e-12 5.15736e-12 -4.42388

11.7415 -6.82267 -2.46025e-13
-6.82267 -48.7233 3.12454e-12
-2.46025e-13 3.12454e-12 -8.7507

25.2112 30.2741 2.46795e-12
30.2741 40.9913 -7.78518e-12
2.46795e-12 -7.78518e-12 -4.47398

62.5363 13.2649 -2.29624e-12
13.2649 5.20955 1.82106e-12
-2.29624e-12 1.82106e-12 -4.3239

-7.02073 13.3483 -3.66078e-12
13.3483 61.196 7.72123e-13
-3.66078e-12 7.72123e-13 -8.7095

11.6972 -22.291 -3.50416e-12
-22.291 55.6321 2.66454e-12
-3.50416e-12 2.66454e-12 -4.31982

-47.1512 -1.08871 -1.66548e-12
-1.08871 12.3805 6.51331e-13
-1.66548e-12 6.51331e-13 -22.1129

-5.91058 2.24227 -7.57468e-13
2.24227 58.8647 3.67706e-12
-7.57468e-13 3.67706e-12 -5.27502

6.24164 31.0201 1.92794e-12
31.0201 47.7458 -4.25141e-12
1.92794e-12 -4.25141e-12 -9.67587

-39.6315 12.0792 1.50549e-12
12.0792 12.8153 -3.6362e-12
1.50549e-12 -3.6362e-12 -9.29212

40.6392 -27.5841 9.20153e-13
-27.5841 8.33386 -6.69687e-13
9.20153e-13 -6.69687e-13 -5.65301

7.52205 20.509 -8.93507e-13
20.509 -47.3567 -1.87554e-12
-8.93507e-13 -1.87554e-12 -16.4457

-3.41319 26.2094 5.21538e-12
26.2094 -31.4142 -7.37484e-13
5.21538e-12 -7.37484e-13 -22.2032

15.7401 -18.5233 -1.94156e-12
-18.5233 -29.9417 3.91035e-12
-1.94156e-12 3.91035e-12 -8.16703

4.41955 -1.79695 6.21725e-15
-1.79695 -34.0537 2.5846e-13
6.21725e-15 2.5846e-13 -24.3841

-14.3057 -31.7368 -4.21293e-13
-31.7368 -11.902 6.69006e-12
-4.21293e-13 6.69006e-12 -9.03037

56.0812 23.2757 -9.9476e-14
23.2757 0.805579 -4.7784e-13
-9.9476e-14 -4.7784e-13 -8.3033

-27.7626 30.0915 -8.03801e-13
30.0915 -9.21453 1.04095e-12
-8.03801e-13 1.04095e-12 -8.78072

-26.9399 29.1374 -1.51168e-12
29.1374 -9.18007 -9.13047e-13
-1.51168e-12 -9.13047e-13 -8.65844

28.5574 30.5927 1.7053e-12
30.5927 40.3096 -2.58874e-12
1.7053e-12 -2.58874e-12 -4.46808

0.342271 27.0211 -1.97412e-12
27.0211 -19.7983 8.05282e-13
-1.97412e-12 8.05282e-13 -11.7516

64.3518 3.51744 -9.53312e-13
3.51744 -11.8136 2.30749e-12
-9.53312e-13 2.30749e-12 -10.0331

-14.8646 31.7429 1.96051e-12
31.7429 -20.7502 3.4112e-12
1.96051e-12 3.4112e-12 -12.4198

-37.8545 -12.5704 3.83915e-13
-12.5704 8.16087 1.81544e-12
3.83915e-13 1.81544e-12 -13.9916

-0.474082 24.2219 -2.6068e-12
24.2219 -29.929 -2.54434e-12
-2.6068e-12 -2.54434e-12 -20.7251

-23.6716 -29.5094 1.0066e-12
-29.5094 -11.9068 4.43704e-12
1.0066e-12 4.43704e-12 -8.82365

-38.0577 -4.88682 2.5777e-12
-4.88682 18.8023 -5.73171e-13
2.5777e-12 -5.73171e-13 -11.7048

69.7802 -24.5031 3.81088e-12
-24.5031 17.9738 8.24822e-13
3.81088e-12 8.24822e-13 -7.07389

39.8854 29.6258 7.25938e-13
29.6258 13.4442 6.34988e-12
7.25938e-13 6.34988e-12 -5.22783

-4.29762 14.6634 4.46754e-13
14.6634 60.4253 -8.40809e-14
4.46754e-13 -8.40809e-14 -8.41631

1.60838 -1.13627 -1.59117e-12
-1.13627 -55.9922 3.54849e-12
-1.59117e-12 3.54849e-12 -11.1839

9.59152 0.00221846 3.78305e-12
0.00221846 -44.6482 -2.72273e-13
3.78305e-12 -2.72273e-13 -8.41984

-31.0053 23.0693 3.93966e-12
23.0693 -4.32685 -3.92575e-13
3.93966e-12 -3.92575e-13 -8.44026

-34.6815 23.8157 -1.75504e-12
23.8157 -13.1615 -4.75546e-13
-1.75504e-12 -4.75546e-13 -14.7798

-43.2773 -24.3241 1.48442e-12
-24.3241 -12.5839 1.4837e-12
1.48442e-12 1.4837e-12 -11.4429

-38.9666 -0.671017 1.9403e-13
-0.671017 20.997 3.20455e-12
1.9403e-13 3.20455e-12 -10.4731

-40.711 25.5309 -9.28443e-13
25.5309 -13.191 3.06229e-12
-9.28443e-13 3.06229e-12 -11.1471

32.2439 -10.2834 1.94274e-12
-10.2834 -25.095 4.50647e-12
1.94274e-12 4.50647e-12 -6.00947

8.68148 -32.7572 2.50881e-12
-32.7572 22.74 1.54543e-12
2.50881e-12 1.54543e-12 -6.99655

2.39175 -2.29537 -1.15567e-12
-2.29537 -49.8444 3.44909e-13
-1.15567e-12 3.44909e-13 -14.7394

36.6546 -34.4311 3.12284e-12
-34.4311 24.4138 -2.19084e-13
3.12284e-12 -2.19084e-13 -7.72649

-38.2046 19.0419 -1.57666e-12
19.0419 -7.07665 -8.47322e-13
-1.57666e-12 -8.47322e-13 -14.4169

7.85224 -26.4164 2.52776e-12
-26.4164 -27.9282 -4.6955e-12
2.52776e-12 -4.6955e-12 -10.9457

63.7981 -9.66781 -2.8623e-12
-9.66781 5.65656 7.8774e-12
-2.8623e-12 7.8774e-12 -5.09224

6.02685 -23.1375 1.31569e-12
-23.1375 -35.3854 -5.77553e-12
1.31569e-12 -5.77553e-12 -17.697

0.141605 2.35283 3.80436e-13
2.35283 -56.0429 -9.4369e-13
3.80436e-13 -9.4369e-13 -11.5202

-4.05232 -23.2667 -4.27806e-12
-23.2667 -23.3568 -8.15644e-13
-4.27806e-12 -8.15644e-13 -16.6827

11.013 -25.7985 -1.84741e-12
-25.7985 -29.4159 1.52204e-12
-1.84741e-12 1.52204e-12 -9.71317

10.1775 -8.52579 -2.18225e-12
-8.52579 -43.3873 2.32259e-13
-2.18225e-12 2.32259e-13 -9.26135

-35.3356 -23.0147 -8.01137e-13
-23.0147 -12.616 6.29459e-13
-8.01137e-13 6.29459e-13 -15.0692

23.6063 -31.2684 2.17308e-12
-31.2684 5.69606 -1.02081e-12
2.17308e-12 -1.02081e-12 -5.88137

11.034 -24.529 -2.83921e-12
-24.529 -27.4294 5.21124e-12
-2.83921e-12 5.21124e-12 -10.0271

46.5303 10.8392 -1.51109e-12
10.8392 -16.0843 -8.10315e-13
-1.51109e-12 -8.10315e-13 -6.80386

-14.153 26.2784 5.2219e-12
26.2784 -15.6025 1.19238e-12
5.2219e-12 1.19238e-12 -14.0876

-45.1472 -37.526 -1.23516e-12
-37.526 -20.5655 -2.174e-12
-1.23516e-12 -2.174e-12 -14.8864

-43.6075 37.179 -1.65497e-12
37.179 -21.2179 3.26709e-12
-1.65497e-12 3.26709e-12 -14.7372

-61.0445 -28.5069 2.39882e-12
-28.5069 -7.4801 -3.53436e-12
2.39882e-12 -3.53436e-12 -15.1665

-58.2814 27.0012 -9.85804e-13
27.0012 -6.2575 -8.91139e-13
-9.85804e-13 -8.91139e-13 -14.4465

5.58709 -8.50823 2.05821e-12
-8.50823 -70.9001 -1.0032e-12
2.05821e-12 -1.0032e-12 -14.6775

4.38659 9.25246 6.61989e-13
9.25246 -68.6737 -7.61761e-13
6.61989e-13 -7.61761e-13 -14.4061

9.00282 -9.82275 3.36501e-12
-9.82275 -40.7934 1.59324e-12
3.36501e-12 1.59324e-12 -9.59106

-24.2795 32.0426 1.65497e-13
32.0426 -24.7539 -1.31594e-12
1.65497e-13 -1.31594e-12 -21.0985

-25.4643 -32.779 -3.13024e-12
-32.779 -25.0394 1.00353e-12
-3.13024e-12 1.00353e-12 -21.422

-53.797 16.0313 6.47926e-13
16.0313 3.39397 -2.22962e-12
6.47926e-13 -2.22962e-12 -21.3556

-52.3011 -15.7643 1.93105e-12
-15.7643 3.28958 -1.62625e-12
1.93105e-12 -1.62625e-12 -21.0295

6.09863 -3.7389 4.7636e-13
-3.7389 -43.8239 -1.38556e-13
4.7636e-13 -1.38556e-13 -25.7076

6.90278 3.60204 -2.05465e-12
3.60204 -46.2421 -3.19034e-12
-2.05465e-12 -3.19034e-12 -26.0832

-15.5923 9.81378 -7.44516e-13
9.81378 46.1516 -3.10152e-12
-7.44516e-13 -3.10152e-12 -5.85168

-22.8648 -24.7157 1.68576e-12
-24.7157 -14.5181 -3.00278e-12
1.68576e-12 -3.00278e-12 -10.3074

-56.4727 -36.3031 2.72027e-12
-36.3031 -14.4995 1.75534e-12
2.72027e-12 1.75534e-12 -13.4079

33.28 -4.65321 -2.61361e-12
-4.65321 -19.7997 -1.78442e-12
-2.61361e-12 -1.78442e-12 -3.94289

3.42508 -16.6569 -5.16328e-13
-16.6569 -52.5081 -8.61237e-13
-5.16328e-13 -8.61237e-13 -21.4851

3.66582 16.139 -4.91666e-12
16.139 -51.7655 8.48506e-13
-4.91666e-12 8.48506e-13 -21.3585

6.53997 0.121639 3.82509e-13
0.121639 -76.5771 1.12793e-12
3.82509e-13 1.12793e-12 -13.275

-7.5569 23.321 -2.69858e-12
23.321 39.8383 -4.28694e-13
-2.69858e-12 -4.28694e-13 -6.89018

-56.7579 36.0876 1.94748e-12
36.0876 -13.9794 -1.2621e-12
1.94748e-12 -1.2621e-12 -13.3597

-39.7011 -23.341 -2.84424e-12
-23.341 2.55581 2.57276e-12
-2.84424e-12 2.57276e-12 -8.78139

37.0272 23.2983 2.05228e-12
23.2983 -8.59525 -3.48817e-12
2.05228e-12 -3.48817e-12 -5.76135

4.72402 23.8022 1.81248e-12
23.8022 -38.1373 2.63167e-12
1.81248e-12 2.63167e-12 -18.9443

23.9552 -31.2402 1.74083e-12
-31.2402 6.39051 4.19753e-12
1.74083e-12 4.19753e-12 -5.65161

2.42571 -3.2235 -1.67599e-12
-3.2235 -48.2571 2.05761e-12
-1.67599e-12 2.05761e-12 -14.7095

-60.3182 -34.0818 -4.4554e-12
-34.0818 -14.3173 -5.69559e-12
-4.4554e-12 -5.69559e-12 -14.0004

-17.4145 8.30029 -1.73602e-12
8.30029 45.5824 4.73695e-15
-1.73602e-12 4.73695e-15 -5.78374

-9.45123 21.7608 -2.58519e-12
21.7608 40.327 1.88412e-12
-2.58519e-12 1.88412e-12 -6.65805

58.4626 35.703 -2.04281e-12
35.703 36.9954 1.90189e-12
-2.04281e-12 1.90189e-12 -6.9487

70.3134 1.57494 5.2213e-12
1.57494 -5.54687 -3.96794e-12
5.2213e-12 -3.96794e-12 -10.3949

-30.6875 -22.7516 1.38467e-12
-22.7516 -13.3248 -1.19107e-12
1.38467e-12 -1.19107e-12 -14.4334

32.7539 31.1212 6.37594e-12
31.1212 69.6334 -8.66862e-13
6.37594e-12 -8.66862e-13 -6.71546

-19.33 23.5541 4.85123e-12
23.5541 7.66933 -3.04704e-12
4.85123e-12 -3.04704e-12 -5.50287

47.522 -5.33718 1.30148e-12
-5.33718 -17.3974 1.82032e-12
1.30148e-12 1.82032e-12 -6.82577

33.1395 11.1894 -2.46914e-13
11.1894 -23.5823 4.99156e-12
-2.46914e-13 4.99156e-12 -6.01004

6.23918 0.42891 -2.20387e-12
0.42891 -77.3729 1.51046e-12
-2.20387e-12 1.51046e-12 -13.4204

-58.8001 -28.9637 -2.11216e-12
-28.9637 -6.27377 -5.94665e-12
-2.11216e-12 -5.94665e-12 -14.6649

-28.268 -6.30442 1.09853e-12
-6.30442 -11.3343 -1.58806e-12
1.09853e-12 -1.58806e-12 -51.476

-44.5949 37.3252 -3.5163e-12
37.3252 -20.7642 -2.47617e-13
-3.5163e-12 -2.47617e-13 -14.7412

93.5825 1.66042 4.59958e-12
1.66042 16.5992 1.76799e-12
4.59958e-12 1.76799e-12 -6.0821

10.0086 -32.7109 2.56269e-12
-32.7109 21.2568 -1.66445e-12
2.56269e-12 -1.66445e-12 -6.81266

-56.8045 36.528 -1.2413e-12
36.528 -14.5381 -8.0395e-13
-1.2413e-12 -8.0395e-13 -13.4757

-34.9957 -11.1076 3.01309e-12
-11.1076 19.1316 2.19025e-12
3.01309e-12 2.19025e-12 -8.30011

-5.46962 -25.4555 1.94037e-12
-25.4555 37.2587 -4.45273e-12
1.94037e-12 -4.45273e-12 -6.99183

-58.3177 28.7631 -1.70523e-12
28.7631 -6.25724 -1.57829e-12
-1.70523e-12 -1.57829e-12 -14.5822

28.4279 -26.0805 -2.07597e-12
-26.0805 -4.90139 -3.10862e-13
-2.07597e-12 -3.10862e-13 -4.69771

-21.1237 10.459 -2.05969e-12
10.459 -18.5177 -1.0528e-11
-2.05969e-12 -1.0528e-11 -51.5714

3.42059 30.8004 3.71318e-12
30.8004 27.0949 2.45137e-12
3.71318e-12 2.45137e-12 -6.73723

6.12582 8.1083 4.03085e-13
8.1083 -72.1308 -3.46256e-12
4.03085e-13 -3.46256e-12 -14.9515

-11.5182 30.1199 -4.68958e-13
30.1199 -20.5551 1.56527e-12
-4.68958e-13 1.56527e-12 -11.5236

-30.7249 23.2769 2.48083e-12
23.2769 -5.08757 1.75238e-12
2.48083e-12 1.75238e-12 -8.44617

-25.8042 -32.4143 4.76952e-13
-32.4143 -24.0583 6.2846e-13
4.76952e-13 6.2846e-13 -21.5112

9.18425 -23.1352 3.56515e-12
-23.1352 -27.8562 -4.81334e-12
3.56515e-12 -4.81334e-12 -11.4013

-37.5726 10.447 4.48419e-13
10.447 8.90834 -1.93741e-12
4.48419e-13 -1.93741e-12 -25.2745

-22.9855 -23.3784 3.84581e-13
-23.3784 4.94108 -8.5875e-12
3.84581e-13 -8.5875e-12 -6.25052

88.6 -9.68596 9.42653e-12
-9.68596 10.7598 -5.30376e-12
9.42653e-12 -5.30376e-12 -10.0681

83.8438 -14.2504 2.44664e-12
-14.2504 2.77926 8.8581e-13
2.44664e-12 8.8581e-13 -13.2301

5.87496 16.4902 -2.03719e-12
16.4902 -33.8532 -3.12846e-12
-2.03719e-12 -3.12846e-12 -22.3262

-16.3821 22.4482 -3.26465e-12
22.4482 16.1898 3.16961e-12
-3.26465e-12 3.16961e-12 -5.07848

-3.90313 29.094 5.9952e-12
29.094 -12.2005 -4.74909e-12
5.9952e-12 -4.74909e-12 -8.37971

50.8727 0.687032 -4.31299e-12
0.687032 -6.51906 2.2302e-12
-4.31299e-12 2.2302e-12 -3.64344

-48.029 6.55614 -4.22625e-13
6.55614 14.7511 -4.38405e-12
-4.22625e-13 -4.38405e-12 -18.911

10.0925 16.502 1.30799e-12
16.502 -35.9942 -6.90411e-13
1.30799e-12 -6.90411e-13 -9.115

-4.49775 -25.7012 2.12038e-12
-25.7012 35.4684 8.73968e-13
2.12038e-12 8.73968e-13 -6.75142

-39.0983 -2.56646 2.26835e-12
-2.56646 21.4536 1.16174e-12
2.26835e-12 1.16174e-12 -10.647

-7.97324 13.3344 -1.27631e-12
13.3344 44.3004 -2.33295e-13
-1.27631e-12 -2.33295e-13 -3.95003

3.72576 -29.6429 -2.17426e-12
-29.6429 -17.3233 -4.19398e-12
-2.17426e-12 -4.19398e-12 -8.90298

21.3743 -29.8778 -1.52175e-13
-29.8778 14.7209 2.23939e-12
-1.52175e-13 2.23939e-12 -3.92339

6.86028 31.5495 -1.85748e-12
31.5495 25.3378 7.11135e-13
-1.85748e-12 7.11135e-13 -6.83308

2.77944 -14.9862 -4.51846e-12
-14.9862 -39.1795 3.21276e-12
-4.51846e-12 3.21276e-12 -63.1724

-46.0529 2.03636 -1.03917e-13
2.03636 11.4347 -1.29911e-12
-1.03917e-13 -1.29911e-12 -22.7063

-55.3188 20.2532 -2.3103e-12
20.2532 3.08869 -4.11434e-12
-2.3103e-12 -4.11434e-12 -22.8654

5.90271 15.4043 1.161e-12
15.4043 -58.6844 -2.93188e-12
1.161e-12 -2.93188e-12 -22.9852

-18.8768 -26.1268 -1.49836e-12
-26.1268 -12.8827 2.89665e-12
-1.49836e-12 2.89665e-12 -9.63162

41.2489 17.9151 1.70767e-12
17.9151 -6.25772 2.89872e-12
1.70767e-12 2.89872e-12 -3.86646

-44.5805 -5.28229 -1.69057e-12
-5.28229 4.52676 2.06087e-12
-1.69057e-12 2.06087e-12 -39.059

7.48173 -18.9439 -1.6982e-12
-18.9439 -39.8006 -1.44803e-12
-1.6982e-12 -1.44803e-12 -11.634

30.2194 -15.5618 3.61785e-13
-15.5618 -20.46 -1.86458e-12
3.61785e-13 -1.86458e-12 -4.8009

-9.61692 11.5764 2.90138e-14
11.5764 44.2146 -6.70279e-13
2.90138e-14 -6.70279e-13 -3.86406

8.31276 -25.6746 3.12284e-12
-25.6746 32.9136 -4.57471e-12
3.12284e-12 -4.57471e-12 -3.64084

-10.2212 -25.215 -4.99156e-13
-25.215 -19.0549 2.35264e-12
-4.99156e-13 2.35264e-12 -23.1232

16.9629 31.8846 -3.30343e-12
31.8846 11.1683 9.5568e-13
-3.30343e-12 9.5568e-13 -5.74913

-1.06713 -25.0764 -2.87444e-12
-25.0764 -30.691 -3.70074e-13
-2.87444e-12 -3.70074e-13 -20.8452

47.9522 2.59134 4.02996e-12
2.59134 -8.39167 -5.25654e-12
4.02996e-12 -5.25654e-12 -3.5386

6.5076 -28.872 3.16132e-12
-28.872 71.8732 -2.97007e-12
3.16132e-12 -2.97007e-12 -14.5829

21.7391 -29.1628 -4.32188e-12
-29.1628 13.93 -4.34319e-12
-4.32188e-12 -4.34319e-12 -3.93568

35.2592 32.0941 2.84217e-13
32.0941 73.9634 1.89478e-13
2.84217e-13 1.89478e-13 -5.48058

-45.1771 -11.8495 -2.5964e-12
-11.8495 13.8894 -2.79303e-12
-2.5964e-12 -2.79303e-12 -15.2927

-14.3893 -13.7889 -5.68271e-12
-13.7889 43.2782 -1.89596e-12
-5.68271e-12 -1.89596e-12 -5.67573

-19.2013 -23.9344 -6.20896e-12
-23.9344 -19.7862 -1.68236e-12
-6.20896e-12 -1.68236e-12 -64.1125

2.43111 23.7158 4.85893e-12
23.7158 35.9218 5.4096e-12
4.85893e-12 5.4096e-12 -3.71774

-15.1471 -32.6498 4.05513e-12
-32.6498 -21.0696 1.33582e-12
4.05513e-12 1.33582e-12 -14.2815

-14.5339 -11.9349 3.22535e-12
-11.9349 45.4214 -8.15821e-12
3.22535e-12 -8.15821e-12 -5.74266

7.81727 -19.0723 4.18717e-12
-19.0723 -43.0209 5.15736e-13
4.18717e-12 5.15736e-13 -12.604

6.52896 23.8219 8.26598e-13
23.8219 35.0884 -1.6532e-12
8.26598e-13 -1.6532e-12 -3.44987

23.119 -4.96365 -1.85629e-12
-4.96365 -30.603 3.16636e-13
-1.85629e-12 3.16636e-13 -5.35506

36.8617 -30.2931 -4.34497e-12
-30.2931 122.372 1.53951e-12
-4.34497e-12 1.53951e-12 -6.30624

-26.8055 20.9641 -4.94449e-12
20.9641 8.41382 -4.10457e-12
-4.94449e-12 -4.10457e-12 -7.11706

40.2411 -19.2783 -3.82154e-12
-19.2783 -11.3478 -1.67599e-12
-3.82154e-12 -1.67599e-12 -5.72881

6.51366 -21.3963 -3.16399e-12
-21.3963 -45.4534 -1.87791e-12
-3.16399e-12 -1.87791e-12 -24.9165

20.654 31.6797 1.4803e-13
31.6797 9.53212 -5.80869e-13
1.4803e-13 -5.80869e-13 -5.8095

13.8855 -29.9005 8.89955e-13
-29.9005 -7.58801 -2.78562e-12
8.89955e-13 -2.78562e-12 -5.93786

6.73914 20.8361 2.14525e-12
20.8361 -27.7258 2.23199e-12
2.14525e-12 2.23199e-12 -11.0844

-38.1842 -28.0108 5.03064e-12
-28.0108 -14.0043 1.01867e-12
5.03064e-12 1.01867e-12 -11.0358

8.62484 -26.1645 1.78583e-12
-26.1645 31.0969 -1.54188e-12
1.78583e-12 -1.54188e-12 -3.64224

15.2941 28.9134 -2.48335e-12
28.9134 19.1083 -9.18969e-13
-2.48335e-12 -9.18969e-13 -3.88792

28.5725 26.1294 4.56524e-12
26.1294 -5.62104 -2.57098e-12
4.56524e-12 -2.57098e-12 -4.80213

7.89654 -14.5753 4.3879e-12
-14.5753 -36.7908 -3.33304e-12
4.3879e-12 -3.33304e-12 -13.9602

-6.82637 -16.5791 -2.20535e-12
-16.5791 41.2429 -1.29082e-13
-2.20535e-12 -1.29082e-13 -3.96438

17.3999 -17.5267 -4.66471e-12
-17.5267 -30.9252 1.19978e-12
-4.66471e-12 1.19978e-12 -7.09103

19.7949 16.8681 1.41516e-12
16.8681 -31.5892 5.5446e-12
1.41516e-12 5.5446e-12 -7.32115

-33.6 -9.36558 -3.38063e-12
-9.36558 8.736 -2.14939e-13
-3.38063e-12 -2.14939e-13 -23.9389

43.3293 -13.3985 1.66385e-12
-13.3985 -8.35042 7.71945e-12
1.66385e-12 7.71945e-12 -3.80915

-19.3334 0.593033 -2.95038e-12
0.593033 43.0429 -4.15904e-12
-2.95038e-12 -4.15904e-12 -4.77585

27.9898 18.5108 -1.98774e-12
18.5108 -18.1555 2.50496e-12
-1.98774e-12 2.50496e-12 -4.74499

25.4677 27.5387 4.96433e-12
27.5387 -3.76732 -1.79856e-12
4.96433e-12 -1.79856e-12 -4.77071

-6.70063 -15.65 2.79717e-12
-15.65 43.6951 -7.25227e-12
2.79717e-12 -7.25227e-12 -3.85378

-19.86 -1.19926 3.4673e-12
-1.19926 42.028 -3.59298e-12
3.4673e-12 -3.59298e-12 -4.68675

-5.46087 29.0661 2.0132e-12
29.0661 -23.5908 -4.06578e-12
2.0132e-12 -4.06578e-12 -16.76

-37.1853 -10.8963 2.00403e-12
-10.8963 21.629 7.90479e-13
2.00403e-12 7.90479e-13 -7.81435

27.0782 -26.6523 1.04627e-12
-26.6523 -5.51808 -1.4803e-13
1.04627e-12 -1.4803e-13 -4.9438

40.621 21.2827 3.16073e-12
21.2827 -8.35319 -3.49824e-12
3.16073e-12 -3.49824e-12 -5.47165

12.3491 23.6094 -2.8173e-12
23.6094 -27.0625 -2.53338e-12
-2.8173e-12 -2.53338e-12 -8.64916

-37.7067 5.45782 2.93617e-13
5.45782 23.2566 9.45022e-13
2.93617e-13 9.45022e-13 -8.57977

18.5481 28.9978 -4.73636e-12
28.9978 17.3362 2.72197e-12
-4.73636e-12 2.72197e-12 -3.95254

-9.9658 22.9103 -1.28164e-12
22.9103 -14.8767 4.10338e-13
-1.28164e-12 4.10338e-13 -23.9721

68.1275 -59.5898 8.0315e-12
-59.5898 36.211 7.5436e-13
8.0315e-12 7.5436e-13 -23.0667

17.4896 -24.9883 -4.29878e-13
-24.9883 -17.9489 -1.49984e-12
-4.29878e-13 -1.49984e-12 -6.40737

10.0195 7.05669 1.35447e-12
7.05669 82.3601 5.43328e-12
1.35447e-12 5.43328e-12 -7.19692

11.8922 -28.8208 -3.06125e-13
-28.8208 -3.87191 -1.87879e-12
-3.06125e-13 -1.87879e-12 -5.16011

-66.9966 -52.6306 1.80004e-12
-52.6306 142.918 -1.9611e-12
1.80004e-12 -1.9611e-12 -49.7595

-68.4374 51.3826 2.79362e-12
51.3826 142.206 4.64695e-12
2.79362e-12 4.64695e-12 -49.9477

19.4014 116.999 -2.85164e-12
116.999 63.9017 3.65219e-12
-2.85164e-12 3.65219e-12 -48.4533

20.3594 -116.941 8.73968e-13
-116.941 60.8029 2.24058e-12
8.73968e-13 2.24058e-12 -48.8172

157.391 -1.36111 -4.07378e-13
-1.36111 -79.2222 2.80863e-14
-4.07378e-13 2.80863e-14 -49.0028

110.035 -91.0033 4.61853e-12
-91.0033 -36.7824 -6.15804e-14
4.61853e-12 -6.15804e-14 -50.3953

110.088 91.5301 3.2685e-12
91.5301 -36.5926 -1.71241e-12
3.2685e-12 -1.71241e-12 -50.2679

7.82881 14.2965 2.13429e-12
14.2965 -42.5817 3.381e-12
2.13429e-12 3.381e-12 -15.0456

-11.7651 25.4775 2.4191e-12
25.4775 -27.3418 1.63543e-12
2.4191e-12 1.63543e-12 -35.0607

12.4085 6.59028 6.59206e-12
6.59028 -40.4377 3.04675e-12
6.59206e-12 3.04675e-12 -8.23551

26.1921 21.7328 1.14161e-12
21.7328 -19.4826 -1.91817e-12
1.14161e-12 -1.91817e-12 -5.84474

-21.1808 17.7025 -1.6902e-12
17.7025 29.7962 3.4035e-12
-1.6902e-12 3.4035e-12 -6.15788

22.4763 28.8305 -8.91731e-13
28.8305 -0.773799 7.56728e-13
-8.91731e-13 7.56728e-13 -4.73043

4.04623 -29.5933 2.50229e-12
-29.5933 -17.4247 1.53536e-12
2.50229e-12 1.53536e-12 -8.48738

25.9331 27.962 1.68932e-12
27.962 -2.29664 -9.03573e-13
1.68932e-12 -9.03573e-13 -4.73158

-19.3021 -2.83489 3.13364e-12
-2.83489 42.9691 -3.5314e-12
3.13364e-12 -3.5314e-12 -4.77044

-13.3819 -26.0372 4.99186e-12
-26.0372 -25.7791 -4.81985e-13
4.99186e-12 -4.81985e-13 -35.4429

-19.7957 -4.85138 -3.54812e-12
-4.85138 41.6772 -1.3074e-12
-3.54812e-12 -1.3074e-12 -4.74359

-1.82217 22.962 2.73085e-12
22.962 -24.3199 -9.41173e-13
2.73085e-12 -9.41173e-13 -16.1139

44.8764 26.8087 4.45037e-12
26.8087 8.08693 -4.84176e-12
4.45037e-12 -4.84176e-12 -5.38158

-52.3893 -13.1852 4.34823e-12
-13.1852 0.150031 -7.11727e-13
4.34823e-12 -7.11727e-13 -20.5718

20.232 13.6951 -3.04408e-12
13.6951 -31.0677 3.35258e-12
-3.04408e-12 3.35258e-12 -7.03094

13.668 -29.9165 1.12621e-12
-29.9165 -6.6758 3.45117e-12
1.12621e-12 3.45117e-12 -5.82901

29.5604 -24.6551 -1.44477e-12
-24.6551 -7.85591 -7.30971e-13
-1.44477e-12 -7.30971e-13 -4.82487

5.75218 -16.0366 3.66018e-12
-16.0366 -32.2586 1.112e-12
3.66018e-12 1.112e-12 -22.2058

12.598 27.8626 2.69296e-12
27.8626 -13.6059 -9.53312e-14
2.69296e-12 -9.53312e-14 -6.4091

23.2533 23.9205 4.11523e-12
23.9205 -17.9007 -5.24499e-12
4.11523e-12 -5.24499e-12 -5.95554

-31.0027 -2.78637 3.4032e-12
-2.78637 30.0606 1.25707e-12
3.4032e-12 1.25707e-12 -6.38807

-28.5616 5.85936 2.96998e-12
5.85936 33.2419 -1.23161e-13
2.96998e-12 -1.23161e-13 -6.05232

34.4653 2.6404 -3.57521e-12
2.6404 -26.1228 -6.90759e-12
-3.57521e-12 -6.90759e-12 -6.13792

50.5289 -7.27271 -3.26731e-12
-7.27271 -14.0541 5.15158e-12
-3.26731e-12 5.15158e-12 -6.78509

11.0145 30.4124 7.11135e-13
30.4124 -4.7767 -7.18832e-13
7.11135e-13 -7.18832e-13 -5.95995

17.4263 -26.0933 1.60227e-12
-26.0933 -17.4131 6.063e-12
1.60227e-12 6.063e-12 -6.3417

-0.0844069 -21.2047 2.01084e-12
-21.2047 -27.89 -5.69115e-12
2.01084e-12 -5.69115e-12 -17.1281

4.92625 -31.5588 -1.6982e-12
-31.5588 4.84889 -1.04213e-12
-1.6982e-12 -1.04213e-12 -5.9308

-8.20916 -27.7199 -5.23433e-12
-27.7199 18.5333 -4.26326e-14
-5.23433e-12 -4.26326e-14 -6.12619

-1.64719 29.8164 -1.848e-12
29.8164 10.4216 4.80978e-12
-1.848e-12 4.80978e-12 -5.79587

-25.955 -9.55515 -7.4866e-14
-9.55515 32.8912 3.59535e-12
-7.4866e-14 3.59535e-12 -5.78116

-31.2482 -1.54117 -8.34592e-13
-1.54117 31.5761 2.99849e-12
-8.34592e-13 2.99849e-12 -6.21369

-38.823 5.73449 1.66495e-12
5.73449 23.8899 3.14474e-12
1.66495e-12 3.14474e-12 -9.16438

-17.1782 -21.0392 8.19493e-13
-21.0392 26.507 -2.03334e-12
8.19493e-13 -2.03334e-12 -5.76777

13.0411 24.054 -3.75226e-12
24.054 -28.0346 -5.9656e-13
-3.75226e-12 -5.9656e-13 -9.18619

21.5036 -9.56689 -1.41753e-12
-9.56689 -31.6311 -3.12639e-12
-1.41753e-12 -3.12639e-12 -6.58683

-27.0893 7.44761 8.3239e-12
7.44761 34.2528 3.27679e-12
8.3239e-12 3.27679e-12 -5.86773

-35.1517 -9.67824 -2.51519e-12
-9.67824 22.2609 1.51286e-12
-2.51519e-12 1.51286e-12 -8.16714

-29.0861 -16.2919 3.34399e-13
-16.2919 19.3007 -1.50813e-12
3.34399e-13 -1.50813e-12 -6.65017

36.8797 -8.21991 -7.25938e-13
-8.21991 -20.1897 -5.18992e-12
-7.25938e-13 -5.18992e-12 -5.0999

-14.7749 -32.2713 1.45069e-14
-32.2713 -21.577 2.3519e-12
1.45069e-14 2.3519e-12 -12.9639

-22.7695 9.29903 -8.42289e-13
9.29903 33.2448 3.25251e-12
-8.42289e-13 3.25251e-12 -4.784

-0.749616 -18.1701 4.43319e-12
-18.1701 -35.077 5.07757e-12
4.43319e-12 5.07757e-12 -33.2042

4.89147 24.7725 7.95453e-12
24.7725 75.1237 -1.38082e-12
7.95453e-12 -1.38082e-12 -14.3506

-14.1088 -26.5637 6.4837e-14
-26.5637 -16.3111 1.15093e-12
6.4837e-14 1.15093e-12 -14.608

-6.34266 -30.1322 -3.90917e-12
-30.1322 -23.5467 3.44021e-13
-3.90917e-12 3.44021e-13 -17.0502

-31.196 -0.699544 6.60139e-12
-0.699544 31.426 4.26326e-13
6.60139e-12 4.26326e-13 -6.33833

28.4209 -16.5832 1.20319e-12
-16.5832 -18.0135 -1.71004e-12
1.20319e-12 -1.71004e-12 -4.43346

-37.7152 12.8116 -3.52159e-12
12.8116 11.1389 -1.69761e-12
-3.52159e-12 -1.69761e-12 -10.9648

-8.90987 -3.17049 6.44662e-12
-3.17049 110.793 -1.96583e-12
6.44662e-12 -1.96583e-12 -22.726

-31.5274 14.2399 -6.95421e-12
14.2399 21.2994 -6.7916e-13
-6.95421e-12 -6.7916e-13 -7.11197

12.3927 -29.4196 -2.15117e-12
-29.4196 -2.51307 -1.5099e-13
-2.15117e-12 -1.5099e-13 -4.92305

33.5302 25.0642 7.14806e-12
25.0642 123.774 -7.07227e-12
7.14806e-12 -7.07227e-12 -6.27733

-13.4714 26.039 3.84714e-12
26.039 -19.0535 5.29251e-12
3.84714e-12 5.29251e-12 -58.765

-9.53054 -27.7444 -1.12775e-11
-27.7444 -22.7548 5.33943e-13
-1.12775e-11 5.33943e-13 -59.414

-2.85926 -30.3469 1.14693e-12
-30.3469 -7.3037 1.47645e-12
1.14693e-12 1.47645e-12 -7.27436

3.84982 -31.0865 -1.83261e-12
-31.0865 5.62118 -1.96643e-12
-1.83261e-12 -1.96643e-12 -6.05801

25.093 20.7781 -1.02022e-12
20.7781 -16.9937 3.27205e-12
-1.02022e-12 3.27205e-12 -4.97106

31.7289 14.9706 -4.78077e-12
14.9706 -23.2468 3.49587e-12
-4.78077e-12 3.49587e-12 -5.94988

-9.46579 3.07578 1.25981e-11
3.07578 -9.80752 3.09397e-12
1.25981e-11 3.09397e-12 -80.7582

-5.53527 -6.98354 -4.28176e-13
-6.98354 -14.009 -1.41324e-12
-4.28176e-13 -1.41324e-12 -80.1122

11.7211 4.81302 3.95003e-12
4.81302 -43.1033 4.28842e-12
3.95003e-12 4.28842e-12 -7.8104

-34.9732 6.7151 -5.64733e-14
6.7151 24.3181 -4.33017e-12
-5.64733e-14 -4.33017e-12 -7.54899

-36.0245 6.72055 1.7708e-12
6.72055 24.3748 -2.19202e-12
1.7708e-12 -2.19202e-12 -8.29274

74.3991 58.531 4.51905e-12
58.531 34.0424 1.7882e-12
4.51905e-12 1.7882e-12 -21.9306

-6.90496 -28.1333 -1.65497e-12
-28.1333 16.8338 1.43826e-12
-1.65497e-12 1.43826e-12 -6.11295

8.15322 17.9327 3.11721e-12
17.9327 -44.7707 1.72662e-12
3.11721e-12 1.72662e-12 -12.8676

32.6264 9.51719 -1.07884e-12
9.51719 -19.0347 1.70234e-14
-1.07884e-12 1.70234e-14 -4.07169

3.38012 -26.6603 -2.36255e-13
-26.6603 13.4527 -2.19676e-13
-2.36255e-13 -2.19676e-13 -3.82546

26.1749 -20.1898 1.24345e-12
-20.1898 -20.275 -8.8433e-13
1.24345e-12 -8.8433e-13 -5.8568

65.2062 60.1279 -7.31385e-12
60.1279 34.1674 -8.96113e-12
-7.31385e-12 -8.96113e-12 -23.9225

-13.2116 30.9962 -5.21953e-13
30.9962 -16.8413 -1.42257e-12
-5.21953e-13 -1.42257e-12 -12.758

-18.5614 -19.7394 -1.75386e-12
-19.7394 28.3462 3.97845e-12
-1.75386e-12 3.97845e-12 -5.96554

11.1482 28.7894 6.66726e-12
28.7894 -13.2912 -1.93623e-13
6.66726e-12 -1.93623e-13 -6.42549

-31.7931 -4.13514 3.89762e-12
-4.13514 30.0768 2.62605e-12
3.89762e-12 2.62605e-12 -6.34744

-14.5616 19.5631 -1.86754e-12
19.5631 27.1211 3.27442e-12
-1.86754e-12 3.27442e-12 -4.41578

7.46143 30.4465 -2.35663e-13
30.4465 -1.66646 -1.29674e-13
-2.35663e-13 -1.29674e-13 -5.65411

-9.32242 -22.4204 -7.04029e-13
-22.4204 23.0947 -5.18578e-12
-7.04029e-13 -5.18578e-12 -4.17315

4.5801 -27.2881 -2.40104e-12
-27.2881 11.4224 1.72958e-12
-2.40104e-12 1.72958e-12 -3.93662

24.1817 11.2367 4.47642e-13
11.2367 101.845 -1.90899e-12
4.47642e-13 -1.90899e-12 -12.4613

37.371 -33.3891 3.64508e-12
-33.3891 69.1252 -4.2372e-12
3.64508e-12 -4.2372e-12 -5.74074

-25.2753 -11.6629 -4.42416e-12
-11.6629 31.2936 -3.43547e-12
-4.42416e-12 -3.43547e-12 -5.64218

16.0588 26.4218 -4.07378e-13
26.4218 -15.4649 -1.95399e-14
-4.07378e-13 -1.95399e-14 -6.20761

4.94414 29.4083 -4.08029e-12
29.4083 1.63351 4.30589e-12
-4.08029e-12 4.30589e-12 -4.98437

-9.83105 -21.3835 1.86192e-12
-21.3835 25.0618 3.43962e-12
1.86192e-12 3.43962e-12 -4.0314

-21.583 -11.7547 -3.17465e-12
-11.7547 32.0066 5.30598e-12
-3.17465e-12 5.30598e-12 -4.63288

10.4386 28.3425 9.04758e-13
28.3425 -0.155522 3.67055e-12
9.04758e-13 3.67055e-12 -4.66828

-21.7946 -13.8453 -1.22036e-12
-13.8453 29.3979 -5.26867e-12
-1.22036e-12 -5.26867e-12 -4.84198

6.91432 27.7963 -7.98768e-13
27.7963 72.9072 -4.42668e-12
-7.98768e-13 -4.42668e-12 -14.3536

-45.7248 -4.03204 -2.4787e-12
-4.03204 14.0147 -1.48799e-12
-2.4787e-12 -1.48799e-12 -19.921

0.873818 30.9542 -1.3447e-12
30.9542 7.5014 4.38109e-12
-1.3447e-12 4.38109e-12 -6.08456

9.69665 14.8658 -2.40519e-12
14.8658 -36.3431 -1.14457e-12
-2.40519e-12 -1.14457e-12 -10.9613

9.90569 -15.8899 -3.05533e-13
-15.8899 -39.3179 2.1639e-12
-3.05533e-13 2.1639e-12 -13.0404

85.4098 -24.157 4.38879e-12
-24.157 7.588 -6.90648e-12
4.38879e-12 -6.90648e-12 -12.9959

-23.1515 -21.2171 -7.49119e-12
-21.2171 10.4889 -3.7718e-12
-7.49119e-12 -3.7718e-12 -6.1542

-16.5617 26.635 -1.97472e-12
26.635 1.7745 6.41857e-13
-1.97472e-12 6.41857e-13 -6.57591

-26.1403 -21.6781 -2.93957e-12
-21.6781 -5.3515 -3.20792e-12
-2.93957e-12 -3.20792e-12 -23.8131

-41.5046 14.0747 -1.55816e-12
14.0747 -3.55258 -7.7988e-12
-1.55816e-12 -7.7988e-12 -63.9874

-0.892247 9.42456 -3.6593e-13
9.42456 -44.161 5.62957e-12
-3.6593e-13 5.62957e-12 -64.0887

-20.3381 32.6299 -1.45365e-13
32.6299 -23.1491 2.33339e-12
-1.45365e-13 2.33339e-12 -24.276

-11.385 25.9392 -2.65743e-12
25.9392 22.5494 2.05643e-12
-2.65743e-12 2.05643e-12 -5.92239

16.001 26.5982 -2.67638e-13
26.5982 -17.2461 -1.01785e-12
-2.67638e-13 -1.01785e-12 -6.53948

30.334 45.0959 5.96382e-12
45.0959 47.4247 -3.53613e-12
5.96382e-12 -3.53613e-12 -15.2273

-44.789 -11.318 -1.30725e-12
-11.318 -1.80458 -2.94579e-12
-1.30725e-12 -2.94579e-12 -61.5491

-8.27926 -3.42474 -1.22959e-11
-3.42474 -12.7249 -8.15792e-13
-1.22959e-11 -8.15792e-13 -77.0567

-14.6568 -0.209232 5.27267e-12
-0.209232 -6.40398 -1.03158e-11
5.27267e-12 -1.03158e-11 -77.2007

27.5535 -53.7101 -1.25174e-12
-53.7101 70.9529 -1.90189e-12
-1.25174e-12 -1.90189e-12 -24.4449

-11.6645 -11.5738 -2.32081e-12
-11.5738 -16.1665 5.14315e-12
-2.32081e-12 5.14315e-12 -37.3474

-32.5366 8.79295 2.62486e-12
8.79295 -9.39984 4.82162e-12
2.62486e-12 4.82162e-12 -49.4328

18.2131 -26.1375 4.09332e-12
-26.1375 -19.4999 1.32931e-12
4.09332e-12 1.32931e-12 -6.49637

-39.3374 1.00898 -7.3989e-13
1.00898 11.9523 -1.28904e-12
-7.3989e-13 -1.28904e-12 -19.6779

-30.1306 -20.2199 4.44533e-13
-20.2199 6.29045 -1.31154e-12
4.44533e-13 -1.31154e-12 -7.20107

10.5121 6.24073 -4.61498e-12
6.24073 -52.2671 1.67459e-12
-4.61498e-12 1.67459e-12 -9.61814

-49.6966 15.5599 -7.79668e-13
15.5599 10.1417 2.44782e-12
-7.79668e-13 2.44782e-12 -13.501

-40.1884 7.17505 -1.15537e-13
7.17505 16.5026 -2.449e-12
-1.15537e-13 -2.449e-12 -13.744

16.3664 20.3443 -4.69906e-12
20.3443 -25.7792 -8.61829e-13
-4.69906e-12 -8.61829e-13 -7.59303

-9.14773 -3.11243 3.60815e-12
-3.11243 108.14 -2.5769e-12
3.60815e-12 -2.5769e-12 -23.1555

-3.3116 -27.5583 4.2526e-12
-27.5583 -3.62035 -1.65379e-12
4.2526e-12 -1.65379e-12 -5.81957

-7.31733 -26.0546 -2.04696e-12
-26.0546 -14.0481 3.15481e-12
-2.04696e-12 3.15481e-12 -9.78951

-14.1644 -31.4102 2.0884e-12
-31.4102 -21.727 1.76733e-12
2.0884e-12 1.76733e-12 -12.7269

90.5103 32.6889 -3.29218e-12
32.6889 20.8179 3.46449e-12
-3.29218e-12 3.46449e-12 -16.5593

-23.066 -20.0702 4.62178e-12
-20.0702 -17.3457 -9.91133e-13
4.62178e-12 -9.91133e-13 -44.3301

72.4608 54.2333 2.32821e-12
54.2333 91.4401 -8.69231e-13
2.32821e-12 -8.69231e-13 -6.20892

-36.1301 -21.39 -1.09098e-12
-21.39 -6.77975 -2.53693e-12
-1.09098e-12 -2.53693e-12 -13.013

14.9989 14.6159 3.04882e-12
14.6159 -37.6621 -2.30601e-12
3.04882e-12 -2.30601e-12 -8.16104

44.4675 -14.5381 6.48607e-12
-14.5381 -8.25492 -3.62436e-12
6.48607e-12 -3.62436e-12 -4.42426

-21.1799 23.9899 5.00104e-12
23.9899 4.94448 -8.08242e-13
5.00104e-12 -8.08242e-13 -5.96435

17.3326 20.3796 -4.41365e-12
20.3796 -26.7283 -2.56388e-12
-4.41365e-12 -2.56388e-12 -6.93804

-51.023 11.3746 3.97164e-12
11.3746 7.69195 3.46094e-12
3.97164e-12 3.46094e-12 -29.9281

-7.26945 -31.5057 5.02709e-13
-31.5057 -12.796 1.99544e-13
5.02709e-13 1.99544e-13 -8.10215

2.78981 19.7666 -8.29499e-12
19.7666 -45.9284 1.12207e-12
-8.29499e-12 1.12207e-12 -29.92

-24.6118 -18.3999 -1.40362e-12
-18.3999 17.7944 -4.6955e-13
-1.40362e-12 -4.6955e-13 -5.47049

-42.2407 4.27303 2.21926e-12
4.27303 17.8276 -9.47982e-13
2.21926e-12 -9.47982e-13 -12.7002

-4.09009 9.90343 1.33197e-12
9.90343 -40.1852 2.55929e-12
1.33197e-12 2.55929e-12 -47.4447

-2.68325 -8.49334 -1.23329e-11
-8.49334 -38.2206 -2.95201e-12
-1.23329e-11 -2.95201e-12 -47.3005

81.5252 18.4773 9.07126e-13
18.4773 1.66727 4.92584e-12
9.07126e-13 4.92584e-12 -14.4862

3.88561 7.94616 -3.87394e-12
7.94616 -45.0771 -6.42301e-13
-3.87394e-12 -6.42301e-13 -10.994

35.7209 7.72364 9.20893e-13
7.72364 184.219 9.00021e-14
9.20893e-13 9.00021e-14 -9.8707

39.9884 -11.3646 8.11003e-12
-11.3646 190.011 9.85286e-13
8.11003e-12 9.85286e-13 -7.50608

53.593 56.3331 3.60482e-12
56.3331 158.929 1.24582e-12
3.60482e-12 1.24582e-12 -11.6127

1.70529 -28.8824 3.97608e-12
-28.8824 -24.6326 -3.08316e-12
3.97608e-12 -3.08316e-12 -11.9368

15.9497 -49.1036 -6.07396e-12
-49.1036 99.1869 -3.53377e-12
-6.07396e-12 -3.53377e-12 -21.7498

54.3393 -55.8754 -5.3267e-12
-55.8754 149.657 -4.49537e-12
-5.3267e-12 -4.49537e-12 -13.7749

-2.16041 26.1581 -2.77408e-12
26.1581 17.5316 1.33997e-12
-2.77408e-12 1.33997e-12 -3.99418

134.645 73.7447 6.3333e-12
73.7447 84.8118 9.85286e-13
6.3333e-12 9.85286e-13 -10.2737

-18.6751 13.0176 -4.35533e-12
13.0176 -3.88959 -8.79297e-13
-4.35533e-12 -8.79297e-13 -26.7085

3.73448 0.0391613 2.46396e-12
0.0391613 -26.1274 -1.10105e-12
2.46396e-12 -1.10105e-12 -26.7117

143.792 -73.0321 1.76215e-12
-73.0321 85.1383 8.66862e-13
1.76215e-12 8.66862e-13 -8.31423

-21.3422 -23.3684 8.52059e-13
-23.3684 12.2186 7.15872e-13
8.52059e-13 7.15872e-13 -6.4811

89.1352 34.6646 -5.27696e-12
34.6646 41.2682 6.1308e-12
-5.27696e-12 6.1308e-12 -11.6067

71.982 63.4017 -3.29218e-13
63.4017 149.39 5.48539e-12
-3.29218e-13 5.48539e-12 -9.78826

26.069 21.5897 -2.58164e-12
21.5897 99.9002 -5.45223e-12
-2.58164e-12 -5.45223e-12 -13.089

73.665 -65.8274 -7.9865e-12
-65.8274 150.838 -2.66217e-12
-7.9865e-12 -2.66217e-12 -9.51888

25.673 -12.359 -1.71063e-12
-12.359 104.771 2.39216e-12
-1.71063e-12 2.39216e-12 -12.4884

-28.5967 6.82652 -2.54989e-12
6.82652 3.1 1.27335e-12
-2.54989e-12 1.27335e-12 -37.7691

37.6292 -45.8849 -6.09054e-12
-45.8849 49.5354 1.72425e-12
-6.09054e-12 1.72425e-12 -15.5699

14.3488 47.4468 -2.47979e-12
47.4468 94.6545 4.718e-12
-2.47979e-12 4.718e-12 -22.2501

173.002 37.8546 1.34529e-12
37.8546 47.8711 4.53622e-12
1.34529e-12 4.53622e-12 -9.6361

7.00474 -29.2163 -2.36315e-12
-29.2163 -14.3237 -1.75178e-12
-2.36315e-12 -1.75178e-12 -7.14238

-38.327 12.8668 2.82729e-12
12.8668 6.42029 4.02611e-12
2.82729e-12 4.02611e-12 -15.2564

88.2912 -38.0422 -3.51245e-12
-38.0422 34.0511 6.32857e-12
-3.51245e-12 6.32857e-12 -14.1573

6.02762 -28.7339 6.72647e-13
-28.7339 -16.133 3.11958e-12
6.72647e-13 3.11958e-12 -8.01447

168.872 -36.288 2.70006e-12
-36.288 34.7772 1.36779e-13
2.70006e-12 1.36779e-13 -13.3993

-5.71156 -28.2503 1.01075e-12
-28.2503 -14.4382 -1.435e-12
1.01075e-12 -1.435e-12 -9.29006

-17.7482 -25.2349 -5.06025e-12
-25.2349 12.0515 -1.91491e-12
-5.06025e-12 -1.91491e-12 -5.92541

118.613 69.3643 -8.2423e-13
69.3643 95.9806 6.31672e-12
-8.2423e-13 6.31672e-12 -11.5121

29.308 -22.8902 -4.40418e-12
-22.8902 97.566 1.25529e-13
-4.40418e-12 1.25529e-13 -14.3995

117.697 -71.5931 3.59061e-12
-71.5931 93.4444 9.83628e-12
3.59061e-12 9.83628e-12 -12.528

22.1614 50.6498 -4.73695e-15
50.6498 73.5787 3.31587e-14
-4.73695e-15 3.31587e-14 -24.8313

-1.5329 -30.1404 -3.52074e-12
-30.1404 -6.53687 -2.31193e-12
-3.52074e-12 -2.31193e-12 -6.98621

-7.0289 -14.6061 -5.24558e-12
-14.6061 -21.8682 -2.59526e-12
-5.24558e-12 -2.59526e-12 -32.5417

-11.8654 11.0675 5.6534e-12
11.0675 -16.3926 -3.71185e-12
5.6534e-12 -3.71185e-12 -77.6226

-26.1098 -5.14906 -6.22909e-12
-5.14906 -6.37333 -1.02071e-11
-6.22909e-12 -1.02071e-11 -77.4574

-38.8489 13.053 -2.13873e-12
13.053 13.7118 -1.81129e-12
-2.13873e-12 -1.81129e-12 -10.2171

-14.4483 -10.643 6.55083e-12
-10.643 -17.2783 -5.38562e-12
6.55083e-12 -5.38562e-12 -78.5836

-25.8439 4.08318 1.46549e-12
4.08318 -5.90048 2.0935e-11
1.46549e-12 2.0935e-11 -78.7255

-3.62504 7.41675 9.04225e-12
7.41675 -27.7981 -1.67214e-12
9.04225e-12 -1.67214e-12 -77.8149

-43.8769 -12.088 1.13135e-12
-12.088 2.90924 -4.27155e-12
1.13135e-12 -4.27155e-12 -68.0086

11.9172 -30.4084 -9.6172e-12
-30.4084 75.9774 -9.56627e-12
-9.6172e-12 -9.56627e-12 -14.7368

0.520079 -12.9423 -7.39083e-12
-12.9423 -39.9003 1.46105e-12
-7.39083e-12 1.46105e-12 -45.1774

-16.311 -34.3385 -1.30799e-12
-34.3385 -22.0172 -1.44255e-12
-1.30799e-12 -1.44255e-12 -23.5375

-2.41493 -18.1346 5.33677e-12
-18.1346 -29.8265 -2.65965e-12
5.33677e-12 -2.65965e-12 -33.5519

12.7082 15.4225 3.42245e-12
15.4225 -37.6272 -1.77932e-12
3.42245e-12 -1.77932e-12 -9.60502

-46.8034 9.84231 -6.21532e-12
9.84231 8.85723 -6.03177e-12
-6.21532e-12 -6.03177e-12 -69.9996

3.45468 19.1842 -4.96936e-13
19.1842 -41.3794 -7.70891e-12
-4.96936e-13 -7.70891e-12 -70.1153

1.47033 11.2794 -1.45484e-12
11.2794 -23.9086 -6.6569e-13
-1.45484e-12 -6.6569e-13 -31.796

109.135 -15.3076 -7.26175e-12
-15.3076 -12.585 2.77585e-12
-7.26175e-12 2.77585e-12 -25.0923

-14.2864 24.9048 8.06762e-13
24.9048 10.3613 -9.49759e-13
8.06762e-13 -9.49759e-13 -5.79657

76.4142 -61.2495 8.11203e-12
-61.2495 37.2276 3.52192e-12
8.11203e-12 3.52192e-12 -22.4563

75.9378 -57.365 -3.5385e-12
-57.365 99.0129 -1.9232e-12
-3.5385e-12 -1.9232e-12 -5.62718

117.951 -36.482 -2.74506e-12
-36.482 40.4829 -3.54087e-12
-2.74506e-12 -3.54087e-12 -7.44307

-51.0016 -5.14697 4.18791e-12
-5.14697 3.33288 -6.40406e-12
4.18791e-12 -6.40406e-12 -60.5279

-50.3668 2.88439 -1.39459e-12
2.88439 3.12752 -2.71546e-12
-1.39459e-12 -2.71546e-12 -60.0015

-11.9491 -24.4019 -2.7125e-12
-24.4019 -34.9266 4.78195e-12
-2.7125e-12 4.78195e-12 -59.0379

-8.97282 -21.7125 3.21761e-12
-21.7125 -37.8042 2.1938e-13
3.21761e-12 2.1938e-13 -59.3467

-14.6701 26.0778 4.14779e-12
26.0778 -32.9556 6.35247e-12
4.14779e-12 6.35247e-12 -60.6189

-18.1169 3.0921 -4.2711e-12
3.0921 -13.1347 -1.37212e-11
-4.2711e-12 -1.37212e-11 -75.3123

-9.92263 -20.4628 -1.02999e-12
-20.4628 -32.5787 2.4963e-12
-1.02999e-12 2.4963e-12 -56.6128

-26.5891 -18.5267 -6.811e-12
-18.5267 -14.1648 -8.81665e-12
-6.811e-12 -8.81665e-12 -71.1162

-15.443 2.42864 6.1533e-12
2.42864 -12.8239 -9.14883e-12
6.1533e-12 -9.14883e-12 -77.7013

-6.01511 -20.481 5.90787e-12
-20.481 -41.3949 1.39148e-13
5.90787e-12 1.39148e-13 -60.3754

-6.74275 20.9095 -1.57592e-12
20.9095 -40.0542 1.856e-12
-1.57592e-12 1.856e-12 -59.8875

-14.2828 -3.45019 -3.55938e-12
-3.45019 -11.3646 6.82994e-12
-3.55938e-12 6.82994e-12 -76.7176

-11.2388 -3.10972 1.50176e-12
-3.10972 -17.6487 -3.15525e-12
1.50176e-12 -3.15525e-12 -73.8868

-24.1499 12.0828 3.37138e-12
12.0828 -13.3709 -7.32422e-12
3.37138e-12 -7.32422e-12 -69.8148

-22.0335 26.8691 2.87178e-14
26.8691 -26.2089 -2.94496e-13
2.87178e-14 -2.94496e-13 -57.457

VECTORS fluid_flux_TPM float
-8.71583e-05 3.10103e-05 -6.06056e-20
3.5595e-06 6.87989e-06 -2.23136e-20
-1.27811e-05 -1.02197e-05 -1.42246e-20
-4.16844e-06 4.25215e-06 -2.19845e-20
2.27042e-05 -6.31284e-06 -2.15417e-21
2.75539e-06 -1.5895e-05 -3.5057e-20
-8.5735e-05 -3.10742e-05 -5.94143e-20
-1.38874e-05 -1.04612e-05 -9.45741e-21
2.21076e-05 9.45348e-07 -2.89358e-20
1.13785e-05 -3.90734e-06 -2.87099e-20
5.45555e-05 1.24731e-05 -2.9273e-20
2.34428e-06 -1.71868e-05 -3.59311e-20
1.36056e-05 1.1247e-05 -7.0518e-21
2.66274e-06 1.37792e-05 -2.51996e-20
2.05781e-05 -2.94709e-06 8.13959e-23
-1.63237e-05 -2.72777e-07 -1.33001e-20
2.75466e-06 1.40951e-05 -2.52465e-20
1.01761e-05 -2.39092e-06 -2.74493e-20
9.89254e-06 1.72118e-05 -1.16352e-20
-1.48405e-05 1.88468e-06 -1.64463e-20
-3.59802e-06 -2.12927e-05 -2.27359e-20
3.4088e-05 5.94108e-05 -1.1971e-20
1.56881e-05 1.63061e-06 -3.13996e-20
1.12214e-05 -1.12747e-05 -3.66228e-20
-1.50703e-05 -3.33115e-06 -1.2316e-20
-6.75589e-07 -1.11263e-05 -2.49141e-20
6.28519e-05 -4.90386e-06 -2.82987e-20
1.40595e-05 1.02435e-05 -8.83601e-21
-2.51316e-05 -2.06293e-05 -1.77973e-20
4.91186e-05 -1.28141e-05 -2.45874e-21
-1.65744e-05 -6.037e-06 -1.78077e-20
5.53415e-06 -3.20138e-05 -2.0874e-20
4.7617e-05 -4.80078e-05 -2.74104e-20
-4.92288e-06 -4.12445e-05 -1.4925e-20
-2.96734e-05 3.7004e-05 -1.36796e-20
-3.82446e-05 -1.6394e-05 -3.66215e-21
3.27032e-05 4.32159e-05 -2.27112e-20
-4.47393e-05 -8.7266e-06 -1.12775e-20
1.43684e-05 -1.10754e-05 -3.86555e-20
4.64336e-05 5.00743e-05 -2.9762e-20
3.21062e-05 -1.40112e-05 -2.2745e-20
3.36412e-05 -4.23458e-05 -8.62223e-21
-1.9898e-05 -5.03809e-05 -5.50476e-21
-1.58902e-05 6.35534e-06 -1.97496e-20
3.05032e-05 -2.92913e-05 -2.63487e-20
-3.03124e-05 1.09834e-05 -3.00825e-20
-4.04745e-06 -2.03595e-05 -1.71586e-20
7.8813e-06 2.02002e-05 -1.19997e-20
-1.63353e-05 5.9261e-06 -1.48413e-20
-1.78065e-05 2.87067e-05 -3.0568e-20
3.23854e-05 1.52793e-05 -2.58902e-20
2.9345e-05 -1.00685e-05 -2.45813e-20
-1.5666e-05 1.57588e-05 -1.57285e-20
-2.35264e-05 -2.06773e-05 -2.00293e-20
-2.11383e-05 -5.13305e-06 -1.39966e-20
-4.47586e-05 2.70582e-05 -3.91487e-20
-2.93725e-05 -3.80224e-05 -1.51227e-20
6.35936e-06 -3.0608e-05 -1.99933e-20
-4.77079e-05 6.48378e-06 -1.00747e-20
6.07067e-06 1.36903e-05 -9.9941e-21
-5.57502e-06 -8.17326e-06 -7.03221e-21
-6.58163e-06 -1.79425e-05 -6.86221e-21
5.71002e-05 2.48399e-05 -2.95769e-20
9.24336e-06 1.8141e-05 -2.07642e-20
1.22965e-05 -1.44428e-05 -1.4345e-20
-1.64179e-06 -2.07478e-05 -2.69211e-20
4.62179e-06 -8.80394e-06 -1.37306e-20
-1.00864e-05 -5.56411e-06 -1.07399e-20
-1.05978e-05 1.19235e-05 -2.76326e-20
2.55672e-06 -4.09203e-06 -2.49597e-20
-1.50436e-05 -1.58419e-05 -1.08306e-20
-2.1364e-05 5.16672e-06 -1.10121e-20
-3.55385e-06 3.4459e-05 -2.37745e-20
-1.78681e-05 1.07092e-05 -1.1674e-20
-9.06667e-06 1.46078e-05 -2.26484e-20
-6.03136e-05 7.68848e-06 -4.69642e-20
7.81849e-06 -2.16788e-05 -1.48878e-20
-1.8877e-05 -8.89694e-06 -4.75539e-21
1.93182e-06 1.162e-05 -1.27017e-20
2.62843e-05 5.08631e-06 -2.71836e-20
3.41451e-05 -2.89537e-05 -2.71848e-20
2.21467e-05 2.05549e-05 -2.07711e-20
1.19068e-05 -2.82297e-06 -3.94055e-21
-3.21325e-05 2.40524e-05 -3.25896e-20
3.78782e-05 4.84277e-06 -2.87919e-20
-4.97591e-06 4.93806e-05 -2.97852e-20
-1.73965e-06 -1.68508e-05 -2.42616e-20
1.81194e-05 9.95151e-06 -2.15342e-20
2.92973e-05 3.02635e-05 -2.68459e-20
5.50039e-05 3.80096e-05 -3.31521e-20
-5.32695e-06 3.07537e-05 -2.37573e-20
5.91624e-05 -3.55079e-05 -8.13838e-20
-2.71237e-05 5.33967e-06 -9.91432e-21
1.78344e-05 1.10001e-05 -2.68571e-20
-2.96231e-05 9.89811e-06 -2.36445e-20
1.66425e-05 2.85018e-05 -1.89379e-20
1.01626e-05 -4.4356e-05 -2.13627e-20
1.91369e-06 1.16169e-05 -1.35418e-20
-1.47984e-05 -1.76194e-05 -6.10449e-21
3.06737e-06 1.74674e-05 -1.29576e-20
2.63908e-05 5.25489e-06 -2.49859e-20
-1.54325e-05 3.319e-05 -2.63289e-20
4.05236e-05 -1.33236e-05 -2.5161e-20
-3.77152e-06 7.45183e-06 -2.37153e-20
9.94992e-06 5.89627e-06 -3.53757e-21
-2.27875e-06 -1.13208e-05 -2.43319e-20
3.22173e-06 -1.92496e-05 -1.65085e-20
1.74611e-05 3.89128e-06 -2.53894e-20
-7.93015e-06 4.09446e-05 -2.71536e-20
-9.80451e-06 2.47e-07 -2.51194e-20
9.31448e-06 1.18798e-05 -1.17806e-20
-2.17396e-06 -4.16852e-05 -2.03588e-20
4.19931e-05 1.28561e-05 -2.59117e-20
4.42041e-06 -7.44975e-06 -3.902e-20
-1.1141e-05 -3.55338e-06 -1.26475e-20
-2.93078e-05 -1.24791e-05 -2.16785e-20
1.58024e-05 4.11462e-05 -2.14209e-20
-4.34567e-05 -1.55643e-05 -3.09712e-20
1.60171e-05 -4.11224e-05 -6.8622e-20
-3.69652e-06 -3.19003e-05 -2.24854e-20
2.18262e-05 6.51739e-07 -3.40059e-20
-7.17035e-06 1.83964e-05 -1.07729e-20
-1.61175e-06 3.96828e-06 -9.85214e-21
-3.68725e-06 -1.65356e-05 -2.62791e-20
5.22844e-06 -8.30138e-06 -2.57406e-20
9.36004e-06 1.58626e-05 -2.23156e-20
3.30994e-05 1.06527e-05 -6.53362e-20
8.61301e-06 -7.45462e-06 -4.62284e-20
-8.26418e-06 -4.51294e-05 -2.09546e-20
2.5536e-05 -1.88071e-05 -2.81744e-20
4.97818e-06 2.77704e-05 -1.1973e-20
-2.81496e-06 -2.84157e-06 -1.30866e-20
-8.62637e-06 -8.32447e-06 -2.01417e-20
-4.77567e-06 4.50323e-08 -2.13786e-20
-2.28578e-05 2.85763e-05 -2.7492e-20
1.87625e-05 -3.73738e-05 -7.98959e-21
-2.65607e-05 4.26859e-05 -3.17502e-20
-1.63653e-05 9.53253e-06 -1.77757e-20
2.52672e-06 1.2198e-05 -1.07259e-20
-2.29861e-05 -3.49884e-05 -8.16597e-21
1.39272e-05 3.34438e-05 -1.66388e-20
1.75027e-05 9.36452e-06 -1.34557e-20
2.27986e-05 -8.51842e-06 -3.03288e-20
-1.25422e-06 -1.12617e-05 -3.47768e-20
-3.38889e-05 -3.15377e-05 -2.54665e-20
-2.74906e-06 1.12998e-05 -2.64912e-20
1.7241e-05 1.01688e-05 -1.82608e-20
1.88789e-05 -8.81799e-06 -3.72333e-20
8.2394e-06 -1.43376e-05 -3.56828e-20
2.43421e-05 -1.07883e-05 -2.59781e-20
1.89997e-05 -8.99318e-06 -3.35103e-20
4.63945e-06 2.06625e-07 -4.83244e-20
2.57236e-05 2.02074e-05 -2.11687e-20
-2.73903e-06 -1.70233e-05 -2.24197e-20
-1.04771e-05 -4.45441e-06 -9.75495e-21
1.12652e-06 -3.88883e-06 -2.05281e-20
-3.15609e-06 1.58423e-05 -1.33064e-20
-3.48617e-05 2.76669e-06 -2.68768e-20
-1.21129e-05 -3.32371e-05 -2.08563e-20
-7.87554e-06 9.77467e-06 -2.67909e-20
1.35582e-05 1.6631e-05 -1.03269e-20
2.6551e-05 -1.87319e-05 -2.77065e-20
-3.67672e-05 -2.03385e-05 -3.26619e-20
1.7392e-05 -2.74886e-05 -2.25952e-20
2.2789e-05 -2.71978e-05 -2.25861e-20
-1.09402e-05 3.78466e-06 -1.99684e-20
-1.98161e-05 -2.88222e-05 -1.22801e-20
-3.48581e-05 -5.78812e-06 -2.53605e-20
-3.84918e-06 -3.17224e-05 -2.2502e-20
1.54377e-05 -3.1678e-05 -2.84798e-20
-9.10692e-06 -2.61975e-05 -1.7705e-20
4.57849e-06 3.13856e-05 -1.96611e-20
-1.57413e-05 -2.85041e-05 -1.6741e-20
2.94013e-06 -1.62881e-05 -2.53134e-20
-2.47244e-05 1.8249e-05 -2.78604e-20
-1.50283e-05 -1.21108e-05 -7.26208e-21
-2.73516e-05 -5.17085e-06 -8.03757e-21
1.56618e-05 -9.17841e-06 -4.1192e-20
-4.30561e-06 2.39521e-05 -8.1389e-21
1.22293e-05 -9.32031e-06 -3.88948e-20
-2.95675e-05 -1.31563e-05 -2.60949e-20
-8.82939e-06 -7.4548e-06 -1.62744e-20
9.0794e-06 7.53724e-06 -5.13213e-21
2.14128e-05 2.86811e-05 -1.64119e-20
-1.75046e-05 -1.08076e-05 -8.58662e-21
-3.24858e-05 -7.50568e-07 -2.82536e-20
-1.63346e-05 -5.01366e-06 -7.3728e-21
-4.57835e-06 -1.658e-05 -2.32076e-20
1.76819e-05 2.1238e-05 -1.93904e-20
-1.09545e-05 5.87181e-06 -2.68861e-20
6.36652e-07 -2.05506e-05 -2.10755e-20
-4.19122e-05 1.08446e-05 -3.49926e-20
2.48447e-05 2.02326e-05 -2.22516e-20
3.79303e-06 3.27635e-05 -2.07095e-20
-2.43066e-06 3.79691e-06 -2.17152e-20
-9.04687e-06 2.51056e-07 -1.57023e-20
4.35305e-06 7.75644e-06 -5.19474e-21
-1.16928e-05 3.40219e-06 -1.13579e-20
-2.07388e-06 -3.78371e-06 -4.18839e-20
1.66092e-06 2.07549e-05 -2.90274e-20
4.47136e-06 4.48674e-07 -4.55051e-21
-1.95281e-05 4.75455e-06 -2.16005e-20
-1.72877e-05 1.9347e-05 -2.82346e-20
-3.10615e-06 1.15776e-05 -1.52628e-20
-2.91977e-05 1.83835e-05 -2.92286e-20
-9.3434e-06 8.9778e-06 -1.78694e-20
1.7306e-05 -1.16121e-05 -4.39381e-20
3.65792e-05 -3.56234e-06 -2.42527e-20
-2.11385e-05 1.1296e-05 -1.13448e-20
2.23164e-06 4.49779e-06 -1.8045e-20
2.17722e-05 -4.34277e-06 -5.17115e-20
-1.72741e-05 1.03517e-05 -1.6719e-20
-9.86802e-06 5.53831e-06 -1.51333e-20
1.18299e-05 3.74324e-06 -5.04377e-20
2.1867e-05 -1.34632e-05 -2.80728e-20
-1.73756e-05 9.95336e-06 -1.63345e-20
-2.50226e-05 -5.30012e-06 -2.18651e-20
-1.67592e-05 -4.36078e-06 -3.65149e-21
9.87486e-06 7.0494e-09 -5.24883e-20
1.01725e-05 1.9437e-07 -6.86123e-22
4.39147e-06 8.31587e-06 -2.20721e-20
4.83e-06 -8.79627e-06 -1.54369e-20
-5.00902e-06 8.41946e-06 -1.68957e-20
-5.26519e-06 -8.65724e-06 -1.19246e-20
9.90687e-06 -7.40654e-06 -3.27912e-20
-2.03267e-05 3.23566e-06 -7.65878e-21
-2.0059e-05 -3.28444e-06 -1.78812e-20
-1.2835e-05 1.58754e-05 -1.71886e-20
-1.29148e-05 -1.59296e-05 -1.1903e-20
7.48498e-06 -1.98425e-05 -6.03603e-20
7.20474e-06 1.97629e-05 -1.61706e-20
1.55759e-06 2.58698e-05 -2.02099e-20
1.12374e-05 -3.13426e-06 -4.47267e-20
2.35899e-06 -3.86535e-06 -4.69365e-20
-2.14004e-05 1.42136e-06 -2.12581e-20
7.67583e-06 -1.95119e-05 -5.44282e-20
7.27215e-06 1.96606e-05 -8.46931e-21
4.76717e-06 -5.2588e-08 -1.81153e-20
8.96315e-06 2.4388e-05 -1.48268e-20
-2.24151e-06 -4.01512e-06 -2.38887e-20
2.31575e-06 -1.13133e-05 -3.92308e-20
-2.24181e-05 -1.21448e-05 -2.15307e-20
-2.13561e-05 -1.14933e-05 -6.97188e-21
-2.18798e-05 1.36214e-05 -2.65721e-20
3.24984e-06 -1.22863e-05 -3.84397e-20
-1.56471e-06 3.38079e-06 -2.07554e-20
-5.86857e-07 -2.55543e-05 -2.38399e-20
-7.71505e-06 -2.44083e-05 -2.1484e-20
3.26805e-05 3.03396e-05 -2.4671e-20
3.5428e-05 -1.81362e-06 -2.45847e-20
-1.27095e-05 -3.63281e-06 -2.23663e-20
-2.28757e-05 -4.13576e-05 -1.99698e-20
8.3002e-06 1.37412e-05 -1.10876e-20
-2.52206e-05 3.03161e-06 -2.31483e-20
2.00535e-05 5.78321e-06 -2.77284e-20
-4.53163e-06 -3.2777e-08 -1.95154e-20
-4.6655e-06 -8.41121e-06 -3.27549e-20
-7.07006e-06 -3.93325e-05 -1.01219e-20
-9.7071e-06 -8.30267e-08 -1.74012e-20
-4.86416e-05 -1.81443e-06 -3.37435e-20
1.72979e-05 -1.90928e-05 -2.55646e-20
2.42844e-06 3.99771e-06 -1.07494e-20
-1.2111e-07 -1.7507e-05 -3.35146e-20
-9.81171e-06 2.4069e-05 -2.59789e-20
-4.37238e-06 8.62573e-06 -1.46019e-20
2.05444e-05 -1.35975e-05 -3.08284e-20
-3.76573e-05 -1.35538e-05 -4.33114e-21
-1.52558e-05 -2.03534e-05 -1.45172e-20
4.9755e-06 8.38824e-06 -9.44703e-21
1.66276e-05 5.15736e-06 -5.35862e-21
-4.76153e-06 -7.33472e-06 -2.06501e-20
1.97942e-05 3.54761e-06 -5.66731e-20
1.81831e-05 -9.82216e-06 -4.6867e-20
-3.48446e-07 2.71698e-05 -1.18873e-20
8.31606e-06 -1.36599e-05 -3.7455e-20
4.87654e-05 2.19854e-06 -2.37784e-20
-4.23266e-05 1.14461e-05 -3.99152e-20
2.28559e-05 1.15539e-05 -2.11427e-20
-6.44892e-06 -1.71698e-05 -1.43912e-20
-1.53439e-05 -8.61423e-06 -4.21466e-21
2.8767e-05 -2.10256e-07 -2.79898e-20
-6.92098e-07 -2.42506e-05 -1.4003e-20
-1.26123e-05 -1.08722e-05 -1.18851e-20
1.02172e-05 -2.34831e-05 -2.59223e-20
-4.97089e-07 2.05486e-05 -2.44358e-20
7.91215e-06 2.60502e-05 -1.81019e-20
1.72605e-05 -9.88033e-06 -3.96669e-20
-1.89357e-05 1.92859e-05 -2.48946e-20
1.65164e-05 2.00151e-05 -1.27588e-20
-6.22193e-05 1.60215e-05 -1.2603e-20
-1.01089e-05 2.60121e-05 -1.48611e-20
1.25183e-05 -1.5246e-05 -6.11054e-21
-7.02753e-06 -1.83962e-05 6.32106e-22
-1.18495e-05 4.50263e-06 -2.63862e-20
-2.58765e-05 -7.04191e-06 -2.16933e-20
-6.38524e-06 3.8853e-05 -1.25336e-20
-1.26011e-05 1.19008e-05 -1.61803e-20
2.07638e-05 -4.47365e-06 -3.38695e-20
-6.86702e-06 -2.57773e-05 -2.27213e-20
-1.48583e-05 2.38748e-05 -2.35282e-20
-2.17851e-05 1.2563e-05 -9.17057e-21
-2.05558e-05 -1.5046e-05 -9.45831e-21
1.80241e-05 -2.06519e-05 -5.37054e-20
-2.75124e-05 -1.45536e-06 -2.63562e-20
1.23589e-05 -4.0777e-05 -2.22317e-20
1.93734e-05 -1.88995e-05 -2.80656e-20
2.47134e-05 4.30469e-05 -2.49044e-20
1.97137e-06 1.98618e-05 -2.32437e-20
2.95967e-06 -2.54039e-05 -2.37988e-20
-4.16311e-05 4.69522e-05 -1.27075e-20
-1.26931e-05 -2.43952e-05 -1.54365e-20
1.63627e-05 -6.4176e-06 -4.95843e-20
-2.4089e-06 2.57551e-05 -2.42704e-20
1.2878e-05 -1.18244e-05 -4.00376e-20
1.38709e-05 2.42957e-05 -9.65087e-21
1.72198e-05 -1.40014e-06 -2.87285e-20
2.21034e-05 -6.3164e-05 -2.81484e-20
-5.87232e-06 -1.28523e-05 -1.61232e-20
-2.31693e-05 1.00808e-05 -2.19982e-20
-2.00169e-05 1.87173e-05 -1.20875e-20
2.15974e-05 1.45577e-05 -1.69304e-20
1.86618e-05 -1.07506e-05 -3.02843e-20
1.49457e-05 1.25905e-05 -2.37085e-20
-5.42673e-06 4.45753e-08 -2.44717e-20
1.5393e-05 -2.30708e-05 -2.93974e-20
-1.69793e-05 -2.03957e-05 -6.99733e-21
2.25471e-05 9.76794e-06 -2.16213e-20
1.28021e-05 -1.19867e-05 -4.55915e-20
9.54722e-06 -2.48349e-05 -2.3701e-20
1.66507e-05 -6.93103e-06 -3.83435e-20
-1.57978e-05 -7.54167e-06 -1.5106e-20
1.29708e-06 -2.62987e-05 -1.59451e-20
-2.60897e-05 4.47081e-06 -2.33165e-20
2.38869e-06 2.45274e-05 -2.27343e-20
2.05724e-05 6.62458e-06 -2.72438e-20
-2.17071e-05 -1.0696e-05 -1.71919e-20
-8.97027e-06 2.55931e-05 -2.12092e-20
-1.49369e-06 -2.4173e-05 -2.2102e-20
1.94613e-05 1.18349e-05 -1.82571e-20
-1.76626e-06 1.80774e-05 -2.31004e-20
-2.01268e-05 1.36942e-05 -1.9797e-20
2.34948e-05 1.14071e-05 -2.30827e-20
-1.71081e-05 -9.98343e-06 -9.32796e-21
9.68891e-08 -1.98273e-05 -2.52821e-20
1.83702e-05 1.99701e-05 -1.42882e-20
-2.21503e-05 -1.43019e-05 -5.85853e-21
4.83115e-05 -3.3952e-05 -2.66207e-20
1.78882e-05 -1.08164e-05 -3.49739e-20
8.99567e-06 4.30541e-05 -2.35696e-20
1.70251e-05 -1.367e-05 -3.45507e-20
-1.98493e-05 8.69644e-05 -6.37104e-20
-1.97389e-05 -8.64802e-05 -3.89063e-20
5.71396e-05 7.1651e-05 -4.00354e-20
5.68788e-05 -7.13241e-05 -2.96178e-20
9.05673e-05 -1.3041e-11 -3.21895e-20
-7.8133e-05 3.7626e-05 -7.87415e-20
-7.73897e-05 -3.72682e-05 -6.17176e-20
1.22301e-05 1.18166e-05 -1.80257e-20
2.93641e-05 2.18903e-05 -2.30811e-20
1.14421e-05 3.33206e-06 -2.5023e-20
1.88453e-05 9.746e-06 -2.35287e-20
4.98634e-06 2.01582e-05 -1.60008e-20
-1.88214e-05 -1.49715e-05 -7.80081e-21
1.70321e-05 -1.0209e-05 -3.66396e-20
1.98408e-05 1.45398e-05 -1.66262e-20
-3.16399e-06 2.43495e-05 -2.22684e-20
2.94368e-05 -1.99907e-05 -6.24867e-20
3.79124e-06 -2.3726e-05 -2.29674e-20
2.19565e-05 5.22453e-06 -1.4257e-20
2.98745e-05 1.10186e-05 -2.21836e-20
1.42082e-05 1.41419e-05 -2.55769e-20
1.58748e-05 6.59103e-06 -2.53417e-20
-1.8489e-05 1.09314e-05 -1.92278e-20
-2.25499e-05 9.03227e-06 -1.97659e-20
2.29255e-05 -1.12611e-05 -5.56168e-20
-1.82595e-05 -9.99427e-06 -8.00013e-21
-1.85453e-05 -1.05771e-05 -1.48754e-20
-3.42929e-07 -2.07583e-05 -2.38713e-20
-8.60999e-08 -2.115e-05 -2.13262e-20
-2.01154e-05 -1.00498e-06 -1.92045e-20
2.66807e-05 -4.01619e-06 -2.71329e-20
1.81022e-05 1.13361e-05 -1.9651e-20
-1.78565e-05 1.09399e-05 -2.37166e-20
-1.53577e-05 1.6622e-05 -1.08677e-20
1.60129e-05 -1.3745e-05 -3.21056e-20
-1.10166e-05 1.74532e-05 -2.55045e-20
-1.42167e-05 -1.48812e-05 -1.01959e-20
-1.1543e-06 2.11994e-05 -2.48118e-20
-1.28577e-06 2.09588e-05 -2.55766e-20
8.94741e-08 -1.98272e-05 -2.81738e-20
6.10724e-06 -1.97256e-05 -2.92862e-20
-1.71354e-05 -9.93196e-06 -7.05348e-21
1.55783e-05 -5.4878e-06 -3.44455e-20
6.63311e-07 2.14666e-05 -2.21842e-20
3.01234e-07 1.85004e-05 -2.41358e-20
-2.34375e-06 1.68493e-05 -2.37483e-20
2.1895e-05 -5.52395e-06 -3.11602e-20
-1.65386e-05 5.3754e-06 -2.4022e-20
4.15442e-06 2.15062e-05 -1.82065e-20
-3.25562e-05 1.29181e-05 -9.58655e-21
9.75763e-06 4.16996e-05 -2.9124e-20
-1.70503e-05 4.56629e-06 -1.51674e-20
1.96804e-05 -1.16279e-05 -5.20361e-20
9.44811e-07 2.10102e-05 -2.29846e-20
-2.04704e-05 6.69701e-06 -1.86499e-20
2.44462e-06 -1.62577e-05 -2.75197e-20
1.82133e-06 -5.79676e-05 -3.18253e-20
2.00512e-06 1.74782e-05 -1.28332e-20
-1.6954e-05 1.4015e-05 -2.19735e-20
1.78417e-05 6.39217e-05 -2.9954e-20
4.57639e-05 3.7702e-05 -2.72123e-20
5.20581e-05 -3.52501e-05 -8.02403e-20
1.4809e-05 -1.01621e-05 -3.51241e-20
-1.57767e-05 1.403e-05 -2.46448e-20
-2.02067e-05 -7.91789e-06 -1.4717e-20
-1.96351e-05 -6.81906e-06 -1.75889e-20
5.92473e-05 -2.4626e-05 -7.86082e-20
5.74062e-05 2.38927e-05 -3.528e-20
1.08891e-05 3.81649e-06 -2.38482e-20
7.64896e-07 1.95722e-05 -1.65425e-20
7.86192e-08 1.95535e-05 -1.82395e-20
-4.83451e-05 -3.68956e-05 -4.11417e-20
1.14187e-05 -1.71616e-05 -2.95149e-20
1.17297e-05 1.24634e-05 -1.64594e-20
-2.14066e-05 -3.39462e-06 -1.70972e-20
-1.40375e-05 1.71924e-05 -2.44173e-20
-1.88792e-05 9.16349e-06 -1.99555e-20
4.76065e-05 3.36666e-05 -2.88249e-20
1.58027e-05 7.05926e-06 -9.38061e-21
-5.5631e-06 2.00194e-05 -2.26503e-20
-1.69717e-05 -1.17437e-05 -9.13837e-21
1.85447e-06 -2.05343e-05 -2.85961e-20
-8.94414e-06 -1.92571e-05 -1.17896e-20
-1.72406e-05 -1.17678e-05 -6.46186e-21
1.05734e-05 -1.8925e-05 -2.99885e-20
1.41151e-05 -1.69791e-05 -3.02144e-20
-2.43676e-06 -6.13921e-05 -2.74117e-20
2.61616e-05 -4.1095e-05 -2.36085e-20
1.74667e-06 -2.0775e-05 -2.44405e-20
1.7951e-05 1.13496e-05 -1.87751e-20
-1.44699e-05 -1.48974e-05 -6.70661e-21
-9.83507e-06 1.96994e-05 -2.36787e-20
-5.03556e-06 2.09963e-05 -2.393e-20
1.66193e-05 1.42354e-05 -1.42033e-20
6.05503e-06 -1.98515e-05 -3.01602e-20
-1.33953e-05 -4.03302e-05 -2.39455e-20
-1.9886e-06 2.50375e-05 -1.56688e-20
1.47838e-05 1.44468e-05 -1.12426e-20
-1.29542e-05 -1.0215e-05 -1.16938e-20
-1.35116e-05 1.06066e-05 -1.42802e-20
4.43097e-05 -1.8898e-05 -2.55295e-20
7.55894e-06 -1.33937e-05 -3.38689e-20
-8.3135e-06 -1.26208e-05 -1.53356e-20
2.13283e-05 6.36351e-06 -5.9573e-20
1.09884e-05 -5.06684e-05 -6.82585e-21
-3.84603e-05 -3.49013e-05 -2.77276e-21
2.33048e-05 6.2062e-06 -5.98099e-21
-9.32269e-06 -1.82711e-05 -1.1975e-20
1.8697e-05 9.47951e-06 -2.14662e-20
-2.85431e-05 -3.253e-05 -2.46464e-20
9.68537e-06 5.00499e-05 -1.11295e-20
3.43035e-05 -5.98563e-05 -1.0178e-20
-3.47498e-05 -5.97487e-05 -5.91146e-21
2.77899e-05 -5.19804e-05 -2.92759e-20
-1.2697e-05 4.36335e-05 -4.17156e-21
-6.27363e-06 3.89776e-05 -1.04922e-20
-1.87227e-05 8.94329e-06 -2.40371e-20
5.97778e-06 2.42392e-05 -1.60864e-20
-2.38953e-06 1.26487e-05 -2.6934e-20
1.01161e-05 3.23308e-06 -1.72457e-20
-3.18963e-06 1.62024e-05 -1.51675e-20
-2.47193e-07 2.09876e-05 -1.34857e-20
1.66538e-05 9.74704e-06 -2.58513e-20
1.71209e-06 5.76807e-05 -3.83589e-20
-1.47114e-05 1.0727e-05 -3.00794e-20
1.59446e-05 -6.24337e-06 -4.50199e-20
1.68689e-05 -4.50643e-06 -5.29708e-20
-6.06205e-05 -8.76392e-06 -4.05739e-20
-3.4605e-05 1.6742e-05 -1.0808e-20
-4.34819e-05 -5.25097e-05 -3.30707e-20
8.65631e-06 8.34414e-06 -2.26275e-20
1.42041e-05 7.29157e-06 -2.33776e-20
2.67877e-05 -4.19364e-06 -2.88126e-20
-8.10066e-06 -1.32368e-05 -1.73418e-20
1.72091e-05 8.42667e-06 -2.7681e-20
7.33556e-06 -3.00333e-05 -7.71703e-21
-1.37099e-05 1.02004e-05 -2.44417e-20
-2.23733e-05 -2.1422e-05 -7.76725e-21
-5.83213e-06 1.62905e-05 -2.39488e-20
-3.27189e-06 2.06742e-05 -1.42203e-20
3.38474e-05 2.12954e-05 -2.70398e-20
3.61108e-05 -1.92815e-05 -7.12338e-20
-4.2042e-05 -1.16158e-05 -3.52314e-20
7.63064e-06 7.68457e-06 -1.73249e-20
-4.05154e-06 0.000101279 -4.71567e-20
8.64768e-07 -0.000104384 -3.28554e-20
5.24149e-05 8.75741e-05 -4.13863e-20
-1.90995e-05 8.45491e-06 -2.03731e-20
-2.63534e-05 5.65096e-05 -5.15428e-20
5.29938e-05 -8.45715e-05 -3.15311e-20
-1.17142e-05 -1.82723e-05 -1.18717e-20
7.7936e-05 6.74394e-05 -3.28426e-20
2.39934e-05 -1.79753e-05 -8.50385e-21
-3.60626e-06 -2.98214e-05 9.54607e-22
8.17114e-05 -6.57929e-05 -2.81358e-20
-6.74073e-06 1.45111e-05 -2.68306e-20
-5.37945e-05 -3.48012e-05 -4.01013e-20
-4.29775e-05 -9.30619e-05 -3.82488e-20
-2.40923e-05 -5.77618e-05 -3.02769e-20
-4.39374e-05 9.40666e-05 -6.56906e-20
-1.00838e-05 6.4036e-05 -3.87164e-20
1.56321e-05 3.7106e-05 -1.32344e-20
-2.7934e-05 3.72157e-05 -3.92813e-20
-2.5251e-05 -5.51448e-05 -3.27808e-20
0.000100282 1.73023e-05 -3.05319e-20
-1.69219e-05 1.07622e-05 -2.03299e-20
-5.91247e-06 1.63298e-05 -1.20709e-20
-5.0722e-05 3.76157e-05 -4.71225e-20
-1.727e-05 9.94095e-06 -2.27048e-20
9.91199e-05 -1.52501e-05 -2.84014e-20
-1.53554e-05 7.79545e-06 -2.3003e-20
7.18886e-06 -1.44872e-05 -3.73216e-20
-7.79068e-05 -6.09047e-05 -4.40207e-20
-2.58569e-05 5.76743e-05 -4.22138e-20
-7.90567e-05 6.03321e-05 -7.01705e-20
2.45238e-05 5.19085e-05 -3.1789e-20
-1.47613e-05 1.05775e-05 -2.46404e-20
-2.05281e-05 2.44757e-05 -6.71563e-21
-2.85137e-05 4.98265e-05 -5.17355e-21
-5.67743e-05 2.25681e-07 -2.03449e-20
-9.44726e-07 1.62911e-05 -1.4899e-20
-2.88262e-05 -5.0416e-05 -1.24648e-20
-5.81954e-05 -2.44884e-07 -1.69658e-20
-2.83627e-05 4.86874e-05 -8.79313e-21
-1.51852e-05 6.62579e-05 -1.05923e-20
-1.78496e-05 4.12315e-05 -3.80145e-20
-3.39001e-05 2.71369e-05 -1.22384e-20
2.43805e-05 -6.05553e-06 -5.82671e-20
3.79997e-05 -2.1941e-06 -6.40652e-20
1.34771e-05 8.19843e-06 -2.46932e-20
-1.0465e-05 -7.3973e-05 -9.22728e-21
-6.94346e-05 -2.79707e-05 -1.44575e-20
3.71293e-05 7.31802e-07 -1.18984e-20
5.83202e-05 -1.08828e-05 -2.95506e-20
-1.05781e-05 -1.34901e-05 -1.68136e-20
-5.07881e-05 3.76024e-05 -5.29971e-20
-4.60975e-05 5.39618e-05 -4.84908e-20
6.23138e-05 -2.22143e-05 -2.75405e-20
-2.81775e-05 -5.05035e-05 -1.36654e-20
-2.87774e-05 4.97851e-05 -9.2929e-21
-5.72583e-05 -1.1695e-06 -1.48857e-20
-2.65762e-05 5.06e-05 -4.06589e-21
-5.79592e-05 -8.20167e-07 -1.17157e-20
6.60678e-05 1.73753e-05 -7.96899e-20
5.63816e-05 1.29105e-06 -7.02136e-20
5.0896e-05 -2.92797e-05 -7.5822e-20
2.49323e-05 -5.93924e-05 -8.44071e-20
2.99236e-05 -4.88583e-05 -8.28848e-20
2.91711e-05 4.86818e-05 -2.97478e-20
2.43665e-05 5.80555e-05 -3.11698e-20
7.58018e-05 -2.00349e-05 -2.0182e-20
4.62605e-05 2.90755e-05 -2.73441e-20
4.66242e-05 1.37481e-05 -1.39298e-20
TENSORS solid_stress_TPM float
374.511 -24.8952 -4.98801e-12
-24.8952 238.251 -5.35394e-12
-4.98801e-12 -5.35394e-12 197.526

456.237 -21.2706 1.33952e-12
-21.2706 489.143 -2.2539e-12
1.33952e-12 -2.2539e-12 486.272

454.112 27.9767 -7.22859e-12
27.9767 462.921 1.14161e-12
-7.22859e-12 1.14161e-12 457.679

454.265 -29.773 -1.72677e-12
-29.773 481.781 -4.84531e-12
-1.72677e-12 -4.84531e-12 484.022

526.773 19.8855 1.09335e-12
19.8855 547.496 3.92079e-12
1.09335e-12 3.92079e-12 526.443

436.586 -18.0315 -9.54348e-13
-18.0315 479.511 -2.70421e-12
-9.54348e-13 -2.70421e-12 457.261

371.808 26.4565 -2.55322e-12
26.4565 238.77 8.02913e-12
-2.55322e-12 8.02913e-12 197.51

472.844 29.8871 -4.26266e-12
29.8871 468.703 -3.25665e-15
-4.26266e-12 -3.25665e-15 471.529

470.738 5.47015 -2.31755e-12
5.47015 417.14 -1.9544e-12
-2.31755e-12 -1.9544e-12 432.069

503.381 -7.46001 2.28469e-12
-7.46001 443.375 -1.88383e-12
2.28469e-12 -1.88383e-12 482.621

359.741 16.2745 -8.96705e-12
16.2745 247.304 9.82917e-13
-8.96705e-12 9.82917e-13 233.289

444.042 -13.4215 1.36528e-12
-13.4215 497.519 2.19854e-12
1.36528e-12 2.19854e-12 471.432

466.074 27.7673 -3.30817e-12
27.7673 467.505 7.59689e-13
-3.30817e-12 7.59689e-13 465.938

456.271 -14.3062 1.24885e-12
-14.3062 499.565 -4.8613e-13
1.24885e-12 -4.8613e-13 482.627

512.052 33.235 4.69077e-12
33.235 510.713 -1.77943e-12
4.69077e-12 -1.77943e-12 514.333

488.324 0.559606 7.3482e-13
0.559606 434.802 -3.08312e-12
7.3482e-13 -3.08312e-12 461.484

456.818 -17.9272 -2.17378e-12
-17.9272 511.991 -5.30391e-12
-2.17378e-12 -5.30391e-12 492.746

493.101 -2.6589 3.29603e-12
-2.6589 438.322 -1.34381e-12
3.29603e-12 -1.34381e-12 473.452

418.104 26.6106 4.28665e-12
26.6106 448.898 -3.32179e-13
4.28665e-12 -3.32179e-13 423.343

481.148 -4.18553 5.97448e-13
-4.18553 424.223 -8.96542e-13
5.97448e-13 -8.96542e-13 452.704

424.597 8.64817 3.63531e-12
8.64817 481.07 2.7948e-12
3.63531e-12 2.7948e-12 444.089

633.002 6.27318 2.33001e-12
6.27318 632.839 -3.03757e-12
2.33001e-12 -3.03757e-12 569.331

478.326 1.87154 -2.99257e-12
1.87154 422.247 -5.32685e-13
-2.99257e-12 -5.32685e-13 448.97

446.412 -27.6493 6.62877e-13
-27.6493 460.367 1.16055e-13
6.62877e-13 1.16055e-13 452.179

480.217 6.83308 -1.24108e-12
6.83308 424.741 -2.15235e-12
-1.24108e-12 -2.15235e-12 452.169

449.007 19.0678 -5.42122e-12
19.0678 489.47 2.48572e-12
-5.42122e-12 2.48572e-12 477.385

377.071 4.1726 -8.91968e-12
4.1726 291.23 4.96669e-12
-8.91968e-12 4.96669e-12 258.605

461.9 30.6729 -3.0429e-12
30.6729 459.935 3.95832e-13
-3.0429e-12 3.95832e-13 459.761

384.322 36.9917 -6.84608e-12
36.9917 382.903 -9.80549e-13
-6.84608e-12 -9.80549e-13 347.858

585.907 10.2998 2.51651e-13
10.2998 562.467 2.3026e-12
2.51651e-13 2.3026e-12 545.924

490.834 14.1834 1.36424e-12
14.1834 441.761 5.06114e-12
1.36424e-12 5.06114e-12 465.06

352.308 -17.7405 1.81188e-12
-17.7405 416.034 2.38624e-12
1.81188e-12 2.38624e-12 348.029

330.522 -42.0251 1.82373e-12
-42.0251 335.37 -8.76336e-14
1.82373e-12 -8.76336e-14 253.094

530.495 5.9734 -4.27452e-12
5.9734 585.847 2.28943e-12
-4.27452e-12 2.28943e-12 537.648

553.058 -4.83002 -1.03177e-13
-4.83002 581.042 1.32723e-12
-1.03177e-13 1.32723e-12 541.571

576.965 20.9795 -2.58016e-12
20.9795 539.012 3.56885e-12
-2.58016e-12 3.56885e-12 537.416

555.217 5.05692 7.36729e-12
5.05692 599.608 -3.02573e-12
7.36729e-12 -3.02573e-12 547.019

572.763 -9.14872 5.7927e-12
-9.14872 554.794 4.76517e-13
5.7927e-12 4.76517e-13 539.699

466.333 -27.9318 -1.19608e-12
-27.9318 465.698 1.56734e-12
-1.19608e-12 1.56734e-12 464.314

329.907 41.4452 -7.16701e-12
41.4452 337.464 -4.81037e-12
-7.16701e-12 -4.81037e-12 253.452

413.841 -17.9094 -8.96942e-12
-17.9094 353.937 -3.42008e-12
-8.96942e-12 -3.42008e-12 345.764

558.332 -3.69844 -3.90547e-12
-3.69844 598.86 -8.22261e-12
-3.90547e-12 -8.22261e-12 547.432

585.378 19.5123 5.94014e-12
19.5123 571.452 6.81825e-13
5.94014e-12 6.81825e-13 547.221

490.041 -12.2443 -1.18424e-13
-12.2443 442.115 1.69316e-12
-1.18424e-13 1.69316e-12 465.731

341.182 -43.2106 4.33431e-12
-43.2106 344.802 -1.88531e-12
4.33431e-12 -1.88531e-12 288.525

416.859 -18.0238 9.00021e-13
-18.0238 356.549 3.43311e-12
9.00021e-13 3.43311e-12 350.927

412.331 17.0452 4.37724e-12
17.0452 463.978 2.2092e-12
4.37724e-12 2.2092e-12 427.999

428.91 19.2933 -1.69524e-12
19.2933 465.706 3.31705e-12
-1.69524e-12 3.31705e-12 436.336

485.929 -16.2622 -2.77941e-12
-16.2622 432.151 -4.21885e-14
-2.77941e-12 -4.21885e-14 457.888

355.017 -34.1105 -5.60322e-12
-34.1105 388.764 -9.0831e-13
-5.60322e-12 -9.0831e-13 332.03

409.569 19.1397 7.69518e-12
19.1397 350.151 2.73322e-12
7.69518e-12 2.73322e-12 338.926

424.486 -25.23 -6.53581e-12
-25.23 383.199 -3.4639e-14
-6.53581e-12 -3.4639e-14 372.461

519.017 19.4411 1.4803e-14
19.4411 546.564 -1.56556e-12
1.4803e-14 -1.56556e-12 524.812

415.716 29.5819 -6.37357e-12
29.5819 393.242 9.02389e-13
-6.37357e-12 9.02389e-13 373.323

521.266 -21.7627 -5.51322e-12
-21.7627 540.443 -7.64638e-13
-5.51322e-12 -7.64638e-13 523.461

363.502 -42.6274 -8.05282e-13
-42.6274 342.749 2.21334e-12
-8.05282e-13 2.21334e-12 289.242

552.481 5.44762 2.0286e-12
5.44762 582.831 -3.03875e-12
2.0286e-12 -3.03875e-12 541.944

373.119 -5.31854 -3.45383e-12
-5.31854 435.921 -2.02386e-12
-3.45383e-12 -2.02386e-12 373.207

579.786 10.3604 -7.27448e-12
10.3604 555.194 -2.99718e-12
-7.27448e-12 -2.99718e-12 541.701

434.328 21.3622 -1.76688e-12
21.3622 472.94 -2.91204e-12
-1.76688e-12 -2.91204e-12 453.892

512.669 5.74067 8.00545e-13
5.74067 452.044 4.9886e-13
8.00545e-13 4.9886e-13 494.004

521.54 11.4324 -1.58984e-13
11.4324 487.024 -1.15108e-12
-1.58984e-13 -1.15108e-12 506.195

383.117 31.7665 -6.84489e-12
31.7665 314.726 5.92119e-14
-6.84489e-12 5.92119e-14 269.453

481.264 -6.02079 -9.56568e-13
-6.02079 527.249 -2.85993e-12
-9.56568e-13 -2.85993e-12 503.223

486.261 9.49742 -5.55556e-13
9.49742 522.769 -3.31587e-14
-5.55556e-13 -3.31587e-14 506.612

455.69 -2.87392 1.2376e-12
-2.87392 519.239 1.18246e-12
1.2376e-12 1.18246e-12 486.963

463.667 23.3475 3.8225e-13
23.3475 502.592 -1.39562e-12
3.8225e-13 -1.39562e-12 494.579

495.879 8.44344 -1.9836e-14
8.44344 443.653 1.46934e-12
-1.9836e-14 1.46934e-12 476.873

444.754 -28.1721 2.34982e-12
-28.1721 458.742 -1.9084e-12
2.34982e-12 -1.9084e-12 450.396

500.805 -1.70726 -1.07188e-12
-1.70726 444.172 -1.0966e-12
-1.07188e-12 -1.0966e-12 488.22

518.631 -19.2176 1.37727e-12
-19.2176 545.858 -1.202e-12
1.37727e-12 -1.202e-12 524.546

522.393 21.2588 -8.941e-14
21.2588 541.965 -2.87485e-12
-8.941e-14 -2.87485e-12 524.348

352.857 -16.5459 -1.65009e-12
-16.5459 415.044 1.07742e-11
-1.65009e-12 1.07742e-11 345.552

505.138 -27.8704 2.94342e-12
-27.8704 484.477 -6.33153e-12
2.94342e-12 -6.33153e-12 493.024

448.959 -25.075 2.16242e-12
-25.075 470.409 7.84558e-13
2.16242e-12 7.84558e-13 457.792

357.318 -31.6513 -6.14856e-12
-31.6513 285.258 -1.94333e-12
-6.14856e-12 -1.94333e-12 249.473

497.644 3.21502 3.46168e-12
3.21502 540.448 -2.18729e-12
3.46168e-12 -2.18729e-12 512.748

500.852 28.8757 1.0895e-12
28.8757 473.739 -4.40685e-12
1.0895e-12 -4.40685e-12 486.814

447.691 19.6179 -1.77961e-12
19.6179 491.251 2.34953e-12
-1.77961e-12 2.34953e-12 476.819

439.445 7.98101 -3.45205e-12
7.98101 372.446 -5.38828e-13
-3.45205e-12 -5.38828e-13 382.303

385.83 -33.8655 3.67587e-12
-33.8655 359.643 -3.11691e-12
3.67587e-12 -3.11691e-12 318.927

536.781 -10.5635 6.97427e-12
-10.5635 555.157 2.17485e-12
6.97427e-12 2.17485e-12 530.323

481.831 23.844 -1.09779e-12
23.844 503.683 -2.23242e-12
-1.09779e-12 -2.23242e-12 501.17

384.749 -32.3148 2.93336e-12
-32.3148 344.769 -3.23889e-12
2.93336e-12 -3.23889e-12 316.576

421.497 10.7666 8.3548e-12
10.7666 363.277 8.7456e-13
8.3548e-12 8.7456e-13 349.686

307.192 -21.1629 -2.95941e-12
-21.1629 387.821 -7.79939e-12
-2.95941e-12 -7.79939e-12 287.664

433.722 14.3916 3.82516e-12
14.3916 487.818 6.48962e-13
3.82516e-12 6.48962e-13 460.095

508.831 23.0881 4.51609e-12
23.0881 474.363 -3.55035e-12
4.51609e-12 -3.55035e-12 489.1

337.719 42.1125 -2.08781e-12
42.1125 349.027 3.65574e-12
-2.08781e-12 3.65574e-12 288.499

633.084 16.4703 1.81373e-12
16.4703 602.007 1.07219e-11
1.81373e-12 1.07219e-11 564.343

372.298 -4.09972 -2.46321e-12
-4.09972 436.08 2.08781e-12
-2.46321e-12 2.08781e-12 372.815

635.984 -16.5953 1.62178e-11
-16.5953 598.485 -2.44442e-12
1.62178e-11 -2.44442e-12 563.851

533.002 -27.2715 -2.88421e-12
-27.2715 506.363 2.70628e-12
-2.88421e-12 2.70628e-12 514.817

504.415 27.3599 2.58342e-12
27.3599 465.545 5.18341e-12
2.58342e-12 5.18341e-12 484.235

426.211 -24.3543 -3.6593e-13
-24.3543 385.617 -1.79619e-12
-3.6593e-13 -1.79619e-12 375.361

358.372 31.2539 -8.30743e-13
31.2539 395.357 -1.60583e-12
-8.30743e-13 -1.60583e-12 338.655

339.303 -10.6837 4.43438e-12
-10.6837 407.729 2.20505e-12
4.43438e-12 2.20505e-12 318.598

452.342 21.9192 3.65189e-13
21.9192 493.819 1.75593e-12
3.65189e-13 1.75593e-12 482.334

532.177 16.7546 1.07085e-12
16.7546 505.326 3.25665e-12
1.07085e-12 3.25665e-12 512.461

442.711 15.118 -2.62205e-12
15.118 487.591 -1.19016e-13
-2.62205e-12 -1.19016e-13 463.488

450.712 15.9162 -1.71596e-12
15.9162 399.887 1.59828e-12
-1.71596e-12 1.59828e-12 403.076

373.894 -21.4257 -1.61352e-12
-21.4257 419.171 7.79939e-12
-1.61352e-12 7.79939e-12 356.618

389.096 -29.3283 2.22637e-13
-29.3283 341.84 -1.00779e-12
2.22637e-13 -1.00779e-12 313.892

454.198 -24.5151 -9.4591e-14
-24.5151 479.238 3.55419e-12
-9.4591e-14 3.55419e-12 477.546

465.634 27.3861 -3.2235e-12
27.3861 477.922 -1.05397e-12
-3.2235e-12 -1.05397e-12 478.983

451.456 23.1332 3.29899e-12
23.1332 491.704 4.49033e-12
3.29899e-12 4.49033e-12 481.211

465.511 13.1385 -6.46502e-12
13.1385 528.844 8.54428e-13
-6.46502e-12 8.54428e-13 500.515

490.008 9.34999 -5.50671e-13
9.34999 437.161 2.16168e-12
-5.50671e-13 2.16168e-12 461.266

327.215 -4.65658 -2.56772e-12
-4.65658 402.725 3.99799e-12
-2.56772e-12 3.99799e-12 313.914

461.797 -36.7481 1.88027e-12
-36.7481 486.849 4.43053e-13
1.88027e-12 4.43053e-13 491.895

445.1 27.3999 6.29274e-12
27.3999 462.48 -6.69687e-13
6.29274e-12 -6.69687e-13 454.239

305.218 2.16726 4.5004e-12
2.16726 392.724 2.11031e-12
4.5004e-12 2.11031e-12 296.788

385.38 34.5375 1.13687e-13
34.5375 331.937 3.21106e-12
1.13687e-13 3.21106e-12 305.762

452.588 -22.9196 -4.87669e-12
-22.9196 479.244 -1.31243e-12
-4.87669e-12 -1.31243e-12 475.354

500.518 5.7195 3.45117e-12
5.7195 440.58 -2.92418e-12
3.45117e-12 -2.92418e-12 480.181

421.679 27.1415 -3.01625e-12
27.1415 389.138 -2.64855e-12
-3.01625e-12 -2.64855e-12 373.622

569.537 12.7164 7.29787e-14
12.7164 564.924 3.19744e-14
7.29787e-14 3.19744e-14 541.973

395.539 24.2787 2.26663e-12
24.2787 349.107 8.88178e-13
2.26663e-12 8.88178e-13 318.537

568.162 -13.0252 -3.44554e-12
-13.0252 564.836 4.40181e-12
-3.44554e-12 4.40181e-12 541.429

374.497 0.777659 -2.16701e-12
0.777659 438.13 -3.10389e-12
-2.16701e-12 -3.10389e-12 374.028

460.679 -2.22972 -3.06718e-13
-2.22972 398.658 4.15127e-12
-3.06718e-13 4.15127e-12 416.584

537.248 -15.7322 1.59768e-12
-15.7322 479.816 -6.12251e-13
1.59768e-12 -6.12251e-13 512.586

456.475 24.3314 2.10545e-13
24.3314 486.944 2.00136e-13
2.10545e-13 2.00136e-13 487.51

460.481 -13.5033 -2.64898e-12
-13.5033 518.225 5.71395e-13
-2.64898e-12 5.71395e-13 494.857

514.067 -7.98178 -3.3511e-12
-7.98178 437.467 1.02066e-12
-3.3511e-12 1.02066e-12 493.421

487.484 -22.2327 1.51005e-12
-22.2327 540.649 -1.24375e-12
1.51005e-12 -1.24375e-12 514.854

555.077 -6.58093 3.16547e-12
-6.58093 559.411 -1.71781e-12
3.16547e-12 -1.71781e-12 537.792

463.08 -29.8381 8.65382e-13
-29.8381 482.365 -3.67351e-12
8.65382e-13 -3.67351e-12 482.766

341.183 11.4304 -2.56595e-12
11.4304 405.535 1.75978e-12
-2.56595e-12 1.75978e-12 318.976

421.779 -28.0826 -2.52361e-12
-28.0826 390.612 3.55982e-12
-2.52361e-12 3.55982e-12 374.534

506.513 -13.7409 7.39409e-13
-13.7409 557.761 3.12284e-12
7.39409e-13 3.12284e-12 524.339

500.184 0.503288 3.18264e-14
0.503288 440.546 -1.64394e-12
3.18264e-14 -1.64394e-12 486.245

476.132 -21.4746 7.87222e-13
-21.4746 506.541 -4.10694e-12
7.87222e-13 -4.10694e-12 500.636

458.323 25.638 -2.05406e-12
25.638 483.767 8.2497e-13
-2.05406e-12 8.2497e-13 487.138

393.791 -31.395 5.44986e-12
-31.395 399.948 3.68416e-12
5.44986e-12 3.68416e-12 356.942

551.166 -7.06944 5.12198e-12
-7.06944 584.258 -1.26181e-12
5.12198e-12 -1.26181e-12 541.66

346.675 -33.0107 -3.33363e-12
-33.0107 382.003 -5.37407e-12
-3.33363e-12 -5.37407e-12 302.958

490.018 -19.1341 -9.64562e-13
-19.1341 447.637 1.87228e-12
-9.64562e-13 1.87228e-12 466.325

518.8 1.96583 -4.50832e-12
1.96583 466.028 2.61243e-12
-4.50832e-12 2.61243e-12 501.96

569.555 17.8341 -1.84327e-12
17.8341 565.487 4.21855e-12
-1.84327e-12 4.21855e-12 541.433

374.695 20.1385 -4.0193e-12
20.1385 423.327 -1.64017e-12
-4.0193e-12 -1.64017e-12 359.637

488.238 27.146 1.26654e-12
27.146 467.744 4.23661e-13
1.26654e-12 4.23661e-13 475.821

453.606 -24.4535 3.97904e-12
-24.4535 414.66 2.48631e-12
3.97904e-12 2.48631e-12 417.902

453.955 -17.7966 -2.72105e-12
-17.7966 494.048 4.50662e-12
-2.72105e-12 4.50662e-12 481.81

378.597 34.9966 -5.15972e-12
34.9966 365.456 3.51482e-12
-5.15972e-12 3.51482e-12 316.546

448.4 -21.7798 -8.49099e-13
-21.7798 490.851 3.19152e-13
-8.49099e-13 3.19152e-13 478.947

484.654 30.7774 8.39625e-13
30.7774 464.348 -1.96465e-12
8.39625e-13 -1.96465e-12 472.634

479.493 -25.184 1.93623e-13
-25.184 441.628 5.90343e-13
1.93623e-13 5.90343e-13 454.667

447.464 -25.0667 -5.9656e-13
-25.0667 468.962 1.62359e-12
-5.9656e-13 1.62359e-12 457.315

444.589 -18.6446 5.03301e-12
-18.6446 392.827 -2.09018e-12
5.03301e-12 -2.09018e-12 396.6

469.843 -18.8048 -8.98837e-13
-18.8048 422.156 7.18151e-12
-8.98837e-13 7.18151e-12 436.792

458.224 -25.2781 -9.1808e-13
-25.2781 484.592 -6.94926e-13
-9.1808e-13 -6.94926e-13 487.98

385.917 35.8891 -2.96296e-12
35.8891 381.373 5.46999e-12
-2.96296e-12 5.46999e-12 347.554

443.751 15.3401 -7.05643e-12
15.3401 490.677 -2.39334e-12
-7.05643e-12 -2.39334e-12 466.338

468.596 26.3598 -1.97768e-13
26.3598 479.133 5.54697e-12
-1.97768e-13 5.54697e-12 481.713

455.373 25.4144 -1.06702e-13
25.4144 485.806 -2.04533e-12
-1.06702e-13 -2.04533e-12 486.403

457.036 11.594 1.82756e-12
11.594 506.053 6.34752e-13
1.82756e-12 6.34752e-13 485.175

431.228 -8.20833 8.62125e-13
-8.20833 370.168 3.10862e-15
8.62125e-13 3.10862e-15 362.715

376.179 18.5653 1.92439e-12
18.5653 426.552 -3.09086e-13
1.92439e-12 -3.09086e-13 363.29

451.549 -24.3228 1.99514e-12
-24.3228 477.56 8.26302e-13
1.99514e-12 8.26302e-13 469.901

440.005 25.6051 4.47227e-12
25.6051 454.864 -1.07292e-12
4.47227e-12 -1.07292e-12 437.064

390.32 -35.5493 -1.76688e-12
-35.5493 379.665 6.15152e-12
-1.76688e-12 6.15152e-12 349.524

368.355 38.2354 -4.4551e-12
38.2354 326.75 6.49318e-12
-4.4551e-12 6.49318e-12 295.216

363.071 -33.2369 -9.03573e-13
-33.2369 393.79 4.39352e-12
-9.03573e-13 4.39352e-12 341.427

397.281 -31.0901 -4.41721e-12
-31.0901 403.53 5.15736e-12
-4.41721e-12 5.15736e-12 362.381

501.975 -6.82267 -2.46025e-13
-6.82267 441.51 3.12454e-12
-2.46025e-13 3.12454e-12 481.483

392.525 30.2741 2.46795e-12
30.2741 408.305 -7.78518e-12
2.46795e-12 -7.78518e-12 362.84

428.981 13.2649 -2.29624e-12
13.2649 371.654 1.82106e-12
-2.29624e-12 1.82106e-12 362.121

349.598 13.3483 -3.66078e-12
13.3483 417.815 7.72123e-13
-3.66078e-12 7.72123e-13 347.909

378.871 -22.291 -3.50416e-12
-22.291 422.806 2.66454e-12
-3.50416e-12 2.66454e-12 362.854

490.368 -1.08871 -1.66548e-12
-1.08871 549.9 6.51331e-13
-1.66548e-12 6.51331e-13 515.407

372.271 2.24227 -7.57468e-13
2.24227 437.046 3.67706e-12
-7.57468e-13 3.67706e-12 372.906

357.325 31.0201 1.92794e-12
31.0201 398.829 -4.25141e-12
1.92794e-12 -4.25141e-12 341.407

457.218 12.0792 1.50549e-12
12.0792 509.664 -3.6362e-12
1.50549e-12 -3.6362e-12 487.557

420.747 -27.5841 9.20153e-13
-27.5841 388.442 -6.69687e-13
9.20153e-13 -6.69687e-13 374.455

523.832 20.509 -8.93507e-13
20.509 468.953 -1.87554e-12
-8.93507e-13 -1.87554e-12 499.864

533.985 26.2094 5.21538e-12
26.2094 505.984 -7.37484e-13
5.21538e-12 -7.37484e-13 515.195

493.953 -18.5233 -1.94156e-12
-18.5233 448.272 3.91035e-12
-1.94156e-12 3.91035e-12 470.046

553.603 -1.79695 6.21725e-15
-1.79695 515.13 2.5846e-13
6.21725e-15 2.5846e-13 524.799

472.476 -31.7368 -4.21293e-13
-31.7368 474.88 6.69006e-12
-4.21293e-13 6.69006e-12 477.752

411.911 23.2757 -9.9476e-14
23.2757 356.636 -4.7784e-13
-9.9476e-14 -4.7784e-13 347.527

463.386 30.0915 -8.03801e-13
30.0915 481.934 1.04095e-12
-8.03801e-13 1.04095e-12 482.368

463.649 29.1374 -1.51168e-12
29.1374 481.409 -9.13047e-13
-1.51168e-12 -9.13047e-13 481.93

393.305 30.5927 1.7053e-12
30.5927 405.058 -2.58874e-12
1.7053e-12 -2.58874e-12 360.28

501.979 27.0211 -1.97412e-12
27.0211 481.838 8.05282e-13
-1.97412e-12 8.05282e-13 489.885

414.659 3.51744 -9.53312e-13
3.51744 338.493 2.30749e-12
-9.53312e-13 2.30749e-12 340.274

492.269 31.7429 1.96051e-12
31.7429 486.384 3.4112e-12
1.96051e-12 3.4112e-12 494.714

475.517 -12.5704 3.83915e-13
-12.5704 521.532 1.81544e-12
3.83915e-13 1.81544e-12 499.379

535.982 24.2219 -2.6068e-12
24.2219 506.527 -2.54434e-12
-2.6068e-12 -2.54434e-12 515.731

467.378 -29.5094 1.0066e-12
-29.5094 479.143 4.43704e-12
1.0066e-12 4.43704e-12 482.226

463.776 -4.88682 2.5777e-12
-4.88682 520.637 -5.73171e-13
2.5777e-12 -5.73171e-13 490.129

400.286 -24.5031 3.81088e-12
-24.5031 348.48 8.24822e-13
3.81088e-12 8.24822e-13 323.432

418.269 29.6258 7.25938e-13
29.6258 391.828 6.34988e-12
7.25938e-13 6.34988e-12 373.156

351.794 14.6634 4.46754e-13
14.6634 416.517 -8.40809e-14
4.46754e-13 -8.40809e-14 347.675

499.656 -1.13627 -1.59117e-12
-1.13627 442.055 3.54849e-12
-1.59117e-12 3.54849e-12 486.863

491.612 0.00221846 3.78305e-12
0.00221846 437.373 -2.72273e-13
3.78305e-12 -2.72273e-13 473.601

452.201 23.0693 3.93966e-12
23.0693 478.88 -3.92575e-13
3.93966e-12 -3.92575e-13 474.766

480.481 23.8157 -1.75504e-12
23.8157 502.001 -4.75546e-13
-1.75504e-12 -4.75546e-13 500.382

455.817 -24.3241 1.48442e-12
-24.3241 486.51 1.4837e-12
1.48442e-12 1.4837e-12 487.651

457.067 -0.671017 1.9403e-13
-0.671017 517.03 3.20455e-12
1.9403e-13 3.20455e-12 485.56

458.11 25.5309 -9.28443e-13
25.5309 485.63 3.06229e-12
-9.28443e-13 3.06229e-12 487.674

464.759 -10.2834 1.94274e-12
-10.2834 407.42 4.50647e-12
1.94274e-12 4.50647e-12 426.505

400.211 -32.7572 2.50881e-12
-32.7572 414.269 1.54543e-12
2.50881e-12 1.54543e-12 384.533

517.192 -2.29537 -1.15567e-12
-2.29537 464.955 3.44909e-13
-1.15567e-12 3.44909e-13 500.06

391.24 -34.4311 3.12284e-12
-34.4311 378.999 -2.19084e-13
3.12284e-12 -2.19084e-13 346.858

477.191 19.0419 -1.57666e-12
19.0419 508.319 -8.47322e-13
-1.57666e-12 -8.47322e-13 500.978

505.234 -26.4164 2.52776e-12
-26.4164 469.454 -4.6955e-12
2.52776e-12 -4.6955e-12 486.436

424.297 -9.66781 -2.8623e-12
-9.66781 366.156 7.8774e-12
-2.8623e-12 7.8774e-12 355.407

529.339 -23.1375 1.31569e-12
-23.1375 487.927 -5.77553e-12
1.31569e-12 -5.77553e-12 505.615

500.025 2.35283 3.80436e-13
2.35283 443.84 -9.4369e-13
3.80436e-13 -9.4369e-13 488.363

520.286 -23.2667 -4.27806e-12
-23.2667 500.982 -8.15644e-13
-4.27806e-12 -8.15644e-13 507.656

501.146 -25.7985 -1.84741e-12
-25.7985 460.717 1.52204e-12
-1.84741e-12 1.52204e-12 480.419

497.962 -8.52579 -2.18225e-12
-8.52579 444.397 2.32259e-13
-2.18225e-12 2.32259e-13 478.523

481.402 -23.0147 -8.01137e-13
-23.0147 504.121 6.29459e-13
-8.01137e-13 6.29459e-13 501.668

427.827 -31.2684 2.17308e-12
-31.2684 409.917 -1.02081e-12
2.17308e-12 -1.02081e-12 398.34

502.395 -24.529 -2.83921e-12
-24.529 463.932 5.21124e-12
-2.83921e-12 5.21124e-12 481.334

440.496 10.8392 -1.51109e-12
10.8392 377.882 -8.10315e-13
-1.51109e-12 -8.10315e-13 387.162

499.178 26.2784 5.2219e-12
26.2784 497.728 1.19238e-12
5.2219e-12 1.19238e-12 499.243

462.97 -37.526 -1.23516e-12
-37.526 487.552 -2.174e-12
-1.23516e-12 -2.174e-12 493.231

464.076 37.179 -1.65497e-12
37.179 486.466 3.26709e-12
-1.65497e-12 3.26709e-12 492.946

445.585 -28.5069 2.39882e-12
-28.5069 499.15 -3.53436e-12
2.39882e-12 -3.53436e-12 491.464

447.815 27.0012 -9.85804e-13
27.0012 499.839 -8.91139e-13
-9.85804e-13 -8.91139e-13 491.65

512.175 -8.50823 2.05821e-12
-8.50823 435.687 -1.0032e-12
2.05821e-12 -1.0032e-12 491.91

510.341 9.25246 6.61989e-13
9.25246 437.281 -7.61761e-13
6.61989e-13 -7.61761e-13 491.548

500.786 -9.82275 3.36501e-12
-9.82275 450.99 1.59324e-12
3.36501e-12 1.59324e-12 482.192

509.984 32.0426 1.65497e-13
32.0426 509.51 -1.31594e-12
1.65497e-13 -1.31594e-12 513.165

508.763 -32.779 -3.13024e-12
-32.779 509.188 1.00353e-12
-3.13024e-12 1.00353e-12 512.805

480.995 16.0313 6.47926e-13
16.0313 538.186 -2.22962e-12
6.47926e-13 -2.22962e-12 513.437

482.186 -15.7643 1.93105e-12
-15.7643 537.777 -1.62625e-12
1.93105e-12 -1.62625e-12 513.458

555.89 -3.7389 4.7636e-13
-3.7389 505.967 -1.38556e-13
4.7636e-13 -1.38556e-13 524.084

557.441 3.60204 -2.05465e-12
3.60204 504.296 -3.19034e-12
-2.05465e-12 -3.19034e-12 524.455

386.691 9.81378 -7.44516e-13
9.81378 448.435 -3.10152e-12
-7.44516e-13 -3.10152e-12 396.432

471.586 -24.7157 1.68576e-12
-24.7157 479.933 -3.00278e-12
1.68576e-12 -3.00278e-12 484.143

442.725 -36.3031 2.72027e-12
-36.3031 484.698 1.75534e-12
2.72027e-12 1.75534e-12 485.789

472.827 -4.65321 -2.61361e-12
-4.65321 419.747 -1.78442e-12
-2.61361e-12 -1.78442e-12 435.604

539.307 -16.6569 -5.16328e-13
-16.6569 483.373 -8.61237e-13
-5.16328e-13 -8.61237e-13 514.396

540.025 16.139 -4.91666e-12
16.139 484.594 8.48506e-13
-4.91666e-12 8.48506e-13 515.001

505.978 0.121639 3.82509e-13
0.121639 422.861 1.12793e-12
3.82509e-13 1.12793e-12 486.163

384.177 23.321 -2.69858e-12
23.321 431.572 -4.28694e-13
-2.69858e-12 -4.28694e-13 384.844

441.598 36.0876 1.94748e-12
36.0876 484.376 -1.2621e-12
1.94748e-12 -1.2621e-12 484.996

451.84 -23.341 -2.84424e-12
-23.341 494.097 2.57276e-12
-2.84424e-12 2.57276e-12 482.759

442.499 23.2983 2.05228e-12
23.2983 396.877 -3.48817e-12
2.05228e-12 -3.48817e-12 399.711

530.04 23.8022 1.81248e-12
23.8022 487.179 2.63167e-12
1.81248e-12 2.63167e-12 506.372

427.765 -31.2402 1.74083e-12
-31.2402 410.2 4.19753e-12
1.74083e-12 4.19753e-12 398.158

518.953 -3.2235 -1.67599e-12
-3.2235 468.27 2.05761e-12
-1.67599e-12 2.05761e-12 501.818

438.667 -34.0818 -4.4554e-12
-34.0818 484.668 -5.69559e-12
-4.4554e-12 -5.69559e-12 484.985

388.561 8.30029 -1.73602e-12
8.30029 451.558 4.73695e-15
-1.73602e-12 4.73695e-15 400.192

385.262 21.7608 -2.58519e-12
21.7608 435.04 1.88412e-12
-2.58519e-12 1.88412e-12 388.055

383.236 35.703 -2.04281e-12
35.703 361.768 1.90189e-12
-2.04281e-12 1.90189e-12 317.824

407.512 1.57494 5.2213e-12
1.57494 331.652 -3.96794e-12
5.2213e-12 -3.96794e-12 326.804

484.627 -22.7516 1.38467e-12
-22.7516 501.99 -1.19107e-12
1.38467e-12 -1.19107e-12 500.881

351.334 31.1212 6.37594e-12
31.1212 388.214 -8.66862e-13
6.37594e-12 -8.66862e-13 311.865

450.592 23.5541 4.85123e-12
23.5541 477.591 -3.04704e-12
4.85123e-12 -3.04704e-12 464.419

441.448 -5.33718 1.30148e-12
-5.33718 376.528 1.82032e-12
1.30148e-12 1.82032e-12 387.1

463.36 11.1894 -2.46914e-13
11.1894 406.638 4.99156e-12
-2.46914e-13 4.99156e-12 424.21

504.496 0.42891 -2.20387e-12
0.42891 420.884 1.51046e-12
-2.20387e-12 1.51046e-12 484.836

448.6 -28.9637 -2.11216e-12
-28.9637 501.126 -5.94665e-12
-2.11216e-12 -5.94665e-12 492.735

571.507 -6.30442 1.09853e-12
-6.30442 588.441 -1.58806e-12
1.09853e-12 -1.58806e-12 548.299

462.358 37.3252 -3.5163e-12
37.3252 486.189 -2.47617e-13
-3.5163e-12 -2.47617e-13 492.212

408.083 1.66042 4.59958e-12
1.66042 331.099 1.76799e-12
4.59958e-12 1.76799e-12 308.418

403.574 -32.7109 2.56269e-12
-32.7109 414.822 -1.66445e-12
2.56269e-12 -1.66445e-12 386.753

442.403 36.528 -1.2413e-12
36.528 484.669 -8.0395e-13
-1.2413e-12 -8.0395e-13 485.732

443.939 -11.1076 3.01309e-12
-11.1076 498.066 2.19025e-12
3.01309e-12 2.19025e-12 470.635

385.454 -25.4555 1.94037e-12
-25.4555 428.183 -4.45273e-12
1.94037e-12 -4.45273e-12 383.932

448.7 28.7631 -1.70523e-12
28.7631 500.76 -1.57829e-12
-1.70523e-12 -1.57829e-12 492.435

451.943 -26.0805 -2.07597e-12
-26.0805 418.613 -3.10862e-13
-2.07597e-12 -3.10862e-13 418.817

578.532 10.459 -2.05969e-12
10.459 581.138 -1.0528e-11
-2.05969e-12 -1.0528e-11 548.084

397.682 30.8004 3.71318e-12
30.8004 421.356 2.45137e-12
3.71318e-12 2.45137e-12 387.524

514.804 8.1083 4.03085e-13
8.1083 436.547 -3.46256e-12
4.03085e-13 -3.46256e-12 493.726

492.955 30.1199 -4.68958e-13
30.1199 483.918 1.56527e-12
-4.68958e-13 1.56527e-12 492.949

452.702 23.2769 2.48083e-12
23.2769 478.34 1.75238e-12
2.48083e-12 1.75238e-12 474.981

509.819 -32.4143 4.76952e-13
-32.4143 511.565 6.2846e-13
4.76952e-13 6.2846e-13 514.112

509.42 -23.1352 3.56515e-12
-23.1352 472.379 -4.81334e-12
3.56515e-12 -4.81334e-12 488.834

510.525 10.447 4.48419e-13
10.447 557.006 -1.93741e-12
4.48419e-13 -1.93741e-12 522.823

451.413 -23.3784 3.84581e-13
-23.3784 479.339 -8.5875e-12
3.84581e-13 -8.5875e-12 468.148

393.782 -9.68596 9.42653e-12
-9.68596 315.942 -5.30376e-12
9.42653e-12 -5.30376e-12 295.114

386.671 -14.2504 2.44664e-12
-14.2504 305.607 8.8581e-13
2.44664e-12 8.8581e-13 289.597

546.621 16.4902 -2.03719e-12
16.4902 506.892 -3.12846e-12
-2.03719e-12 -3.12846e-12 518.419

435.76 22.4482 -3.26465e-12
22.4482 468.332 3.16961e-12
-3.26465e-12 3.16961e-12 447.064

475.148 29.094 5.9952e-12
29.094 466.85 -4.74909e-12
5.9952e-12 -4.74909e-12 470.671

449.537 0.687032 -4.31299e-12
0.687032 392.146 2.2302e-12
-4.31299e-12 2.2302e-12 395.021

477.543 6.55614 -4.22625e-13
6.55614 540.323 -4.38405e-12
-4.22625e-13 -4.38405e-12 506.661

506.445 16.502 1.30799e-12
16.502 460.359 -6.90411e-13
1.30799e-12 -6.90411e-13 487.238

389.35 -25.7012 2.12038e-12
-25.7012 429.316 8.73968e-13
2.12038e-12 8.73968e-13 387.096

455.555 -2.56646 2.26835e-12
-2.56646 516.107 1.16174e-12
2.26835e-12 1.16174e-12 484.006

399.941 13.3344 -1.27631e-12
13.3344 452.215 -2.33295e-13
-1.27631e-12 -2.33295e-13 403.964

486.074 -29.6429 -2.17426e-12
-29.6429 465.025 -4.19398e-12
-2.17426e-12 -4.19398e-12 473.446

429.58 -29.8778 -1.52175e-13
-29.8778 422.927 2.23939e-12
-1.52175e-13 2.23939e-12 404.282

399.061 31.5495 -1.85748e-12
31.5495 417.538 7.11135e-13
-1.85748e-12 7.11135e-13 385.368

622.888 -14.9862 -4.51846e-12
-14.9862 580.929 3.21276e-12
-4.51846e-12 3.21276e-12 556.936

493.679 2.03636 -1.03917e-13
2.03636 551.167 -1.29911e-12
-1.03917e-13 -1.29911e-12 517.026

482.681 20.2532 -2.3103e-12
20.2532 541.088 -4.11434e-12
-2.3103e-12 -4.11434e-12 515.134

543.744 15.4043 1.161e-12
15.4043 479.157 -2.93188e-12
1.161e-12 -2.93188e-12 514.856

472.94 -26.1268 -1.49836e-12
-26.1268 478.934 2.89665e-12
-1.49836e-12 2.89665e-12 482.185

451.357 17.9151 1.70767e-12
17.9151 403.85 2.89872e-12
1.70767e-12 2.89872e-12 406.241

530.662 -5.28229 -1.69057e-12
-5.28229 579.77 2.06087e-12
-1.69057e-12 2.06087e-12 536.184

511.292 -18.9439 -1.6982e-12
-18.9439 464.009 -1.44803e-12
-1.6982e-12 -1.44803e-12 492.176

473.159 -15.5618 3.61785e-13
-15.5618 422.48 -1.86458e-12
3.61785e-13 -1.86458e-12 438.139

401.349 11.5764 2.90138e-14
11.5764 455.18 -6.70279e-13
2.90138e-14 -6.70279e-13 407.101

410.249 -25.6746 3.12284e-12
-25.6746 434.85 -4.57471e-12
3.12284e-12 -4.57471e-12 398.296

531.119 -25.215 -4.99156e-13
-25.215 522.286 2.35264e-12
-4.99156e-13 2.35264e-12 518.217

422.354 31.8846 -3.30343e-12
31.8846 416.559 9.5568e-13
-3.30343e-12 9.5568e-13 399.642

534.543 -25.0764 -2.87444e-12
-25.0764 504.919 -3.70074e-13
-2.87444e-12 -3.70074e-13 514.765

452.722 2.59134 4.02996e-12
2.59134 396.378 -5.25654e-12
4.02996e-12 -5.25654e-12 401.231

310.632 -28.872 3.16132e-12
-28.872 375.998 -2.97007e-12
3.16132e-12 -2.97007e-12 289.542

431.154 -29.1628 -4.32188e-12
-29.1628 423.345 -4.34319e-12
-4.32188e-12 -4.34319e-12 405.48

353.214 32.0941 2.84217e-13
32.0941 391.919 1.89478e-13
2.84217e-13 1.89478e-13 312.475

469.554 -11.8495 -2.5964e-12
-11.8495 528.62 -2.79303e-12
-2.5964e-12 -2.79303e-12 499.438

390.822 -13.7889 -5.68271e-12
-13.7889 448.49 -1.89596e-12
-5.68271e-12 -1.89596e-12 399.536

601.788 -23.9344 -6.20896e-12
-23.9344 601.203 -1.68236e-12
-6.20896e-12 -1.68236e-12 556.877

407.704 23.7158 4.85893e-12
23.7158 441.195 5.4096e-12
4.85893e-12 5.4096e-12 401.555

495.721 -32.6498 4.05513e-12
-32.6498 489.799 1.33582e-12
4.05513e-12 1.33582e-12 496.587

387.568 -11.9349 3.22535e-12
-11.9349 447.524 -8.15821e-12
3.22535e-12 -8.15821e-12 396.36

515.807 -19.0723 4.18717e-12
-19.0723 464.969 5.15736e-13
4.18717e-12 5.15736e-13 495.386

410.014 23.8219 8.26598e-13
23.8219 438.574 -1.6532e-12
8.26598e-13 -1.6532e-12 400.035

488.072 -4.96365 -1.85629e-12
-4.96365 434.35 3.16636e-13
-1.85629e-12 3.16636e-13 459.598

305.338 -30.2931 -4.34497e-12
-30.2931 390.849 1.53951e-12
-4.34497e-12 1.53951e-12 262.17

437.879 20.9641 -4.94449e-12
20.9641 473.099 -4.10457e-12
-4.94449e-12 -4.10457e-12 457.568

444.933 -19.2783 -3.82154e-12
-19.2783 393.344 -1.67599e-12
-3.82154e-12 -1.67599e-12 398.963

550.632 -21.3963 -3.16399e-12
-21.3963 498.664 -1.87791e-12
-3.16399e-12 -1.87791e-12 519.201

423.767 31.6797 1.4803e-13
31.6797 412.645 -5.80869e-13
1.4803e-13 -5.80869e-13 397.303

458.384 -29.9005 8.89955e-13
-29.9005 436.91 -2.78562e-12
8.89955e-13 -2.78562e-12 438.56

509.732 20.8361 2.14525e-12
20.8361 475.267 2.23199e-12
2.14525e-12 2.23199e-12 491.909

460.728 -28.0108 5.03064e-12
-28.0108 484.908 1.01867e-12
5.03064e-12 1.01867e-12 487.876

413.044 -26.1645 1.78583e-12
-26.1645 435.516 -1.54188e-12
1.78583e-12 -1.54188e-12 400.777

425.37 28.9134 -2.48335e-12
28.9134 429.184 -9.18969e-13
-2.48335e-12 -9.18969e-13 406.188

451.736 26.1294 4.56524e-12
26.1294 417.543 -2.57098e-12
4.56524e-12 -2.57098e-12 418.362

521.06 -14.5753 4.3879e-12
-14.5753 476.372 -3.33304e-12
4.3879e-12 -3.33304e-12 499.203

402.909 -16.5791 -2.20535e-12
-16.5791 450.979 -1.29082e-13
-2.20535e-12 -1.29082e-13 405.771

495.188 -17.5267 -4.66471e-12
-17.5267 446.863 1.19978e-12
-4.66471e-12 1.19978e-12 470.697

486.923 16.8681 1.41516e-12
16.8681 435.539 5.5446e-12
1.41516e-12 5.5446e-12 459.807

512.464 -9.36558 -3.38063e-12
-9.36558 554.8 -2.14939e-13
-3.38063e-12 -2.14939e-13 522.125

453.209 -13.3985 1.66385e-12
-13.3985 401.53 7.71945e-12
1.66385e-12 7.71945e-12 406.071

402.553 0.593033 -2.95038e-12
0.593033 464.93 -4.15904e-12
-2.95038e-12 -4.15904e-12 417.111

474.213 18.5108 -1.98774e-12
18.5108 428.067 2.50496e-12
-1.98774e-12 2.50496e-12 441.478

450.381 27.5387 4.96433e-12
27.5387 421.146 -1.79856e-12
4.96433e-12 -1.79856e-12 420.143

400.223 -15.65 2.79717e-12
-15.65 450.619 -7.25227e-12
2.79717e-12 -7.25227e-12 403.07

405.346 -1.19926 3.4673e-12
-1.19926 467.234 -3.59298e-12
3.4673e-12 -3.59298e-12 420.519

515.306 29.0661 2.0132e-12
29.0661 497.176 -4.06578e-12
2.0132e-12 -4.06578e-12 504.007

440.974 -10.8963 2.00403e-12
-10.8963 499.789 7.90479e-13
2.00403e-12 7.90479e-13 470.345

450.677 -26.6523 1.04627e-12
-26.6523 418.081 -1.4803e-13
1.04627e-12 -1.4803e-13 418.655

443.639 21.2827 3.16073e-12
21.2827 394.665 -3.49824e-12
3.16073e-12 -3.49824e-12 397.547

496.735 23.6094 -2.8173e-12
23.6094 457.324 -2.53338e-12
-2.8173e-12 -2.53338e-12 475.737

446.941 5.45782 2.93617e-13
5.45782 507.904 9.45022e-13
2.93617e-13 9.45022e-13 476.068

426.943 28.9978 -4.73636e-12
28.9978 425.731 2.72197e-12
-4.73636e-12 2.72197e-12 404.442

535.888 22.9103 -1.28164e-12
22.9103 530.977 4.10338e-13
-1.28164e-12 4.10338e-13 521.881

314.283 -59.5898 8.0315e-12
-59.5898 282.366 7.5436e-13
8.0315e-12 7.5436e-13 223.088

479.771 -24.9883 -4.29878e-13
-24.9883 444.333 -1.49984e-12
-4.29878e-13 -1.49984e-12 455.874

336.154 7.05669 1.35447e-12
7.05669 408.494 5.43328e-12
1.35447e-12 5.43328e-12 318.937

459.76 -28.8208 -3.06125e-13
-28.8208 443.996 -1.87879e-12
-3.06125e-13 -1.87879e-12 442.707

96.297 -52.6306 1.80004e-12
-52.6306 306.212 -1.9611e-12
1.80004e-12 -1.9611e-12 113.534

95.831 51.3826 2.79362e-12
51.3826 306.474 4.64695e-12
2.79362e-12 4.64695e-12 114.321

181.278 116.999 -2.85164e-12
116.999 225.778 3.65219e-12
-2.85164e-12 3.65219e-12 113.423

182.574 -116.941 8.73968e-13
-116.941 223.017 2.24058e-12
8.73968e-13 2.24058e-12 113.397

321.156 -1.36111 -4.07378e-13
-1.36111 84.5422 2.80863e-14
-4.07378e-13 2.80863e-14 114.761

274.067 -91.0033 4.61853e-12
-91.0033 127.249 -6.15804e-14
4.61853e-12 -6.15804e-14 113.636

274.761 91.5301 3.2685e-12
91.5301 128.08 -1.71241e-12
3.2685e-12 -1.71241e-12 114.405

524.324 14.2965 2.13429e-12
14.2965 473.914 3.381e-12
2.13429e-12 3.381e-12 501.45

555.823 25.4775 2.4191e-12
25.4775 540.246 1.63543e-12
2.4191e-12 1.63543e-12 532.527

491.243 6.59028 6.59206e-12
6.59028 438.397 3.04675e-12
6.59206e-12 3.04675e-12 470.599

469.497 21.7328 1.14161e-12
21.7328 423.822 -1.91817e-12
1.14161e-12 -1.91817e-12 437.46

409.312 17.7025 -1.6902e-12
17.7025 460.289 3.4035e-12
-1.6902e-12 3.4035e-12 424.335

447.257 28.8305 -8.91731e-13
28.8305 424.007 7.56728e-13
-8.91731e-13 7.56728e-13 420.05

486.314 -29.5933 2.50229e-12
-29.5933 464.844 1.53536e-12
2.50229e-12 1.53536e-12 473.781

448.611 27.962 1.68932e-12
27.962 420.382 -9.03573e-13
1.68932e-12 -9.03573e-13 417.947

402.316 -2.83489 3.13364e-12
-2.83489 464.587 -3.5314e-12
3.13364e-12 -3.5314e-12 416.847

554.832 -26.0372 4.99186e-12
-26.0372 542.435 -4.81985e-13
4.99186e-12 -4.81985e-13 532.771

404.848 -4.85138 -3.54812e-12
-4.85138 466.321 -1.3074e-12
-3.54812e-12 -1.3074e-12 419.901

521.386 22.962 2.73085e-12
22.962 498.889 -9.41173e-13
2.73085e-12 -9.41173e-13 507.095

422.681 26.8087 4.45037e-12
26.8087 385.891 -4.84176e-12
4.45037e-12 -4.84176e-12 372.423

479.299 -13.1852 4.34823e-12
-13.1852 531.838 -7.11727e-13
4.34823e-12 -7.11727e-13 511.116

483.365 13.6951 -3.04408e-12
13.6951 432.065 3.35258e-12
-3.04408e-12 3.35258e-12 456.102

456.596 -29.9165 1.12621e-12
-29.9165 436.252 3.45117e-12
1.12621e-12 3.45117e-12 437.099

453.54 -24.6551 -1.44477e-12
-24.6551 416.124 -7.30971e-13
-1.44477e-12 -7.30971e-13 419.155

546.446 -16.0366 3.66018e-12
-16.0366 508.435 1.112e-12
3.66018e-12 1.112e-12 518.488

475.159 27.8626 2.69296e-12
27.8626 448.955 -9.53312e-14
2.69296e-12 -9.53312e-14 456.152

468.3 23.9205 4.11523e-12
23.9205 427.146 -5.24499e-12
4.11523e-12 -5.24499e-12 439.091

431.719 -2.78637 3.4032e-12
-2.78637 492.782 1.25707e-12
3.4032e-12 1.25707e-12 456.334

416.929 5.85936 2.96998e-12
5.85936 478.732 -1.23161e-13
2.96998e-12 -1.23161e-13 439.438

462.221 2.6404 -3.57521e-12
2.6404 401.633 -6.90759e-12
-3.57521e-12 -6.90759e-12 421.618

437.912 -7.27271 -3.26731e-12
-7.27271 373.329 5.15158e-12
-3.26731e-12 5.15158e-12 380.598

454.077 30.4124 7.11135e-13
30.4124 438.286 -7.18832e-13
7.11135e-13 -7.18832e-13 437.103

477.646 -26.0933 1.60227e-12
-26.0933 442.806 6.063e-12
1.60227e-12 6.063e-12 453.878

524.785 -21.2047 2.01084e-12
-21.2047 496.98 -5.69115e-12
2.01084e-12 -5.69115e-12 507.742

437.004 -31.5588 -1.6982e-12
-31.5588 436.927 -1.04213e-12
-1.6982e-12 -1.04213e-12 426.147

416.907 -27.7199 -5.23433e-12
-27.7199 443.65 -4.26326e-14
-5.23433e-12 -4.26326e-14 418.99

429.934 29.8164 -1.848e-12
29.8164 442.003 4.80978e-12
-1.848e-12 4.80978e-12 425.786

415.55 -9.55515 -7.4866e-14
-9.55515 474.396 3.59535e-12
-7.4866e-14 3.59535e-12 435.723

428.193 -1.54117 -8.34592e-13
-1.54117 491.017 2.99849e-12
-8.34592e-13 2.99849e-12 453.228

444.446 5.73449 1.66495e-12
5.73449 507.159 3.14474e-12
1.66495e-12 3.14474e-12 474.105

413.945 -21.0392 8.19493e-13
-21.0392 457.63 -2.03334e-12
8.19493e-13 -2.03334e-12 425.355

496.011 24.054 -3.75226e-12
24.054 454.935 -5.9656e-13
-3.75226e-12 -5.9656e-13 473.784

482.542 -9.56689 -1.41753e-12
-9.56689 429.407 -3.12639e-12
-1.41753e-12 -3.12639e-12 454.451

414.959 7.44761 8.3239e-12
7.44761 476.301 3.27679e-12
8.3239e-12 3.27679e-12 436.181

443.221 -9.67824 -2.51519e-12
-9.67824 500.634 1.51286e-12
-2.51519e-12 1.51286e-12 470.206

432.461 -16.2919 3.34399e-13
-16.2919 480.848 -1.50813e-12
3.34399e-13 -1.50813e-12 454.897

462.75 -8.21991 -7.25938e-13
-8.21991 405.68 -5.18992e-12
-7.25938e-13 -5.18992e-12 420.77

493.586 -32.2713 1.45069e-14
-32.2713 486.784 2.3519e-12
1.45069e-14 2.3519e-12 495.397

422.254 9.29903 -8.42289e-13
9.29903 478.268 3.25251e-12
-8.42289e-13 3.25251e-12 440.239

563.366 -18.1701 4.43319e-12
-18.1701 529.039 5.07757e-12
4.43319e-12 5.07757e-12 530.911

308.59 24.7725 7.95453e-12
24.7725 378.823 -1.38082e-12
7.95453e-12 -1.38082e-12 289.348

500.837 -26.5637 6.4837e-14
-26.5637 498.634 1.15093e-12
6.4837e-14 1.15093e-12 500.337

514.758 -30.1322 -3.90917e-12
-30.1322 497.553 3.44021e-13
-3.90917e-12 3.44021e-13 504.05

428.521 -0.699544 6.60139e-12
-0.699544 491.143 4.26326e-13
6.60139e-12 4.26326e-13 453.378

474.068 -16.5832 1.20319e-12
-16.5832 427.634 -1.71004e-12
1.20319e-12 -1.71004e-12 441.214

461.533 12.8116 -3.52159e-12
12.8116 510.387 -1.69761e-12
-3.52159e-12 -1.69761e-12 488.283

240.441 -3.17049 6.44662e-12
-3.17049 360.143 -1.96583e-12
6.44662e-12 -1.96583e-12 226.624

431.694 14.2399 -6.95421e-12
14.2399 484.521 -6.7916e-13
-6.95421e-12 -6.7916e-13 456.11

457.338 -29.4196 -2.15117e-12
-29.4196 442.432 -1.5099e-13
-2.15117e-12 -1.5099e-13 440.022

303.748 25.0642 7.14806e-12
25.0642 393.992 -7.07227e-12
7.14806e-12 -7.07227e-12 263.941

602.487 26.039 3.84714e-12
26.039 596.904 5.29251e-12
3.84714e-12 5.29251e-12 557.193

607.21 -27.7444 -1.12775e-11
-27.7444 593.986 5.33943e-13
-1.12775e-11 5.33943e-13 557.326

462.711 -30.3469 1.14693e-12
-30.3469 458.267 1.47645e-12
1.14693e-12 1.47645e-12 458.296

433.863 -31.0865 -1.83261e-12
-31.0865 435.634 -1.96643e-12
-1.83261e-12 -1.96643e-12 423.955

473.291 20.7781 -1.02022e-12
20.7781 431.204 3.27205e-12
-1.02022e-12 3.27205e-12 443.227

464.429 14.9706 -4.78077e-12
14.9706 409.453 3.49587e-12
-4.78077e-12 3.49587e-12 426.75

644.922 3.07578 1.25981e-11
3.07578 644.58 3.09397e-12
1.25981e-11 3.09397e-12 573.629

648.734 -6.98354 -4.28176e-13
-6.98354 640.26 -1.41324e-12
-4.28176e-13 -1.41324e-12 574.157

496.13 4.81302 3.95003e-12
4.81302 441.305 4.28842e-12
3.95003e-12 4.28842e-12 476.598

442.825 6.7151 -5.64733e-14
6.7151 502.116 -4.33017e-12
-5.64733e-14 -4.33017e-12 470.249

441.243 6.72055 1.7708e-12
6.72055 501.643 -2.19202e-12
1.7708e-12 -2.19202e-12 468.975

321.069 58.531 4.51905e-12
58.531 280.712 1.7882e-12
4.51905e-12 1.7882e-12 224.739

419.54 -28.1333 -1.65497e-12
-28.1333 443.279 1.43826e-12
-1.65497e-12 1.43826e-12 420.333

519.672 17.9327 3.11721e-12
17.9327 466.748 1.72662e-12
3.11721e-12 1.72662e-12 498.651

472.171 9.51719 -1.07884e-12
9.51719 420.51 1.70234e-14
-1.07884e-12 1.70234e-14 435.473

439.896 -26.6603 -2.36255e-13
-26.6603 449.969 -2.19676e-13
-2.36255e-13 -2.19676e-13 432.691

468.476 -20.1898 1.24345e-12
-20.1898 422.026 -8.8433e-13
1.24345e-12 -8.8433e-13 436.444

312.009 60.1279 -7.31385e-12
60.1279 280.97 -8.96113e-12
-7.31385e-12 -8.96113e-12 222.88

491.839 30.9962 -5.21953e-13
30.9962 488.209 -1.42257e-12
-5.21953e-13 -1.42257e-12 492.293

410.197 -19.7394 -1.75386e-12
-19.7394 457.105 3.97845e-12
-1.75386e-12 3.97845e-12 422.793

473.32 28.7894 6.66726e-12
28.7894 448.881 -1.93623e-13
6.66726e-12 -1.93623e-13 455.747

430.251 -4.13514 3.89762e-12
-4.13514 492.121 2.62605e-12
3.89762e-12 2.62605e-12 455.696

423.236 19.5631 -1.86754e-12
19.5631 464.919 3.27442e-12
-1.86754e-12 3.27442e-12 433.382

451.987 30.4465 -2.35663e-13
30.4465 442.859 -1.29674e-13
-2.35663e-13 -1.29674e-13 438.871

427.938 -22.4204 -7.04029e-13
-22.4204 460.356 -5.18578e-12
-7.04029e-13 -5.18578e-12 433.088

442.835 -27.2881 -2.40104e-12
-27.2881 449.677 1.72958e-12
-2.40104e-12 1.72958e-12 434.318

294.351 11.2367 4.47642e-13
11.2367 372.015 -1.90899e-12
4.47642e-13 -1.90899e-12 257.708

356.748 -33.3891 3.64508e-12
-33.3891 388.503 -4.2372e-12
3.64508e-12 -4.2372e-12 313.637

418.975 -11.6629 -4.42416e-12
-11.6629 475.544 -3.43547e-12
-4.42416e-12 -3.43547e-12 438.608

477.58 26.4218 -4.07378e-13
26.4218 446.057 -1.95399e-14
-4.07378e-13 -1.95399e-14 455.314

451.585 29.4083 -4.08029e-12
29.4083 448.275 4.30589e-12
-4.08029e-12 4.30589e-12 441.657

426.108 -21.3835 1.86192e-12
-21.3835 461 3.43962e-12
1.86192e-12 3.43962e-12 431.907

422.241 -11.7547 -3.17465e-12
-11.7547 475.83 5.30598e-12
-3.17465e-12 5.30598e-12 439.191

456.935 28.3425 9.04758e-13
28.3425 446.341 3.67055e-12
9.04758e-13 3.67055e-12 441.828

424.41 -13.8453 -1.22036e-12
-13.8453 475.603 -5.26867e-12
-1.22036e-12 -5.26867e-12 441.363

310.803 27.7963 -7.98768e-13
27.7963 376.796 -4.42668e-12
-7.98768e-13 -4.42668e-12 289.535

484.353 -4.03204 -2.4787e-12
-4.03204 544.092 -1.48799e-12
-2.4787e-12 -1.48799e-12 510.156

432.268 30.9542 -1.3447e-12
30.9542 438.896 4.38109e-12
-1.3447e-12 4.38109e-12 425.31

508.426 14.8658 -2.40519e-12
14.8658 462.387 -1.14457e-12
-2.40519e-12 -1.14457e-12 487.769

516.022 -15.8899 -3.05533e-13
-15.8899 466.798 2.1639e-12
-3.05533e-13 2.1639e-12 493.076

383.319 -24.157 4.38879e-12
-24.157 305.497 -6.90648e-12
4.38879e-12 -6.90648e-12 284.913

441.546 -21.2171 -7.49119e-12
-21.2171 475.186 -3.7718e-12
-7.49119e-12 -3.7718e-12 458.543

447.08 26.635 -1.97472e-12
26.635 465.417 6.41857e-13
-1.97472e-12 6.41857e-13 457.066

522.074 -21.6781 -2.93957e-12
-21.6781 542.863 -3.20792e-12
-2.93957e-12 -3.20792e-12 524.401

578.573 14.0747 -1.55816e-12
14.0747 616.525 -7.7988e-12
-1.55816e-12 -7.7988e-12 556.09

619.105 9.42456 -3.6593e-13
9.42456 575.836 5.62957e-12
-3.6593e-13 5.62957e-12 555.909

522.565 32.6299 -1.45365e-13
32.6299 519.754 2.33339e-12
-1.45365e-13 2.33339e-12 518.627

414.215 25.9392 -2.65743e-12
25.9392 448.15 2.05643e-12
-2.65743e-12 2.05643e-12 419.678

477.279 26.5982 -2.67638e-13
26.5982 444.032 -1.01785e-12
-2.67638e-13 -1.01785e-12 454.738

331.856 45.0959 5.96382e-12
45.0959 348.947 -3.53613e-12
5.96382e-12 -3.53613e-12 286.295

570.397 -11.318 -1.30725e-12
-11.318 613.381 -2.94579e-12
-1.30725e-12 -2.94579e-12 553.637

640.186 -3.42474 -1.22959e-11
-3.42474 635.74 -8.15792e-13
-1.22959e-11 -8.15792e-13 571.409

633.78 -0.209232 5.27267e-12
-0.209232 642.032 -1.03158e-11
5.27267e-12 -1.03158e-11 571.236

272.576 -53.7101 -1.25174e-12
-53.7101 315.975 -1.90189e-12
-1.25174e-12 -1.90189e-12 220.577

565.645 -11.5738 -2.32081e-12
-11.5738 561.143 5.14315e-12
-2.32081e-12 5.14315e-12 539.962

562.79 8.79295 2.62486e-12
8.79295 585.927 4.82162e-12
2.62486e-12 4.82162e-12 545.894

477.425 -26.1375 4.09332e-12
-26.1375 439.712 1.32931e-12
4.09332e-12 1.32931e-12 452.716

493.511 1.00898 -7.3989e-13
1.00898 544.801 -1.28904e-12
-7.3989e-13 -1.28904e-12 513.17

446.906 -20.2199 4.44533e-13
-20.2199 483.327 -1.31154e-12
4.44533e-13 -1.31154e-12 469.836

505.422 6.24073 -4.61498e-12
6.24073 442.643 1.67459e-12
-4.61498e-12 1.67459e-12 485.292

460.505 15.5599 -7.79668e-13
15.5599 520.343 2.44782e-12
-7.79668e-13 2.44782e-12 496.701

470.391 7.17505 -1.15537e-13
7.17505 527.082 -2.449e-12
-1.15537e-13 -2.449e-12 496.836

492.912 20.3443 -4.69906e-12
20.3443 450.766 -8.61829e-13
-4.69906e-12 -8.61829e-13 468.952

240.73 -3.11243 3.60815e-12
-3.11243 358.017 -2.5769e-12
3.60815e-12 -2.5769e-12 226.722

462.917 -27.5583 4.2526e-12
-27.5583 462.608 -1.65379e-12
4.2526e-12 -1.65379e-12 460.409

487.51 -26.0546 -2.04696e-12
-26.0546 480.779 3.15481e-12
-2.04696e-12 3.15481e-12 485.038

496.685 -31.4102 2.0884e-12
-31.4102 489.122 1.76733e-12
2.0884e-12 1.76733e-12 498.122

355.059 32.6889 -3.29218e-12
32.6889 285.366 3.46449e-12
-3.29218e-12 3.46449e-12 247.989

562.896 -20.0702 4.62178e-12
-20.0702 568.616 -9.91133e-13
4.62178e-12 -9.91133e-13 541.632

337.154 54.2333 2.32821e-12
54.2333 356.134 -8.69231e-13
2.32821e-12 -8.69231e-13 258.484

476.265 -21.39 -1.09098e-12
-21.39 505.616 -2.53693e-12
-1.09098e-12 -2.53693e-12 499.382

503.897 14.6159 3.04882e-12
14.6159 451.236 -2.30601e-12
3.04882e-12 -2.30601e-12 480.737

449.073 -14.5381 6.48607e-12
-14.5381 396.35 -3.62436e-12
6.48607e-12 -3.62436e-12 400.181

451.837 23.9899 5.00104e-12
23.9899 477.961 -8.08242e-13
5.00104e-12 -8.08242e-13 467.052

492.815 20.3796 -4.41365e-12
20.3796 448.754 -2.56388e-12
-4.41365e-12 -2.56388e-12 468.544

504.706 11.3746 3.97164e-12
11.3746 563.421 3.46094e-12
3.97164e-12 3.46094e-12 525.8

475.086 -31.5057 5.02709e-13
-31.5057 469.56 1.99544e-13
5.02709e-13 1.99544e-13 474.253

558.286 19.7666 -8.29499e-12
19.7666 509.568 1.12207e-12
-8.29499e-12 1.12207e-12 525.577

439.23 -18.3999 -1.40362e-12
-18.3999 481.636 -4.6955e-13
-1.40362e-12 -4.6955e-13 458.371

465.119 4.27303 2.21926e-12
4.27303 525.187 -9.47982e-13
2.21926e-12 -9.47982e-13 494.659

587.6 9.90343 1.33197e-12
9.90343 551.505 2.55929e-12
1.33197e-12 2.55929e-12 544.245

589.379 -8.49334 -1.23329e-11
-8.49334 553.842 -2.95201e-12
-1.23329e-11 -2.95201e-12 544.762

381.703 18.4773 9.07126e-13
18.4773 301.845 4.92584e-12
9.07126e-13 4.92584e-12 285.691

501.809 7.94616 -3.87394e-12
7.94616 452.846 -6.42301e-13
-3.87394e-12 -6.42301e-13 486.929

232.507 7.72364 9.20893e-13
7.72364 381.005 9.00021e-14
9.20893e-13 9.00021e-14 186.915

236.671 -11.3646 8.11003e-12
-11.3646 386.693 9.85286e-13
8.11003e-12 9.85286e-13 189.176

248.962 56.3331 3.60482e-12
56.3331 354.297 1.24582e-12
3.60482e-12 1.24582e-12 183.756

504.143 -28.8824 3.97608e-12
-28.8824 477.805 -3.08316e-12
3.97608e-12 -3.08316e-12 490.5

258.103 -49.1036 -6.07396e-12
-49.1036 341.34 -3.53377e-12
-6.07396e-12 -3.53377e-12 220.404

248.967 -55.8754 -5.3267e-12
-55.8754 344.285 -4.49537e-12
-5.3267e-12 -4.49537e-12 180.853

433.934 26.1581 -2.77408e-12
26.1581 453.626 1.33997e-12
-2.77408e-12 1.33997e-12 432.1

329.479 73.7447 6.3333e-12
73.7447 279.645 9.85286e-13
6.3333e-12 9.85286e-13 184.56

539.19 13.0176 -4.35533e-12
13.0176 553.975 -8.79297e-13
-4.35533e-12 -8.79297e-13 531.156

561.396 0.0391613 2.46396e-12
0.0391613 531.534 -1.10105e-12
2.46396e-12 -1.10105e-12 530.949

338.146 -73.0321 1.76215e-12
-73.0321 279.493 8.66862e-13
1.76215e-12 8.66862e-13 186.04

431.956 -23.3684 8.52059e-13
-23.3684 465.516 7.15872e-13
8.52059e-13 7.15872e-13 446.817

358.385 34.6646 -5.27696e-12
34.6646 310.518 6.1308e-12
-5.27696e-12 6.1308e-12 257.643

267.346 63.4017 -3.29218e-13
63.4017 344.755 5.48539e-12
-3.29218e-13 5.48539e-12 185.576

293.267 21.5897 -2.58164e-12
21.5897 367.098 -5.45223e-12
-2.58164e-12 -5.45223e-12 254.109

267.218 -65.8274 -7.9865e-12
-65.8274 344.392 -2.66217e-12
-7.9865e-12 -2.66217e-12 184.035

291.218 -12.359 -1.71063e-12
-12.359 370.316 2.39216e-12
-1.71063e-12 2.39216e-12 253.056

549.353 6.82652 -2.54989e-12
6.82652 581.05 1.27335e-12
-2.54989e-12 1.27335e-12 540.181

329.386 -45.8849 -6.09054e-12
-45.8849 341.293 1.72425e-12
-6.09054e-12 1.72425e-12 276.187

259.41 47.4468 -2.47979e-12
47.4468 339.716 4.718e-12
-2.47979e-12 4.718e-12 222.811

369.724 37.8546 1.34529e-12
37.8546 244.593 4.53622e-12
1.34529e-12 4.53622e-12 187.085

481.066 -29.2163 -2.36315e-12
-29.2163 459.737 -1.75178e-12
-2.36315e-12 -1.75178e-12 466.918

480.165 12.8668 2.82729e-12
12.8668 524.912 4.02611e-12
2.82729e-12 4.02611e-12 503.236

353.879 -38.0422 -3.51245e-12
-38.0422 299.639 6.32857e-12
-3.51245e-12 6.32857e-12 251.431

481.708 -28.7339 6.72647e-13
-28.7339 459.547 3.11958e-12
6.72647e-13 3.11958e-12 467.666

364.777 -36.288 2.70006e-12
-36.288 230.682 1.36779e-13
2.70006e-12 1.36779e-13 182.505

480.68 -28.2503 1.01075e-12
-28.2503 471.954 -1.435e-12
1.01075e-12 -1.435e-12 477.102

435.631 -25.2349 -5.06025e-12
-25.2349 465.431 -1.91491e-12
-5.06025e-12 -1.91491e-12 447.454

314.382 69.3643 -8.2423e-13
69.3643 291.749 6.31672e-12
-8.2423e-13 6.31672e-12 184.257

290.362 -22.8902 -4.40418e-12
-22.8902 358.62 1.25529e-13
-4.40418e-12 1.25529e-13 246.654

311.988 -71.5931 3.59061e-12
-71.5931 287.736 9.83628e-12
3.59061e-12 9.83628e-12 181.763

268.164 50.6498 -4.73695e-15
50.6498 319.582 3.31587e-14
-4.73695e-15 3.31587e-14 221.172

459.085 -30.1404 -3.52074e-12
-30.1404 454.081 -2.31193e-12
-3.52074e-12 -2.31193e-12 453.632

558.306 -14.6061 -5.24558e-12
-14.6061 543.467 -2.59526e-12
-5.24558e-12 -2.59526e-12 532.793

634.793 11.0675 5.6534e-12
11.0675 630.266 -3.71185e-12
5.6534e-12 -3.71185e-12 569.036

618.863 -5.14906 -6.22909e-12
-5.14906 638.6 -1.02071e-11
-6.22909e-12 -1.02071e-11 567.516

453.115 13.053 -2.13873e-12
13.053 505.675 -1.81129e-12
-2.13873e-12 -1.81129e-12 481.746

633.026 -10.643 6.55083e-12
-10.643 630.196 -5.38562e-12
6.55083e-12 -5.38562e-12 568.891

621.597 4.08318 1.46549e-12
4.08318 641.54 2.0935e-11
1.46549e-12 2.0935e-11 568.715

642.229 7.41675 9.04225e-12
7.41675 618.056 -1.67214e-12
9.04225e-12 -1.67214e-12 568.039

583.756 -12.088 1.13135e-12
-12.088 630.542 -4.27155e-12
1.13135e-12 -4.27155e-12 559.624

306.99 -30.4084 -9.6172e-12
-30.4084 371.05 -9.56627e-12
-9.6172e-12 -9.56627e-12 280.336

588.582 -12.9423 -7.39083e-12
-12.9423 548.162 1.46105e-12
-7.39083e-12 1.46105e-12 542.885

526.293 -34.3385 -1.30799e-12
-34.3385 520.587 -1.44255e-12
-1.30799e-12 -1.44255e-12 519.067

564.471 -18.1346 5.33677e-12
-18.1346 537.059 -2.65965e-12
5.33677e-12 -2.65965e-12 533.334

501.699 15.4225 3.42245e-12
15.4225 451.364 -1.77932e-12
3.42245e-12 -1.77932e-12 479.386

585.326 9.84231 -6.21532e-12
9.84231 640.987 -6.03177e-12
-6.21532e-12 -6.03177e-12 562.13

635.522 19.1842 -4.96936e-13
19.1842 590.688 -7.70891e-12
-4.96936e-13 -7.70891e-12 561.952

568.774 11.2794 -1.45484e-12
11.2794 543.395 -6.6569e-13
-1.45484e-12 -6.6569e-13 535.508

352.912 -15.3076 -7.26175e-12
-15.3076 231.193 2.77585e-12
-7.26175e-12 2.77585e-12 218.685

436.481 24.9048 8.06762e-13
24.9048 461.129 -9.49759e-13
8.06762e-13 -9.49759e-13 444.971

316.633 -61.2495 8.11203e-12
-61.2495 277.446 3.52192e-12
8.11203e-12 3.52192e-12 217.762

333.725 -57.365 -3.5385e-12
-57.365 356.8 -1.9232e-12
-3.5385e-12 -1.9232e-12 252.16

382.765 -36.482 -2.74506e-12
-36.482 305.297 -3.54087e-12
-2.74506e-12 -3.54087e-12 257.371

561.52 -5.14697 4.18791e-12
-5.14697 615.854 -6.40406e-12
4.18791e-12 -6.40406e-12 551.994

561.227 2.88439 -1.39459e-12
2.88439 614.722 -2.71546e-12
-1.39459e-12 -2.71546e-12 551.593

597.713 -24.4019 -2.7125e-12
-24.4019 574.735 4.78195e-12
-2.7125e-12 4.78195e-12 550.624

601.263 -21.7125 3.21761e-12
-21.7125 572.432 2.1938e-13
3.21761e-12 2.1938e-13 550.889

597.726 26.0778 4.14779e-12
26.0778 579.441 6.35247e-12
4.14779e-12 6.35247e-12 551.777

624.634 3.0921 -4.2711e-12
3.0921 629.616 -1.37212e-11
-4.2711e-12 -1.37212e-11 567.439

598.002 -20.4628 -1.02999e-12
-20.4628 575.346 2.4963e-12
-1.02999e-12 2.4963e-12 551.311

606.739 -18.5267 -6.811e-12
-18.5267 619.164 -8.81665e-12
-6.811e-12 -8.81665e-12 562.212

631.779 2.42864 6.1533e-12
2.42864 634.398 -9.14883e-12
6.1533e-12 -9.14883e-12 569.521

606.809 -20.481 5.90787e-12
-20.481 571.429 1.39148e-13
5.90787e-12 1.39148e-13 552.449

605.996 20.9095 -1.57592e-12
20.9095 572.685 1.856e-12
-1.57592e-12 1.856e-12 552.851

632.728 -3.45019 -3.55938e-12
-3.45019 635.646 6.82994e-12
-3.55938e-12 6.82994e-12 570.293

631.059 -3.10972 1.50176e-12
-3.10972 624.649 -3.15525e-12
1.50176e-12 -3.15525e-12 568.411

608.607 12.0828 3.37138e-12
12.0828 619.386 -7.32422e-12
3.37138e-12 -7.32422e-12 562.942

586.171 26.8691 2.87178e-14
26.8691 581.996 -2.94496e-13
2.87178e-14 -2.94496e-13 550.748

FIELD solute_concentration_TPM 2
S_ext 1 563 float
0.0464019
0.0463999
0.0463986
0.0463996
0.0464074
0.0463987
0.0464019
0.0463994
0.0463982
0.0464002
0.0464003
0.0463996
0.0463993
0.0464002
0.0464053
0.0463985
0.0464014
0.0463995
0.0463979
0.0463983
0.0463984
0.0464213
0.0463986
0.0463987
0.0463983
0.0463996
0.0463999
0.0463993
0.0463979
0.046414
0.0463989
0.046398
0.0464
0.0464115
0.0464113
0.0464113
0.0464141
0.0464107
0.0463993
0.0464
0.0463981
0.0464142
0.046414
0.0463989
0.046399
0.0463979
0.0463979
0.0463981
0.0463988
0.0463981
0.0463982
0.0463979
0.0464073
0.0463977
0.0464069
0.0463991
0.0464115
0.0463978
0.0464113
0.0463986
0.0464014
0.0464031
0.0463997
0.0464029
0.0464032
0.0464015
0.0464015
0.0463995
0.0463983
0.0464006
0.0464072
0.0464071
0.046398
0.0464021
0.0463984
0.0464
0.046405
0.0464013
0.0463998
0.0463978
0.0463986
0.0464079
0.0464026
0.0463984
0.0463981
0.046399
0.046399
0.0464021
0.046399
0.0464211
0.0463977
0.0464213
0.0464054
0.0464017
0.0463977
0.0463981
0.0463985
0.0463998
0.0464048
0.046399
0.0463979
0.0463979
0.0463986
0.0463993
0.0464001
0.0463995
0.0464031
0.0463991
0.0463985
0.046401
0.0463986
0.0463988
0.0463988
0.0463994
0.0463994
0.0463977
0.0464119
0.0463985
0.0464119
0.0463978
0.0463979
0.0464046
0.0464002
0.0464018
0.0464016
0.0464053
0.0464109
0.0464
0.0463985
0.0463979
0.0464078
0.0463998
0.0464024
0.0464
0.0463979
0.046412
0.0463988
0.0463994
0.0464029
0.0464118
0.0463979
0.0464005
0.0463981
0.0464002
0.0463985
0.0463996
0.0464006
0.0463993
0.0463987
0.0463979
0.0463985
0.0464004
0.0463981
0.046399
0.0464
0.0463999
0.0464006
0.0463978
0.0463978
0.0463989
0.0463981
0.046398
0.0463989
0.0463981
0.0463979
0.0463995
0.0463978
0.0463978
0.046398
0.0463979
0.0464057
0.0463978
0.046398
0.0464006
0.0463977
0.0464029
0.0464055
0.0464002
0.0464069
0.0464003
0.0463979
0.0463996
0.0463999
0.0463979
0.0464018
0.046398
0.0464016
0.0464028
0.046406
0.0463997
0.0464019
0.0463984
0.0463979
0.046398
0.0463999
0.046399
0.0463993
0.0464022
0.0464003
0.0464013
0.0464003
0.0463978
0.0463976
0.0464021
0.046398
0.0464024
0.0464018
0.0463981
0.046404
0.0464006
0.0464045
0.0464006
0.0463997
0.0464028
0.0463979
0.0464009
0.0463975
0.0464026
0.0464015
0.0464014
0.0464009
0.0464009
0.0464009
0.0464008
0.0464006
0.0464047
0.0464047
0.0464049
0.0464049
0.0464077
0.0464077
0.0463977
0.0464006
0.0464002
0.0463978
0.0464055
0.0464055
0.0464004
0.0463977
0.0463998
0.0463999
0.0463976
0.0464042
0.0463976
0.0464029
0.0463999
0.0463977
0.0463976
0.0463986
0.0463984
0.0464023
0.0463986
0.0463988
0.0463975
0.0463981
0.0463998
0.0464012
0.0464145
0.046401
0.0463987
0.0463978
0.0464001
0.0463999
0.0463976
0.0464011
0.0463982
0.0464143
0.0463976
0.0464016
0.0464017
0.0463991
0.0464054
0.0464021
0.0464072
0.046399
0.046399
0.046399
0.0464066
0.0463981
0.0463997
0.0463978
0.0464044
0.0464005
0.0463977
0.0464013
0.0463977
0.0464006
0.0463976
0.0463977
0.0464176
0.0464059
0.0464053
0.0464052
0.0464001
0.0463976
0.0464109
0.0464013
0.0463984
0.0463977
0.0463976
0.0464062
0.0463976
0.0464059
0.0463975
0.046399
0.0463979
0.0463987
0.046403
0.0463977
0.0464177
0.0463976
0.0464027
0.0463977
0.0464022
0.0463977
0.0463989
0.0463999
0.0463985
0.0463976
0.0464064
0.0463978
0.0463987
0.0464021
0.0464001
0.0463977
0.0463976
0.0463981
0.0464032
0.0463977
0.0463999
0.046399
0.0464069
0.0463976
0.0463979
0.0463986
0.0463978
0.0463976
0.046398
0.0464042
0.0463996
0.0463978
0.0463979
0.0464002
0.0464003
0.0463978
0.0464068
0.0464006
0.0463994
0.0463985
0.0463987
0.0464033
0.0464033
0.0464033
0.0464033
0.0464032
0.0464035
0.0464035
0.0464034
0.0464103
0.0463995
0.0463986
0.0463979
0.0463978
0.0464005
0.0463981
0.0463979
0.0464105
0.0463979
0.0464043
0.0463979
0.0464044
0.0463991
0.0463983
0.0463978
0.0464067
0.046399
0.0463983
0.0463992
0.0463984
0.0463976
0.0463978
0.0463986
0.0463989
0.046404
0.0463982
0.0463976
0.0463978
0.0463982
0.046399
0.0464004
0.0463979
0.0464002
0.0463989
0.0463983
0.0463999
0.0463986
0.046398
0.0464018
0.0463983
0.0464092
0.046399
0.0464028
0.0464043
0.046399
0.0463981
0.0464012
0.0464005
0.0463989
0.0463982
0.0463998
0.0464175
0.0464178
0.0463993
0.0463978
0.0463983
0.0463978
0.0464238
0.0464235
0.0463996
0.0463998
0.0464
0.0464006
0.0463979
0.0464025
0.0463979
0.0463978
0.0463982
0.0464005
0.0464022
0.0463978
0.046399
0.0463991
0.0463979
0.0463982
0.046398
0.0463982
0.0463999
0.0463987
0.0463983
0.0463994
0.0463982
0.0463978
0.0463982
0.0463985
0.0463983
0.046399
0.0464049
0.046398
0.0464011
0.0464019
0.0463992
0.0463987
0.0463984
0.0464073
0.0464172
0.0464171
0.0464066
0.0463977
0.0463994
0.046399
0.0464166
0.0464218
0.0464216
0.0464006
0.046411
0.0464138
0.0463989
0.0464052
0.0463989
0.0464003
0.046402
0.0464027
0.0464001
0.0464004
0.0463988
0.0464012
0.0464023
0.0464001
0.0464123
0.0464001
0.0464019
0.0464004
0.0463979
0.0463987
0.0463999
0.046408
0.0463997
0.0464079
0.0463985
0.0464022
0.0464138
0.046414
0.0463991
0.0464009
0.0464021
0.0464022
0.0464022
0.0464017
0.0464007
0.0464022
0.0463978
0.0464022
0.0464082
0.0464081
0.0464022
0.0463981
0.0463999
0.0464023
0.0464
0.0464023
0.0464
0.0464113
0.0463993
0.0464006
0.0464021
0.0463995
0.0464032
0.0464
0.0463997
0.0464021
0.0464002
0.0463983
0.0464023
0.0464001
0.0464023
0.0464006
0.0463987
0.0464094
0.0464214
0.0464211
0.0464007
0.0464216
0.0464214
0.0464212
0.0464188
0.0463992
0.0464126
0.0464067
0.0464103
0.0464007
0.0464196
0.0464194
0.0464102
0.0464006
0.0463981
0.0464008
0.0464002
0.0464
0.046416
0.0464159
0.0464156
0.0464157
0.0464158
0.0464214
0.0464161
0.0464203
0.0464224
0.0464168
0.0464167
0.0464223
0.0464211
0.0464199
0.0464161
P_ext 1 563 float
6.32037e-05
6.3183e-05
6.31857e-05
6.31832e-05
6.31772e-05
6.31857e-05
6.32036e-05
6.31844e-05
6.31878e-05
6.31833e-05
6.32002e-05
6.31844e-05
6.31849e-05
6.31832e-05
6.31787e-05
6.31855e-05
6.31819e-05
6.31842e-05
6.31884e-05
6.31862e-05
6.31868e-05
6.31667e-05
6.31863e-05
6.31861e-05
6.31862e-05
6.31838e-05
6.31992e-05
6.31853e-05
6.31937e-05
6.31721e-05
6.31851e-05
6.31936e-05
6.31997e-05
6.3174e-05
6.31739e-05
6.3174e-05
6.31718e-05
6.31744e-05
6.31851e-05
6.31997e-05
6.31937e-05
6.31717e-05
6.31717e-05
6.31851e-05
6.31972e-05
6.31936e-05
6.31881e-05
6.31875e-05
6.31856e-05
6.31947e-05
6.31942e-05
6.31921e-05
6.3177e-05
6.31922e-05
6.31773e-05
6.31977e-05
6.31738e-05
6.31921e-05
6.31739e-05
6.31859e-05
6.31818e-05
6.31804e-05
6.31988e-05
6.31807e-05
6.31803e-05
6.31824e-05
6.31817e-05
6.31839e-05
6.31863e-05
6.31826e-05
6.31771e-05
6.31772e-05
6.31939e-05
6.31817e-05
6.31858e-05
6.31999e-05
6.31791e-05
6.31825e-05
6.31838e-05
6.31913e-05
6.31956e-05
6.31765e-05
6.31809e-05
6.31958e-05
6.31936e-05
6.31975e-05
6.31853e-05
6.31821e-05
6.31972e-05
6.31675e-05
6.31921e-05
6.31674e-05
6.31786e-05
6.31826e-05
6.31921e-05
6.31942e-05
6.31958e-05
6.31834e-05
6.31792e-05
6.31852e-05
6.319e-05
6.31934e-05
6.31958e-05
6.31839e-05
6.31835e-05
6.31836e-05
6.31806e-05
6.31854e-05
6.31959e-05
6.3182e-05
6.31859e-05
6.31968e-05
6.31962e-05
6.31841e-05
6.31837e-05
6.31922e-05
6.31739e-05
6.31959e-05
6.31739e-05
6.31921e-05
6.31889e-05
6.3179e-05
6.31827e-05
6.31817e-05
6.31817e-05
6.31786e-05
6.31746e-05
6.31833e-05
6.31958e-05
6.3192e-05
6.31767e-05
6.3183e-05
6.3181e-05
6.31828e-05
6.31934e-05
6.31736e-05
6.31969e-05
6.31848e-05
6.31807e-05
6.31736e-05
6.31931e-05
6.31837e-05
6.31888e-05
6.31833e-05
6.3196e-05
6.31837e-05
6.31839e-05
6.31857e-05
6.31857e-05
6.31903e-05
6.31873e-05
6.31827e-05
6.31936e-05
6.3185e-05
6.31833e-05
6.31829e-05
6.3183e-05
6.3193e-05
6.31929e-05
6.31847e-05
6.31875e-05
6.31935e-05
6.3197e-05
6.3194e-05
6.31929e-05
6.31836e-05
6.3193e-05
6.31931e-05
6.31937e-05
6.31929e-05
6.31784e-05
6.31921e-05
6.31941e-05
6.31828e-05
6.31921e-05
6.31808e-05
6.31785e-05
6.31842e-05
6.31773e-05
6.31836e-05
6.31938e-05
6.31835e-05
6.31834e-05
6.3193e-05
6.31821e-05
6.31942e-05
6.31818e-05
6.3181e-05
6.31785e-05
6.31835e-05
6.31821e-05
6.31955e-05
6.3192e-05
6.31937e-05
6.31829e-05
6.31843e-05
6.31841e-05
6.3181e-05
6.31827e-05
6.31826e-05
6.31827e-05
6.31883e-05
6.31913e-05
6.31811e-05
6.31939e-05
6.31809e-05
6.31824e-05
6.31933e-05
6.31799e-05
6.31826e-05
6.31798e-05
6.31833e-05
6.31837e-05
6.31808e-05
6.31902e-05
6.31831e-05
6.31911e-05
6.31811e-05
6.31818e-05
6.31818e-05
6.3182e-05
6.3182e-05
6.3182e-05
6.31821e-05
6.31832e-05
6.3179e-05
6.3179e-05
6.31788e-05
6.31789e-05
6.31771e-05
6.3177e-05
6.31904e-05
6.3183e-05
6.31827e-05
6.31877e-05
6.31787e-05
6.31786e-05
6.31827e-05
6.31911e-05
6.31829e-05
6.31834e-05
6.31903e-05
6.31797e-05
6.31904e-05
6.31808e-05
6.31828e-05
6.31901e-05
6.3191e-05
6.31957e-05
6.31949e-05
6.3181e-05
6.31963e-05
6.31852e-05
6.31911e-05
6.31882e-05
6.31829e-05
6.31819e-05
6.31717e-05
6.3182e-05
6.31966e-05
6.3191e-05
6.31827e-05
6.31843e-05
6.31913e-05
6.31819e-05
6.31887e-05
6.31717e-05
6.31911e-05
6.31817e-05
6.31819e-05
6.31842e-05
6.31787e-05
6.31821e-05
6.31773e-05
6.31848e-05
6.3197e-05
6.31974e-05
6.3178e-05
6.31867e-05
6.31843e-05
6.31906e-05
6.31797e-05
6.31829e-05
6.3191e-05
6.31827e-05
6.319e-05
6.31838e-05
6.319e-05
6.31911e-05
6.31695e-05
6.31782e-05
6.31785e-05
6.31786e-05
6.31833e-05
6.31899e-05
6.31743e-05
6.31821e-05
6.31873e-05
6.31898e-05
6.31905e-05
6.31781e-05
6.31903e-05
6.31786e-05
6.31903e-05
6.31971e-05
6.31898e-05
6.31962e-05
6.31808e-05
6.31902e-05
6.31694e-05
6.31903e-05
6.31812e-05
6.31904e-05
6.31816e-05
6.31903e-05
6.31855e-05
6.31995e-05
6.31857e-05
6.31903e-05
6.31778e-05
6.31903e-05
6.31871e-05
6.31819e-05
6.31828e-05
6.31902e-05
6.31899e-05
6.31887e-05
6.31809e-05
6.31899e-05
6.31844e-05
6.31854e-05
6.31775e-05
6.319e-05
6.31889e-05
6.3187e-05
6.31888e-05
6.31901e-05
6.31887e-05
6.31801e-05
6.31844e-05
6.31889e-05
6.31903e-05
6.31838e-05
6.31837e-05
6.31899e-05
6.31776e-05
6.32009e-05
6.31856e-05
6.31957e-05
6.31868e-05
6.32064e-05
6.32064e-05
6.32063e-05
6.32063e-05
6.32062e-05
6.32067e-05
6.32066e-05
6.31806e-05
6.31751e-05
6.31844e-05
6.31872e-05
6.31883e-05
6.31888e-05
6.31839e-05
6.31888e-05
6.3189e-05
6.31751e-05
6.31887e-05
6.31799e-05
6.31921e-05
6.31792e-05
6.31856e-05
6.31873e-05
6.31889e-05
6.3178e-05
6.31857e-05
6.31872e-05
6.31856e-05
6.31871e-05
6.31886e-05
6.31914e-05
6.31872e-05
6.31859e-05
6.31798e-05
6.31881e-05
6.31888e-05
6.31883e-05
6.31874e-05
6.31859e-05
6.31838e-05
6.31883e-05
6.31839e-05
6.31858e-05
6.31873e-05
6.31843e-05
6.31859e-05
6.31886e-05
6.31816e-05
6.31871e-05
6.31756e-05
6.31972e-05
6.31809e-05
6.31801e-05
6.31859e-05
6.31872e-05
6.31824e-05
6.32008e-05
6.31856e-05
6.31872e-05
6.31994e-05
6.31698e-05
6.31697e-05
6.31854e-05
6.31884e-05
6.3187e-05
6.31882e-05
6.31656e-05
6.31656e-05
6.3184e-05
6.31843e-05
6.31843e-05
6.32011e-05
6.31886e-05
6.31812e-05
6.31877e-05
6.31879e-05
6.31874e-05
6.32008e-05
6.31818e-05
6.31885e-05
6.31858e-05
6.31857e-05
6.31878e-05
6.31872e-05
6.31878e-05
6.31877e-05
6.31994e-05
6.31961e-05
6.31872e-05
6.31857e-05
6.31871e-05
6.3188e-05
6.31873e-05
6.3187e-05
6.31871e-05
6.31973e-05
6.31792e-05
6.31882e-05
6.31825e-05
6.31818e-05
6.31975e-05
6.31856e-05
6.31858e-05
6.31773e-05
6.31694e-05
6.31695e-05
6.31778e-05
6.31888e-05
6.31857e-05
6.31975e-05
6.317e-05
6.31663e-05
6.31663e-05
6.3201e-05
6.31742e-05
6.31721e-05
6.3186e-05
6.31789e-05
6.31847e-05
6.3183e-05
6.31814e-05
6.31812e-05
6.31844e-05
6.32007e-05
6.31855e-05
6.31828e-05
6.31813e-05
6.32e-05
6.31732e-05
6.31999e-05
6.31813e-05
6.31834e-05
6.31902e-05
6.3185e-05
6.31845e-05
6.31765e-05
6.31841e-05
6.31766e-05
6.31857e-05
6.31815e-05
6.31725e-05
6.31725e-05
6.31976e-05
6.31826e-05
6.32042e-05
6.32042e-05
6.32042e-05
6.31821e-05
6.32013e-05
6.32043e-05
6.3188e-05
6.32042e-05
6.31763e-05
6.31764e-05
6.32042e-05
6.31866e-05
6.31997e-05
6.32044e-05
6.31997e-05
6.32045e-05
6.31997e-05
6.3174e-05
6.31981e-05
6.32012e-05
6.3204e-05
6.31847e-05
6.31805e-05
6.31999e-05
6.31846e-05
6.32041e-05
6.31836e-05
6.31865e-05
6.32045e-05
6.32001e-05
6.32045e-05
6.32009e-05
6.31859e-05
6.31755e-05
6.31665e-05
6.31667e-05
6.31831e-05
6.31664e-05
6.31665e-05
6.31666e-05
6.31686e-05
6.31978e-05
6.3173e-05
6.31779e-05
6.31752e-05
6.31833e-05
6.31681e-05
6.31682e-05
6.31752e-05
6.3201e-05
6.31868e-05
6.32015e-05
6.32003e-05
6.31996e-05
6.31703e-05
6.31704e-05
6.31706e-05
6.31706e-05
6.31703e-05
6.31669e-05
6.31707e-05
6.31679e-05
6.31664e-05
6.31702e-05
6.31702e-05
6.31664e-05
6.31669e-05
6.3168e-05
6.31707e-05
FIELD solute_flux_TPM 2
S_ext 3 563 float
-2.47453e-06 7.96805e-07 -1.97958e-17
4.59947e-07 5.90153e-07 -2.02791e-18
-8.98577e-07 -6.02017e-07 -2.38079e-18
-3.06157e-07 3.29396e-07 -2.11877e-18
2.82468e-06 -8.72068e-07 -4.64977e-18
1.10014e-07 -1.05463e-06 -3.24724e-18
-2.43818e-06 -8.06729e-07 -1.52883e-17
-1.21674e-06 -6.71802e-07 -2.08496e-18
1.22935e-06 9.31771e-08 -1.20766e-17
8.9549e-07 -4.71403e-07 -3.74378e-17
1.77009e-06 4.04436e-07 -6.21279e-18
7.04199e-09 -1.37955e-06 -2.83134e-18
1.11595e-06 6.5468e-07 -3.57433e-18
4.21466e-07 1.16424e-06 -2.2389e-18
2.56203e-06 -4.7432e-07 -4.07728e-18
-1.04519e-06 -1.69722e-08 -3.73876e-18
5.00851e-07 1.43555e-06 -2.06205e-18
6.99016e-07 -2.24171e-07 -2.78182e-17
5.51799e-07 9.32959e-07 -3.79073e-18
-9.33899e-07 1.4348e-07 -4.047e-18
-9.43843e-08 -1.36259e-06 -2.51287e-18
5.71416e-06 8.07344e-06 -1.30913e-18
9.6741e-07 1.21414e-07 -1.57935e-17
7.77353e-07 -6.6973e-07 -5.38903e-18
-9.40866e-07 -2.69002e-07 -3.7462e-18
1.05437e-07 -8.98445e-07 -1.78934e-18
2.01839e-06 -1.3638e-07 -6.06538e-18
1.09275e-06 7.03162e-07 -4.18885e-18
-9.80828e-07 -8.35717e-07 -5.84931e-18
6.35299e-06 -1.74219e-06 -5.44538e-18
-1.13079e-06 -6.08968e-07 -3.28774e-18
2.5019e-07 -1.28112e-06 -4.20668e-18
1.50738e-06 -1.51416e-06 -5.2966e-18
-7.01833e-07 -5.32225e-06 -2.11821e-18
-3.85691e-06 4.70558e-06 -1.24553e-18
-4.96171e-06 -2.04895e-06 -1.91866e-18
4.27578e-06 5.51071e-06 -1.30957e-18
-5.73359e-06 -1.19098e-06 -1.66401e-18
1.16479e-06 -6.45984e-07 -6.18484e-18
1.47793e-06 1.57724e-06 -7.10392e-18
1.29082e-06 -5.20776e-07 -6.80655e-18
4.3402e-06 -5.3098e-06 -1.95297e-18
-2.43029e-06 -6.40688e-06 -1.85531e-18
-1.04805e-06 6.24482e-07 -3.88068e-18
1.06267e-06 -1.02824e-06 -5.06767e-18
-1.20619e-06 4.17024e-07 -1.51344e-17
-1.94426e-07 -1.15352e-06 -2.79594e-18
4.13653e-07 1.13967e-06 -3.34168e-18
-1.15669e-06 5.17919e-07 -3.9473e-18
-6.7681e-07 1.09246e-06 -1.224e-17
1.28586e-06 5.51038e-07 -6.33291e-18
1.2651e-06 -4.85437e-07 -7.29683e-18
-2.00272e-06 1.90163e-06 -1.43489e-18
-1.02509e-06 -8.33256e-07 -5.59766e-18
-2.60155e-06 -7.11704e-07 -1.85994e-18
-1.45386e-06 9.01164e-07 -2.5621e-17
-3.82186e-06 -4.84832e-06 -2.19994e-18
2.29403e-07 -1.31464e-06 -3.84891e-18
-6.11292e-06 8.94771e-07 -1.6552e-18
3.44405e-07 8.90815e-07 -2.97693e-18
-4.8834e-07 -1.0058e-06 -2.11289e-18
-6.05283e-07 -2.12909e-06 -2.02788e-18
1.83371e-06 7.7436e-07 -6.47104e-18
1.23344e-06 1.89591e-06 -1.68987e-18
1.55522e-06 -1.57501e-06 -1.59545e-18
-3.50852e-07 -2.00042e-06 -2.21428e-18
6.64951e-07 -9.19622e-07 -1.5213e-18
-7.29789e-07 -5.8048e-07 -2.47689e-18
-7.09295e-07 7.14401e-07 -4.15906e-18
1.54759e-07 -4.87061e-07 -3.85206e-17
-1.91766e-06 -1.90878e-06 -2.2925e-18
-2.62771e-06 7.16086e-07 -1.53556e-18
-1.63704e-07 1.33769e-06 -8.15252e-18
-1.74828e-06 1.10324e-06 -2.62425e-18
-6.05033e-07 8.98823e-07 -3.36736e-18
-1.85884e-06 2.7053e-07 -2.57248e-17
1.04379e-06 -2.39454e-06 -1.78298e-18
-1.91907e-06 -6.83246e-07 -2.12923e-18
1.49942e-08 9.46048e-07 -2.23183e-18
1.21331e-06 2.1552e-07 -7.98914e-18
1.24753e-06 -1.00671e-06 -5.58707e-18
2.86077e-06 2.49753e-06 -1.48363e-18
1.37481e-06 -4.55302e-07 -3.7514e-18
-1.15972e-06 8.29704e-07 -2.25465e-17
1.4637e-06 2.10425e-07 -6.84596e-18
-1.86506e-07 1.64292e-06 -1.05431e-17
-4.67135e-08 -1.25092e-06 -2.12915e-18
1.7663e-06 8.55414e-07 -6.71746e-18
1.02168e-06 1.05006e-06 -6.43545e-18
8.4567e-06 5.26487e-06 -7.05705e-18
-1.71361e-07 1.3193e-06 -6.29531e-18
8.84033e-06 -4.96816e-06 -1.4775e-17
-3.27204e-06 4.74614e-07 -2.08058e-18
1.67516e-06 1.18191e-06 -8.16369e-18
-1.24063e-06 4.73107e-07 -1.23807e-17
6.59034e-07 1.11126e-06 -5.79224e-18
3.52161e-07 -1.55431e-06 -4.44205e-18
3.53235e-08 9.50271e-07 -2.34524e-18
-1.54343e-06 -2.09184e-06 -1.90969e-18
7.16067e-08 1.23532e-06 -2.69844e-18
1.27953e-06 3.20261e-07 -8.01565e-18
-5.6776e-07 1.29326e-06 -9.0326e-18
1.45188e-06 -5.08959e-07 -5.98965e-18
-2.84594e-07 5.01993e-07 -2.40809e-18
9.12266e-07 3.54825e-07 -3.47531e-18
-5.1309e-08 -9.17903e-07 -1.80169e-18
5.2867e-07 -2.11493e-06 -1.8493e-18
1.16946e-06 3.77722e-07 -1.53788e-17
-2.47039e-07 1.4636e-06 -8.80267e-18
-1.11025e-06 -9.25911e-08 -1.99369e-18
6.6396e-07 7.20329e-07 -3.53632e-18
-7.28687e-08 -1.46679e-06 -4.8639e-18
1.48799e-06 5.02212e-07 -6.30836e-18
3.1616e-07 -4.92204e-07 -4.01154e-18
-8.27167e-07 -3.95313e-07 -2.55157e-18
-1.20749e-06 -5.74547e-07 -6.4492e-18
1.99993e-06 5.41495e-06 -8.08014e-18
-1.48017e-06 -5.53637e-07 -9.86033e-18
2.02774e-06 -5.43018e-06 -1.76931e-17
-9.51772e-08 -1.35629e-06 -3.85092e-18
1.15247e-06 1.39113e-08 -1.15167e-17
-7.97736e-07 2.31287e-06 -2.15879e-18
-2.50523e-07 3.30285e-07 -2.13169e-18
-6.04791e-07 -1.67576e-06 -2.2754e-18
4.97542e-07 -1.02748e-06 -3.85401e-17
1.23705e-06 1.89287e-06 -1.46343e-18
4.29175e-06 1.48086e-06 -1.09917e-17
8.26419e-07 -4.93196e-07 -4.70168e-18
-2.66567e-07 -1.57204e-06 -4.8898e-18
1.14071e-06 -7.70644e-07 -6.6607e-18
6.53165e-07 3.41541e-06 -1.53556e-18
-1.7994e-07 -3.40132e-07 -2.25601e-18
-1.08011e-06 -8.87627e-07 -2.43567e-18
-4.76469e-07 1.19679e-07 -1.67737e-18
-9.03046e-07 1.08419e-06 -1.21993e-17
2.58609e-06 -4.79473e-06 -1.8761e-18
-8.87787e-07 1.42936e-06 -1.4611e-17
-1.16044e-06 7.94285e-07 -3.8265e-18
1.96456e-07 1.48535e-06 -1.38896e-17
-2.85569e-06 -4.63062e-06 -2.08622e-18
5.40385e-07 1.32359e-06 -5.53947e-18
1.59791e-06 5.7643e-07 -4.81721e-18
1.23287e-06 -5.48799e-07 -9.86514e-18
-2.634e-07 -9.35898e-07 -2.98901e-18
-1.16916e-06 -1.06951e-06 -7.39858e-18
-5.05281e-08 9.46969e-07 -2.30613e-18
1.48472e-06 9.2101e-07 -5.67198e-18
1.32201e-06 -7.72253e-07 -1.38345e-17
5.86267e-07 -8.66786e-07 -4.59553e-18
1.19607e-06 -4.954e-07 -8.92221e-18
1.17259e-06 -5.57315e-07 -1.28333e-17
4.9337e-07 1.49175e-07 -4.75041e-18
1.03684e-06 8.22384e-07 -5.76967e-18
-1.70499e-08 -1.24698e-06 -2.04582e-18
-9.62443e-07 -2.22131e-07 -1.72906e-18
2.17616e-07 -3.3119e-07 -1.53081e-18
-5.13277e-07 1.38589e-06 -2.04225e-18
-1.36376e-06 1.30039e-07 -1.25998e-17
-4.46741e-07 -1.32262e-06 -4.02704e-18
-5.43712e-07 6.48503e-07 -2.8466e-18
8.16789e-07 8.91784e-07 -3.73408e-18
1.07576e-06 -7.76389e-07 -5.76379e-18
-1.26575e-06 -7.12001e-07 -9.02584e-18
6.9855e-07 -1.08244e-06 -4.5322e-18
9.45292e-07 -1.06744e-06 -5.10079e-18
-8.30098e-07 4.41941e-07 -2.97071e-18
-7.91348e-07 -1.12514e-06 -4.64079e-18
-1.3558e-06 -2.55022e-07 -9.10369e-18
-1.68442e-07 -1.27294e-06 -4.23599e-18
6.10428e-07 -1.2676e-06 -4.55181e-18
-1.24084e-06 -3.07528e-06 -2.21408e-18
1.61021e-07 1.34049e-06 -5.59819e-18
-6.10176e-07 -1.11276e-06 -4.96073e-18
5.32146e-07 -1.50856e-06 -1.75108e-18
-1.08164e-06 7.44234e-07 -1.22637e-17
-1.56295e-06 -1.46361e-06 -2.00631e-18
-3.29552e-06 -4.51076e-07 -1.69333e-18
1.22993e-06 -7.84534e-07 -1.82622e-17
-4.50491e-07 3.00573e-06 -1.94702e-18
1.18336e-06 -6.60195e-07 -6.41676e-18
-1.18072e-06 -5.01176e-07 -8.40161e-18
-8.10541e-07 -4.98519e-07 -1.68719e-18
8.434e-07 4.85163e-07 -2.93436e-18
8.85235e-07 1.11794e-06 -5.51036e-18
-1.61592e-06 -1.10805e-06 -2.27976e-18
-1.25457e-06 -3.51177e-08 -1.26492e-17
-1.77831e-06 -2.99862e-07 -1.6337e-18
-5.83016e-07 -1.6773e-06 -2.26617e-18
1.9996e-06 2.6676e-06 -8.64451e-18
-1.01813e-06 3.41056e-07 -2.45552e-18
1.60524e-07 -1.95782e-06 -2.04428e-18
-1.4652e-06 4.14593e-07 -2.28526e-17
1.11015e-06 8.19195e-07 -5.91302e-18
1.84607e-07 1.30092e-06 -6.00563e-18
-1.42873e-07 4.43059e-07 -2.42395e-18
-6.00842e-07 1.50535e-08 -3.0817e-18
3.13349e-07 5.09321e-07 -2.58272e-18
-1.33433e-06 5.07304e-07 -1.72008e-18
-2.92873e-07 -3.14248e-07 -3.32368e-18
3.39025e-07 1.94086e-06 -2.49165e-18
4.73317e-07 -8.44391e-08 -2.81591e-18
-1.07537e-06 2.8938e-07 -5.9876e-18
-7.82485e-07 8.84558e-07 -8.7836e-18
-2.45692e-07 1.38255e-06 -2.26692e-18
-1.11469e-06 7.46113e-07 -1.46983e-17
-1.16929e-06 9.54539e-07 -1.7316e-18
1.58002e-06 -1.30028e-06 -1.81667e-17
1.44089e-06 -1.67657e-07 -7.43473e-18
-2.37571e-06 1.21811e-06 -2.2732e-18
1.23857e-07 5.19666e-07 -2.42258e-17
2.48229e-06 -2.92318e-07 -1.06292e-17
-1.51386e-06 1.11277e-06 -3.13924e-18
-7.43015e-07 5.83958e-07 -3.00023e-18
1.3984e-06 5.68998e-07 -7.04765e-18
1.09043e-06 -6.97179e-07 -7.01449e-18
-1.58129e-06 8.50587e-07 -3.22512e-18
-1.14671e-06 -2.44643e-07 -7.51267e-18
-1.75978e-06 -3.33197e-07 -1.74365e-18
1.16192e-06 1.23937e-07 -5.81536e-18
1.1762e-06 -1.15934e-07 -3.1863e-18
6.29411e-07 8.82514e-07 -1.88268e-18
6.60766e-07 -9.18303e-07 -1.67924e-18
-4.62722e-07 1.01679e-06 -2.17093e-18
-4.70817e-07 -1.03067e-06 -2.14962e-18
7.64081e-07 -7.84565e-07 -3.46494e-17
-2.4949e-06 4.87256e-07 -1.47682e-18
-2.46495e-06 -4.93763e-07 -1.84201e-18
-1.65417e-06 1.90696e-06 -1.56725e-18
-1.65957e-06 -1.91071e-06 -2.33453e-18
8.6445e-07 -2.52526e-06 -2.11605e-17
8.33084e-07 2.5088e-06 -9.18664e-18
1.16364e-07 1.25881e-06 -4.64244e-18
1.08837e-06 -6.27985e-08 -5.9503e-18
2.28176e-07 -3.23533e-07 -3.90558e-18
-1.16756e-06 1.2669e-07 -5.33532e-18
8.77975e-07 -2.4862e-06 -2.65351e-17
8.34023e-07 2.49339e-06 -1.10861e-17
4.16935e-07 -7.08838e-09 -2.96659e-17
4.27642e-07 1.11771e-06 -4.71959e-18
-1.85405e-07 -3.45963e-07 -1.64221e-18
7.23813e-08 -9.40684e-07 -3.42208e-18
-1.11908e-06 -5.70277e-07 -5.48734e-18
-2.43055e-06 -1.25608e-06 -1.98772e-18
-1.05136e-06 6.95006e-07 -8.93301e-18
2.70875e-07 -1.49061e-06 -3.61651e-17
-1.3384e-07 2.71584e-07 -1.99046e-18
-5.21477e-08 -1.2687e-06 -3.26711e-18
-3.50222e-07 -1.12892e-06 -3.50205e-18
1.19357e-06 1.04985e-06 -6.01807e-18
1.36891e-06 -5.41798e-08 -6.66433e-18
-1.44851e-06 -5.39653e-07 -2.08463e-18
-7.75246e-07 -1.41011e-06 -5.88893e-18
5.69001e-07 8.9698e-07 -2.89031e-18
-1.14785e-06 1.35942e-07 -8.97787e-18
1.12658e-06 3.33445e-07 -9.72667e-18
-3.86421e-07 -1.65684e-09 -2.41807e-18
-6.18318e-07 -8.95014e-07 -2.70075e-18
-1.06785e-06 -5.02288e-06 -2.04055e-18
-1.10112e-06 1.03639e-07 -1.73197e-18
-1.62286e-06 -5.92632e-08 -1.53266e-17
8.23619e-07 -8.87682e-07 -5.2104e-18
2.32268e-07 3.33453e-07 -2.6061e-18
-6.52723e-08 -1.38892e-06 -2.42999e-18
-4.41169e-07 1.0878e-06 -7.30727e-18
-5.9489e-07 9.11058e-07 -1.9204e-18
1.17047e-06 -6.89619e-07 -8.6383e-18
-4.88527e-06 -1.58123e-06 -1.70468e-18
-6.89629e-07 -9.36391e-07 -3.86106e-18
4.84544e-07 1.03153e-06 -1.80169e-17
1.79455e-06 2.58007e-07 -3.87454e-18
-3.21316e-07 -4.83682e-07 -1.84413e-18
2.47596e-06 5.45114e-07 -8.46263e-18
1.79624e-06 -8.61973e-07 -1.38314e-17
-1.19472e-08 3.24006e-06 -1.48261e-18
5.81526e-07 -9.1526e-07 -4.13731e-18
1.66992e-06 3.54332e-08 -6.20893e-18
-1.43025e-06 3.56555e-07 -2.3073e-17
2.73461e-06 1.29876e-06 -7.05354e-18
-3.46493e-07 -1.03268e-06 -2.24434e-18
-1.25079e-06 -6.28591e-07 -2.26178e-18
1.31732e-06 -6.5676e-09 -8.95075e-18
-1.17193e-07 -2.73999e-06 -1.91962e-18
-1.03172e-06 -1.21387e-06 -2.40522e-18
4.90223e-07 -1.07871e-06 -4.31288e-18
-1.39885e-07 1.89458e-06 -2.28046e-18
3.34418e-07 1.26519e-06 -4.21301e-18
1.46485e-06 -8.80092e-07 -1.12284e-17
-9.56438e-07 8.78003e-07 -8.04813e-18
7.73025e-07 9.19226e-07 -4.94868e-18
-8.56646e-06 2.02473e-06 -1.56391e-18
-1.36097e-06 3.07284e-06 -1.3764e-18
1.63322e-06 -1.84952e-06 -1.57851e-18
-7.92496e-07 -2.3225e-06 -1.80569e-18
-1.10025e-06 2.16015e-07 -2.6453e-18
-1.22779e-06 -4.10231e-07 -5.78966e-18
-9.00093e-07 4.97326e-06 -1.36436e-18
-1.09872e-06 1.40998e-06 -2.58259e-18
1.241e-06 -3.82607e-07 -1.42548e-17
-2.58864e-07 -1.27629e-06 -3.22626e-18
-6.78274e-07 1.0785e-06 -7.20314e-18
-2.52325e-06 1.49439e-06 -1.92568e-18
-9.81216e-07 -7.50084e-07 -4.16751e-18
2.03556e-06 -2.60884e-06 -1.97113e-17
-1.2559e-06 -7.58882e-08 -7.40343e-18
4.44772e-07 -1.4117e-06 -4.5712e-18
1.0114e-06 -8.70224e-07 -6.21381e-18
8.6288e-07 1.47866e-06 -6.54053e-18
2.79967e-07 2.11927e-06 -2.04515e-18
1.78243e-07 -1.23629e-06 -3.66909e-18
-5.54755e-06 6.55914e-06 -1.79252e-18
-5.67794e-07 -1.12833e-06 -3.35758e-18
1.83055e-06 -5.38351e-07 -8.81979e-18
-1.24362e-07 1.23894e-06 -5.55834e-18
1.2077e-06 -1.44411e-06 -3.31226e-17
6.53035e-07 1.11339e-06 -4.41263e-18
1.11349e-06 -1.65438e-07 -2.19606e-17
6.91159e-07 -1.97826e-06 -5.21141e-18
-3.20949e-07 -8.41134e-07 -1.89708e-18
-1.1347e-06 4.76171e-07 -8.90851e-18
-2.39286e-06 2.35219e-06 -1.91439e-18
1.05806e-06 7.27861e-07 -5.41269e-18
1.19536e-06 -7.25675e-07 -9.02351e-18
1.31437e-06 1.38389e-06 -9.87393e-18
-5.84075e-07 -1.16802e-07 -2.31593e-18
7.41897e-07 -1.05861e-06 -4.80216e-18
-8.54182e-07 -9.40372e-07 -3.52025e-18
1.219e-06 5.99011e-07 -6.71796e-18
1.26361e-06 -1.3304e-06 -2.20478e-17
4.22577e-07 -1.21535e-06 -3.86307e-18
1.24545e-06 -7.49348e-07 -2.35738e-17
-1.12946e-06 -6.09498e-07 -3.23944e-18
2.16258e-07 -3.09754e-06 -2.11698e-18
-1.23595e-06 2.82059e-07 -8.0469e-18
7.42515e-08 1.32774e-06 -4.18791e-18
1.25178e-06 5.34809e-07 -9.7893e-18
-1.15558e-06 -6.43595e-07 -4.19681e-18
-3.6065e-07 1.23324e-06 -5.79398e-18
-1.21671e-08 -1.33044e-06 -3.04863e-18
2.11772e-06 1.34343e-06 -6.33301e-18
8.46764e-08 1.48819e-06 -2.63715e-18
-1.1269e-06 6.92307e-07 -7.26506e-18
1.17965e-06 5.31992e-07 -6.95297e-18
-1.36102e-06 -1.03805e-06 -2.71067e-18
2.3102e-07 -1.70371e-06 -1.96514e-18
9.46774e-07 9.14938e-07 -4.92826e-18
-2.57538e-06 -1.73157e-06 -1.90306e-18
1.53847e-06 -1.08324e-06 -5.53949e-18
1.35125e-06 -7.13961e-07 -1.12264e-17
2.99877e-07 1.53059e-06 -7.26736e-18
1.17502e-06 -7.63283e-07 -7.67436e-18
-6.36217e-07 2.56452e-06 -1.31326e-17
-6.38093e-07 -2.5422e-06 -6.95599e-18
1.68737e-06 2.16403e-06 -7.93424e-18
1.66932e-06 -2.16362e-06 -5.67522e-18
2.73122e-06 -2.4211e-09 -6.04542e-18
-2.33621e-06 9.69975e-07 -1.89742e-17
-2.30113e-06 -9.78628e-07 -1.20869e-17
1.24482e-06 1.3659e-06 -1.02189e-17
3.70195e-06 2.82132e-06 -6.62259e-18
7.92912e-07 3.4299e-07 -1.75454e-17
1.2151e-06 5.99809e-07 -7.83361e-18
2.70272e-07 1.13662e-06 -3.76207e-18
-1.08057e-06 -7.54707e-07 -3.78055e-18
1.58194e-06 -7.1172e-07 -8.98977e-18
1.1452e-06 7.29113e-07 -5.76855e-18
-7.95671e-08 1.3228e-06 -4.34624e-18
3.72872e-06 -2.58285e-06 -1.40411e-17
1.38401e-07 -1.31765e-06 -3.20676e-18
2.48558e-06 3.7447e-07 -5.34208e-18
1.26999e-06 5.26432e-07 -6.28567e-18
1.82494e-06 1.68041e-06 -1.45448e-18
1.07638e-06 5.34374e-07 -1.15193e-17
-1.14342e-06 7.18682e-07 -5.55807e-18
-1.19051e-06 5.70001e-07 -7.17922e-18
2.74021e-06 -1.2685e-06 -1.52593e-17
-1.26994e-06 -7.90619e-07 -2.99968e-18
-1.19746e-06 -6.45968e-07 -3.68378e-18
6.34939e-08 -1.49588e-06 -2.2379e-18
-2.463e-08 -1.35904e-06 -2.57005e-18
-1.06559e-06 -6.43453e-08 -5.6185e-18
1.2237e-06 -1.77556e-07 -8.38178e-18
1.14813e-06 7.32508e-07 -5.34688e-18
-1.31023e-06 7.17693e-07 -4.6157e-18
-1.55841e-06 1.97282e-06 -2.17458e-18
9.52428e-07 -7.78819e-07 -6.40051e-18
-5.80084e-07 9.14315e-07 -5.78346e-18
-7.86476e-07 -8.0455e-07 -2.90105e-18
-6.03172e-08 1.29426e-06 -3.88603e-18
5.20823e-08 1.50195e-06 -3.10123e-18
-2.98176e-08 -1.70093e-06 -2.14133e-18
3.33878e-07 -1.08407e-06 -3.82583e-18
-1.48434e-06 -8.04261e-07 -2.59415e-18
1.00678e-06 -4.29395e-07 -2.0684e-17
8.08033e-08 1.3408e-06 -3.44365e-18
6.57646e-08 1.48456e-06 -2.65916e-18
-7.69307e-08 1.14287e-06 -3.14075e-18
1.15626e-06 -3.04413e-07 -1.20696e-17
-1.82531e-06 3.50461e-07 -2.42823e-18
1.44455e-07 1.34212e-06 -3.37194e-18
-4.1038e-06 1.55222e-06 -1.89563e-18
3.56192e-07 1.43828e-06 -7.53873e-18
-1.82106e-06 3.62708e-07 -2.18237e-18
2.18346e-06 -1.32461e-06 -1.31946e-17
-1.60788e-08 1.50042e-06 -3.01823e-18
-1.18966e-06 5.23341e-07 -5.38669e-18
3.68436e-07 -1.49907e-06 -1.82067e-18
5.93724e-08 -1.83152e-06 -5.67513e-18
8.58043e-08 1.234e-06 -2.7947e-18
-1.11896e-06 7.68831e-07 -5.42599e-18
5.62709e-07 2.00653e-06 -8.48785e-18
6.21939e-06 5.17255e-06 -6.85022e-18
7.15305e-06 -4.89139e-06 -1.41515e-17
1.13699e-06 -7.01027e-07 -7.59805e-18
-8.92538e-07 7.70983e-07 -6.22489e-18
-1.21696e-06 -6.1595e-07 -3.85015e-18
-1.10701e-06 -4.06344e-07 -4.76133e-18
8.90983e-06 -2.4569e-06 -1.40122e-17
9.07922e-06 1.91261e-06 -7.17421e-18
7.67126e-07 3.66327e-07 -2.4046e-17
-1.20665e-07 1.58489e-06 -2.44549e-18
3.46009e-08 1.58881e-06 -2.43934e-18
-1.49923e-06 -1.12368e-06 -9.60815e-18
6.39449e-07 -9.06049e-07 -4.75165e-18
1.12927e-06 1.51203e-06 -1.32555e-17
-1.17792e-06 -2.70953e-07 -4.87112e-18
-8.25901e-07 8.93717e-07 -5.43456e-18
-1.15751e-06 5.71962e-07 -5.70562e-18
1.52329e-06 1.08599e-06 -6.74945e-18
1.63631e-06 6.23652e-07 -4.44843e-18
-2.76287e-07 1.09588e-06 -4.69868e-18
-1.30691e-06 -7.40125e-07 -2.74988e-18
9.92157e-09 -1.50115e-06 -2.40318e-18
-4.29227e-07 -1.10113e-06 -2.53412e-18
-1.06314e-06 -7.17378e-07 -2.91957e-18
5.75413e-07 -1.04134e-06 -4.33256e-18
8.88269e-07 -8.89888e-07 -5.49502e-18
-7.92763e-08 -1.93141e-06 -5.54437e-18
9.14241e-07 -1.41723e-06 -4.78649e-18
1.0928e-07 -1.27711e-06 -2.78614e-18
1.35874e-06 7.15313e-07 -6.00403e-18
-9.75155e-07 -8.17233e-07 -2.685e-18
-4.93439e-07 1.08025e-06 -4.63933e-18
-1.72757e-07 1.28885e-06 -4.00025e-18
1.13175e-06 7.66164e-07 -4.6291e-18
2.68549e-07 -1.24332e-06 -3.19213e-18
-4.7714e-07 -1.38251e-06 -5.65908e-18
-3.021e-07 2.84978e-06 -1.74315e-18
8.69691e-07 7.95411e-07 -4.34819e-18
-1.11538e-06 -1.05401e-06 -2.43283e-18
-1.2966e-06 1.13046e-06 -2.61153e-18
1.53313e-06 -6.23612e-07 -6.09976e-18
4.60663e-07 -8.72113e-07 -3.57998e-18
-5.82819e-07 -7.71527e-07 -2.05799e-18
2.67404e-06 8.91543e-07 -9.62452e-18
1.74541e-06 -6.28892e-06 -1.8447e-18
-4.57556e-06 -4.6495e-06 -1.81723e-18
2.88926e-06 6.64339e-07 -5.00346e-18
-4.797e-07 -9.68409e-07 -2.84407e-18
1.3261e-06 7.96575e-07 -7.42303e-18
-9.73756e-07 -1.1116e-06 -7.11569e-18
1.4164e-06 6.37918e-06 -1.21166e-18
6.25906e-06 -8.10962e-06 -1.91674e-18
-3.89494e-06 -9.47167e-06 -1.7733e-18
8.72323e-07 -1.65396e-06 -5.35377e-18
-1.57218e-06 5.64879e-06 -1.71743e-18
-9.3315e-07 4.95993e-06 -1.27001e-18
-1.29178e-06 7.59454e-07 -4.71152e-18
8.40034e-07 2.73809e-06 -1.83618e-18
-6.28351e-08 9.00468e-07 -2.64935e-18
8.22004e-07 4.0772e-07 -2.27038e-17
-5.42622e-07 1.68862e-06 -1.81884e-18
-1.38958e-09 2.14362e-06 -1.76477e-18
1.3143e-06 8.00107e-07 -8.68812e-18
4.73779e-08 1.82265e-06 -1.04352e-17
-1.09472e-06 6.03232e-07 -3.77651e-18
1.49945e-06 -4.01128e-07 -8.42596e-18
1.90446e-06 -2.60276e-07 -7.4128e-18
-1.86351e-06 -3.04807e-07 -1.35162e-17
-4.41977e-06 2.11716e-06 -1.66521e-18
-1.3363e-06 -1.5963e-06 -8.14321e-18
1.06545e-06 8.88293e-07 -1.84643e-18
1.12999e-06 8.25329e-07 -1.48295e-17
1.27961e-06 -2.70381e-07 -9.66525e-18
-5.45981e-07 -8.8083e-07 -1.99788e-18
1.29807e-06 8.38149e-07 -1.07381e-17
9.7044e-07 -3.73621e-06 -1.89913e-18
-1.25255e-06 6.8575e-07 -2.94778e-18
-2.75119e-06 -2.70284e-06 -2.01096e-18
-2.64924e-07 1.11326e-06 -2.95847e-18
-5.29528e-07 2.08749e-06 -1.75214e-18
4.43676e-06 2.73862e-06 -7.11637e-18
4.7411e-06 -2.4894e-06 -1.50084e-17
-1.42034e-06 -3.7006e-07 -1.33094e-17
5.70478e-07 8.5917e-07 -1.59803e-17
-1.04602e-07 2.97714e-06 -1.08539e-17
3.42824e-08 -3.05544e-06 -5.94257e-18
1.51262e-06 2.58777e-06 -9.04431e-18
-1.98143e-06 6.73398e-07 -2.77362e-18
-8.46481e-07 1.7256e-06 -1.66559e-17
1.52427e-06 -2.49825e-06 -5.79729e-18
-6.65655e-07 -9.69095e-07 -2.67786e-18
2.32904e-06 1.98205e-06 -7.08768e-18
3.09729e-06 -2.20756e-06 -1.87444e-18
-3.6611e-07 -3.77997e-06 -1.95953e-18
2.43615e-06 -1.93843e-06 -5.84361e-18
-3.78881e-07 8.88517e-07 -3.7304e-18
-1.66351e-06 -1.0486e-06 -1.05691e-17
-1.27027e-06 -2.66636e-06 -7.99692e-18
-7.44897e-07 -1.82104e-06 -6.24519e-18
-1.3061e-06 2.70767e-06 -1.68354e-17
-3.11096e-07 2.00526e-06 -1.14928e-17
2.14506e-06 4.74116e-06 -1.487e-18
-9.47987e-07 1.21128e-06 -1.9679e-17
-8.13156e-07 -1.68815e-06 -7.31883e-18
2.97329e-06 5.32103e-07 -6.41343e-18
-1.42071e-06 7.16052e-07 -3.67755e-18
-7.66586e-07 1.70276e-06 -1.5357e-18
-1.58411e-06 1.12256e-06 -2.84435e-17
-1.37473e-06 8.24809e-07 -3.9125e-18
2.94485e-06 -4.7842e-07 -5.87203e-18
-1.33975e-06 5.59884e-07 -3.10853e-18
4.5575e-07 -8.84625e-07 -4.21363e-18
-2.26911e-06 -1.74886e-06 -9.81934e-18
-8.02798e-07 1.80955e-06 -1.406e-17
-2.32035e-06 1.73766e-06 -2.08618e-17
7.78481e-07 1.64778e-06 -8.04186e-18
-1.06632e-06 6.84895e-07 -4.32138e-18
-2.47274e-06 3.12444e-06 -1.78559e-18
-4.8205e-06 6.08891e-06 -1.15469e-18
-7.57995e-06 -9.60448e-07 -1.69774e-18
-1.9248e-07 1.45028e-06 -2.14491e-18
-5.10056e-06 -6.11451e-06 -2.0726e-18
-7.84959e-06 1.36241e-06 -1.75948e-18
-3.00218e-06 6.93397e-06 -1.70338e-18
-2.29514e-06 9.14126e-06 -1.16811e-18
-5.96532e-07 1.38554e-06 -1.3286e-17
-4.33672e-06 3.50508e-06 -1.67203e-18
3.05011e-06 -6.61025e-07 -1.06744e-17
4.90437e-06 -1.43481e-07 -1.18946e-17
1.12677e-06 8.28882e-07 -1.1636e-17
-1.61304e-06 -1.05418e-05 -1.96822e-18
-9.93909e-06 -3.86929e-06 -1.78254e-18
4.76967e-06 -6.81091e-08 -5.68762e-18
1.86321e-06 -3.62412e-07 -6.01261e-18
-6.22527e-07 -7.86381e-07 -2.38657e-18
-1.57077e-06 1.13506e-06 -2.34463e-17
-1.40976e-06 1.63721e-06 -2.09365e-17
1.96837e-06 -7.04429e-07 -5.76646e-18
-3.70616e-06 -6.2474e-06 -2.06777e-18
-3.77017e-06 6.19614e-06 -1.38903e-18
-7.28385e-06 -2.76435e-07 -1.61092e-18
-3.29485e-06 6.53651e-06 -1.8438e-18
-7.26938e-06 9.32129e-08 -1.54687e-18
9.1334e-06 3.25834e-06 -1.32595e-17
7.29221e-06 2.937e-07 -1.19386e-17
6.90356e-06 -3.53045e-06 -1.34497e-17
2.05063e-06 -9.74139e-06 -1.50589e-17
3.61122e-06 -6.33111e-06 -1.70864e-17
3.58599e-06 6.32853e-06 -7.9792e-18
2.00885e-06 9.51997e-06 -7.24023e-18
9.96185e-06 -2.81446e-06 -6.46891e-18
6.3548e-06 3.14533e-06 -6.77598e-18
6.0473e-06 1.64448e-06 -5.94499e-18
P_ext 3 563 float
-2.53359e-09 8.48969e-10 -2.92568e-19
-1.20788e-13 8.69264e-11 -3.22531e-20
-2.20048e-10 -2.08223e-10 -3.2278e-20
-6.95501e-11 6.3727e-11 -3.33864e-20
5.27128e-11 2.96995e-12 -7.91467e-20
7.3389e-11 -2.94792e-10 -5.29132e-20
-2.49521e-09 -8.59551e-10 -2.28294e-19
-1.70006e-10 -1.95751e-10 -2.92118e-20
4.86821e-10 8.22538e-12 -2.0473e-19
1.73822e-10 -1.473e-11 -6.38552e-19
1.65306e-09 3.91045e-10 -9.92129e-20
8.65781e-11 -2.48055e-10 -4.58964e-20
1.93745e-10 2.34216e-10 -6.23466e-20
-2.28251e-11 1.79617e-10 -3.53136e-20
4.96445e-11 2.23141e-11 -7.04921e-20
-3.07461e-10 -5.03244e-12 -5.23559e-20
-4.11764e-11 1.16451e-10 -3.08509e-20
1.84876e-10 -2.7229e-11 -4.71432e-19
2.15804e-10 3.85752e-10 -6.26187e-20
-2.8685e-10 2.85291e-11 -6.06262e-20
-1.09444e-10 -4.06328e-10 -3.60096e-20
5.79388e-12 -1.17466e-11 -2.43345e-20
3.18327e-10 2.56321e-11 -2.67997e-19
2.01289e-10 -2.34193e-10 -8.73322e-20
-2.93123e-10 -4.63581e-11 -5.45658e-20
-5.67818e-11 -1.57721e-10 -2.47953e-20
1.89031e-09 -1.54623e-10 -9.79875e-20
2.17824e-10 1.85521e-10 -7.31709e-20
-6.81036e-10 -5.40456e-10 -8.88195e-20
3.54667e-11 7.95453e-12 -8.60626e-20
-2.92142e-10 -4.99834e-11 -4.58836e-20
1.32402e-10 -8.65915e-10 -6.64891e-20
1.42107e-09 -1.45586e-09 -8.59685e-20
9.59963e-13 -5.91625e-11 -2.69148e-20
-1.49911e-11 4.51777e-11 -2.50206e-20
-5.01615e-11 -3.12012e-11 -2.29233e-20
3.58322e-12 3.39106e-11 -2.46391e-20
-4.89669e-11 8.74794e-12 -3.34267e-20
2.09603e-10 -2.31182e-10 -1.03285e-19
1.38697e-09 1.5171e-09 -1.08532e-19
8.71874e-10 -3.95771e-10 -1.13279e-19
8.6984e-12 -3.14474e-11 -2.55133e-20
-2.26689e-11 -2.41536e-11 -2.31974e-20
-2.90396e-10 5.75346e-11 -5.56157e-20
8.75326e-10 -8.60255e-10 -8.51981e-20
-8.0501e-10 2.89652e-10 -2.2155e-19
-1.00061e-10 -4.32814e-10 -3.99921e-20
1.78706e-10 4.33912e-10 -5.61936e-20
-2.78924e-10 7.15364e-11 -6.32879e-20
-5.01489e-10 7.78945e-10 -1.81057e-19
8.86299e-10 4.34827e-10 -1.04407e-19
7.62957e-10 -2.50591e-10 -1.21609e-19
-1.90735e-11 4.56649e-11 -2.67298e-20
-5.96712e-10 -5.35899e-10 -8.33235e-20
-4.9979e-11 7.16669e-12 -3.3944e-20
-1.30295e-09 7.65364e-10 -3.78522e-19
-1.37562e-11 -4.50389e-11 -2.83209e-20
1.70127e-10 -7.88238e-10 -5.96209e-20
-4.5341e-11 -1.09022e-11 -2.08865e-20
1.3001e-10 2.60047e-10 -4.92371e-20
-6.76742e-11 -1.69896e-11 -3.00504e-20
-7.06545e-11 -6.23204e-11 -2.80297e-20
1.69671e-09 7.46559e-10 -1.01404e-19
-4.78306e-12 1.3499e-10 -2.93281e-20
1.74333e-11 -8.91681e-11 -2.35473e-20
3.74182e-11 -2.04403e-10 -3.40478e-20
-1.7561e-11 -6.5325e-11 -2.26959e-20
-1.66679e-10 -4.01601e-11 -3.83998e-20
-1.95706e-10 2.39979e-10 -6.09969e-20
5.2286e-11 -1.71493e-11 -6.58833e-19
-1.86985e-11 -4.71687e-11 -3.02331e-20
-4.9397e-11 -7.66732e-12 -2.10607e-20
-1.00649e-10 9.3097e-10 -1.23738e-19
-1.67044e-10 8.4006e-11 -4.3945e-20
-1.67142e-10 2.85986e-10 -5.36842e-20
-1.77655e-09 2.08876e-10 -3.78928e-19
-1.81475e-12 -1.25817e-10 -2.58702e-20
-1.56884e-10 -1.33791e-10 -2.90249e-20
6.89181e-11 1.64267e-10 -3.87127e-20
6.6241e-10 1.32725e-10 -1.32709e-19
9.63448e-10 -8.38924e-10 -9.32577e-20
2.15268e-11 5.49839e-11 -2.56052e-20
5.73428e-11 2.09753e-11 -6.23744e-20
-8.99216e-10 6.65202e-10 -3.34248e-19
1.04178e-09 1.26426e-10 -1.14191e-19
-1.60485e-10 1.42961e-09 -1.60071e-19
-5.41303e-11 -2.71371e-10 -3.06151e-20
1.80221e-10 1.27506e-10 -1.12546e-19
8.42083e-10 8.88269e-10 -1.00679e-19
1.36502e-11 1.07016e-12 -1.06246e-19
-1.6026e-10 7.92775e-10 -9.60885e-20
1.21173e-11 -2.10831e-12 -2.52665e-19
-8.7015e-11 6.17084e-11 -3.6162e-20
1.96131e-10 7.8438e-11 -1.3502e-19
-7.63224e-10 2.35114e-10 -1.84145e-19
4.46804e-10 7.85946e-10 -9.05292e-20
2.7867e-10 -1.25992e-09 -7.23655e-20
6.32249e-11 1.62354e-10 -3.9878e-20
-1.08327e-10 -6.25336e-11 -2.7161e-20
9.51156e-11 3.00012e-10 -4.43181e-20
6.40077e-10 1.08316e-10 -1.35779e-19
-4.31363e-10 8.89591e-10 -1.33535e-19
1.15569e-09 -3.77961e-10 -9.97212e-20
-6.11604e-11 1.33438e-10 -3.87504e-20
1.14542e-10 1.19784e-10 -5.83444e-20
-7.06881e-11 -1.5881e-10 -2.35277e-20
-3.03612e-11 -1.17778e-10 -2.49139e-20
3.24681e-10 3.76857e-11 -2.58756e-19
-2.48622e-10 1.16016e-09 -1.35093e-19
-5.15294e-11 3.46455e-11 -3.38832e-20
1.61664e-10 2.41752e-10 -5.76241e-20
-8.44456e-11 -1.19508e-09 -7.6153e-20
1.20584e-09 3.62581e-10 -9.91903e-20
7.79433e-11 -1.38444e-10 -6.78937e-20
-1.77434e-10 -1.88973e-11 -3.74252e-20
-7.59775e-10 -3.04105e-10 -9.43364e-20
3.35173e-11 3.48153e-11 -1.26185e-19
-1.22212e-09 -4.26976e-10 -1.46387e-19
3.41695e-11 -3.49828e-11 -3.03497e-19
-1.18288e-10 -8.24628e-10 -5.74308e-20
5.02274e-10 1.91879e-11 -1.92817e-19
-4.2557e-11 3.15544e-11 -3.42513e-20
1.2986e-11 5.32095e-11 -3.7565e-20
3.51483e-11 -1.40037e-10 -3.89716e-20
5.63596e-11 -2.34642e-11 -6.63247e-19
-3.17886e-12 5.33711e-11 -2.64238e-20
4.43067e-11 -5.70784e-12 -1.92135e-19
9.08693e-11 -1.37556e-10 -8.19083e-20
-2.50758e-10 -1.27574e-09 -7.51346e-20
6.51876e-10 -5.02856e-10 -1.10616e-19
-7.293e-13 7.21515e-11 -2.58384e-20
-5.32917e-11 -8.16322e-12 -3.30185e-20
-1.4076e-11 -5.64756e-11 -3.90101e-20
-4.25612e-11 -3.19228e-11 -2.1411e-20
-6.12797e-10 7.65585e-10 -1.8035e-19
5.06095e-14 -5.19632e-11 -2.61617e-20
-7.75288e-10 1.2164e-09 -2.17793e-19
-2.7664e-10 1.25805e-10 -5.99197e-20
3.79417e-11 3.73791e-11 -2.32779e-19
-4.42843e-11 -2.6922e-11 -2.37803e-20
3.7327e-10 9.01426e-10 -8.6161e-20
2.03942e-10 1.84931e-10 -8.20655e-20
5.13447e-10 -1.68646e-10 -1.65358e-19
2.99342e-11 -1.53164e-10 -4.64042e-20
-9.57652e-10 -8.82317e-10 -1.09224e-19
-8.96878e-11 1.50566e-10 -3.62705e-20
2.26105e-10 1.2099e-10 -9.82318e-20
3.35487e-10 -1.14314e-10 -2.34647e-19
1.44586e-10 -2.90512e-10 -7.51865e-20
5.88243e-10 -2.71843e-10 -1.48912e-19
3.85477e-10 -1.81916e-10 -2.16609e-19
3.65439e-11 -3.30057e-11 -8.08857e-20
6.92082e-10 5.47604e-10 -9.17907e-20
-9.81207e-11 -2.77019e-10 -2.83228e-20
-1.15616e-10 -1.01626e-10 -2.49091e-20
-2.08766e-11 -4.99249e-11 -2.18144e-20
2.85881e-11 1.95149e-10 -3.57361e-20
-9.21895e-10 6.58653e-11 -1.854e-19
-3.37455e-10 -8.79691e-10 -6.38368e-20
-1.39911e-10 1.78381e-10 -4.36994e-20
2.77688e-10 3.71772e-10 -6.36337e-20
7.12027e-10 -5.05133e-10 -9.53611e-20
-1.05333e-09 -5.63347e-10 -1.3395e-19
4.63677e-10 -7.55827e-10 -7.75363e-20
6.00469e-10 -7.39698e-10 -8.6313e-20
-1.69413e-10 1.51144e-11 -4.02568e-20
-5.27516e-10 -7.63152e-10 -7.29865e-20
-9.23424e-10 -1.44334e-10 -1.35708e-19
-1.10842e-10 -8.45772e-10 -6.5018e-20
4.10566e-10 -8.49051e-10 -7.03629e-20
9.60143e-12 -1.07561e-10 -3.04575e-20
1.21691e-10 8.10608e-10 -8.79911e-20
-4.37773e-10 -7.64874e-10 -7.4699e-20
-4.2091e-11 -1.7607e-10 -2.43663e-20
-6.26467e-10 4.69301e-10 -1.8235e-19
-1.1588e-10 -3.48393e-11 -2.90396e-20
-8.74768e-11 -6.23229e-11 -2.29293e-20
2.40589e-10 -1.22379e-10 -3.11009e-19
-2.93815e-11 4.12571e-11 -3.43755e-20
1.25462e-10 -1.62536e-10 -1.09371e-19
-7.85218e-10 -3.49123e-10 -1.25254e-19
-9.78927e-11 -1.34179e-10 -2.31701e-20
1.01978e-10 1.42771e-10 -4.919e-20
5.65449e-10 7.81661e-10 -8.6265e-20
-1.88697e-10 -8.6521e-11 -3.04457e-20
-8.75415e-10 -1.95923e-11 -1.85491e-19
-1.02698e-10 -9.96656e-11 -2.34082e-20
-4.28117e-12 -1.39362e-10 -3.38597e-20
1.01323e-10 4.88789e-11 -1.41684e-19
-1.18878e-10 1.19878e-10 -3.87776e-20
-2.04577e-11 -2.0762e-10 -2.99989e-20
-1.17227e-09 2.88192e-10 -3.36994e-19
6.34446e-10 5.42366e-10 -9.46118e-20
8.46012e-11 8.88505e-10 -9.48254e-20
-4.96149e-11 1.51779e-11 -3.54432e-20
-1.65215e-10 5.11303e-12 -4.25707e-20
7.54324e-11 1.44971e-10 -4.54054e-20
-5.55838e-11 -1.60762e-11 -2.11991e-20
8.38594e-12 -5.05973e-11 -5.50056e-20
-3.44155e-11 2.20396e-10 -3.542e-20
3.48143e-11 3.96849e-11 -4.71479e-20
-4.2357e-10 9.32279e-11 -9.00417e-20
-4.3621e-10 4.75189e-10 -1.30472e-19
-4.45669e-11 3.761e-11 -3.55955e-20
-7.9685e-10 4.802e-10 -2.17864e-19
-1.62658e-11 6.19371e-11 -3.13711e-20
2.02954e-10 -7.08014e-11 -3.10026e-19
9.96292e-10 -9.14604e-11 -1.20959e-19
-1.15262e-10 7.25319e-11 -3.95375e-20
4.87597e-11 2.03969e-11 -4.09841e-19
1.18686e-10 -7.69685e-11 -1.76649e-19
-2.1173e-10 6.83295e-11 -5.02764e-20
-1.55467e-10 3.84871e-11 -4.47698e-20
5.00583e-11 -1.76113e-11 -1.20414e-19
5.20933e-10 -3.16819e-10 -1.16357e-19
-1.9651e-10 1.25239e-10 -5.0301e-20
-6.14957e-10 -1.28121e-10 -1.09176e-19
-1.21453e-10 -6.59719e-11 -2.45776e-20
4.49532e-11 -3.34184e-11 -9.80548e-20
5.02198e-11 3.89975e-11 -5.2912e-20
-1.6446e-11 5.87711e-11 -2.9178e-20
-8.36866e-12 -6.63868e-11 -2.20099e-20
-5.52025e-11 2.51415e-11 -3.47576e-20
-6.18004e-11 -2.85552e-11 -3.0077e-20
1.55852e-10 -5.6539e-11 -5.92441e-19
-5.21039e-11 -1.7575e-11 -2.07035e-20
-5.18548e-11 1.69636e-11 -3.34198e-20
-1.00272e-11 5.33453e-11 -2.79595e-20
-1.1259e-11 -5.45263e-11 -3.36059e-20
3.43744e-11 -3.68868e-11 -3.62249e-19
3.28755e-11 3.5104e-11 -1.47599e-19
2.17152e-11 6.22371e-10 -7.24359e-20
1.14299e-10 -9.7928e-11 -1.0103e-19
2.67978e-11 -5.1355e-11 -6.60928e-20
-4.63029e-10 1.66207e-11 -7.8356e-20
4.22228e-11 -3.56394e-11 -4.53561e-19
3.94834e-11 3.61177e-11 -1.84387e-19
6.14606e-11 -1.43051e-12 -5.05809e-19
2.15776e-10 6.1245e-10 -7.43594e-20
-3.13758e-11 -5.07506e-11 -2.13398e-20
6.85104e-11 -1.53809e-10 -5.5669e-20
-5.22853e-10 -2.89471e-10 -7.96382e-20
-1.07693e-10 -6.93054e-11 -2.71416e-20
-5.25572e-10 3.1101e-10 -1.32231e-19
4.42405e-11 -4.18472e-11 -6.1812e-19
-2.17972e-11 4.79598e-11 -3.19216e-20
-1.23501e-11 -6.01608e-10 -4.91331e-20
-1.98334e-10 -5.98349e-10 -5.38226e-20
9.22171e-10 8.78279e-10 -9.65273e-20
9.86138e-10 -5.63447e-11 -1.10643e-19
-6.21948e-11 1.58924e-11 -3.46645e-20
-6.60856e-10 -1.16699e-09 -8.8914e-20
1.49963e-10 2.58051e-10 -4.97431e-20
-6.22287e-10 7.33043e-11 -1.33943e-19
4.41111e-10 1.23243e-10 -1.65062e-19
-5.86261e-11 -2.55549e-13 -3.3313e-20
3.51004e-12 -5.93993e-11 -4.5631e-20
-3.16827e-12 -3.59073e-11 -2.70154e-20
-4.94189e-11 -3.21617e-11 -2.09517e-20
-1.36995e-09 -5.18451e-11 -2.27981e-19
4.22691e-10 -4.78759e-10 -8.67156e-20
2.72846e-11 5.37829e-11 -4.12727e-20
1.49548e-11 -2.57394e-10 -3.89628e-20
-2.53012e-10 5.98083e-10 -1.08914e-19
7.20905e-12 6.29493e-11 -3.36123e-20
4.45782e-10 -3.20083e-10 -1.43909e-19
-3.19734e-11 -1.57416e-11 -2.14121e-20
-3.8419e-10 -4.98639e-10 -5.96156e-20
5.05559e-11 2.27259e-11 -3.04514e-19
1.16335e-10 1.17688e-10 -6.52832e-20
-8.66667e-11 -1.34751e-10 -2.45807e-20
4.74603e-11 -1.92337e-11 -1.44528e-19
1.75664e-10 -1.23433e-10 -2.31835e-19
-9.09984e-12 9.36687e-11 -2.72184e-20
1.4774e-10 -2.4972e-10 -6.85626e-20
1.4229e-09 7.14324e-11 -1.00946e-19
-1.20794e-09 3.18943e-10 -3.40342e-19
9.09964e-11 6.25872e-11 -1.14954e-19
-1.43893e-10 -3.44373e-10 -3.34125e-20
-2.13624e-10 -1.40504e-10 -3.19175e-20
7.22011e-10 -7.42367e-12 -1.51049e-19
5.04782e-12 -1.28456e-10 -2.75486e-20
-1.73513e-10 -5.78232e-11 -3.40843e-20
2.46151e-10 -5.89485e-10 -6.80349e-20
1.89776e-11 2.26056e-10 -3.55653e-20
2.01465e-10 6.24216e-10 -6.7861e-20
2.33009e-10 -1.2314e-10 -1.8873e-19
-4.40281e-10 4.69154e-10 -1.18563e-19
4.07346e-10 5.03958e-10 -7.84943e-20
-2.11809e-11 8.12127e-12 -3.27795e-20
5.66696e-12 1.01333e-10 -2.81054e-20
3.41042e-12 -4.4139e-11 -2.35027e-20
-3.69141e-11 -2.58655e-11 -2.56394e-20
-1.28334e-10 1.04629e-10 -4.15503e-20
-6.16997e-10 -1.4529e-10 -8.43818e-20
5.58727e-13 6.34468e-11 -2.55682e-20
-1.55258e-10 4.26996e-11 -4.11737e-20
4.31822e-10 -6.15792e-11 -2.4121e-19
-1.87998e-10 -6.04749e-10 -4.73059e-20
-3.69532e-10 5.8794e-10 -1.07704e-19
-9.54606e-11 4.47258e-11 -3.6679e-20
-4.94702e-10 -3.49385e-10 -6.3159e-20
1.04992e-10 -4.7122e-11 -3.374e-19
-6.70273e-10 -3.26818e-11 -1.09057e-19
3.3682e-10 -1.19053e-09 -7.69195e-20
4.46839e-10 -4.70795e-10 -1.01901e-19
7.00081e-10 1.24204e-09 -1.01045e-19
-8.29558e-12 1.37918e-10 -3.07258e-20
5.81472e-11 -6.10868e-10 -5.50054e-20
-1.89278e-11 1.2238e-11 -3.25633e-20
-3.1825e-10 -5.92798e-10 -5.1757e-20
9.87534e-11 -8.86998e-11 -1.47861e-19
-6.16949e-11 6.18261e-10 -8.37146e-20
1.42579e-10 -3.83764e-11 -5.66801e-19
3.3858e-10 6.04221e-10 -7.1651e-20
3.31866e-10 -7.11505e-12 -3.73686e-19
6.35088e-10 -1.8768e-09 -8.24972e-20
-1.29451e-10 -2.39054e-10 -2.95107e-20
-5.4725e-10 2.38418e-10 -1.3403e-19
-7.19832e-11 3.20546e-11 -3.54598e-20
5.19827e-10 3.48097e-10 -8.97532e-20
3.64254e-10 -2.01189e-10 -1.50977e-19
1.87441e-10 7.98954e-11 -1.63882e-19
-3.71448e-11 3.39402e-11 -3.40881e-20
3.71049e-10 -5.74222e-10 -7.65666e-20
-3.94927e-10 -4.93376e-10 -5.58868e-20
5.07467e-10 1.99494e-10 -1.14106e-19
1.23246e-10 -7.40358e-11 -3.77473e-19
2.3865e-10 -5.92532e-10 -6.0105e-20
2.72583e-10 -4.95382e-11 -4.04724e-19
-2.65759e-10 -1.04678e-10 -4.58229e-20
-1.01619e-11 -1.00645e-10 -2.81837e-20
-6.23218e-10 8.5803e-11 -1.20898e-19
6.5318e-11 5.43993e-10 -6.43811e-20
4.20457e-10 9.68742e-11 -1.62945e-19
-4.81592e-10 -2.14703e-10 -6.15751e-20
-2.39422e-10 6.10891e-10 -8.71109e-20
-5.50553e-11 -5.29249e-10 -4.49543e-20
1.32014e-10 6.47235e-11 -1.05366e-19
-9.13581e-11 2.49242e-10 -4.12621e-20
-4.32897e-10 3.10899e-10 -1.08748e-19
5.60423e-10 2.83151e-10 -1.16601e-19
-2.46584e-10 -7.50845e-11 -3.78725e-20
-6.21518e-11 -2.52706e-10 -2.84026e-20
4.26901e-10 4.97833e-10 -7.98524e-20
-9.11803e-11 -4.22617e-11 -2.40894e-20
1.4634e-09 -1.0474e-09 -8.85367e-20
2.90356e-10 -2.0417e-10 -1.90685e-19
2.48189e-10 1.21826e-09 -1.14441e-19
3.08018e-10 -2.98321e-10 -1.26086e-19
-7.16795e-10 2.72611e-09 -1.9335e-19
-7.20548e-10 -2.70005e-09 -1.08169e-19
1.76907e-09 2.32258e-09 -1.20922e-19
1.74784e-09 -2.32165e-09 -8.79113e-20
2.89407e-09 -1.97808e-12 -9.45202e-20
-2.49642e-09 1.00803e-09 -2.7967e-19
-2.45512e-09 -1.01854e-09 -1.81309e-19
1.0719e-10 5.55516e-11 -1.68942e-19
6.60591e-11 3.3759e-11 -1.05449e-19
2.06006e-10 2.64485e-11 -2.9794e-19
3.67216e-10 1.96323e-10 -1.3033e-19
1.0952e-10 4.36947e-10 -5.8149e-20
-3.96259e-10 -3.41213e-10 -5.63815e-20
1.92839e-10 -1.80835e-10 -1.50054e-19
4.26079e-10 3.4319e-10 -9.69207e-20
-1.00013e-10 5.38808e-10 -6.74369e-20
6.36228e-11 -3.27999e-11 -2.39089e-19
1.00716e-10 -5.16336e-10 -4.83496e-20
1.22367e-10 8.52368e-11 -8.76742e-20
7.81748e-10 2.73253e-10 -1.04293e-19
1.24226e-11 5.09023e-11 -2.65712e-20
2.93083e-10 9.48146e-11 -1.92112e-19
-3.652e-10 2.01513e-10 -8.44884e-20
-5.0418e-10 1.73359e-10 -1.08838e-19
9.2526e-11 -6.30433e-11 -2.59908e-19
-3.16245e-10 -1.45535e-10 -4.20701e-20
-3.50114e-10 -2.07348e-10 -5.27824e-20
-3.13821e-11 -3.48455e-10 -3.61053e-20
1.09223e-12 -4.03618e-10 -3.85917e-20
-4.48777e-10 -1.92228e-11 -8.36805e-20
6.74991e-10 -1.04994e-10 -1.41609e-19
3.56188e-10 2.19718e-10 -9.16388e-20
-2.92103e-10 1.99593e-10 -7.09608e-20
-1.2725e-10 5.99686e-11 -3.85587e-20
3.33973e-10 -3.00156e-10 -1.04322e-19
-2.52558e-10 3.92561e-10 -8.45467e-20
-3.09889e-10 -3.26359e-10 -4.49207e-20
-2.98335e-11 4.24153e-10 -5.79755e-20
-6.45036e-11 3.54621e-10 -4.78809e-20
9.80806e-12 -2.54001e-10 -3.10853e-20
1.34734e-10 -4.36041e-10 -5.88361e-20
-2.14336e-10 -1.37338e-10 -3.64204e-20
3.02078e-10 -8.52696e-11 -3.52318e-19
1.57472e-13 4.23582e-10 -5.37722e-20
-1.02736e-11 2.65488e-10 -4.07284e-20
-6.90374e-11 3.0191e-10 -4.92112e-20
5.0234e-10 -1.23583e-10 -2.0223e-19
-9.8718e-11 9.87672e-11 -3.77613e-20
1.13545e-10 4.23251e-10 -5.24333e-20
-6.30123e-11 3.8967e-11 -3.45787e-20
2.62053e-10 1.21755e-09 -1.1513e-19
-1.16635e-10 6.50326e-11 -3.87113e-20
1.24161e-10 -6.53173e-11 -2.21769e-19
3.76086e-11 3.56895e-10 -4.70033e-20
-4.2224e-10 9.89548e-11 -8.03237e-20
-1.51859e-11 -1.77091e-10 -2.5634e-20
2.15312e-11 -1.75309e-09 -8.8014e-20
5.06728e-11 3.02705e-10 -4.5056e-20
-3.14587e-10 3.00488e-10 -7.94639e-20
5.10003e-10 1.90021e-09 -1.30296e-19
1.84061e-11 1.35543e-11 -1.04167e-19
1.59072e-11 -1.2803e-11 -2.42527e-19
2.34247e-10 -1.8434e-10 -1.26703e-19
-3.39384e-10 3.03759e-10 -8.97308e-20
-4.04106e-10 -1.17877e-10 -5.4861e-20
-4.1809e-10 -1.36823e-10 -6.86284e-20
-1.83006e-11 1.27178e-11 -2.43738e-19
-1.49893e-11 -1.28906e-11 -1.0203e-19
1.91782e-10 3.77703e-11 -4.05991e-19
6.20479e-11 2.78312e-10 -3.99304e-20
-7.18175e-12 2.76845e-10 -4.01373e-20
-1.46502e-09 -1.06989e-09 -1.45052e-19
2.49004e-10 -3.9281e-10 -7.61161e-20
1.21514e-10 3.9967e-11 -2.23502e-19
-4.60204e-10 -4.86298e-11 -6.87429e-20
-2.90968e-10 3.85028e-10 -7.88632e-20
-3.74894e-10 1.75822e-10 -8.58562e-20
1.44493e-09 1.03333e-09 -1.04953e-19
1.29033e-10 8.7644e-11 -7.81556e-20
-1.34893e-10 4.37637e-10 -7.18513e-20
-2.5924e-10 -2.23462e-10 -3.89263e-20
6.55659e-11 -3.38918e-10 -3.99329e-20
-2.14123e-10 -4.05135e-10 -3.82207e-20
-3.40254e-10 -2.33299e-10 -4.4204e-20
2.34106e-10 -4.15493e-10 -6.65884e-20
2.79713e-10 -3.86593e-10 -8.89527e-20
-9.30962e-11 -1.81904e-09 -8.794e-20
7.40037e-10 -1.18458e-09 -7.9569e-20
3.39858e-11 -4.15693e-10 -4.61679e-20
2.89851e-10 2.21945e-10 -1.03052e-19
-2.62265e-10 -3.20006e-10 -4.01744e-20
-2.30049e-10 4.2732e-10 -7.0764e-20
-1.41993e-10 4.16896e-10 -5.89094e-20
3.04132e-10 3.17342e-10 -7.82532e-20
1.50516e-10 -3.89733e-10 -5.16639e-20
-4.05316e-10 -1.15271e-09 -8.73113e-20
8.19457e-12 1.26999e-10 -2.93254e-20
3.10719e-10 3.20812e-10 -7.32475e-20
-1.62711e-10 -7.75053e-11 -3.35207e-20
-1.34273e-10 7.07599e-11 -4.31678e-20
1.29482e-09 -5.67452e-10 -9.73009e-20
1.53117e-10 -2.53083e-10 -6.05839e-20
-1.45168e-10 -2.48968e-10 -3.07892e-20
4.78215e-11 -4.96562e-12 -1.67075e-19
-2.45629e-12 -1.53481e-11 -2.60986e-20
-1.4228e-11 -6.34282e-12 -2.21654e-20
6.17965e-11 4.40571e-11 -8.47623e-20
-2.16547e-10 -4.07712e-10 -4.36197e-20
3.26882e-10 1.30102e-10 -1.24551e-19
-8.37927e-10 -9.21072e-10 -1.06491e-19
-2.84437e-12 2.08905e-11 -2.41761e-20
5.19274e-12 1.70233e-11 -2.63502e-20
1.76761e-11 3.47427e-12 -2.14341e-20
8.09092e-10 -1.60635e-09 -8.39633e-20
-3.00225e-11 3.42931e-11 -3.29616e-20
-4.73659e-12 4.01074e-11 -2.47111e-20
-3.29134e-10 1.15638e-10 -7.18712e-20
-1.24021e-11 1.26673e-10 -2.8317e-20
-7.35883e-11 2.13041e-10 -4.21811e-20
1.4722e-10 4.56796e-12 -3.86668e-19
3.57546e-11 1.24395e-10 -3.22171e-20
-8.41424e-12 1.72126e-10 -3.21835e-20
2.53167e-10 1.36984e-10 -1.42463e-19
2.20341e-11 1.74583e-09 -1.56487e-19
-2.36246e-10 2.25471e-10 -5.72549e-20
1.73216e-10 -1.19462e-10 -1.40302e-19
9.71064e-11 -9.40177e-11 -1.22642e-19
-1.78352e-09 -2.44802e-10 -2.01489e-19
-4.26577e-11 1.97456e-11 -3.34198e-20
-1.28967e-09 -1.52485e-09 -1.21769e-19
1.79854e-11 5.6282e-11 -2.87014e-20
2.12874e-10 3.88657e-11 -2.50018e-19
6.56057e-10 -8.44533e-11 -1.61797e-19
-1.46245e-10 -2.39998e-10 -2.73137e-20
2.78364e-10 7.78518e-11 -1.7795e-19
-1.569e-12 -6.72496e-11 -2.54287e-20
-1.54796e-10 1.82265e-10 -4.78143e-20
-5.8393e-11 -3.39197e-11 -2.48852e-20
-1.43913e-10 2.88805e-10 -4.93523e-20
2.69091e-11 1.77177e-10 -3.26073e-20
3.82979e-11 2.63309e-11 -1.10112e-19
3.75418e-11 -2.50428e-11 -2.57482e-19
-1.20284e-09 -3.26951e-10 -1.97186e-19
1.24672e-10 4.37857e-11 -2.72075e-19
-1.56031e-10 3.10404e-09 -1.62923e-19
-7.5879e-12 -3.18583e-09 -9.40784e-20
1.56585e-09 2.69216e-09 -1.36578e-19
-1.48825e-10 1.2046e-10 -4.38881e-20
-8.38924e-10 1.67662e-09 -2.41277e-19
1.57647e-09 -2.60125e-09 -8.9017e-20
-2.49574e-10 -4.0405e-10 -4.06347e-20
2.40124e-09 2.09558e-09 -1.0774e-19
2.32865e-11 -4.0819e-11 -2.4963e-20
-2.38333e-11 -4.18738e-11 -2.47621e-20
2.51372e-09 -2.04732e-09 -8.94138e-20
-1.47159e-10 2.87801e-10 -5.78065e-20
-1.57398e-09 -1.00242e-09 -1.57273e-19
-1.33528e-09 -2.77097e-09 -1.23609e-19
-7.452e-10 -1.71245e-09 -9.62262e-20
-1.37264e-09 2.81709e-09 -2.45577e-19
-3.23271e-10 1.90834e-09 -1.71654e-19
-1.80259e-12 5.64391e-11 -2.51095e-20
-8.27886e-10 1.06419e-09 -2.89995e-19
-8.02168e-10 -1.62998e-09 -1.10965e-19
3.08891e-09 5.44003e-10 -1.01644e-19
-2.25655e-10 1.93586e-10 -5.78542e-20
-3.42364e-12 1.22691e-10 -3.0521e-20
-1.49341e-09 1.08099e-09 -4.18456e-19
-2.50902e-10 1.33625e-10 -5.88602e-20
3.06288e-09 -4.85779e-10 -9.23897e-20
-1.89833e-10 1.28935e-10 -4.90644e-20
1.41384e-10 -2.93164e-10 -6.7097e-20
-2.38013e-09 -1.81294e-09 -1.492e-19
-8.03197e-10 1.72051e-09 -2.0663e-19
-2.43932e-09 1.80053e-09 -3.0386e-19
7.137e-10 1.60001e-09 -1.21239e-19
-2.47636e-10 1.9766e-10 -6.45213e-20
-6.29905e-11 3.51082e-11 -3.41153e-20
-1.53123e-12 -1.90026e-11 -2.42126e-20
1.35157e-11 -8.55454e-12 -3.28518e-20
1.99388e-11 1.94246e-10 -3.57824e-20
-3.81613e-12 1.87406e-11 -2.66438e-20
1.491e-11 1.22732e-11 -2.08039e-20
1.4215e-11 -1.19353e-11 -3.27252e-20
-2.37122e-12 2.0558e-11 -2.41698e-20
-5.46314e-10 1.19111e-09 -1.95371e-19
-3.77918e-11 2.28182e-11 -3.29415e-20
6.11726e-11 -4.21856e-11 -1.79684e-19
6.08302e-11 -3.55509e-11 -2.0464e-19
1.87469e-10 7.11132e-11 -1.95582e-19
7.07727e-13 -1.7433e-11 -2.6701e-20
-1.43277e-11 -1.00188e-11 -2.10958e-20
6.02018e-11 3.45836e-11 -9.3622e-20
1.78052e-09 -3.47924e-10 -9.37477e-20
-2.18842e-10 -2.78665e-10 -3.45255e-20
-1.55462e-09 1.0894e-09 -3.44946e-19
-1.37991e-09 1.57357e-09 -3.0684e-19
1.86049e-09 -6.73091e-10 -9.27973e-20
-1.88319e-12 -2.58639e-11 -2.76484e-20
-2.94719e-12 2.67424e-11 -2.46755e-20
-2.58506e-11 1.06892e-11 -3.27201e-20
-2.28859e-11 1.35263e-11 -3.27681e-20
-2.29012e-11 -1.17763e-11 -2.05581e-20
-4.79245e-12 1.21898e-11 -2.29351e-19
2.38852e-11 -1.1342e-11 -2.07146e-19
4.46858e-12 -8.88134e-12 -2.32627e-19
-1.88252e-11 -9.00842e-13 -2.58308e-19
1.99182e-11 -1.26013e-11 -2.92961e-19
2.00923e-11 1.30811e-11 -1.21549e-19
-1.89346e-11 -6.4524e-13 -1.08069e-19
-5.11517e-13 -1.11093e-11 -9.71807e-20
5.70477e-12 6.43879e-12 -9.98759e-20
2.54603e-11 1.5341e-11 -9.26576e-20
SCALARS rr_necrosis float
LOOKUP_TABLE default
0
0
0
0
0
0
0
0
0
0
0
0
0
0
0
0
0
0
0
0
0
0
0
0
0
0
0
0
0
0
0
0
0
0
0
0
0
0
0
0
0
0
0
0
0
0
0
0
0
0
0
0
0
0
0
0
0
0
0
0
0
0
0
0
0
0
0
0
0
0
0
0
0
0
0
0
0
0
0
0
0
0
0
0
0
0
0
0
0
0
0
0
0
0
0
0
0
0
0
0
0
0
0
0
0
0
0
0
0
0
0
0
0
0
0
0
0
0
0
0
0
0
0
0
0
0
0
0
0
0
0
0
0
0
0
0
0
0
0
0
0
0
0
0
0
0
0
0
0
0
0
0
0
0
0
0
0
0
0
0
0
0
0
0
0
0
0
0
0
0
0
0
0
0
0
0
0
0
0
0
0
0
0
0
0
0
0
0
0
0
0
0
0
0
0
0
0
0
0
0
0
0
0
0
0
0
0
0
0
0
0
0
0
0
0
0
0
0
0
0
0
0
0
0
0
0
0
0
0
0
0
0
0
0
0
0
0
0
0
0
0
0
0
0
0
0
0
0
0
0
0
0
0
0
0
0
0
0
0
0
0
0
0
0
0
0
0
0
0
0
0
0
0
0
0
0
0
0
0
0
0
0
0
0
0
0
0
0
0
0
0
0
0
0
0
0
0
0
0
0
0
0
0
0
0
0
0
0
0
0
0
0
0
0
0
0
0
0
0
0
0
0
0
0
0
0
0
0
0
0
0
0
0
0
0
0
0
0
0
0
0
0
0
0
0
0
0
0
0
0
0
0
0
0
0
0
0
0
0
0
0
0
0
0
0
0
0
0
0
0
0
0
0
0
0
0
0
0
0
0
0
0
0
0
0
0
0
0
0
0
0
0
0
0
0
0
0
0
0
0
0
0
0
0
0
0
0
0
0
0
0
0
0
0
0
0
0
0
0
0
0
0
0
0
0
0
0
0
0
0
0
0
0
0
0
0
0
0
0
0
0
0
0
0
0
0
0
0
0
0
0
0
0
0
0
0
0
0
0
0
0
0
0
0
0
0
0
0
0
0
0
0
0
0
0
0
0
0
0
0
0
0
0
0
0
0
0
0
0
0
0
0
0
0
0
0
0
0
0
0
0
0
0
0
0
0
0
0
0
0
0
0
0
0
0
0
0
0
0
0
0
0
0
0
0
0
0
0
0
0
0
0
0
0
0
0
0
0
0
0
0
0
0
0
0
0
0
0
0
0
0
0
0
0
0
0
0
0
0
0
0
0
0
SCALARS rr_protein float
LOOKUP_TABLE default
1
1
1
1
1
1
1
1
1
1
1
1
1
1
1
1
1
1
1
1
1
1
1
1
1
1
1
1
1
1
1
1
1
1
1
1
1
1
1
1
1
1
1
1
1
1
1
1
1
1
1
1
1
1
1
1
1
1
1
1
1
1
1
1
1
1
1
1
1
1
1
1
1
1
1
1
1
1
1
1
1
1
1
1
1
1
1
1
1
1
1
1
1
1
1
1
1
1
1
1
1
1
1
1
1
1
1
1
1
1
1
1
1
1
1
1
1
1
1
1
1
1
1
1
1
1
1
1
1
1
1
1
1
1
1
1
1
1
1
1
1
1
1
1
1
1
1
1
1
1
1
1
1
1
1
1
1
1
1
1
1
1
1
1
1
1
1
1
1
1
1
1
1
1
1
1
1
1
1
1
1
1
1
1
1
1
1
1
1
1
1
1
1
1
1
1
1
1
1
1
1
1
1
1
1
1
1
1
1
1
1
1
1
1
1
1
1
1
1
1
1
1
1
1
1
1
1
1
1
1
1
1
1
1
1
1
1
1
1
1
1
1
1
1
1
1
1
1
1
1
1
1
1
1
1
1
1
1
1
1
1
1
1
1
1
1
1
1
1
1
1
1
1
1
1
1
1
1
1
1
1
1
1
1
1
1
1
1
1
1
1
1
1
1
1
1
1
1
1
1
1
1
1
1
1
1
1
1
1
1
1
1
1
1
1
1
1
1
1
1
1
1
1
1
1
1
1
1
1
1
1
1
1
1
1
1
1
1
1
1
1
1
1
1
1
1
1
1
1
1
1
1
1
1
1
1
1
1
1
1
1
1
1
1
1
1
1
1
1
1
1
1
1
1
1
1
1
1
1
1
1
1
1
1
1
1
1
1
1
1
1
1
1
1
1
1
1
1
1
1
1
1
1
1
1
1
1
1
1
1
1
1
1
1
1
1
1
1
1
1
1
1
1
1
1
1
1
1
1
1
1
1
1
1
1
1
1
1
1
1
1
1
1
1
1
1
1
1
1
1
1
1
1
1
1
1
1
1
1
1
1
1
1
1
1
1
1
1
1
1
1
1
1
1
1
1
1
1
1
1
1
1
1
1
1
1
1
1
1
1
1
1
1
1
1
1
1
1
1
1
1
1
1
1
1
1
1
1
1
1
1
1
1
1
1
1
1
1
1
1
1
1
1
1
1
1
1
1
1
1
1
1
1
1
1
1
1
1
1
1
1
1
1
1
1
1
1
1
1
1
1
1
1
1
1
1
1
1
1
1
1
1
1
SCALARS rr_(S_ext) float
LOOKUP_TABLE default
0.0372568
0.0377212
0.0376797
0.0377124
0.0378504
0.037679
0.0372552
0.0377079
0.0376401
0.0377199
0.0372825
0.0377081
0.0376981
0.0377269
0.0378026
0.0376864
0.0377446
0.037702
0.0376187
0.0376676
0.0376618
0.0380277
0.0376619
0.0376686
0.0376669
0.0377101
0.037349
0.0376857
0.0374906
0.037923
0.0376963
0.0374917
0.0373427
0.0378924
0.0379071
0.0378918
0.0379284
0.0379005
0.0376958
0.0373441
0.0374897
0.0379304
0.0379299
0.0376964
0.0373859
0.0374974
0.0376287
0.0376478
0.0376811
0.0374616
0.0374787
0.0375386
0.037843
0.0375399
0.0378389
0.0374013
0.0379084
0.03754
0.0379078
0.0376701
0.0377425
0.0377843
0.0373799
0.0377821
0.0377851
0.0377454
0.0377442
0.0377104
0.0376646
0.037723
0.037842
0.0378416
0.0374894
0.037761
0.037681
0.0373224
0.0378124
0.0377449
0.0377102
0.0375489
0.0374531
0.037866
0.0377639
0.0374395
0.037505
0.0373917
0.0376854
0.0377536
0.0373865
0.0380033
0.0375391
0.0380027
0.0378152
0.0377402
0.0375434
0.037474
0.0374539
0.0377188
0.0378116
0.0376936
0.0375921
0.0375159
0.0374386
0.0377059
0.0377155
0.0377155
0.0377706
0.0376899
0.0374378
0.0377284
0.0376706
0.0374011
0.0374223
0.0377035
0.0377132
0.0375414
0.0379081
0.037452
0.0379068
0.0375431
0.0376084
0.0377966
0.037721
0.0377535
0.0377322
0.0378072
0.0378903
0.0377187
0.0374539
0.0375435
0.0378424
0.0377178
0.0377612
0.0377195
0.0375166
0.0379089
0.0374284
0.0377016
0.0377642
0.0379083
0.0375218
0.0377227
0.037616
0.0377207
0.0374501
0.0377114
0.0377159
0.0376816
0.0376789
0.0375779
0.0376471
0.0377211
0.0374907
0.0376985
0.0377203
0.0377183
0.0377342
0.0375264
0.0375279
0.0376971
0.0376486
0.0374941
0.0373977
0.0374784
0.037526
0.0377159
0.0375261
0.0375254
0.0374909
0.0375269
0.0378166
0.0375399
0.0374777
0.0377385
0.0375409
0.0377688
0.0378161
0.0377086
0.0378447
0.0377175
0.0374914
0.037718
0.0377178
0.0375226
0.0377542
0.0374746
0.0377532
0.0377714
0.0378186
0.0377189
0.0377549
0.0374587
0.0375408
0.0374914
0.037719
0.0376998
0.0377025
0.0377607
0.0377204
0.0377435
0.0377215
0.0376245
0.0375521
0.0377602
0.0374921
0.0377634
0.0377451
0.0375134
0.0377917
0.0377223
0.0377962
0.0377304
0.0377138
0.0377644
0.0375795
0.0377346
0.0375569
0.037771
0.0377312
0.0377309
0.0377252
0.0377274
0.0377277
0.0377272
0.0377242
0.0377988
0.0377975
0.037799
0.0377995
0.0378402
0.0378404
0.037576
0.0377252
0.0377076
0.0376455
0.0378028
0.0378046
0.0377092
0.0375534
0.0377056
0.037719
0.0375814
0.0377925
0.0375792
0.0377658
0.0377038
0.0375824
0.037559
0.037452
0.0374545
0.0377641
0.0374433
0.0376924
0.0375565
0.0376218
0.037705
0.03773
0.0379334
0.0377285
0.0374404
0.0375569
0.0377073
0.0377085
0.0375511
0.0377296
0.0376183
0.0379328
0.0375576
0.0377323
0.0377508
0.0377023
0.0378015
0.0377524
0.0378429
0.0376971
0.0374086
0.0373913
0.0378293
0.0376623
0.0377084
0.0375797
0.0377933
0.0377381
0.0375572
0.0377408
0.0375937
0.0377179
0.037594
0.0375545
0.0379729
0.0378212
0.037804
0.037803
0.0377237
0.0375974
0.0378867
0.0377486
0.0376504
0.0375991
0.0375842
0.0378286
0.0375809
0.0378157
0.0375892
0.0373871
0.0375966
0.0374478
0.0377726
0.0375813
0.0379724
0.0375893
0.0377611
0.0375758
0.0377559
0.0375882
0.0376851
0.0373728
0.0376752
0.03758
0.0378266
0.0375777
0.0376509
0.0377565
0.0377227
0.0375887
0.0375969
0.037617
0.0377719
0.0375962
0.0377082
0.0376858
0.0378419
0.0375969
0.0376145
0.0376577
0.0376196
0.0375919
0.0376207
0.0377874
0.0377069
0.0376165
0.0375793
0.037721
0.0377219
0.0375945
0.0378413
0.0372664
0.0376847
0.0374524
0.0376598
0.0370173
0.0370178
0.0370206
0.0370194
0.0370207
0.0370167
0.0370187
0.0377743
0.0378733
0.0376989
0.0376486
0.0376214
0.0376193
0.0377179
0.0376165
0.0376139
0.0378744
0.0376193
0.0377949
0.0375392
0.0377909
0.0376783
0.0376476
0.0376175
0.0378303
0.0376845
0.037651
0.037685
0.0376515
0.0376149
0.0375472
0.0376477
0.0376801
0.0377961
0.037626
0.0376106
0.0376238
0.0376445
0.0376788
0.0377185
0.0376234
0.0377176
0.0376743
0.0376459
0.0377095
0.0376752
0.0376179
0.0377551
0.0376553
0.0378684
0.0373875
0.0377738
0.0377874
0.0376793
0.0376565
0.0377438
0.0372723
0.0376787
0.0376545
0.0373753
0.03797
0.0379716
0.0376841
0.0376209
0.0376602
0.0376261
0.0380492
0.0380489
0.0377085
0.0377101
0.0377081
0.0372716
0.0376135
0.0377624
0.0376456
0.0376415
0.0376453
0.0372634
0.0377537
0.0376184
0.0376827
0.0376829
0.0376409
0.0376502
0.0376409
0.037645
0.037347
0.0374488
0.0376499
0.0376839
0.0376556
0.037639
0.0376525
0.0376586
0.0376557
0.0373878
0.0378038
0.0376233
0.0377425
0.0377559
0.0373851
0.0376801
0.0376758
0.0378422
0.0379662
0.0379658
0.0378215
0.0376124
0.0376819
0.0373801
0.037956
0.0380364
0.0380361
0.0372582
0.0379004
0.0379232
0.0376769
0.0378131
0.037698
0.0377229
0.0377567
0.0377699
0.0377088
0.0372709
0.0376878
0.0377388
0.0377614
0.0373196
0.0379067
0.0373677
0.0377592
0.0377251
0.0375863
0.0376953
0.0377065
0.0378464
0.0377124
0.0378459
0.0376827
0.0377625
0.0379154
0.0379187
0.0373818
0.0377298
0.0372482
0.0372574
0.0372375
0.0377531
0.0372663
0.0372277
0.0376394
0.0372426
0.0378678
0.0378673
0.0372503
0.0376576
0.0373487
0.037246
0.0373395
0.0372442
0.0373395
0.0379036
0.0373647
0.0372681
0.037249
0.0377045
0.0377803
0.0373322
0.0377058
0.0372306
0.037721
0.0376608
0.0372408
0.0373251
0.0372337
0.0372581
0.0376745
0.0378763
0.0380271
0.0380206
0.0377293
0.0380259
0.0380256
0.038023
0.0379834
0.0373736
0.0379116
0.037825
0.0378774
0.0377235
0.0379941
0.0379938
0.0378864
0.0372531
0.0376562
0.0372601
0.0373606
0.0373631
0.0379496
0.0379482
0.0379448
0.037946
0.0379492
0.0380186
0.0379463
0.0379946
0.0380291
0.0379513
0.0379518
0.0380311
0.0380199
0.0379961
0.0379426
SCALARS rr_(P_ext) float
LOOKUP_TABLE default
6.49585e-05
6.38122e-05
6.3907e-05
6.3827e-05
6.35996e-05
6.39097e-05
6.4962e-05
6.38472e-05
6.39984e-05
6.3817e-05
6.48802e-05
6.38476e-05
6.38675e-05
6.38085e-05
6.3677e-05
6.38872e-05
6.37762e-05
6.3857e-05
6.40495e-05
6.39339e-05
6.395e-05
6.33274e-05
6.39493e-05
6.39336e-05
6.39357e-05
6.38417e-05
6.47196e-05
6.39013e-05
6.43619e-05
6.34888e-05
6.38695e-05
6.43598e-05
6.47359e-05
6.35406e-05
6.35079e-05
6.35413e-05
6.34808e-05
6.3517e-05
6.38729e-05
6.47326e-05
6.43657e-05
6.34777e-05
6.34784e-05
6.38684e-05
6.46243e-05
6.43448e-05
6.40258e-05
6.39789e-05
6.39085e-05
6.4434e-05
6.43932e-05
6.42449e-05
6.36129e-05
6.42401e-05
6.36192e-05
6.45879e-05
6.35062e-05
6.42406e-05
6.35068e-05
6.39295e-05
6.37798e-05
6.37021e-05
6.46467e-05
6.37078e-05
6.3701e-05
6.37817e-05
6.3777e-05
6.38408e-05
6.39413e-05
6.38111e-05
6.36145e-05
6.36148e-05
6.43652e-05
6.37538e-05
6.39e-05
6.47837e-05
6.36609e-05
6.37823e-05
6.38427e-05
6.42192e-05
6.4458e-05
6.357e-05
6.37423e-05
6.44898e-05
6.43281e-05
6.46103e-05
6.39002e-05
6.37686e-05
6.4623e-05
6.33737e-05
6.42422e-05
6.33754e-05
6.3658e-05
6.37957e-05
6.4231e-05
6.44038e-05
6.44557e-05
6.38168e-05
6.3662e-05
6.38758e-05
6.41138e-05
6.42993e-05
6.44937e-05
6.38443e-05
6.38335e-05
6.38221e-05
6.37369e-05
6.38847e-05
6.44949e-05
6.37995e-05
6.39289e-05
6.45861e-05
6.45343e-05
6.38523e-05
6.38269e-05
6.42362e-05
6.35071e-05
6.44595e-05
6.35096e-05
6.42325e-05
6.40747e-05
6.36852e-05
6.38137e-05
6.37588e-05
6.37938e-05
6.36738e-05
6.35364e-05
6.38174e-05
6.44551e-05
6.42325e-05
6.36186e-05
6.38192e-05
6.37456e-05
6.38156e-05
6.42975e-05
6.35082e-05
6.45197e-05
6.3864e-05
6.37415e-05
6.35089e-05
6.4285e-05
6.38234e-05
6.40587e-05
6.38216e-05
6.44649e-05
6.38347e-05
6.38434e-05
6.39112e-05
6.39065e-05
6.41488e-05
6.39867e-05
6.38138e-05
6.4363e-05
6.3864e-05
6.38219e-05
6.38183e-05
6.37939e-05
6.42726e-05
6.42695e-05
6.38647e-05
6.39774e-05
6.43545e-05
6.45942e-05
6.43929e-05
6.42751e-05
6.38212e-05
6.42736e-05
6.42751e-05
6.43618e-05
6.42725e-05
6.36564e-05
6.42405e-05
6.43938e-05
6.37838e-05
6.42375e-05
6.374e-05
6.3657e-05
6.38544e-05
6.3607e-05
6.38312e-05
6.43602e-05
6.38175e-05
6.38194e-05
6.42834e-05
6.37658e-05
6.44012e-05
6.37591e-05
6.37331e-05
6.36528e-05
6.38165e-05
6.37648e-05
6.44423e-05
6.42393e-05
6.43606e-05
6.38165e-05
6.38591e-05
6.38547e-05
6.3746e-05
6.38148e-05
6.37846e-05
6.38134e-05
6.40347e-05
6.42095e-05
6.37472e-05
6.43585e-05
6.37409e-05
6.37835e-05
6.4307e-05
6.37014e-05
6.38117e-05
6.36892e-05
6.38092e-05
6.38347e-05
6.37406e-05
6.41456e-05
6.38022e-05
6.41977e-05
6.37334e-05
6.3795e-05
6.37955e-05
6.38049e-05
6.38003e-05
6.37997e-05
6.38003e-05
6.38169e-05
6.36812e-05
6.3684e-05
6.36816e-05
6.36803e-05
6.36196e-05
6.36198e-05
6.41528e-05
6.38124e-05
6.38351e-05
6.39822e-05
6.36765e-05
6.3673e-05
6.3833e-05
6.42072e-05
6.38377e-05
6.38162e-05
6.41393e-05
6.37011e-05
6.41444e-05
6.37385e-05
6.38415e-05
6.41374e-05
6.4193e-05
6.44612e-05
6.44532e-05
6.37395e-05
6.44825e-05
6.38749e-05
6.41983e-05
6.40442e-05
6.38387e-05
6.37965e-05
6.34743e-05
6.37986e-05
6.44901e-05
6.41994e-05
6.38355e-05
6.38529e-05
6.4212e-05
6.37975e-05
6.40532e-05
6.34748e-05
6.41959e-05
6.37934e-05
6.37643e-05
6.3853e-05
6.36784e-05
6.37709e-05
6.36145e-05
6.38652e-05
6.45698e-05
6.46106e-05
6.36379e-05
6.39443e-05
6.38526e-05
6.4143e-05
6.37e-05
6.37842e-05
6.41978e-05
6.37916e-05
6.41088e-05
6.38378e-05
6.41073e-05
6.42049e-05
6.34149e-05
6.36482e-05
6.36756e-05
6.36772e-05
6.38151e-05
6.4099e-05
6.35486e-05
6.37667e-05
6.39766e-05
6.40955e-05
6.413e-05
6.36375e-05
6.41399e-05
6.36583e-05
6.41175e-05
6.46207e-05
6.41025e-05
6.44716e-05
6.37341e-05
6.41397e-05
6.3416e-05
6.41177e-05
6.37537e-05
6.41525e-05
6.37566e-05
6.41214e-05
6.38933e-05
6.46658e-05
6.39159e-05
6.41421e-05
6.36427e-05
6.41495e-05
6.39796e-05
6.37583e-05
6.38102e-05
6.41202e-05
6.41e-05
6.40564e-05
6.37338e-05
6.41024e-05
6.38493e-05
6.38991e-05
6.36146e-05
6.40997e-05
6.40607e-05
6.39608e-05
6.40482e-05
6.41121e-05
6.4046e-05
6.37105e-05
6.38524e-05
6.40556e-05
6.41458e-05
6.38265e-05
6.38248e-05
6.41074e-05
6.36153e-05
6.49214e-05
6.39052e-05
6.44589e-05
6.39569e-05
6.5519e-05
6.55173e-05
6.55117e-05
6.55143e-05
6.55108e-05
6.55199e-05
6.5515e-05
6.37298e-05
6.3571e-05
6.38665e-05
6.39844e-05
6.40442e-05
6.40487e-05
6.38353e-05
6.40574e-05
6.4062e-05
6.35687e-05
6.40495e-05
6.36917e-05
6.42435e-05
6.36931e-05
6.3916e-05
6.39848e-05
6.4053e-05
6.36356e-05
6.39035e-05
6.39773e-05
6.39029e-05
6.39767e-05
6.40567e-05
6.42233e-05
6.39868e-05
6.3913e-05
6.36878e-05
6.40345e-05
6.40672e-05
6.40363e-05
6.39913e-05
6.39158e-05
6.38358e-05
6.40381e-05
6.3837e-05
6.39225e-05
6.39892e-05
6.38513e-05
6.39192e-05
6.40515e-05
6.37565e-05
6.39652e-05
6.35753e-05
6.46197e-05
6.37285e-05
6.37108e-05
6.39155e-05
6.39597e-05
6.3782e-05
6.49064e-05
6.39149e-05
6.39666e-05
6.46592e-05
6.34206e-05
6.34187e-05
6.39053e-05
6.40446e-05
6.39534e-05
6.40323e-05
6.32972e-05
6.32965e-05
6.38405e-05
6.38479e-05
6.3856e-05
6.49088e-05
6.40617e-05
6.37431e-05
6.39831e-05
6.39925e-05
6.39889e-05
6.49281e-05
6.37685e-05
6.40497e-05
6.39067e-05
6.39067e-05
6.39948e-05
6.39774e-05
6.3995e-05
6.39865e-05
6.47241e-05
6.44691e-05
6.39787e-05
6.39065e-05
6.39625e-05
6.39983e-05
6.39698e-05
6.39581e-05
6.39631e-05
6.4619e-05
6.36804e-05
6.40402e-05
6.37841e-05
6.37619e-05
6.46269e-05
6.39042e-05
6.39139e-05
6.36139e-05
6.34279e-05
6.34282e-05
6.36527e-05
6.40629e-05
6.39119e-05
6.46373e-05
6.34441e-05
6.33129e-05
6.33131e-05
6.49405e-05
6.3518e-05
6.34912e-05
6.39202e-05
6.36614e-05
6.38639e-05
6.3811e-05
6.37551e-05
6.37382e-05
6.38543e-05
6.49092e-05
6.38887e-05
6.37911e-05
6.37444e-05
6.47906e-05
6.35168e-05
6.46791e-05
6.37475e-05
6.38122e-05
6.4128e-05
6.38673e-05
6.38554e-05
6.36123e-05
6.38394e-05
6.36128e-05
6.38979e-05
6.37479e-05
6.35062e-05
6.34998e-05
6.4634e-05
6.3804e-05
6.49834e-05
6.49626e-05
6.50086e-05
6.37661e-05
6.49227e-05
6.50314e-05
6.39974e-05
6.49972e-05
6.35682e-05
6.35686e-05
6.49797e-05
6.39567e-05
6.47202e-05
6.49894e-05
6.47424e-05
6.49941e-05
6.47429e-05
6.35154e-05
6.46762e-05
6.49178e-05
6.49818e-05
6.38595e-05
6.37166e-05
6.47602e-05
6.386e-05
6.50247e-05
6.38264e-05
6.39501e-05
6.50011e-05
6.47781e-05
6.5018e-05
6.49404e-05
6.39236e-05
6.35583e-05
6.33294e-05
6.33402e-05
6.38113e-05
6.3332e-05
6.33321e-05
6.33362e-05
6.34017e-05
6.46548e-05
6.35103e-05
6.36461e-05
6.35601e-05
6.38233e-05
6.33855e-05
6.33857e-05
6.35427e-05
6.49528e-05
6.39589e-05
6.49381e-05
6.4698e-05
6.46902e-05
6.34514e-05
6.34535e-05
6.34584e-05
6.34567e-05
6.34518e-05
6.33433e-05
6.3456e-05
6.33858e-05
6.33278e-05
6.34506e-05
6.34496e-05
6.3324e-05
6.33394e-05
6.3381e-05
6.34669e-05
SCALARS rr_(S) float
LOOKUP_TABLE default
0.0221496
0.0222953
0.0222807
0.0222909
0.022359
0.0222806
0.022149
0.0222916
0.0222668
0.022295
0.0221551
0.0222918
0.0222876
0.0222993
0.0223349
0.022282
0.0223072
0.0222887
0.0222598
0.0222762
0.0222747
0.0224521
0.0222747
0.022277
0.0222761
0.0222923
0.0221762
0.0222845
0.0222189
0.0223967
0.0222866
0.0222193
0.0221744
0.0223819
0.0223876
0.0223816
0.0223997
0.022384
0.0222868
0.0221748
0.0222188
0.0224009
0.0224006
0.0222864
0.022187
0.0222209
0.0222632
0.0222692
0.0222822
0.0222099
0.0222155
0.0222341
0.0223555
0.0222342
0.0223534
0.0221919
0.0223883
0.0222343
0.022388
0.0222774
0.0223063
0.0223249
0.0221864
0.0223243
0.0223253
0.0223091
0.0223071
0.0222924
0.0222753
0.0222964
0.022355
0.0223548
0.0222185
0.0223164
0.0222803
0.0221676
0.0223399
0.0223089
0.0222926
0.0222374
0.0222077
0.022366
0.0223163
0.0222031
0.0222235
0.0221887
0.0222841
0.0223132
0.0221872
0.0224406
0.022234
0.0224404
0.0223417
0.0223078
0.0222352
0.0222139
0.0222079
0.0222942
0.0223395
0.0222857
0.0222511
0.0222266
0.0222033
0.0222893
0.022295
0.0222925
0.0223208
0.0222844
0.0222028
0.0222984
0.0222777
0.0221916
0.0221982
0.0222889
0.0222916
0.0222346
0.0223881
0.0222071
0.0223875
0.0222352
0.0222565
0.0223315
0.0222954
0.022311
0.0223003
0.0223382
0.0223791
0.0222942
0.0222077
0.0222356
0.0223562
0.0222939
0.0223146
0.0222946
0.0222268
0.0223891
0.0222001
0.0222899
0.0223162
0.0223887
0.0222285
0.0222989
0.0222594
0.0222969
0.0222066
0.0222919
0.0222975
0.0222831
0.0222798
0.0222467
0.0222702
0.0222954
0.0222191
0.0222873
0.0222966
0.0222941
0.0223023
0.0222297
0.0222303
0.0222863
0.0222695
0.0222202
0.0221904
0.0222152
0.0222299
0.0222927
0.0222297
0.0222294
0.0222191
0.0222301
0.0223424
0.0222342
0.0222149
0.0223038
0.0222345
0.02232
0.0223422
0.0222936
0.0223558
0.0222962
0.0222191
0.0222937
0.0222938
0.0222288
0.0223132
0.0222138
0.0223108
0.0223207
0.0223433
0.0222942
0.0223136
0.0222091
0.0222348
0.0222192
0.0222943
0.0222874
0.0222886
0.0223143
0.022295
0.0223082
0.0222957
0.0222616
0.022238
0.0223142
0.0222193
0.0223156
0.0223092
0.0222261
0.0223312
0.0222959
0.0223321
0.0223025
0.0222939
0.0223162
0.0222473
0.0223045
0.0222395
0.0223205
0.0222997
0.0222996
0.0222968
0.0222977
0.0222979
0.0222976
0.0222987
0.0223326
0.022332
0.0223328
0.022333
0.0223545
0.0223547
0.022246
0.0222987
0.0222884
0.0222679
0.0223348
0.0223356
0.0222893
0.0222386
0.0222874
0.0222942
0.0222476
0.0223317
0.0222469
0.022317
0.0222866
0.022248
0.0222403
0.0222074
0.022208
0.0223158
0.0222046
0.0222845
0.0222393
0.0222612
0.0222871
0.0222991
0.0224026
0.0222983
0.0222038
0.0222398
0.0222883
0.0222933
0.0222377
0.0222989
0.0222601
0.0224023
0.0222398
0.0223003
0.0223099
0.0222881
0.0223341
0.0223127
0.0223559
0.0222863
0.0221943
0.0221886
0.0223492
0.022274
0.0222932
0.0222468
0.0223321
0.0223036
0.0222398
0.0223074
0.0222513
0.022298
0.0222513
0.022239
0.0224237
0.0223446
0.0223357
0.0223353
0.022298
0.0222524
0.0223788
0.0223086
0.0222708
0.022253
0.0222479
0.0223486
0.0222473
0.022342
0.0222494
0.0221872
0.0222525
0.0222061
0.0223219
0.0222476
0.0224235
0.0222496
0.0223163
0.0222457
0.0223125
0.0222494
0.0222821
0.0221844
0.0222788
0.022247
0.022348
0.0222467
0.0222719
0.0223135
0.0222961
0.0222496
0.0222522
0.0222598
0.0223212
0.0222521
0.0222922
0.0222842
0.0223551
0.0222521
0.0222586
0.0222736
0.0222602
0.0222506
0.0222607
0.0223293
0.0222919
0.0222592
0.0222472
0.0222982
0.0222985
0.0222517
0.0223547
0.0221504
0.0222844
0.0222073
0.0222745
0.0220708
0.0220709
0.0220721
0.0220717
0.022072
0.0220705
0.0220711
0.0223224
0.0223721
0.0222881
0.022271
0.0222609
0.0222601
0.0222974
0.0222596
0.0222584
0.0223725
0.0222602
0.0223316
0.0222343
0.0223284
0.0222813
0.0222703
0.0222595
0.0223496
0.0222839
0.0222715
0.0222842
0.0222718
0.0222581
0.0222368
0.0222707
0.0222823
0.0223319
0.0222627
0.0222568
0.0222613
0.022269
0.0222817
0.0222981
0.0222613
0.0222977
0.0222793
0.0222698
0.0222939
0.0222795
0.0222595
0.0223119
0.0222725
0.0223691
0.0221874
0.0223218
0.0223293
0.0222821
0.0222724
0.0223079
0.0221521
0.0222815
0.0222722
0.0221851
0.0224224
0.0224233
0.022284
0.0222606
0.0222742
0.0222623
0.0224638
0.0224635
0.0222905
0.0222936
0.0222937
0.022152
0.022258
0.0223151
0.0222682
0.0222668
0.0222692
0.0221493
0.0223133
0.0222596
0.0222831
0.0222833
0.0222668
0.0222709
0.0222668
0.0222684
0.0221754
0.0222064
0.0222709
0.022284
0.0222722
0.0222659
0.0222712
0.0222738
0.0222724
0.0221875
0.0223368
0.0222617
0.0223073
0.0223138
0.0221868
0.0222803
0.0222789
0.022355
0.0224208
0.0224205
0.0223457
0.0222574
0.0222835
0.0221849
0.0224155
0.0224565
0.0224563
0.0221476
0.022384
0.0223976
0.0222811
0.0223406
0.0222869
0.0222963
0.022313
0.0223206
0.0222938
0.0221516
0.0222836
0.0223055
0.0223146
0.0221668
0.022389
0.0221829
0.0223134
0.0222985
0.0222492
0.0222853
0.0222921
0.0223583
0.0222937
0.022358
0.0222812
0.0223164
0.022394
0.0223954
0.0221856
0.0223007
0.0221477
0.0221508
0.0221441
0.0223123
0.0221505
0.0221409
0.0222661
0.022146
0.0223671
0.0223668
0.0221486
0.0222727
0.022176
0.0221471
0.0221731
0.0221465
0.0221732
0.0223862
0.0221803
0.0221509
0.022148
0.0222914
0.0223247
0.0221707
0.0222926
0.0221419
0.0222982
0.022274
0.0221452
0.0221687
0.0221429
0.0221476
0.0222798
0.0223722
0.022452
0.0224486
0.022302
0.0224515
0.0224512
0.0224499
0.0224298
0.0221831
0.0223919
0.0223473
0.0223733
0.0222996
0.0224356
0.0224353
0.0223773
0.022146
0.022272
0.0221485
0.022181
0.0221815
0.0224116
0.0224109
0.022409
0.0224096
0.0224113
0.0224474
0.0224096
0.0224358
0.022453
0.0224126
0.0224129
0.022454
0.0224477
0.0224362
0.0224088
SCALARS rr_(P) float
LOOKUP_TABLE default
0.000117156
0.000117403
0.000117364
0.00011738
0.000117742
0.000117365
0.000117154
0.000117403
0.000117326
0.000117404
0.000117139
0.000117404
0.000117387
0.000117433
0.000117608
0.000117359
0.000117469
0.000117386
0.000117312
0.000117351
0.000117351
0.000118269
0.000117349
0.000117355
0.000117351
0.000117404
0.000117179
0.000117389
0.000117235
0.00011795
0.000117381
0.000117236
0.000117177
0.000117876
0.000117897
0.000117874
0.00011797
0.000117875
0.000117385
0.000117177
0.000117237
0.000117977
0.000117975
0.000117379
0.00011719
0.000117237
0.00011732
0.00011733
0.000117378
0.000117221
0.000117232
0.000117263
0.000117724
0.00011726
0.000117712
0.000117199
0.000117901
0.000117261
0.000117899
0.000117356
0.000117464
0.000117551
0.000117201
0.000117551
0.000117553
0.00011749
0.000117468
0.000117404
0.000117349
0.00011741
0.000117721
0.000117719
0.000117235
0.000117525
0.000117355
0.000117162
0.000117638
0.000117488
0.000117407
0.000117268
0.000117221
0.000117775
0.000117513
0.000117211
0.000117244
0.000117192
0.000117385
0.000117511
0.00011719
0.00011821
0.00011726
0.000118209
0.000117649
0.000117489
0.000117261
0.000117228
0.000117221
0.000117397
0.000117636
0.000117378
0.000117293
0.000117246
0.000117215
0.000117381
0.000117418
0.000117389
0.000117546
0.000117375
0.000117212
0.000117416
0.000117358
0.000117195
0.000117207
0.000117385
0.000117386
0.00011726
0.000117899
0.000117218
0.000117895
0.000117262
0.000117305
0.000117588
0.000117404
0.000117485
0.000117425
0.000117634
0.00011785
0.000117398
0.00011722
0.000117264
0.000117733
0.000117397
0.000117503
0.0001174
0.000117247
0.000117908
0.00011721
0.000117403
0.000117511
0.000117906
0.00011725
0.000117441
0.000117315
0.000117424
0.000117218
0.000117394
0.000117446
0.000117386
0.000117356
0.000117286
0.000117343
0.000117404
0.000117237
0.000117382
0.000117422
0.000117398
0.000117445
0.00011725
0.000117252
0.000117374
0.000117331
0.000117239
0.000117193
0.00011723
0.000117253
0.00011739
0.000117251
0.00011725
0.000117236
0.000117253
0.000117654
0.00011726
0.000117228
0.000117449
0.00011726
0.000117542
0.000117652
0.000117424
0.000117722
0.000117426
0.000117235
0.000117395
0.000117397
0.000117251
0.00011751
0.000117226
0.000117484
0.000117543
0.000117657
0.000117398
0.000117512
0.00011722
0.000117263
0.000117236
0.000117398
0.000117379
0.000117385
0.000117501
0.000117402
0.000117485
0.000117406
0.000117314
0.000117266
0.000117501
0.000117236
0.000117507
0.000117491
0.000117248
0.000117601
0.000117406
0.000117597
0.000117459
0.000117411
0.000117511
0.000117289
0.000117469
0.000117269
0.000117542
0.000117421
0.000117421
0.000117407
0.000117411
0.000117411
0.00011741
0.000117434
0.000117594
0.000117591
0.000117595
0.000117596
0.000117719
0.000117721
0.000117284
0.00011743
0.000117364
0.000117323
0.000117606
0.00011761
0.000117368
0.000117269
0.000117358
0.000117397
0.000117286
0.000117605
0.000117285
0.000117515
0.000117355
0.000117288
0.000117271
0.000117222
0.000117221
0.000117508
0.000117217
0.000117368
0.000117267
0.000117318
0.000117357
0.000117418
0.000117988
0.000117414
0.000117216
0.000117272
0.000117363
0.000117421
0.000117265
0.000117418
0.000117317
0.000117986
0.000117269
0.000117424
0.00011748
0.00011738
0.000117602
0.000117508
0.000117728
0.000117375
0.000117203
0.000117191
0.000117693
0.000117341
0.00011742
0.000117282
0.000117607
0.000117447
0.00011727
0.000117484
0.000117292
0.000117445
0.00011729
0.00011727
0.000118109
0.000117664
0.000117614
0.000117612
0.000117428
0.000117292
0.000117857
0.000117473
0.00011734
0.000117295
0.000117281
0.000117689
0.000117285
0.000117651
0.000117283
0.000117188
0.000117295
0.00011722
0.000117553
0.000117286
0.000118108
0.000117285
0.000117523
0.000117282
0.000117494
0.000117286
0.000117364
0.000117201
0.000117356
0.000117284
0.000117688
0.000117287
0.000117351
0.000117505
0.000117408
0.000117286
0.000117291
0.000117317
0.000117546
0.000117293
0.000117409
0.000117386
0.000117722
0.00011729
0.000117311
0.00011735
0.000117314
0.000117288
0.000117316
0.000117592
0.000117409
0.000117312
0.000117288
0.000117439
0.00011744
0.000117293
0.00011772
0.000117135
0.000117392
0.000117219
0.000117354
0.000116981
0.000116981
0.000116985
0.000116984
0.000116984
0.000116979
0.00011698
0.000117552
0.000117821
0.000117389
0.000117348
0.000117317
0.000117314
0.000117439
0.000117316
0.000117311
0.000117822
0.000117315
0.000117596
0.000117263
0.000117569
0.000117376
0.000117344
0.000117312
0.000117694
0.000117387
0.000117348
0.000117389
0.000117349
0.000117305
0.000117267
0.000117348
0.000117382
0.000117595
0.000117323
0.000117302
0.000117314
0.000117339
0.00011738
0.000117445
0.000117315
0.000117443
0.000117365
0.000117343
0.000117424
0.000117365
0.000117311
0.000117491
0.000117346
0.000117802
0.000117189
0.000117548
0.000117592
0.000117382
0.00011734
0.00011748
0.000117136
0.000117377
0.000117344
0.000117202
0.000118103
0.000118109
0.000117388
0.000117314
0.00011735
0.000117319
0.000118337
0.000118335
0.000117387
0.000117419
0.000117427
0.000117137
0.000117307
0.000117504
0.000117326
0.000117322
0.000117339
0.000117132
0.000117511
0.00011731
0.000117383
0.000117384
0.000117324
0.000117343
0.000117323
0.000117329
0.000117176
0.00011722
0.000117344
0.000117389
0.000117341
0.000117319
0.000117339
0.000117349
0.000117343
0.000117189
0.000117629
0.000117319
0.000117477
0.000117511
0.00011719
0.000117359
0.000117355
0.00011772
0.000118097
0.000118095
0.000117675
0.000117304
0.00011739
0.000117183
0.000118067
0.000118293
0.000118292
0.000117128
0.000117876
0.000117961
0.000117378
0.000117644
0.000117378
0.000117409
0.000117498
0.000117546
0.000117426
0.000117134
0.000117372
0.000117468
0.000117501
0.00011716
0.000117914
0.0001172
0.000117496
0.000117429
0.00011729
0.000117369
0.000117413
0.000117745
0.000117414
0.000117743
0.000117361
0.00011752
0.000117943
0.000117949
0.000117186
0.000117438
0.000117161
0.000117169
0.000117153
0.000117503
0.000117136
0.000117145
0.00011732
0.000117158
0.000117781
0.00011778
0.000117165
0.00011734
0.000117177
0.000117161
0.000117172
0.00011716
0.000117173
0.000117891
0.000117177
0.000117136
0.000117162
0.000117411
0.000117561
0.000117167
0.000117421
0.000117148
0.000117439
0.000117345
0.000117155
0.000117166
0.00011715
0.000117127
0.000117371
0.000117813
0.000118269
0.000118251
0.000117456
0.000118267
0.000118265
0.000118257
0.000118147
0.000117183
0.000117932
0.000117683
0.000117822
0.000117446
0.000118181
0.00011818
0.000117841
0.000117125
0.000117337
0.000117133
0.000117199
0.000117197
0.000118041
0.000118037
0.000118026
0.000118029
0.00011804
0.000118241
0.000118027
0.000118181
0.000118274
0.000118047
0.000118049
0.000118279
0.000118242
0.000118182
0.00011803
SCALARS rr_(T) float
LOOKUP_TABLE default
0.000146569
0.000147238
0.000147151
0.000147193
0.000147896
0.000147151
0.000146565
0.000147233
0.000147064
0.000147239
0.000146555
0.000147235
0.000147198
0.000147294
0.000147636
0.000147144
0.000147366
0.000147199
0.000147028
0.000147121
0.000147119
0.000148912
0.000147115
0.000147129
0.000147121
0.000147234
0.000146657
0.000147198
0.000146828
0.000148298
0.000147189
0.000146832
0.00014665
0.000148152
0.000148197
0.00014815
0.000148335
0.000148156
0.000147194
0.000146652
0.000146832
0.000148348
0.000148346
0.000147185
0.000146696
0.000146836
0.000147047
0.000147074
0.000147175
0.000146789
0.000146817
0.000146901
0.000147861
0.000146897
0.000147839
0.00014672
0.000148205
0.0001469
0.000148202
0.000147131
0.000147357
0.00014753
0.000146712
0.000147528
0.000147533
0.000147402
0.000147364
0.000147235
0.000147117
0.00014725
0.000147855
0.000147853
0.000146827
0.000147473
0.000147136
0.000146614
0.000147696
0.0001474
0.00014724
0.000146916
0.000146785
0.000147962
0.000147452
0.000146761
0.000146852
0.000146702
0.000147191
0.000147443
0.000146697
0.000148794
0.000146897
0.000148792
0.000147717
0.000147399
0.000146901
0.000146808
0.000146785
0.000147228
0.000147692
0.000147182
0.000146982
0.000146861
0.000146766
0.000147193
0.000147263
0.000147212
0.000147513
0.000147174
0.000146762
0.000147264
0.000147134
0.000146713
0.000146744
0.000147198
0.000147205
0.000146898
0.000148201
0.000146778
0.000148193
0.000146903
0.000147011
0.0001476
0.00014724
0.000147398
0.000147281
0.000147685
0.000148105
0.000147228
0.000146783
0.000146906
0.000147876
0.000147227
0.000147433
0.000147232
0.000146862
0.000148217
0.000146753
0.00014723
0.000147449
0.000148214
0.00014687
0.000147306
0.000147033
0.000147275
0.000146778
0.000147218
0.000147311
0.000147188
0.000147136
0.000146962
0.000147097
0.000147239
0.000146833
0.000147191
0.000147272
0.000147229
0.000147318
0.000146873
0.000146877
0.000147177
0.000147077
0.000146838
0.000146708
0.000146814
0.000146877
0.000147213
0.000146874
0.000146872
0.000146831
0.000146878
0.000147725
0.000146898
0.000146811
0.000147328
0.000146898
0.000147507
0.000147722
0.000147269
0.000147859
0.000147277
0.00014683
0.000147222
0.000147226
0.000146873
0.000147443
0.000146805
0.000147397
0.000147508
0.000147732
0.000147229
0.000147446
0.000146786
0.000146904
0.000146831
0.000147229
0.000147186
0.000147197
0.00014743
0.000147235
0.000147394
0.000147244
0.000147036
0.000146915
0.00014743
0.000146831
0.000147441
0.000147404
0.000146863
0.000147621
0.000147243
0.000147615
0.000147342
0.00014725
0.000147448
0.000146968
0.000147362
0.000146921
0.000147506
0.000147273
0.000147274
0.000147246
0.000147254
0.000147256
0.000147253
0.000147294
0.00014761
0.000147605
0.000147612
0.000147614
0.000147851
0.000147855
0.000146958
0.000147287
0.000147162
0.000147061
0.000147633
0.000147641
0.00014717
0.00014692
0.000147152
0.000147226
0.000146965
0.000147628
0.000146961
0.000147456
0.000147145
0.000146968
0.000146926
0.000146785
0.000146785
0.000147444
0.000146772
0.000147163
0.000146919
0.000147041
0.000147149
0.000147268
0.00014837
0.000147261
0.000146769
0.000146927
0.00014716
0.000147264
0.000146913
0.000147267
0.000147036
0.000148367
0.000146923
0.000147279
0.000147388
0.000147189
0.000147626
0.000147438
0.000147869
0.000147178
0.000146731
0.000146701
0.0001478
0.000147101
0.000147263
0.000146957
0.000147631
0.000147325
0.000146925
0.00014739
0.00014698
0.000147311
0.000146978
0.000146923
0.000148604
0.000147746
0.000147649
0.000147645
0.000147284
0.000146983
0.000148117
0.000147375
0.000147094
0.000146988
0.000146957
0.000147793
0.000146962
0.000147719
0.000146964
0.000146694
0.000146988
0.000146779
0.000147528
0.000146964
0.000148601
0.000146966
0.000147468
0.000146955
0.000147415
0.000146967
0.000147152
0.000146708
0.000147134
0.00014696
0.00014779
0.000146963
0.000147113
0.000147434
0.000147248
0.000146969
0.000146982
0.000147035
0.000147514
0.000146983
0.000147242
0.000147191
0.000147858
0.00014698
0.000147026
0.000147115
0.000147033
0.000146973
0.000147037
0.000147602
0.000147242
0.000147028
0.000146966
0.000147302
0.000147304
0.000146983
0.000147855
0.000146538
0.000147201
0.000146782
0.000147122
0.000146144
0.000146143
0.000146153
0.00014615
0.000146151
0.00014614
0.000146142
0.000147526
0.000148046
0.000147204
0.000147107
0.000147038
0.000147032
0.000147299
0.000147034
0.000147024
0.000148048
0.000147034
0.000147612
0.000146902
0.000147563
0.000147169
0.000147099
0.000147029
0.000147802
0.000147194
0.000147107
0.000147196
0.000147111
0.000147014
0.000146913
0.000147106
0.000147182
0.000147613
0.000147051
0.000147008
0.000147034
0.000147089
0.000147177
0.000147312
0.000147036
0.000147308
0.000147149
0.000147097
0.000147271
0.00014715
0.000147025
0.00014741
0.000147106
0.000148011
0.000146695
0.000147519
0.000147603
0.000147182
0.000147098
0.000147385
0.000146543
0.000147172
0.000147103
0.00014671
0.000148591
0.000148601
0.000147194
0.000147034
0.000147116
0.000147044
0.000149043
0.000149039
0.000147204
0.000147262
0.000147274
0.000146544
0.000147017
0.000147435
0.000147067
0.000147058
0.000147089
0.000146531
0.000147444
0.000147026
0.000147186
0.000147187
0.00014706
0.000147099
0.00014706
0.000147072
0.000146651
0.000146781
0.000147099
0.000147196
0.000147099
0.000147052
0.000147093
0.000147114
0.000147101
0.000146695
0.000147675
0.000147043
0.000147379
0.000147446
0.000146695
0.000147141
0.000147133
0.000147853
0.000148578
0.000148575
0.000147765
0.000147011
0.000147196
0.000146682
0.000148519
0.00014896
0.000148958
0.000146522
0.000148157
0.000148317
0.000147174
0.000147707
0.000147185
0.000147249
0.000147422
0.000147514
0.000147272
0.00014654
0.000147169
0.00014736
0.00014743
0.00014661
0.000148227
0.000146703
0.00014742
0.000147285
0.000146973
0.000147166
0.000147248
0.000147899
0.000147254
0.000147896
0.000147147
0.000147464
0.00014828
0.000148293
0.000146687
0.000147304
0.000146573
0.000146591
0.000146554
0.000147429
0.00014654
0.000146535
0.000147054
0.000146566
0.000147975
0.000147973
0.000146581
0.000147098
0.000146654
0.000146571
0.000146641
0.00014657
0.000146642
0.000148185
0.000146663
0.000146541
0.000146576
0.000147245
0.000147545
0.000146629
0.000147264
0.000146542
0.000147302
0.000147107
0.000146559
0.000146622
0.000146547
0.000146521
0.00014716
0.000148035
0.000148913
0.000148877
0.000147336
0.000148907
0.000148905
0.00014889
0.000148675
0.000146678
0.000148261
0.000147781
0.00014805
0.000147315
0.00014874
0.000148738
0.000148089
0.000146515
0.000147091
0.000146531
0.000146698
0.000146697
0.000148471
0.000148463
0.000148442
0.000148449
0.000148469
0.000148858
0.000148444
0.00014874
0.000148921
0.000148482
0.000148485
0.000148931
0.000148861
0.000148742
0.000148448
SCALARS rr_tsim float
LOOKUP_TABLE default
0.166667
0.166667
0.166667
0.166667
0.166667
0.166667
0.166667
0.166667
0.166667
0.166667
0.166667
0.166667
0.166667
0.166667
0.166667
0.166667
0.166667
0.166667
0.166667
0.166667
0.166667
0.166667
0.166667
0.166667
0.166667
0.166667
0.166667
0.166667
0.166667
0.166667
0.166667
0.166667
0.166667
0.166667
0.166667
0.166667
0.166667
0.166667
0.166667
0.166667
0.166667
0.166667
0.166667
0.166667
0.166667
0.166667
0.166667
0.166667
0.166667
0.166667
0.166667
0.166667
0.166667
0.166667
0.166667
0.166667
0.166667
0.166667
0.166667
0.166667
0.166667
0.166667
0.166667
0.166667
0.166667
0.166667
0.166667
0.166667
0.166667
0.166667
0.166667
0.166667
0.166667
0.166667
0.166667
0.166667
0.166667
0.166667
0.166667
0.166667
0.166667
0.166667
0.166667
0.166667
0.166667
0.166667
0.166667
0.166667
0.166667
0.166667
0.166667
0.166667
0.166667
0.166667
0.166667
0.166667
0.166667
0.166667
0.166667
0.166667
0.166667
0.166667
0.166667
0.166667
0.166667
0.166667
0.166667
0.166667
0.166667
0.166667
0.166667
0.166667
0.166667
0.166667
0.166667
0.166667
0.166667
0.166667
0.166667
0.166667
0.166667
0.166667
0.166667
0.166667
0.166667
0.166667
0.166667
0.166667
0.166667
0.166667
0.166667
0.166667
0.166667
0.166667
0.166667
0.166667
0.166667
0.166667
0.166667
0.166667
0.166667
0.166667
0.166667
0.166667
0.166667
0.166667
0.166667
0.166667
0.166667
0.166667
0.166667
0.166667
0.166667
0.166667
0.166667
0.166667
0.166667
0.166667
0.166667
0.166667
0.166667
0.166667
0.166667
0.166667
0.166667
0.166667
0.166667
0.166667
0.166667
0.166667
0.166667
0.166667
0.166667
0.166667
0.166667
0.166667
0.166667
0.166667
0.166667
0.166667
0.166667
0.166667
0.166667
0.166667
0.166667
0.166667
0.166667
0.166667
0.166667
0.166667
0.166667
0.166667
0.166667
0.166667
0.166667
0.166667
0.166667
0.166667
0.166667
0.166667
0.166667
0.166667
0.166667
0.166667
0.166667
0.166667
0.166667
0.166667
0.166667
0.166667
0.166667
0.166667
0.166667
0.166667
0.166667
0.166667
0.166667
0.166667
0.166667
0.166667
0.166667
0.166667
0.166667
0.166667
0.166667
0.166667
0.166667
0.166667
0.166667
0.166667
0.166667
0.166667
0.166667
0.166667
0.166667
0.166667
0.166667
0.166667
0.166667
0.166667
0.166667
0.166667
0.166667
0.166667
0.166667
0.166667
0.166667
0.166667
0.166667
0.166667
0.166667
0.166667
0.166667
0.166667
0.166667
0.166667
0.166667
0.166667
0.166667
0.166667
0.166667
0.166667
0.166667
0.166667
0.166667
0.166667
0.166667
0.166667
0.166667
0.166667
0.166667
0.166667
0.166667
0.166667
0.166667
0.166667
0.166667
0.166667
0.166667
0.166667
0.166667
0.166667
0.166667
0.166667
0.166667
0.166667
0.166667
0.166667
0.166667
0.166667
0.166667
0.166667
0.166667
0.166667
0.166667
0.166667
0.166667
0.166667
0.166667
0.166667
0.166667
0.166667
0.166667
0.166667
0.166667
0.166667
0.166667
0.166667
0.166667
0.166667
0.166667
0.166667
0.166667
0.166667
0.166667
0.166667
0.166667
0.166667
0.166667
0.166667
0.166667
0.166667
0.166667
0.166667
0.166667
0.166667
0.166667
0.166667
0.166667
0.166667
0.166667
0.166667
0.166667
0.166667
0.166667
0.166667
0.166667
0.166667
0.166667
0.166667
0.166667
0.166667
0.166667
0.166667
0.166667
0.166667
0.166667
0.166667
0.166667
0.166667
0.166667
0.166667
0.166667
0.166667
0.166667
0.166667
0.166667
0.166667
0.166667
0.166667
0.166667
0.166667
0.166667
0.166667
0.166667
0.166667
0.166667
0.166667
0.166667
0.166667
0.166667
0.166667
0.166667
0.166667
0.166667
0.166667
0.166667
0.166667
0.166667
0.166667
0.166667
0.166667
0.166667
0.166667
0.166667
0.166667
0.166667
0.166667
0.166667
0.166667
0.166667
0.166667
0.166667
0.166667
0.166667
0.166667
0.166667
0.166667
0.166667
0.166667
0.166667
0.166667
0.166667
0.166667
0.166667
0.166667
0.166667
0.166667
0.166667
0.166667
0.166667
0.166667
0.166667
0.166667
0.166667
0.166667
0.166667
0.166667
0.166667
0.166667
0.166667
0.166667
0.166667
0.166667
0.166667
0.166667
0.166667
0.166667
0.166667
0.166667
0.166667
0.166667
0.166667
0.166667
0.166667
0.166667
0.166667
0.166667
0.166667
0.166667
0.166667
0.166667
0.166667
0.166667
0.166667
0.166667
0.166667
0.166667
0.166667
0.166667
0.166667
0.166667
0.166667
0.166667
0.166667
0.166667
0.166667
0.166667
0.166667
0.166667
0.166667
0.166667
0.166667
0.166667
0.166667
0.166667
0.166667
0.166667
0.166667
0.166667
0.166667
0.166667
0.166667
0.166667
0.166667
0.166667
0.166667
0.166667
0.166667
0.166667
0.166667
0.166667
0.166667
0.166667
0.166667
0.166667
0.166667
0.166667
0.166667
0.166667
0.166667
0.166667
0.166667
0.166667
0.166667
0.166667
0.166667
0.166667
0.166667
0.166667
0.166667
0.166667
0.166667
0.166667
0.166667
0.166667
0.166667
0.166667
0.166667
0.166667
0.166667
0.166667
0.166667
0.166667
0.166667
0.166667
0.166667
0.166667
0.166667
0.166667
0.166667
0.166667
0.166667
0.166667
0.166667
0.166667
0.166667
0.166667
0.166667
0.166667
0.166667
0.166667
0.166667
0.166667
0.166667
0.166667
0.166667
0.166667
0.166667
0.166667
0.166667
0.166667
0.166667
0.166667
0.166667
0.166667
0.166667
0.166667
0.166667
0.166667
0.166667
0.166667
0.166667
0.166667
0.166667
0.166667
0.166667
0.166667
0.166667
0.166667
0.166667
0.166667
0.166667
SCALARS rr_Vext float
LOOKUP_TABLE default
1.81314e-10
4.48881e-10
3.55866e-10
4.67859e-10
2.50344e-10
3.77634e-10
1.7923e-10
4.64843e-10
3.94913e-10
5.04295e-10
1.65343e-10
4.66262e-10
4.09611e-10
4.34779e-10
5.1584e-10
4.24644e-10
3.68842e-10
4.13966e-10
3.65357e-10
3.60344e-10
4.04905e-10
7.64603e-11
4.14861e-10
3.8282e-10
3.46929e-10
4.03257e-10
1.54962e-10
3.52653e-10
2.67306e-10
3.39037e-10
3.6178e-10
2.76375e-10
1.71467e-10
2.52748e-10
2.49094e-10
2.53298e-10
3.29921e-10
2.49338e-10
3.61351e-10
1.92777e-10
2.24632e-10
2.90869e-10
2.90879e-10
3.97063e-10
2.16813e-10
2.44021e-10
3.44446e-10
3.5001e-10
3.2991e-10
3.03645e-10
3.12731e-10
2.45132e-10
4.01282e-10
3.15071e-10
3.69198e-10
1.577e-10
2.66015e-10
3.1738e-10
2.65987e-10
3.92985e-10
4.70672e-10
4.64609e-10
1.53226e-10
3.27457e-10
4.45061e-10
4.17146e-10
4.55405e-10
3.91697e-10
3.57805e-10
5.15279e-10
4.35299e-10
4.30537e-10
2.77544e-10
3.38557e-10
3.53789e-10
1.76373e-10
3.72461e-10
4.13251e-10
3.9496e-10
2.71015e-10
2.40401e-10
2.83337e-10
5.27239e-10
2.40162e-10
3.27627e-10
1.19251e-10
4.0737e-10
3.4442e-10
2.29629e-10
3.74586e-11
2.72976e-10
4.07344e-11
3.16175e-10
2.9915e-10
2.58547e-10
2.32892e-10
2.20826e-10
4.42692e-10
3.72696e-10
3.51672e-10
2.934e-10
2.77655e-10
2.30394e-10
4.18354e-10
4.25911e-10
3.83626e-10
3.40437e-10
3.40671e-10
2.44539e-10
5.12241e-10
3.2586e-10
1.63982e-10
2.19978e-10
4.57637e-10
4.29488e-10
3.04351e-10
3.08441e-10
1.8344e-10
3.19839e-10
3.03235e-10
2.6686e-10
5.02362e-10
5.11535e-10
4.41796e-10
4.84263e-10
3.84731e-10
2.20681e-10
4.77953e-10
2.00004e-10
2.62166e-10
2.2737e-10
4.5615e-10
4.48774e-10
4.48008e-10
2.88817e-10
1.87422e-10
1.9057e-10
3.27268e-10
4.04244e-10
1.87344e-10
2.41441e-10
3.87082e-10
2.87833e-10
4.72504e-10
2.23192e-10
3.84984e-10
3.49546e-10
3.35955e-10
2.14679e-10
2.69424e-10
3.04148e-10
4.40389e-10
2.47928e-10
3.97202e-10
4.61742e-10
4.68991e-10
3.07688e-10
2.48903e-10
2.47552e-10
4.00925e-10
3.33687e-10
2.46018e-10
1.60021e-10
2.3961e-10
2.40366e-10
4.30724e-10
2.52242e-10
2.54993e-10
2.7451e-10
2.45835e-10
3.86121e-10
2.58073e-10
2.2597e-10
2.97551e-10
2.72694e-10
3.40117e-10
3.81897e-10
3.60942e-10
3.13792e-10
3.60653e-10
2.6646e-10
4.18021e-10
4.48611e-10
2.41513e-10
4.42056e-10
2.39346e-10
4.36553e-10
4.02512e-10
3.78746e-10
3.7921e-10
4.45981e-10
2.00698e-10
2.66813e-10
2.45918e-10
4.47169e-10
4.38789e-10
4.06984e-10
4.47645e-10
4.52708e-10
3.81656e-10
4.66318e-10
3.07567e-10
2.7399e-10
5.12446e-10
2.85433e-10
4.65694e-10
3.69759e-10
2.26561e-10
2.86179e-10
4.61476e-10
3.88813e-10
3.50119e-10
4.49816e-10
4.45008e-10
2.78732e-10
2.84067e-10
2.67425e-10
3.95232e-10
4.33184e-10
4.97821e-10
4.7783e-10
5.20088e-10
4.71302e-10
5.15007e-10
4.31823e-10
4.5694e-10
4.60387e-10
4.34106e-10
4.56096e-10
4.2267e-10
4.16391e-10
2.82283e-10
3.89201e-10
4.54053e-10
3.11965e-10
4.70003e-10
4.31908e-10
4.92397e-10
2.8812e-10
4.68027e-10
4.48436e-10
2.8437e-10
4.06682e-10
2.82341e-10
4.54984e-10
4.1107e-10
2.9612e-10
2.77555e-10
2.35465e-10
2.70995e-10
4.55519e-10
1.97428e-10
3.46839e-10
2.76406e-10
3.13753e-10
4.68421e-10
4.55301e-10
1.47696e-10
4.56856e-10
2.36344e-10
2.61649e-10
4.66021e-10
3.78827e-10
2.64469e-10
5.21898e-10
2.91092e-10
1.47687e-10
2.67606e-10
4.06178e-10
5.08641e-10
3.82487e-10
4.57493e-10
4.24922e-10
2.26482e-10
2.16617e-10
1.75918e-10
2.0136e-10
3.07955e-10
2.28959e-10
3.71784e-10
2.27421e-10
4.06162e-10
2.87465e-10
2.67983e-10
3.23777e-10
2.93386e-10
3.98309e-10
2.81356e-10
2.8747e-10
1.36283e-10
3.03395e-10
4.37559e-10
4.37807e-10
3.91313e-10
2.80985e-10
1.92242e-10
5.45577e-10
3.60309e-10
2.98178e-10
2.74165e-10
2.8481e-10
2.826e-10
3.58635e-10
2.77963e-10
1.91994e-10
2.74664e-10
1.83428e-10
3.50871e-10
2.79449e-10
1.2701e-10
2.636e-10
3.21159e-10
2.79188e-10
4.43424e-10
2.90576e-10
3.8127e-10
1.38271e-10
3.05505e-10
2.86883e-10
2.61472e-10
2.69196e-10
3.21832e-10
3.08552e-10
3.20872e-10
2.66441e-10
2.71037e-10
2.93719e-10
4.03376e-10
2.75967e-10
3.98811e-10
3.58601e-10
2.90625e-10
2.8634e-10
2.89984e-10
3.2321e-10
2.89773e-10
2.69992e-10
3.08381e-10
3.32841e-10
3.87661e-10
2.9003e-10
2.86223e-10
4.24915e-10
4.19023e-10
2.76083e-10
2.90664e-10
1.17337e-10
3.41887e-10
2.27593e-10
3.1952e-10
1.26285e-10
1.31103e-10
1.17215e-10
1.19111e-10
1.26392e-10
1.33056e-10
1.37165e-10
3.65614e-10
2.75038e-10
2.69521e-10
3.05382e-10
2.96065e-10
2.92267e-10
3.14541e-10
2.85857e-10
2.92248e-10
3.10637e-10
2.91174e-10
3.68578e-10
2.60951e-10
3.78617e-10
2.88955e-10
2.77441e-10
2.91456e-10
3.22577e-10
3.28823e-10
3.04544e-10
3.50867e-10
3.25868e-10
3.00246e-10
2.13882e-10
3.03709e-10
2.98708e-10
3.28093e-10
3.05161e-10
2.88381e-10
2.74902e-10
3.03913e-10
3.18927e-10
4.35928e-10
2.83169e-10
4.23774e-10
4.38434e-10
2.98716e-10
4.22638e-10
3.22309e-10
2.55555e-10
3.56595e-10
3.07163e-10
2.29367e-10
1.85207e-10
3.5315e-10
3.76925e-10
3.13271e-10
2.59412e-10
3.16839e-10
1.38166e-10
3.09704e-10
2.89367e-10
1.40524e-10
5.97106e-11
6.53337e-11
2.68513e-10
2.83157e-10
3.31189e-10
3.16432e-10
3.11101e-11
3.25069e-11
3.1801e-10
3.21371e-10
3.04081e-10
1.03695e-10
2.646e-10
3.15727e-10
3.15484e-10
2.7194e-10
2.40162e-10
1.07834e-10
4.6421e-10
2.84808e-10
3.51978e-10
3.57486e-10
2.55036e-10
3.23283e-10
2.49352e-10
2.75343e-10
1.29698e-10
1.99307e-10
3.23644e-10
3.2758e-10
2.80184e-10
2.93418e-10
3.03505e-10
3.20343e-10
3.06255e-10
1.43912e-10
2.7562e-10
3.01207e-10
2.90724e-10
4.37245e-10
1.43809e-10
2.3361e-10
2.40448e-10
2.34384e-10
1.55526e-10
1.5553e-10
2.67543e-10
2.08407e-10
3.01717e-10
1.53804e-10
1.85409e-10
6.1376e-11
6.13735e-11
1.1228e-10
1.9951e-10
1.34887e-10
2.56868e-10
2.84373e-10
2.97649e-10
3.36817e-10
3.07246e-10
2.85072e-10
2.22098e-10
1.27136e-10
2.77904e-10
2.90421e-10
2.8228e-10
1.44086e-10
1.47554e-10
1.04596e-10
2.8179e-10
2.85815e-10
2.24077e-10
2.58113e-10
2.38585e-10
2.23658e-10
2.92754e-10
2.23625e-10
2.57069e-10
2.51246e-10
1.57949e-10
1.9512e-10
1.65252e-10
3.10476e-10
1.12679e-10
1.18889e-10
1.15912e-10
2.9437e-10
1.07661e-10
1.04708e-10
2.00817e-10
9.79089e-11
2.43008e-10
2.43362e-10
1.00635e-10
2.55315e-10
1.13687e-10
1.10962e-10
1.27115e-10
1.05833e-10
1.0569e-10
1.74098e-10
1.26199e-10
1.12744e-10
1.06252e-10
2.35685e-10
2.72504e-10
1.18707e-10
2.60178e-10
9.60544e-11
2.64645e-10
2.08066e-10
1.00527e-10
8.64091e-11
9.48474e-11
1.26427e-10
2.25435e-10
1.92063e-10
8.23882e-11
9.13472e-11
2.53718e-10
7.75348e-11
7.75316e-11
8.78139e-11
9.78992e-11
9.9552e-11
1.27255e-10
2.07411e-10
1.93677e-10
2.53631e-10
7.74742e-11
7.74709e-11
2.29112e-10
8.43242e-11
1.78623e-10
7.64986e-11
7.83171e-11
1.03239e-10
1.98471e-10
2.05466e-10
2.18769e-10
2.00533e-10
1.98455e-10
4.38636e-11
3.20179e-10
5.57177e-11
5.43059e-11
2.58845e-10
2.57076e-10
5.62973e-11
3.90315e-11
5.4769e-11
2.38411e-10
SCALARS rr_Vli float
LOOKUP_TABLE default
3.96454e-10
9.03125e-10
7.21272e-10
9.42724e-10
4.92897e-10
7.65526e-10
3.92002e-10
9.37494e-10
8.06128e-10
1.01492e-09
3.59802e-10
9.40366e-10
8.27548e-10
8.73986e-10
1.02391e-09
8.59571e-10
7.3925e-10
8.35759e-10
7.48672e-10
7.31922e-10
8.23334e-10
1.4616e-10
8.43588e-10
7.77487e-10
7.04762e-10
8.12987e-10
3.33314e-10
7.14127e-10
5.60532e-10
6.59652e-10
7.31089e-10
5.79449e-10
3.69234e-10
4.94283e-10
4.85795e-10
4.95397e-10
6.41311e-10
4.86787e-10
7.30347e-10
4.15022e-10
4.71146e-10
5.65201e-10
5.65261e-10
8.02365e-10
4.6327e-10
5.11077e-10
7.04542e-10
7.13447e-10
6.6856e-10
6.40059e-10
6.57227e-10
5.09634e-10
7.91113e-10
6.54857e-10
7.28344e-10
3.36055e-10
5.18691e-10
6.59658e-10
5.18674e-10
7.97903e-10
9.4368e-10
9.24842e-10
3.27804e-10
6.52086e-10
8.8583e-10
8.36032e-10
9.12822e-10
7.89625e-10
7.2716e-10
1.03651e-09
8.58324e-10
8.48971e-10
5.82131e-10
6.76718e-10
7.16838e-10
3.81145e-10
7.38006e-10
8.28278e-10
7.96271e-10
5.62396e-10
5.07559e-10
5.56327e-10
1.0533e-09
5.08269e-10
6.85288e-10
2.5455e-10
8.24925e-10
6.89352e-10
4.90605e-10
7.19262e-11
5.67445e-10
7.82274e-11
6.2622e-10
6.00143e-10
5.37028e-10
4.89837e-10
4.66158e-10
8.91044e-10
7.38554e-10
7.11017e-10
6.0412e-10
5.79591e-10
4.87689e-10
8.43951e-10
8.57919e-10
7.72567e-10
6.79411e-10
6.89253e-10
5.17695e-10
1.02945e-09
6.61559e-10
3.49438e-10
4.67003e-10
9.23648e-10
8.65271e-10
6.32398e-10
6.01478e-10
3.87362e-10
6.23861e-10
6.29898e-10
5.4787e-10
9.98107e-10
1.02928e-09
8.84104e-10
9.72669e-10
7.63095e-10
4.31655e-10
9.62053e-10
4.22199e-10
5.44565e-10
4.48358e-10
9.18304e-10
8.96932e-10
9.0165e-10
6.02813e-10
3.65455e-10
4.04133e-10
6.60808e-10
8.07572e-10
3.65332e-10
5.03466e-10
7.78786e-10
5.90143e-10
9.50879e-10
4.71472e-10
7.75918e-10
7.0419e-10
6.80831e-10
4.35168e-10
5.56181e-10
6.20139e-10
8.86138e-10
5.19911e-10
8.02347e-10
9.29265e-10
9.44082e-10
6.17734e-10
5.18582e-10
5.15638e-10
8.10046e-10
6.80087e-10
5.15589e-10
3.41199e-10
5.03571e-10
5.00856e-10
8.67349e-10
5.25569e-10
5.31366e-10
5.75618e-10
5.12162e-10
7.64609e-10
5.36394e-10
4.74951e-10
5.96909e-10
5.66674e-10
6.78965e-10
7.56294e-10
7.28022e-10
6.18379e-10
7.26235e-10
5.58684e-10
8.41475e-10
9.03132e-10
5.0355e-10
8.84609e-10
5.03341e-10
8.73635e-10
8.03123e-10
7.49759e-10
7.63243e-10
8.92366e-10
4.2329e-10
5.54488e-10
5.1562e-10
9.00038e-10
8.86135e-10
8.21558e-10
8.94727e-10
9.11022e-10
7.65122e-10
9.38237e-10
6.29568e-10
5.68206e-10
1.02433e-09
5.98389e-10
9.30367e-10
7.41134e-10
4.73174e-10
5.69083e-10
9.28396e-10
7.7257e-10
7.0347e-10
9.06264e-10
8.88961e-10
5.75239e-10
5.70361e-10
5.54116e-10
7.88625e-10
8.70209e-10
1.00009e-09
9.60831e-10
1.04538e-09
9.47269e-10
1.03519e-09
8.68546e-10
9.07511e-10
9.14582e-10
8.62168e-10
9.05746e-10
8.33753e-10
8.21342e-10
5.82913e-10
7.82645e-10
9.15734e-10
6.36128e-10
9.32929e-10
8.57033e-10
9.92836e-10
5.97385e-10
9.44191e-10
9.02583e-10
5.86643e-10
8.08637e-10
5.82683e-10
9.08674e-10
8.2957e-10
6.10784e-10
5.74893e-10
4.97243e-10
5.71989e-10
9.09921e-10
4.17562e-10
7.01352e-10
5.72759e-10
6.42605e-10
9.45079e-10
9.14791e-10
2.86862e-10
9.18117e-10
5.00135e-10
5.42176e-10
9.39923e-10
7.64058e-10
5.48566e-10
1.04867e-09
5.96577e-10
2.86862e-10
5.54416e-10
8.1582e-10
1.01836e-09
7.72089e-10
9.0828e-10
8.50657e-10
4.46506e-10
4.37671e-10
3.74391e-10
4.29835e-10
6.08556e-10
4.65477e-10
7.49852e-10
4.69311e-10
8.07505e-10
5.76705e-10
5.55256e-10
6.49422e-10
6.03898e-10
8.02126e-10
5.79086e-10
5.9593e-10
2.62958e-10
6.00317e-10
8.68332e-10
8.68951e-10
7.87058e-10
5.77969e-10
3.76305e-10
1.09264e-09
7.34172e-10
6.13159e-10
5.65277e-10
5.6284e-10
5.83032e-10
7.10312e-10
5.72585e-10
4.1015e-10
5.65076e-10
3.87643e-10
6.99986e-10
5.76509e-10
2.45092e-10
5.4299e-10
6.41987e-10
5.7653e-10
8.87066e-10
5.98702e-10
7.72033e-10
2.96191e-10
6.19691e-10
5.91969e-10
5.16932e-10
5.5573e-10
6.55765e-10
6.17193e-10
6.45426e-10
5.48923e-10
5.57557e-10
6.02097e-10
8.04826e-10
5.67779e-10
8.04355e-10
7.2611e-10
5.73033e-10
5.89033e-10
5.94678e-10
6.57727e-10
5.93696e-10
5.55905e-10
6.31702e-10
6.62413e-10
7.82034e-10
5.94553e-10
5.90717e-10
8.55125e-10
8.43148e-10
5.68209e-10
5.73156e-10
2.56065e-10
6.92476e-10
4.80567e-10
6.49989e-10
2.87593e-10
2.98536e-10
2.66791e-10
2.71159e-10
2.87669e-10
3.03042e-10
3.12296e-10
7.29198e-10
5.39606e-10
5.44465e-10
6.22496e-10
6.06399e-10
5.98833e-10
6.334e-10
5.86034e-10
5.99385e-10
6.09337e-10
5.96613e-10
7.32509e-10
5.42466e-10
7.52954e-10
5.85898e-10
5.65601e-10
5.97366e-10
6.37333e-10
6.65992e-10
6.20484e-10
7.10587e-10
6.63881e-10
6.1564e-10
4.43973e-10
6.1919e-10
6.05462e-10
6.51871e-10
6.24532e-10
5.91771e-10
5.62777e-10
6.19911e-10
6.46604e-10
8.77752e-10
5.7976e-10
8.53387e-10
8.89579e-10
6.09172e-10
8.52269e-10
6.53811e-10
5.23753e-10
7.13402e-10
6.25315e-10
4.50303e-10
3.95621e-10
7.04327e-10
7.50162e-10
6.35086e-10
5.27956e-10
6.35129e-10
3.01209e-10
6.27908e-10
5.89162e-10
3.0088e-10
1.15271e-10
1.26097e-10
5.43905e-10
5.8e-10
6.73618e-10
6.47553e-10
5.92627e-11
6.19235e-11
6.41276e-10
6.47966e-10
6.13368e-10
2.26093e-10
5.42715e-10
6.30887e-10
6.43305e-10
5.54919e-10
4.89793e-10
2.35449e-10
9.29101e-10
5.83636e-10
7.13103e-10
7.24252e-10
5.20493e-10
6.58733e-10
5.08902e-10
5.6155e-10
2.79073e-10
4.21124e-10
6.59517e-10
6.63588e-10
5.70333e-10
5.99021e-10
6.18148e-10
6.51778e-10
6.23414e-10
3.07393e-10
5.46985e-10
6.16728e-10
5.82902e-10
8.7473e-10
3.07333e-10
4.73448e-10
4.87665e-10
4.62142e-10
3.00445e-10
3.00465e-10
5.29443e-10
4.27522e-10
6.11426e-10
3.28969e-10
3.58793e-10
1.17147e-10
1.17147e-10
2.45377e-10
3.89532e-10
2.62435e-10
5.20957e-10
5.63423e-10
6.013e-10
6.77517e-10
6.14536e-10
5.68956e-10
4.47953e-10
2.77226e-10
5.62443e-10
5.82688e-10
5.64136e-10
3.11526e-10
2.8786e-10
2.24261e-10
5.6334e-10
5.7474e-10
4.61869e-10
5.2165e-10
4.81364e-10
4.40743e-10
5.89983e-10
4.40704e-10
5.20727e-10
5.02048e-10
3.07742e-10
3.79942e-10
3.53354e-10
6.23862e-10
2.46766e-10
2.59959e-10
2.54314e-10
5.89167e-10
2.3496e-10
2.30121e-10
4.09939e-10
2.14628e-10
4.77017e-10
4.77739e-10
2.20317e-10
5.19519e-10
2.44549e-10
2.43104e-10
2.73873e-10
2.3194e-10
2.27716e-10
3.39754e-10
2.70668e-10
2.45975e-10
2.3266e-10
4.7566e-10
5.42893e-10
2.5609e-10
5.2501e-10
2.10996e-10
5.32588e-10
4.23144e-10
2.20438e-10
1.86645e-10
2.08239e-10
2.76295e-10
4.57385e-10
3.76525e-10
1.57513e-10
1.7484e-10
5.09889e-10
1.48271e-10
1.48269e-10
1.68008e-10
1.88584e-10
2.13182e-10
2.48058e-10
4.10188e-10
3.79678e-10
5.10244e-10
1.48969e-10
1.48968e-10
4.48413e-10
1.84446e-10
3.63546e-10
1.67135e-10
1.68133e-10
2.21531e-10
3.84461e-10
3.98103e-10
4.24116e-10
3.88689e-10
3.84451e-10
8.39898e-11
6.20589e-10
1.07138e-10
1.03803e-10
5.01329e-10
4.9785e-10
1.0757e-10
7.47147e-11
1.05276e-10
4.62437e-10
SCALARS rr_S_ext' float
LOOKUP_TABLE default
-5.35328e-11
-1.24385e-10
-9.91756e-11
-1.29804e-10
-6.81499e-11
-1.05256e-10
-5.29283e-11
-1.29042e-10
-1.10669e-10
-1.39773e-10
-4.8646e-11
-1.29437e-10
-1.13868e-10
-1.20383e-10
-1.41373e-10
-1.18231e-10
-1.01884e-10
-1.15018e-10
-1.0269e-10
-1.00593e-10
-1.13126e-10
-2.03088e-11
-1.1591e-10
-1.06857e-10
-9.68569e-11
-1.11915e-10
-4.51929e-11
-9.82055e-11
-7.64711e-11
-9.13938e-11
-1.00591e-10
-7.90548e-11
-5.00492e-11
-6.84178e-11
-6.72798e-11
-6.8571e-11
-8.88649e-11
-6.74056e-11
-1.00484e-10
-5.62591e-11
-6.42728e-11
-7.83227e-11
-7.83298e-11
-1.104e-10
-6.29158e-11
-6.97447e-11
-9.66765e-11
-9.79777e-11
-9.19265e-11
-8.72119e-11
-8.96151e-11
-6.96684e-11
-1.09357e-10
-8.95276e-11
-1.00668e-10
-4.56687e-11
-7.18381e-11
-9.01836e-11
-7.18347e-11
-1.0967e-10
-1.3005e-10
-1.27631e-10
-4.45031e-11
-8.99811e-11
-1.2225e-10
-1.15214e-10
-1.25804e-10
-1.087e-10
-9.99257e-11
-1.42761e-10
-1.18644e-10
-1.1735e-10
-7.94134e-11
-9.33053e-11
-9.85769e-11
-5.16197e-11
-1.01926e-10
-1.14143e-10
-1.09612e-10
-7.69146e-11
-6.91306e-11
-7.69597e-11
-1.45256e-10
-6.91883e-11
-9.35471e-11
-3.45786e-11
-1.13444e-10
-9.5023e-11
-6.66297e-11
-9.98642e-12
-7.75744e-11
-1.0861e-11
-8.64923e-11
-8.26866e-11
-7.34303e-11
-6.67782e-11
-6.34942e-11
-1.22712e-10
-1.01999e-10
-9.7819e-11
-8.27716e-11
-7.91573e-11
-6.63829e-11
-1.1617e-10
-1.18118e-10
-1.06385e-10
-9.37056e-11
-9.48104e-11
-7.04655e-11
-1.41818e-10
-9.09309e-11
-4.74879e-11
-6.35223e-11
-1.27123e-10
-1.1914e-10
-8.64631e-11
-8.33035e-11
-5.2758e-11
-8.64e-11
-8.61269e-11
-7.51149e-11
-1.37788e-10
-1.41757e-10
-1.21886e-10
-1.34011e-10
-1.05368e-10
-5.97521e-11
-1.3249e-10
-5.75072e-11
-7.44595e-11
-6.19723e-11
-1.2646e-10
-1.23684e-10
-1.24175e-10
-8.23315e-11
-5.06141e-11
-5.49852e-11
-9.09317e-11
-1.11371e-10
-5.05962e-11
-6.87776e-11
-1.07244e-10
-8.09339e-11
-1.30944e-10
-6.42079e-11
-1.06824e-10
-9.69395e-11
-9.36112e-11
-5.98365e-11
-7.61574e-11
-8.51539e-11
-1.22044e-10
-7.09282e-11
-1.10406e-10
-1.27966e-10
-1.30012e-10
-8.51087e-11
-7.08574e-11
-7.04592e-11
-1.11463e-10
-9.33989e-11
-7.03489e-11
-4.63619e-11
-6.86634e-11
-6.84328e-11
-1.19438e-10
-7.18109e-11
-7.26012e-11
-7.85294e-11
-6.99807e-11
-1.0561e-10
-7.33319e-11
-6.47598e-11
-8.22539e-11
-7.74753e-11
-9.36389e-11
-1.0446e-10
-1.002e-10
-8.54876e-11
-9.9993e-11
-7.62213e-11
-1.15883e-10
-1.24371e-10
-6.8791e-11
-1.21943e-10
-6.86221e-11
-1.20441e-10
-1.10775e-10
-1.03566e-10
-1.05112e-10
-1.23015e-10
-5.76683e-11
-7.58073e-11
-7.03457e-11
-1.23951e-10
-1.21945e-10
-1.13068e-10
-1.23378e-10
-1.25468e-10
-1.05436e-10
-1.2922e-10
-8.6375e-11
-7.77218e-11
-1.41248e-10
-8.16409e-11
-1.28305e-10
-1.02133e-10
-6.46151e-11
-7.85394e-11
-1.27869e-10
-1.06646e-10
-9.68971e-11
-1.2477e-10
-1.22597e-10
-7.87714e-11
-7.85726e-11
-7.58097e-11
-1.08774e-10
-1.19892e-10
-1.37784e-10
-1.32352e-10
-1.44011e-10
-1.30496e-10
-1.42606e-10
-1.19618e-10
-1.2529e-10
-1.2626e-10
-1.1903e-10
-1.25049e-10
-1.15239e-10
-1.13524e-10
-7.98118e-11
-1.07795e-10
-1.26071e-10
-8.73537e-11
-1.28812e-10
-1.1834e-10
-1.36692e-10
-8.17165e-11
-1.29982e-10
-1.24302e-10
-8.03412e-11
-1.11602e-10
-7.97917e-11
-1.2532e-10
-1.14195e-10
-8.36501e-11
-7.86589e-11
-6.77218e-11
-7.79115e-11
-1.25488e-10
-5.6849e-11
-9.64897e-11
-7.83595e-11
-8.81503e-11
-1.30101e-10
-1.2603e-10
-3.97545e-11
-1.26483e-10
-6.80822e-11
-7.41747e-11
-1.294e-10
-1.05161e-10
-7.50321e-11
-1.44472e-10
-8.18241e-11
-3.97541e-11
-7.58532e-11
-1.12402e-10
-1.40381e-10
-1.06262e-10
-1.25404e-10
-1.17253e-10
-6.17196e-11
-6.02238e-11
-5.08942e-11
-5.83891e-11
-8.40847e-11
-6.39618e-11
-1.03206e-10
-6.42688e-11
-1.11448e-10
-7.9469e-11
-7.5966e-11
-8.94813e-11
-8.27479e-11
-1.10432e-10
-7.93499e-11
-8.15208e-11
-3.64812e-11
-8.29298e-11
-1.19895e-10
-1.19977e-10
-1.08397e-10
-7.92083e-11
-5.20797e-11
-1.50613e-10
-1.00829e-10
-8.40361e-11
-7.74273e-11
-7.77677e-11
-7.98457e-11
-9.81079e-11
-7.84451e-11
-5.57051e-11
-7.74371e-11
-5.27857e-11
-9.65482e-11
-7.89529e-11
-3.4002e-11
-7.43904e-11
-8.85177e-11
-7.89381e-11
-1.223e-10
-8.20181e-11
-1.06181e-10
-4.01984e-11
-8.51946e-11
-8.10665e-11
-7.14185e-11
-7.60947e-11
-9.00574e-11
-8.50907e-11
-8.88966e-11
-7.52003e-11
-7.64094e-11
-8.25767e-11
-1.11009e-10
-7.78074e-11
-1.10714e-10
-9.98563e-11
-7.92086e-11
-8.07234e-11
-8.15525e-11
-9.03554e-11
-8.14352e-11
-7.61673e-11
-8.66519e-11
-9.14062e-11
-1.07635e-10
-8.15423e-11
-8.08906e-11
-1.1775e-10
-1.16104e-10
-7.78598e-11
-7.92243e-11
-3.45958e-11
-9.52226e-11
-6.54529e-11
-8.92988e-11
-3.84419e-11
-3.99058e-11
-3.56661e-11
-3.62483e-11
-3.84576e-11
-4.05064e-11
-4.17471e-11
-1.00585e-10
-7.46506e-11
-7.49182e-11
-8.54811e-11
-8.31832e-11
-8.21391e-11
-8.72061e-11
-8.03721e-11
-8.2196e-11
-8.43011e-11
-8.18337e-11
-1.01111e-10
-7.41584e-11
-1.03929e-10
-8.05507e-11
-7.7667e-11
-8.19318e-11
-8.80645e-11
-9.15822e-11
-8.52146e-11
-9.7716e-11
-9.11758e-11
-8.44317e-11
-6.07147e-11
-8.50236e-11
-8.3245e-11
-8.99856e-11
-8.56855e-11
-8.11436e-11
-7.72093e-11
-8.5115e-11
-8.88972e-11
-1.20847e-10
-7.95372e-11
-1.1749e-10
-1.22287e-10
-8.36438e-11
-1.17306e-10
-8.98812e-11
-7.18373e-11
-9.83562e-11
-8.58958e-11
-6.22898e-11
-5.37327e-11
-9.71556e-11
-1.03514e-10
-8.73145e-11
-7.25283e-11
-8.75257e-11
-4.07057e-11
-8.63276e-11
-8.09274e-11
-4.08394e-11
-1.59905e-11
-1.74929e-11
-7.4792e-11
-7.95612e-11
-9.25494e-11
-8.88464e-11
-8.23916e-12
-8.60911e-12
-8.82783e-11
-8.91903e-11
-8.44168e-11
-3.05533e-11
-7.44245e-11
-8.70014e-11
-8.83382e-11
-7.61887e-11
-6.72522e-11
-3.18065e-11
-1.28071e-10
-8.00527e-11
-9.80549e-11
-9.95882e-11
-7.14594e-11
-9.04669e-11
-6.9868e-11
-7.71079e-11
-3.78355e-11
-5.73473e-11
-9.05729e-11
-9.12479e-11
-7.83463e-11
-8.22355e-11
-8.49039e-11
-8.95421e-11
-8.56374e-11
-4.17502e-11
-7.55186e-11
-8.46063e-11
-8.03252e-11
-1.20589e-10
-4.17367e-11
-6.51025e-11
-6.70461e-11
-6.38819e-11
-4.16725e-11
-4.16749e-11
-7.31348e-11
-5.86262e-11
-8.40675e-11
-4.46664e-11
-4.97512e-11
-1.62816e-11
-1.62814e-11
-3.31404e-11
-5.39382e-11
-3.63584e-11
-7.16173e-11
-7.78139e-11
-8.27408e-11
-9.33161e-11
-8.47282e-11
-7.84694e-11
-6.16531e-11
-3.74626e-11
-7.73613e-11
-8.02863e-11
-7.77941e-11
-4.2186e-11
-3.98621e-11
-3.04293e-11
-7.76791e-11
-7.91599e-11
-6.32661e-11
-7.17761e-11
-6.62496e-11
-6.09267e-11
-8.12202e-11
-6.09206e-11
-7.16115e-11
-6.92287e-11
-4.26247e-11
-5.26308e-11
-4.79803e-11
-8.59387e-11
-3.33065e-11
-3.51005e-11
-3.43098e-11
-8.12155e-11
-3.1744e-11
-3.10331e-11
-5.62786e-11
-2.89617e-11
-6.5991e-11
-6.60901e-11
-2.97388e-11
-7.13725e-11
-3.31573e-11
-3.28089e-11
-3.71188e-11
-3.12997e-11
-3.08627e-11
-4.7048e-11
-3.67257e-11
-3.32348e-11
-3.14034e-11
-6.54596e-11
-7.49032e-11
-3.46977e-11
-7.2251e-11
-2.84573e-11
-7.33368e-11
-5.81394e-11
-2.97437e-11
-2.52806e-11
-2.80892e-11
-3.73161e-11
-6.28737e-11
-5.20994e-11
-2.18856e-11
-2.42886e-11
-7.02302e-11
-2.06007e-11
-2.06003e-11
-2.3341e-11
-2.61696e-11
-2.89366e-11
-3.43545e-11
-5.66681e-11
-5.25352e-11
-7.02646e-11
-2.06783e-11
-2.06779e-11
-6.20641e-11
-2.49056e-11
-4.99427e-11
-2.25744e-11
-2.28062e-11
-3.00528e-11
-5.33028e-11
-5.51922e-11
-5.87932e-11
-5.38839e-11
-5.33009e-11
-1.16673e-11
-8.60341e-11
-1.48719e-11
-1.44237e-11
-6.95083e-11
-6.90271e-11
-1.4948e-11
-1.03794e-11
-1.46145e-11
-6.40973e-11
SCALARS rr_P_ext' float
LOOKUP_TABLE default
2.06864e-13
4.83814e-13
3.85433e-13
5.0467e-13
2.66768e-13
4.09066e-13
2.04521e-13
5.01904e-13
4.29734e-13
5.43669e-13
1.87961e-13
5.03447e-13
4.42736e-13
4.685e-13
5.52002e-13
4.59459e-13
3.96782e-13
4.47212e-13
3.98615e-13
3.90827e-13
4.39511e-13
8.02729e-14
4.50312e-13
4.15197e-13
3.76312e-13
4.35294e-13
1.7479e-13
3.81835e-13
2.96261e-13
3.59126e-13
3.91077e-13
3.06281e-13
1.93559e-13
2.68472e-13
2.64122e-13
2.69066e-13
3.49317e-13
2.64511e-13
3.90682e-13
2.17578e-13
2.49011e-13
3.07916e-13
3.07937e-13
4.29195e-13
2.43431e-13
2.70223e-13
3.75343e-13
3.80491e-13
3.57343e-13
3.37745e-13
3.47146e-13
2.70098e-13
4.27921e-13
3.47076e-13
3.9384e-13
1.76739e-13
2.82037e-13
3.49628e-13
2.82016e-13
4.26134e-13
5.06427e-13
4.9784e-13
1.72214e-13
3.50977e-13
4.76867e-13
4.48852e-13
4.89928e-13
4.22794e-13
3.88219e-13
5.55352e-13
4.64237e-13
4.59166e-13
3.07657e-13
3.6375e-13
3.83048e-13
1.99564e-13
3.9821e-13
4.44674e-13
4.26359e-13
2.98236e-13
2.67708e-13
3.01445e-13
5.66162e-13
2.67868e-13
3.62497e-13
1.33798e-13
4.41054e-13
3.70339e-13
2.57805e-13
3.94271e-14
3.00737e-13
4.28792e-14
3.37982e-13
3.22122e-13
2.84681e-13
2.58659e-13
2.45881e-13
4.77254e-13
3.98483e-13
3.80275e-13
3.21151e-13
3.06764e-13
2.57021e-13
4.51663e-13
4.59547e-13
4.13692e-13
3.65452e-13
3.6855e-13
2.72817e-13
5.51754e-13
3.53335e-13
1.8377e-13
2.45894e-13
4.94273e-13
4.63263e-13
3.35199e-13
3.27036e-13
2.04291e-13
3.39168e-13
3.3391e-13
2.91526e-13
5.37816e-13
5.51394e-13
4.74824e-13
5.21463e-13
4.11618e-13
2.3436e-13
5.15286e-13
2.2269e-13
2.88687e-13
2.42537e-13
4.91832e-13
4.81992e-13
4.82965e-13
3.19068e-13
1.98733e-13
2.12862e-13
3.53663e-13
4.34074e-13
1.98658e-13
2.66564e-13
4.17417e-13
3.14176e-13
5.09507e-13
2.48628e-13
4.15425e-13
3.77328e-13
3.63938e-13
2.32511e-13
2.95431e-13
3.30766e-13
4.74708e-13
2.748e-13
4.29245e-13
4.97907e-13
5.05655e-13
3.31299e-13
2.74631e-13
2.73098e-13
4.33296e-13
3.62719e-13
2.72568e-13
1.79401e-13
2.65977e-13
2.65245e-13
4.6446e-13
2.7833e-13
2.81386e-13
3.04244e-13
2.71245e-13
4.12717e-13
2.84293e-13
2.50847e-13
3.20215e-13
3.00355e-13
3.65168e-13
4.08215e-13
3.89857e-13
3.34515e-13
3.89083e-13
2.95298e-13
4.50674e-13
4.837e-13
2.66622e-13
4.75253e-13
2.65792e-13
4.69194e-13
4.31999e-13
4.04757e-13
4.08808e-13
4.79447e-13
2.23323e-13
2.93905e-13
2.72539e-13
4.82081e-13
4.74083e-13
4.39619e-13
4.8079e-13
4.88012e-13
4.10725e-13
5.02644e-13
3.3531e-13
3.01362e-13
5.50422e-13
3.16296e-13
5.00039e-13
3.979e-13
2.50412e-13
3.06622e-13
4.97385e-13
4.16325e-13
3.77274e-13
4.8537e-13
4.77822e-13
3.05589e-13
3.05985e-13
2.93967e-13
4.24191e-13
4.66489e-13
5.36112e-13
5.14839e-13
5.60232e-13
5.07663e-13
5.54759e-13
4.6552e-13
4.89084e-13
4.92848e-13
4.64655e-13
4.88158e-13
4.50892e-13
4.44197e-13
3.09596e-13
4.1948e-13
4.90004e-13
3.39192e-13
5.02941e-13
4.62089e-13
5.31325e-13
3.16868e-13
5.05154e-13
4.83433e-13
3.1167e-13
4.35727e-13
3.09526e-13
4.88477e-13
4.4377e-13
3.24518e-13
3.0503e-13
2.62253e-13
3.01715e-13
4.89074e-13
2.20118e-13
3.75038e-13
3.03847e-13
3.42218e-13
5.05607e-13
4.90345e-13
1.56321e-13
4.92075e-13
2.63603e-13
2.87642e-13
5.02933e-13
4.09143e-13
2.90927e-13
5.62097e-13
3.17643e-13
1.56316e-13
2.94139e-13
4.37372e-13
5.46823e-13
4.13124e-13
4.89604e-13
4.56955e-13
2.41533e-13
2.34112e-13
1.96984e-13
2.25926e-13
3.28835e-13
2.48459e-13
4.01531e-13
2.49298e-13
4.35143e-13
3.09367e-13
2.94582e-13
3.48564e-13
3.21054e-13
4.29842e-13
3.07864e-13
3.16116e-13
1.43771e-13
3.24151e-13
4.68197e-13
4.68501e-13
4.21811e-13
3.07328e-13
2.04291e-13
5.86603e-13
3.9164e-13
3.26077e-13
3.00342e-13
3.04114e-13
3.0974e-13
3.83377e-13
3.0431e-13
2.15528e-13
3.0047e-13
2.04399e-13
3.76591e-13
3.06283e-13
1.33998e-13
2.88588e-13
3.45065e-13
3.06196e-13
4.76516e-13
3.18181e-13
4.12659e-13
1.55548e-13
3.31044e-13
3.1447e-13
2.79275e-13
2.95192e-13
3.49867e-13
3.31598e-13
3.45808e-13
2.91736e-13
2.96465e-13
3.20562e-13
4.3294e-13
3.01894e-13
4.30651e-13
3.88231e-13
3.09942e-13
3.13198e-13
3.16556e-13
3.51029e-13
3.16124e-13
2.95502e-13
3.36386e-13
3.5679e-13
4.18679e-13
3.16524e-13
3.13805e-13
4.58287e-13
4.51893e-13
3.02098e-13
3.09994e-13
1.33651e-13
3.70247e-13
2.53458e-13
3.46949e-13
1.47949e-13
1.53581e-13
1.37277e-13
1.39514e-13
1.48018e-13
1.55887e-13
1.60665e-13
3.9233e-13
2.9263e-13
2.91308e-13
3.32069e-13
3.22926e-13
3.18853e-13
3.394e-13
3.11998e-13
3.19048e-13
3.30466e-13
3.17674e-13
3.94708e-13
2.87508e-13
4.05514e-13
3.13106e-13
3.0169e-13
3.18037e-13
3.44406e-13
3.56069e-13
3.31034e-13
3.79927e-13
3.54203e-13
3.27697e-13
2.35413e-13
3.30288e-13
3.23616e-13
3.51281e-13
3.32681e-13
3.14916e-13
2.99724e-13
3.30588e-13
3.45574e-13
4.70388e-13
3.08765e-13
4.57303e-13
4.75241e-13
3.249e-13
4.56421e-13
3.49307e-13
2.78845e-13
3.83205e-13
3.33675e-13
2.44095e-13
2.07899e-13
3.78927e-13
4.04053e-13
3.39437e-13
2.81724e-13
3.40929e-13
1.57263e-13
3.35569e-13
3.14367e-13
1.58032e-13
6.30104e-14
6.8937e-14
2.9079e-13
3.08853e-13
3.59556e-13
3.44932e-13
3.26064e-14
3.40692e-14
3.43258e-13
3.46999e-13
3.28466e-13
1.18041e-13
2.88866e-13
3.39048e-13
3.43033e-13
2.95829e-13
2.6121e-13
1.22868e-13
4.99146e-13
3.10735e-13
3.81206e-13
3.87173e-13
2.77472e-13
3.51408e-13
2.71291e-13
2.99437e-13
1.46326e-13
2.22066e-13
3.51823e-13
3.54778e-13
3.04327e-13
3.19288e-13
3.29781e-13
3.47867e-13
3.32654e-13
1.61538e-13
2.94981e-13
3.28468e-13
3.12864e-13
4.69991e-13
1.61484e-13
2.52986e-13
2.6052e-13
2.49956e-13
1.64189e-13
1.64196e-13
2.85916e-13
2.27533e-13
3.26858e-13
1.72797e-13
1.9591e-13
6.43844e-14
6.43825e-14
1.28009e-13
2.11665e-13
1.42896e-13
2.78391e-13
3.0404e-13
3.21666e-13
3.63004e-13
3.30149e-13
3.06033e-13
2.39887e-13
1.44729e-13
3.00707e-13
3.12654e-13
3.03152e-13
1.63086e-13
1.56531e-13
1.1774e-13
3.02677e-13
3.08043e-13
2.45448e-13
2.78989e-13
2.57713e-13
2.38497e-13
3.15965e-13
2.38468e-13
2.78297e-13
2.69863e-13
1.67463e-13
2.06801e-13
1.85627e-13
3.34484e-13
1.28709e-13
1.35666e-13
1.32562e-13
3.16484e-13
1.22636e-13
1.19881e-13
2.18512e-13
1.11912e-13
2.58513e-13
2.58895e-13
1.14931e-13
2.77238e-13
1.28236e-13
1.26784e-13
1.43539e-13
1.2095e-13
1.19348e-13
1.84676e-13
1.42052e-13
1.28396e-13
1.21358e-13
2.54632e-13
2.92212e-13
1.34161e-13
2.811e-13
1.09938e-13
2.85431e-13
2.25855e-13
1.14925e-13
9.77428e-14
1.08521e-13
1.44138e-13
2.44371e-13
2.04209e-13
8.65063e-14
9.59708e-14
2.73431e-13
8.14224e-14
8.14196e-14
9.22383e-14
1.03204e-13
1.1194e-13
1.34949e-13
2.21574e-13
2.05945e-13
2.73508e-13
8.15985e-14
8.15958e-14
2.43393e-13
9.61947e-14
1.93982e-13
8.72037e-14
8.82396e-14
1.16277e-13
2.098e-13
2.17219e-13
2.31345e-13
2.12041e-13
2.09787e-13
4.6092e-14
3.3854e-13
5.86852e-14
5.70154e-14
2.73608e-13
2.71723e-13
5.90937e-14
4.10055e-14
5.76709e-14
2.52229e-13
SCALARS rr_S' float
LOOKUP_TABLE default
5.2692e-11
1.22458e-10
9.76371e-11
1.27793e-10
6.7095e-11
1.03623e-10
5.20969e-11
1.27041e-10
1.0895e-10
1.37607e-10
4.78827e-11
1.2743e-10
1.12102e-10
1.18517e-10
1.39184e-10
1.16398e-10
1.00305e-10
1.13235e-10
1.01094e-10
9.90318e-11
1.1137e-10
1.99947e-11
1.14111e-10
1.05199e-10
9.5354e-11
1.1018e-10
4.44851e-11
9.6682e-11
7.52786e-11
8.99797e-11
9.90314e-11
7.78221e-11
4.92653e-11
6.73589e-11
6.62388e-11
6.75097e-11
8.749e-11
6.63627e-11
9.8926e-11
5.53779e-11
6.32705e-11
7.71109e-11
7.71179e-11
1.08688e-10
6.19317e-11
6.86574e-11
9.51749e-11
9.64566e-11
9.05004e-11
8.58508e-11
8.82171e-11
6.85835e-11
1.07664e-10
8.81336e-11
9.911e-11
4.49546e-11
7.07266e-11
8.87793e-11
7.07232e-11
1.07968e-10
1.28035e-10
1.25655e-10
4.38068e-11
8.85876e-11
1.20357e-10
1.13428e-10
1.23855e-10
1.07015e-10
9.8375e-11
1.40549e-10
1.16808e-10
1.15534e-10
7.8175e-11
9.18597e-11
9.70479e-11
5.08107e-11
1.00347e-10
1.12375e-10
1.07913e-10
7.57173e-11
6.80514e-11
7.57687e-11
1.43006e-10
6.81077e-11
9.20889e-11
3.40378e-11
1.11684e-10
9.35505e-11
6.55874e-11
9.83194e-12
7.63665e-11
1.0693e-11
8.5153e-11
8.1405e-11
7.22871e-11
6.57363e-11
6.2503e-11
1.2081e-10
1.0042e-10
9.63021e-11
8.14847e-11
7.79239e-11
6.53462e-11
1.14369e-10
1.16287e-10
1.04736e-10
9.2254e-11
9.334e-11
6.9365e-11
1.39621e-10
8.952e-11
4.67454e-11
6.25298e-11
1.25153e-10
1.17294e-10
8.51169e-11
8.20146e-11
5.19344e-11
8.50632e-11
8.47859e-11
7.39475e-11
1.35654e-10
1.3956e-10
1.19997e-10
1.31935e-10
1.03736e-10
5.88274e-11
1.30437e-10
5.66094e-11
7.33002e-11
6.10128e-11
1.245e-10
1.21768e-10
1.22251e-10
8.10487e-11
4.98309e-11
5.41262e-11
8.95216e-11
1.09646e-10
4.98134e-11
6.77061e-11
1.05582e-10
7.96762e-11
1.28914e-10
6.32054e-11
1.05168e-10
9.54363e-11
9.21588e-11
5.89083e-11
7.49728e-11
8.38317e-11
1.20152e-10
6.98222e-11
1.08694e-10
1.25983e-10
1.27997e-10
8.37899e-11
6.97537e-11
6.93617e-11
1.09735e-10
9.1949e-11
6.9252e-11
4.56369e-11
6.75923e-11
6.73668e-11
1.17587e-10
7.06924e-11
7.14702e-11
7.73049e-11
6.88906e-11
1.03975e-10
7.219e-11
6.37496e-11
8.09794e-11
7.6269e-11
9.21882e-11
1.02843e-10
9.8646e-11
8.41643e-11
9.84429e-11
7.50328e-11
1.14087e-10
1.22444e-10
6.77193e-11
1.20053e-10
6.75515e-11
1.18575e-10
1.09059e-10
1.01962e-10
1.03483e-10
1.21108e-10
5.67682e-11
7.46269e-11
6.92488e-11
1.2203e-10
1.20054e-10
1.11315e-10
1.21467e-10
1.23524e-10
1.03802e-10
1.27217e-10
8.50332e-11
7.6512e-11
1.3906e-10
8.03679e-11
1.26318e-10
1.00551e-10
6.36082e-11
7.7323e-11
1.25887e-10
1.04994e-10
9.53951e-11
1.22836e-10
1.20698e-10
7.75462e-11
7.73548e-11
7.46299e-11
1.07089e-10
1.18034e-10
1.35649e-10
1.30302e-10
1.41779e-10
1.28474e-10
1.40396e-10
1.17763e-10
1.2335e-10
1.24305e-10
1.17186e-10
1.23112e-10
1.13455e-10
1.11766e-10
7.85703e-11
1.06124e-10
1.24117e-10
8.59975e-11
1.26818e-10
1.16508e-10
1.34573e-10
8.04445e-11
1.27967e-10
1.22376e-10
7.90917e-11
1.09873e-10
7.85507e-11
1.23379e-10
1.12425e-10
8.23492e-11
7.74348e-11
6.66645e-11
7.66952e-11
1.23544e-10
5.59612e-11
9.49935e-11
7.714e-11
8.67808e-11
1.28085e-10
1.24077e-10
3.91394e-11
1.24523e-10
6.70189e-11
7.30202e-11
1.27394e-10
1.03531e-10
7.38641e-11
1.42234e-10
8.05527e-11
3.9139e-11
7.46727e-11
1.1066e-10
1.38206e-10
1.04614e-10
1.23463e-10
1.15436e-10
6.07642e-11
5.929e-11
5.00985e-11
5.74759e-11
8.27828e-11
6.29692e-11
1.01606e-10
6.32692e-11
1.09722e-10
7.82376e-11
7.47837e-11
8.80945e-11
8.14614e-11
1.0872e-10
7.81163e-11
8.02519e-11
3.59169e-11
8.16458e-11
1.18038e-10
1.18119e-10
1.06717e-10
7.79769e-11
5.12737e-11
1.48279e-10
9.92638e-11
8.27297e-11
7.62232e-11
7.65637e-11
7.86039e-11
9.65888e-11
7.72254e-11
5.48337e-11
7.62333e-11
5.19615e-11
9.50525e-11
7.77249e-11
3.3476e-11
7.32337e-11
8.71462e-11
7.77102e-11
1.20406e-10
8.07428e-11
1.04534e-10
3.95692e-11
8.38729e-11
7.98057e-11
7.03126e-11
7.4911e-11
8.86591e-11
8.37724e-11
8.7519e-11
7.4031e-11
7.52216e-11
8.12935e-11
1.0929e-10
7.65978e-11
1.08997e-10
9.83073e-11
7.79824e-11
7.94685e-11
8.02852e-11
8.89529e-11
8.01699e-11
7.49831e-11
8.53056e-11
8.99903e-11
1.05966e-10
8.02753e-11
7.96324e-11
1.15924e-10
1.14304e-10
7.66493e-11
7.79979e-11
3.40527e-11
9.37453e-11
6.44311e-11
8.79127e-11
3.7834e-11
3.92748e-11
3.51021e-11
3.56751e-11
3.78495e-11
3.98659e-11
4.1087e-11
9.90273e-11
7.34951e-11
7.37564e-11
8.41538e-11
8.18909e-11
8.08629e-11
8.58541e-11
7.91232e-11
8.09188e-11
8.29962e-11
8.05622e-11
9.95452e-11
7.30036e-11
1.0232e-10
7.9301e-11
7.64611e-11
8.06588e-11
8.6701e-11
9.01615e-11
8.38916e-11
9.62001e-11
8.97603e-11
8.31199e-11
5.97695e-11
8.37035e-11
8.19535e-11
8.85921e-11
8.43544e-11
7.98826e-11
7.60099e-11
8.37934e-11
8.75179e-11
1.18974e-10
7.83016e-11
1.15668e-10
1.20389e-10
8.23451e-11
1.15487e-10
8.84867e-11
7.07212e-11
9.68324e-11
8.45625e-11
6.13256e-11
5.28922e-11
9.56506e-11
1.01911e-10
8.59597e-11
7.14026e-11
8.61694e-11
4.00667e-11
8.49883e-11
7.96712e-11
4.02003e-11
1.57432e-11
1.72223e-11
7.36317e-11
7.83251e-11
9.1113e-11
8.74663e-11
8.11176e-12
8.47599e-12
8.69098e-11
8.78074e-11
8.31078e-11
3.00737e-11
7.3268e-11
8.56537e-11
8.69667e-11
7.50057e-11
6.6208e-11
3.13071e-11
1.26087e-10
7.88089e-11
9.65337e-11
9.80432e-11
7.03499e-11
8.90624e-11
6.87832e-11
7.59108e-11
3.7243e-11
5.64519e-11
8.91667e-11
8.98323e-11
7.71302e-11
8.09586e-11
8.3586e-11
8.81523e-11
8.43081e-11
4.10972e-11
7.43491e-11
8.32919e-11
7.90804e-11
1.1872e-10
4.10838e-11
6.40927e-11
6.6006e-11
6.28929e-11
4.10278e-11
4.10301e-11
7.20024e-11
5.77152e-11
8.27631e-11
4.39675e-11
4.89815e-11
1.60299e-11
1.60297e-11
3.262e-11
5.31036e-11
3.57958e-11
7.05061e-11
7.6609e-11
8.14579e-11
9.187e-11
8.34156e-11
7.72538e-11
6.06971e-11
3.68745e-11
7.61615e-11
7.90421e-11
7.65891e-11
4.15247e-11
3.92452e-11
2.9953e-11
7.64758e-11
7.7933e-11
6.22822e-11
7.06632e-11
6.52223e-11
5.99835e-11
7.9961e-11
5.99775e-11
7.05008e-11
6.81561e-11
4.1965e-11
5.18164e-11
4.72297e-11
8.46068e-11
3.27832e-11
3.45491e-11
3.37706e-11
7.99571e-11
3.12456e-11
3.05452e-11
5.54047e-11
2.85065e-11
6.49697e-11
6.50673e-11
2.92715e-11
7.02648e-11
3.26381e-11
3.22933e-11
3.65373e-11
3.08079e-11
3.03792e-11
4.632e-11
3.61509e-11
3.27131e-11
3.091e-11
6.44445e-11
7.37431e-11
3.4154e-11
7.11306e-11
2.801e-11
7.21999e-11
5.7237e-11
2.92762e-11
2.48844e-11
2.76477e-11
3.67301e-11
6.18981e-11
5.12931e-11
2.15471e-11
2.3913e-11
6.91416e-11
2.02821e-11
2.02817e-11
2.29801e-11
2.57648e-11
2.84837e-11
3.38228e-11
5.57906e-11
5.17222e-11
6.91754e-11
2.03584e-11
2.03581e-11
6.11037e-11
2.45145e-11
4.91675e-11
2.22199e-11
2.24491e-11
2.95823e-11
5.24782e-11
5.43383e-11
5.78836e-11
5.30502e-11
5.24762e-11
1.14868e-11
8.4703e-11
1.46419e-11
1.42007e-11
6.84329e-11
6.79591e-11
1.47168e-11
1.02189e-11
1.43884e-11
6.31055e-11
SCALARS rr_P' float
LOOKUP_TABLE default
6.34016e-13
1.44377e-12
1.15305e-12
1.50706e-12
7.8813e-13
1.22381e-12
6.26896e-13
1.49873e-12
1.28873e-12
1.62251e-12
5.75362e-13
1.50333e-12
1.32296e-12
1.39722e-12
1.6371e-12
1.37412e-12
1.18185e-12
1.33609e-12
1.19688e-12
1.17008e-12
1.31623e-12
2.33784e-13
1.34861e-12
1.24293e-12
1.12666e-12
1.29969e-12
5.32983e-13
1.14166e-12
8.96187e-13
1.05493e-12
1.16875e-12
9.26434e-13
5.90425e-13
7.90428e-13
7.76848e-13
7.92206e-13
1.02561e-12
7.7842e-13
1.16757e-12
6.63642e-13
7.53282e-13
9.03891e-13
9.03983e-13
1.28269e-12
7.40755e-13
8.17112e-13
1.12633e-12
1.14055e-12
1.0688e-12
1.02336e-12
1.0508e-12
8.14785e-13
1.26496e-12
1.04695e-12
1.16459e-12
5.37338e-13
8.29456e-13
1.05463e-12
8.29425e-13
1.27557e-12
1.50867e-12
1.47862e-12
5.24164e-13
1.04254e-12
1.41625e-12
1.3366e-12
1.45935e-12
1.26234e-12
1.16247e-12
1.65703e-12
1.37243e-12
1.35747e-12
9.30722e-13
1.08191e-12
1.14595e-12
6.09475e-13
1.17998e-12
1.3242e-12
1.27297e-12
8.99131e-13
8.11528e-13
8.8956e-13
1.68398e-12
8.12666e-13
1.09565e-12
4.07016e-13
1.31878e-12
1.10211e-12
7.84463e-13
1.15047e-13
9.07205e-13
1.25126e-13
1.00126e-12
9.59484e-13
8.58572e-13
7.83172e-13
7.45331e-13
1.42446e-12
1.18085e-12
1.13666e-12
9.6581e-13
9.2664e-13
7.79767e-13
1.34916e-12
1.37154e-12
1.23505e-12
1.08624e-12
1.10187e-12
8.27741e-13
1.64576e-12
1.0576e-12
5.58732e-13
7.46702e-13
1.47658e-12
1.38324e-12
1.01105e-12
9.61849e-13
6.19344e-13
9.97645e-13
1.00705e-12
8.75874e-13
1.59581e-12
1.64546e-12
1.41344e-12
1.55501e-12
1.2201e-12
6.90261e-13
1.53798e-12
6.75044e-13
8.70629e-13
7.1692e-13
1.46804e-12
1.43397e-12
1.44142e-12
9.63768e-13
5.84419e-13
6.46175e-13
1.05641e-12
1.29112e-12
5.8422e-13
8.04931e-13
1.24505e-12
9.43458e-13
1.52015e-12
7.53829e-13
1.24042e-12
1.12581e-12
1.08844e-12
6.95675e-13
8.89179e-13
9.91404e-13
1.41663e-12
8.31246e-13
1.28266e-12
1.48559e-12
1.50925e-12
9.87562e-13
8.29091e-13
8.24386e-13
1.29496e-12
1.08722e-12
8.24334e-13
5.4556e-13
8.05128e-13
8.00756e-13
1.38657e-12
8.40263e-13
8.49531e-13
9.20308e-13
8.18831e-13
1.22253e-12
8.57563e-13
7.59368e-13
9.54268e-13
9.05971e-13
1.08553e-12
1.20923e-12
1.16389e-12
9.88757e-13
1.16102e-12
8.93232e-13
1.34521e-12
1.44379e-12
8.05065e-13
1.41427e-12
8.04759e-13
1.3967e-12
1.28402e-12
1.1988e-12
1.22015e-12
1.42668e-12
6.76784e-13
8.86494e-13
8.24383e-13
1.43884e-12
1.4166e-12
1.31338e-12
1.43044e-12
1.45641e-12
1.22323e-12
1.49992e-12
1.00647e-12
9.08411e-13
1.63765e-12
9.56714e-13
1.48743e-12
1.18489e-12
7.56509e-13
9.09874e-13
1.4842e-12
1.23522e-12
1.12464e-12
1.44881e-12
1.42124e-12
9.19647e-13
9.11848e-13
8.85879e-13
1.26084e-12
1.3912e-12
1.59884e-12
1.53605e-12
1.67122e-12
1.51437e-12
1.65492e-12
1.38854e-12
1.45097e-12
1.46227e-12
1.37848e-12
1.44815e-12
1.33316e-12
1.31331e-12
9.31913e-13
1.2512e-12
1.46393e-12
1.01694e-12
1.49164e-12
1.37029e-12
1.58719e-12
9.55064e-13
1.5094e-12
1.44291e-12
9.3787e-13
1.29289e-12
9.3154e-13
1.45276e-12
1.32617e-12
9.76467e-13
9.19098e-13
7.95035e-13
9.14539e-13
1.45473e-12
6.67639e-13
1.1212e-12
9.15684e-13
1.02732e-12
1.51082e-12
1.46246e-12
4.58764e-13
1.46777e-12
7.99668e-13
8.66798e-13
1.50259e-12
1.22149e-12
8.77012e-13
1.6765e-12
9.53742e-13
4.58763e-13
8.8636e-13
1.30425e-12
1.62808e-12
1.23428e-12
1.45222e-12
1.36e-12
7.13948e-13
6.99676e-13
5.98632e-13
6.87289e-13
9.73047e-13
7.44127e-13
1.19878e-12
7.50293e-13
1.29109e-12
9.21965e-13
8.87707e-13
1.03825e-12
9.65449e-13
1.28238e-12
9.25777e-13
9.52737e-13
4.20567e-13
9.59853e-13
1.38835e-12
1.38934e-12
1.25825e-12
9.2399e-13
6.01757e-13
1.74681e-12
1.1737e-12
9.80249e-13
9.03704e-13
8.99939e-13
9.32096e-13
1.13572e-12
9.15383e-13
6.55815e-13
9.03386e-13
6.198e-13
1.11914e-12
9.2167e-13
3.91994e-13
8.68072e-13
1.0264e-12
9.21705e-13
1.4182e-12
9.57143e-13
1.2342e-12
4.73619e-13
9.90661e-13
9.46384e-13
8.26541e-13
8.88458e-13
1.04836e-12
9.86741e-13
1.03181e-12
8.77562e-13
8.91358e-13
9.62568e-13
1.28676e-12
9.07703e-13
1.2859e-12
1.16081e-12
9.16254e-13
9.41675e-13
9.50702e-13
1.05149e-12
9.49127e-13
8.8872e-13
1.00989e-12
1.0591e-12
1.25021e-12
9.50498e-13
9.44392e-13
1.36708e-12
1.34794e-12
9.08394e-13
9.16447e-13
4.09482e-13
1.10705e-12
7.68369e-13
1.03912e-12
4.59959e-13
4.7746e-13
4.26689e-13
4.33675e-13
4.60079e-13
4.84668e-13
4.99468e-13
1.16585e-12
8.62881e-13
8.70415e-13
9.95175e-13
9.69437e-13
9.57339e-13
1.01262e-12
9.36888e-13
9.58226e-13
9.7439e-13
9.53793e-13
1.17117e-12
8.67275e-13
1.20384e-12
9.36661e-13
9.04208e-13
9.54994e-13
1.01906e-12
1.0647e-12
9.91948e-13
1.136e-12
1.06133e-12
9.84202e-13
7.09804e-13
9.8989e-13
9.67935e-13
1.04223e-12
9.98428e-13
9.46047e-13
8.99691e-13
9.91032e-13
1.03371e-12
1.40327e-12
9.26846e-13
1.36432e-12
1.42214e-12
9.73868e-13
1.36251e-12
1.04522e-12
8.37314e-13
1.14054e-12
9.99667e-13
7.20058e-13
6.32583e-13
1.12607e-12
1.1994e-12
1.0153e-12
8.44013e-13
1.0154e-12
4.8167e-13
1.00382e-12
9.41867e-13
4.81116e-13
1.84362e-13
2.01677e-13
8.69533e-13
9.2723e-13
1.07688e-12
1.03522e-12
9.47963e-14
9.90519e-14
1.02517e-12
1.03589e-12
9.8059e-13
3.61551e-13
8.67627e-13
1.00863e-12
1.02841e-12
8.87116e-13
7.83014e-13
3.76513e-13
1.48542e-12
9.33041e-13
1.14001e-12
1.15784e-12
8.32084e-13
1.05309e-12
8.13557e-13
8.97725e-13
4.46249e-13
6.73332e-13
1.05435e-12
1.06087e-12
9.11762e-13
9.57621e-13
9.88203e-13
1.04197e-12
9.96623e-13
4.9151e-13
8.74561e-13
9.85952e-13
9.31896e-13
1.39848e-12
4.91418e-13
7.56871e-13
7.79598e-13
7.3895e-13
4.80522e-13
4.80552e-13
8.46551e-13
6.83466e-13
9.77481e-13
5.26011e-13
5.73833e-13
1.8738e-13
1.87378e-13
3.92391e-13
6.22904e-13
4.19693e-13
8.32838e-13
9.00846e-13
9.61257e-13
1.08312e-12
9.82486e-13
9.09642e-13
7.16143e-13
4.43318e-13
8.99143e-13
9.31556e-13
9.01911e-13
4.98152e-13
4.60338e-13
3.58602e-13
9.00629e-13
9.18827e-13
7.38395e-13
8.3392e-13
7.69549e-13
7.04749e-13
9.43185e-13
7.04685e-13
8.32449e-13
8.02656e-13
4.92151e-13
6.07616e-13
5.65003e-13
9.97368e-13
3.94639e-13
4.15737e-13
4.06711e-13
9.41929e-13
3.75734e-13
3.68022e-13
6.55346e-13
3.43243e-13
7.62751e-13
7.63902e-13
3.52341e-13
8.30524e-13
3.91043e-13
3.88783e-13
4.37937e-13
3.7093e-13
3.6413e-13
5.43309e-13
4.32797e-13
3.93346e-13
3.72078e-13
7.60426e-13
8.67978e-13
4.09503e-13
8.39328e-13
3.37435e-13
8.51445e-13
6.76459e-13
3.52534e-13
2.98457e-13
3.33027e-13
4.41832e-13
7.31204e-13
6.02083e-13
2.51944e-13
2.79657e-13
8.15166e-13
2.37162e-13
2.37159e-13
2.68729e-13
3.01625e-13
3.40875e-13
3.96691e-13
6.55868e-13
6.07137e-13
8.15734e-13
2.38269e-13
2.38266e-13
7.17049e-13
2.94955e-13
5.81178e-13
2.67272e-13
2.68855e-13
3.54238e-13
6.14873e-13
6.36691e-13
6.78288e-13
6.21631e-13
6.14855e-13
1.34343e-13
9.92515e-13
1.71364e-13
1.66038e-13
8.01797e-13
7.96232e-13
1.72062e-13
1.19506e-13
1.68384e-13
7.39585e-13
SCALARS rr_T' float
LOOKUP_TABLE default
8.40299e-13
1.92626e-12
1.53743e-12
2.01034e-12
1.05417e-12
1.63175e-12
8.30843e-13
1.99925e-12
1.71728e-12
2.16469e-12
7.62796e-13
2.00539e-12
1.76448e-12
1.86443e-12
2.18759e-12
1.83232e-12
1.57754e-12
1.78207e-12
1.5944e-12
1.55983e-12
1.75453e-12
3.13839e-13
1.79768e-12
1.65699e-12
1.50193e-12
1.73378e-12
7.07285e-13
1.52245e-12
1.19163e-12
1.41308e-12
1.55875e-12
1.23186e-12
7.83443e-13
1.05817e-12
1.04025e-12
1.06054e-12
1.37397e-12
1.04221e-12
1.55718e-12
8.80612e-13
1.0016e-12
1.21097e-12
1.21108e-12
1.7107e-12
9.83507e-13
1.08659e-12
1.50063e-12
1.51999e-12
1.42516e-12
1.36017e-12
1.39698e-12
1.08413e-12
1.69171e-12
1.39307e-12
1.55735e-12
7.13585e-13
1.11072e-12
1.40329e-12
1.11067e-12
1.70053e-12
2.01371e-12
1.97509e-12
6.95897e-13
1.39255e-12
1.89181e-12
1.78422e-12
1.94793e-12
1.68397e-12
1.54962e-12
2.21086e-12
1.8354e-12
1.81538e-12
1.23753e-12
1.44467e-12
1.52795e-12
8.0848e-13
1.5771e-12
1.76765e-12
1.69816e-12
1.19654e-12
1.07849e-12
1.19018e-12
2.24859e-12
1.07979e-12
1.45714e-12
5.40441e-13
1.75862e-12
1.47144e-12
1.04155e-12
1.54367e-13
1.20711e-12
1.67889e-13
1.33831e-12
1.28072e-12
1.14246e-12
1.04111e-12
9.90527e-13
1.9004e-12
1.57824e-12
1.51589e-12
1.28607e-12
1.23255e-12
1.03607e-12
1.79959e-12
1.82982e-12
1.6476e-12
1.45069e-12
1.46941e-12
1.0998e-12
2.19599e-12
1.40997e-12
7.4199e-13
9.91911e-13
1.9695e-12
1.84523e-12
1.34532e-12
1.28799e-12
8.23067e-13
1.33589e-12
1.34003e-12
1.16659e-12
2.13216e-12
2.19534e-12
1.88696e-12
2.07504e-12
1.63059e-12
9.23982e-13
2.05185e-12
8.97115e-13
1.15852e-12
9.58795e-13
1.95852e-12
1.91464e-12
1.92306e-12
1.28195e-12
7.8261e-13
8.58444e-13
1.4091e-12
1.72401e-12
7.82336e-13
1.07076e-12
1.66132e-12
1.25677e-12
2.02826e-12
1.00176e-12
1.6547e-12
1.5021e-12
1.45137e-12
9.27546e-13
1.18379e-12
1.32126e-12
1.89004e-12
1.10528e-12
1.71073e-12
1.98213e-12
2.01351e-12
1.31795e-12
1.10296e-12
1.09673e-12
1.72706e-12
1.44894e-12
1.09615e-12
7.24461e-13
1.07037e-12
1.06527e-12
1.84975e-12
1.11782e-12
1.13014e-12
1.22371e-12
1.08932e-12
1.63412e-12
1.14107e-12
1.00952e-12
1.2736e-12
1.20549e-12
1.44969e-12
1.61633e-12
1.55268e-12
1.32236e-12
1.54904e-12
1.18771e-12
1.79464e-12
1.92616e-12
1.07095e-12
1.88822e-12
1.06981e-12
1.86461e-12
1.71484e-12
1.60245e-12
1.62783e-12
1.90481e-12
8.99485e-13
1.17958e-12
1.09617e-12
1.91959e-12
1.88938e-12
1.75179e-12
1.90991e-12
1.94308e-12
1.63282e-12
2.00119e-12
1.34085e-12
1.20894e-12
2.18656e-12
1.27213e-12
1.98609e-12
1.5817e-12
1.00623e-12
1.21566e-12
1.98021e-12
1.65041e-12
1.50088e-12
1.93284e-12
1.89775e-12
1.22439e-12
1.21699e-12
1.17903e-12
1.68386e-12
1.85641e-12
2.13348e-12
2.04948e-12
2.22992e-12
2.02064e-12
2.20816e-12
1.85278e-12
1.93871e-12
1.95377e-12
1.84186e-12
1.93497e-12
1.78282e-12
1.7563e-12
1.24065e-12
1.66953e-12
1.95258e-12
1.35519e-12
1.9932e-12
1.83111e-12
2.11706e-12
1.27105e-12
2.01317e-12
1.92501e-12
1.24868e-12
1.72743e-12
1.24021e-12
1.9399e-12
1.76872e-12
1.30009e-12
1.22328e-12
1.05656e-12
1.21541e-12
1.94246e-12
8.87144e-13
1.49521e-12
1.21869e-12
1.3686e-12
2.01504e-12
1.95146e-12
6.1466e-13
1.95849e-12
1.06254e-12
1.15364e-12
2.00414e-12
1.62951e-12
1.16713e-12
2.23705e-12
1.27051e-12
6.14654e-13
1.17968e-12
1.74042e-12
2.1734e-12
1.64627e-12
1.94049e-12
1.81571e-12
9.54821e-13
9.33144e-13
7.95067e-13
9.12585e-13
1.30098e-12
9.91901e-13
1.5992e-12
9.98902e-13
1.72504e-12
1.23048e-12
1.18147e-12
1.38586e-12
1.28562e-12
1.71104e-12
1.23279e-12
1.26798e-12
5.63948e-13
1.28312e-12
1.85527e-12
1.85656e-12
1.6789e-12
1.23047e-12
8.05491e-13
2.3318e-12
1.56426e-12
1.30542e-12
1.20322e-12
1.20322e-12
1.24098e-12
1.51805e-12
1.21885e-12
8.70742e-13
1.20303e-12
8.2363e-13
1.4947e-12
1.22711e-12
5.25627e-13
1.15586e-12
1.37052e-12
1.22705e-12
1.8934e-12
1.27445e-12
1.64573e-12
6.28733e-13
1.32079e-12
1.25998e-12
1.10505e-12
1.18283e-12
1.39727e-12
1.31743e-12
1.37667e-12
1.16849e-12
1.187e-12
1.28224e-12
1.71851e-12
1.20876e-12
1.71537e-12
1.54797e-12
1.22535e-12
1.25401e-12
1.26638e-12
1.40155e-12
1.26438e-12
1.1834e-12
1.34535e-12
1.41491e-12
1.66774e-12
1.26615e-12
1.25733e-12
1.82411e-12
1.79859e-12
1.20966e-12
1.22559e-12
5.42758e-13
1.47628e-12
1.02112e-12
1.38511e-12
6.07487e-13
6.30606e-13
5.63576e-13
5.72794e-13
6.07677e-13
6.40112e-13
6.59676e-13
1.5571e-12
1.15471e-12
1.16092e-12
1.32633e-12
1.29147e-12
1.27531e-12
1.35109e-12
1.24802e-12
1.27639e-12
1.30395e-12
1.27059e-12
1.56479e-12
1.15399e-12
1.60824e-12
1.2489e-12
1.20507e-12
1.27215e-12
1.36252e-12
1.41979e-12
1.32207e-12
1.51488e-12
1.41456e-12
1.31099e-12
9.44564e-13
1.31927e-12
1.29066e-12
1.39255e-12
1.33019e-12
1.26009e-12
1.19859e-12
1.32071e-12
1.37833e-12
1.87237e-12
1.23476e-12
1.82036e-12
1.89607e-12
1.29787e-12
1.81768e-12
1.39356e-12
1.11539e-12
1.52269e-12
1.33242e-12
9.63486e-13
8.39902e-13
1.50396e-12
1.60235e-12
1.3538e-12
1.12496e-12
1.35539e-12
6.38492e-13
1.33846e-12
1.25537e-12
6.38707e-13
2.47201e-13
2.70426e-13
1.15952e-12
1.23523e-12
1.43545e-12
1.3792e-12
1.27314e-13
1.33029e-13
1.36749e-12
1.38194e-12
1.30815e-12
4.79261e-13
1.1557e-12
1.34675e-12
1.3705e-12
1.18213e-12
1.0435e-12
4.99036e-13
1.9832e-12
1.24292e-12
1.52017e-12
1.54395e-12
1.10879e-12
1.40353e-12
1.0841e-12
1.19634e-12
5.92165e-13
8.9478e-13
1.4052e-12
1.41467e-12
1.21525e-12
1.27603e-12
1.31708e-12
1.38888e-12
1.32836e-12
6.52597e-13
1.16873e-12
1.31351e-12
1.2439e-12
1.86718e-12
6.52452e-13
1.00916e-12
1.0394e-12
9.88223e-13
6.44265e-13
6.44302e-13
1.13168e-12
9.10371e-13
1.30344e-12
6.98326e-13
7.69211e-13
2.5159e-13
2.51586e-13
5.20041e-13
8.33992e-13
5.622e-13
1.11046e-12
1.20405e-12
1.28204e-12
1.44513e-12
1.31173e-12
1.21484e-12
9.55371e-13
5.87641e-13
1.19902e-12
1.24335e-12
1.20423e-12
6.60781e-13
6.16442e-13
4.76014e-13
1.20248e-12
1.22602e-12
9.83164e-13
1.11214e-12
1.02655e-12
9.42595e-13
1.25828e-12
9.42501e-13
1.10998e-12
1.07178e-12
6.59158e-13
8.13853e-13
7.50112e-13
1.33093e-12
5.22986e-13
5.51022e-13
5.38901e-13
1.25754e-12
4.98026e-13
4.87566e-13
8.73255e-13
4.5484e-13
1.02056e-12
1.02209e-12
4.66949e-13
1.107e-12
5.18921e-13
5.1521e-13
5.81075e-13
4.91541e-13
4.83144e-13
7.27482e-13
5.74452e-13
5.21382e-13
4.93096e-13
1.01436e-12
1.15939e-12
5.43289e-13
1.11966e-12
4.47064e-13
1.13609e-12
9.01692e-13
4.67137e-13
3.95927e-13
4.41243e-13
5.85565e-13
9.74902e-13
8.05734e-13
3.38216e-13
3.75368e-13
1.08785e-12
3.18364e-13
3.18358e-13
3.60717e-13
4.04549e-13
4.52503e-13
5.31272e-13
8.76836e-13
8.12521e-13
1.08849e-12
3.19646e-13
3.1964e-13
9.59778e-13
3.90879e-13
7.74626e-13
3.54231e-13
3.56848e-13
4.70191e-13
8.24102e-13
8.53319e-13
9.09003e-13
8.33094e-13
8.24072e-13
1.8031e-13
1.33013e-12
2.2989e-13
2.22899e-13
1.07466e-12
1.06722e-12
2.30996e-13
1.604e-13
2.25899e-13
9.91128e-13
SCALARS rr_uec(SIM,_S_ext) float
LOOKUP_TABLE default
3.44783e-09
7.84127e-09
6.26327e-09
8.18533e-09
4.27757e-09
6.64758e-09
3.40913e-09
8.14006e-09
7.00112e-09
8.81197e-09
3.12879e-09
8.16499e-09
7.18567e-09
7.58812e-09
8.88743e-09
7.46403e-09
6.41792e-09
7.25687e-09
6.5026e-09
6.35603e-09
7.15e-09
1.26765e-09
7.32589e-09
6.75169e-09
6.12018e-09
7.05893e-09
2.89777e-09
6.20109e-09
4.87072e-09
5.72328e-09
6.34815e-09
5.03508e-09
3.21013e-09
4.28897e-09
4.2151e-09
4.29864e-09
5.56404e-09
4.2238e-09
6.34171e-09
3.60819e-09
4.09402e-09
4.90367e-09
4.9042e-09
6.96704e-09
4.02706e-09
4.44088e-09
6.1191e-09
6.19602e-09
5.80551e-09
5.56234e-09
5.71119e-09
4.42769e-09
6.86579e-09
5.68936e-09
6.32114e-09
2.92106e-09
4.50051e-09
5.73107e-09
4.50037e-09
6.92895e-09
8.19277e-09
8.02804e-09
2.84956e-09
5.66044e-09
7.68937e-09
7.25813e-09
7.92482e-09
6.85608e-09
6.31474e-09
8.99929e-09
7.44912e-09
7.36796e-09
5.05843e-09
5.8747e-09
6.22474e-09
3.31392e-09
6.40559e-09
7.19082e-09
6.9138e-09
4.88591e-09
4.411e-09
4.82778e-09
9.14375e-09
4.41738e-09
5.95449e-09
2.21268e-09
7.16321e-09
5.98453e-09
4.26467e-09
6.23871e-10
4.92994e-09
6.78527e-10
5.43527e-09
5.21032e-09
4.66561e-09
4.25667e-09
4.05119e-09
7.73644e-09
6.41036e-09
6.17392e-09
5.24759e-09
5.03588e-09
4.23854e-09
7.3279e-09
7.44892e-09
6.70785e-09
5.89787e-09
5.98501e-09
4.49933e-09
8.93783e-09
5.74493e-09
3.03739e-09
4.05899e-09
8.01996e-09
7.51282e-09
5.49421e-09
5.21882e-09
3.36643e-09
5.41306e-09
5.47245e-09
4.75871e-09
8.66364e-09
8.93658e-09
7.67525e-09
8.44475e-09
6.62347e-09
3.74556e-09
8.35297e-09
3.66916e-09
4.73109e-09
3.89115e-09
7.97316e-09
7.7864e-09
7.82851e-09
5.23764e-09
3.17092e-09
3.51247e-09
5.73778e-09
7.01058e-09
3.16986e-09
4.37436e-09
6.76167e-09
5.12575e-09
8.2559e-09
4.09742e-09
6.73704e-09
6.11416e-09
5.91206e-09
3.77885e-09
4.83142e-09
5.38569e-09
7.69378e-09
4.51775e-09
6.96684e-09
8.06825e-09
8.19695e-09
5.36315e-09
4.50562e-09
4.48003e-09
7.03372e-09
5.90629e-09
4.48013e-09
2.96581e-09
4.37595e-09
4.35162e-09
7.53079e-09
4.56633e-09
4.61672e-09
5.0018e-09
4.44984e-09
6.63639e-09
4.66016e-09
4.12726e-09
5.18227e-09
4.92322e-09
5.89404e-09
6.56424e-09
6.32125e-09
5.36667e-09
6.30553e-09
4.85465e-09
7.30608e-09
7.84142e-09
4.37508e-09
7.67961e-09
4.37401e-09
7.58437e-09
6.97178e-09
6.50746e-09
6.62682e-09
7.74694e-09
3.67858e-09
4.81734e-09
4.48045e-09
7.81453e-09
7.69434e-09
7.13354e-09
7.76727e-09
7.90986e-09
6.64256e-09
8.14612e-09
5.46801e-09
4.93633e-09
8.89242e-09
5.19965e-09
8.07659e-09
6.43426e-09
4.11129e-09
4.93976e-09
8.06065e-09
6.70597e-09
6.1076e-09
7.86873e-09
7.71711e-09
4.99694e-09
4.95186e-09
4.81384e-09
6.84593e-09
7.55522e-09
8.68286e-09
8.34218e-09
9.0762e-09
8.22435e-09
8.9877e-09
7.54097e-09
7.87719e-09
7.93861e-09
7.48361e-09
7.86186e-09
7.23593e-09
7.12821e-09
5.06367e-09
6.79512e-09
7.95113e-09
5.52458e-09
8.09772e-09
7.4389e-09
8.62054e-09
5.1898e-09
8.19827e-09
7.83662e-09
5.09598e-09
7.01913e-09
5.06161e-09
7.88821e-09
7.20308e-09
5.30566e-09
4.9943e-09
4.32136e-09
4.97091e-09
7.89908e-09
3.629e-09
6.09002e-09
4.9758e-09
5.5813e-09
8.20599e-09
7.94231e-09
2.48878e-09
7.97123e-09
4.34668e-09
4.71012e-09
8.16117e-09
6.63414e-09
4.76573e-09
9.10471e-09
5.18159e-09
2.48879e-09
4.81643e-09
7.08298e-09
8.84085e-09
6.70402e-09
7.88379e-09
7.38491e-09
3.87507e-09
3.80035e-09
3.2542e-09
3.73635e-09
5.2817e-09
4.04229e-09
6.51079e-09
4.07677e-09
7.00928e-09
5.00687e-09
4.82374e-09
5.63813e-09
5.24564e-09
6.96444e-09
5.0301e-09
5.17714e-09
2.28107e-09
5.21034e-09
7.53698e-09
7.54238e-09
6.83348e-09
5.02034e-09
3.26532e-09
9.48576e-09
6.37596e-09
5.32598e-09
4.91033e-09
4.88494e-09
5.06461e-09
6.16514e-09
4.97372e-09
3.56529e-09
4.90836e-09
3.36892e-09
6.07644e-09
5.00794e-09
2.1261e-09
4.71664e-09
5.57319e-09
5.00822e-09
7.7009e-09
5.2006e-09
6.70393e-09
2.57482e-09
5.38127e-09
5.14226e-09
4.48653e-09
4.82751e-09
5.69502e-09
5.35803e-09
5.6038e-09
4.76819e-09
4.84305e-09
5.22956e-09
6.98655e-09
4.93185e-09
6.98404e-09
6.30515e-09
4.97317e-09
5.11645e-09
5.16516e-09
5.71192e-09
5.15654e-09
4.82879e-09
5.48662e-09
5.74998e-09
6.79026e-09
5.16404e-09
5.1314e-09
7.42452e-09
7.32051e-09
4.93561e-09
4.97425e-09
2.22684e-09
6.01311e-09
4.17643e-09
5.64467e-09
2.50322e-09
2.59847e-09
2.32213e-09
2.36016e-09
2.50385e-09
2.6377e-09
2.71823e-09
6.32999e-09
4.68256e-09
4.72762e-09
5.40613e-09
5.26684e-09
5.20117e-09
5.49948e-09
5.09005e-09
5.20606e-09
5.28764e-09
5.18188e-09
6.35827e-09
4.71292e-09
6.53582e-09
5.08776e-09
4.91204e-09
5.18846e-09
5.53143e-09
5.78314e-09
5.38861e-09
6.17037e-09
5.76549e-09
5.34723e-09
3.85712e-09
5.37744e-09
5.25762e-09
5.65829e-09
5.42424e-09
5.13998e-09
4.88792e-09
5.38376e-09
5.6149e-09
7.62104e-09
5.03544e-09
7.40952e-09
7.72494e-09
5.29047e-09
7.40003e-09
5.67756e-09
4.54908e-09
6.19329e-09
5.43049e-09
3.90768e-09
3.43899e-09
6.1141e-09
6.51167e-09
5.51487e-09
4.58496e-09
5.51399e-09
2.61937e-09
5.45255e-09
5.11653e-09
2.61556e-09
9.99953e-10
1.09385e-09
4.72301e-09
5.03757e-09
5.84986e-09
5.62419e-09
5.13947e-10
5.37023e-10
5.56805e-09
5.6261e-09
5.32573e-09
1.96615e-09
4.71385e-09
5.4768e-09
5.58691e-09
4.81937e-09
4.25371e-09
2.04757e-09
8.06588e-09
5.06919e-09
6.19227e-09
6.28908e-09
4.5204e-09
5.72081e-09
4.41973e-09
4.8769e-09
2.42623e-09
3.65988e-09
5.72762e-09
5.76228e-09
4.953e-09
5.20244e-09
5.3683e-09
5.66023e-09
5.41396e-09
2.67205e-09
4.74774e-09
5.35652e-09
5.06059e-09
7.5938e-09
2.67156e-09
4.11125e-09
4.23477e-09
4.01078e-09
2.60633e-09
2.60651e-09
4.5952e-09
3.71333e-09
5.30936e-09
2.85968e-09
3.1126e-09
1.01599e-09
1.01599e-09
2.13395e-09
3.37993e-09
2.27694e-09
4.52385e-09
4.89026e-09
5.22114e-09
5.88242e-09
5.33496e-09
4.93905e-09
3.88946e-09
2.41082e-09
4.88392e-09
5.0588e-09
4.89734e-09
2.70864e-09
2.49768e-09
1.94955e-09
4.89048e-09
4.99004e-09
4.01203e-09
4.52958e-09
4.1796e-09
3.82501e-09
5.12261e-09
3.82468e-09
4.52176e-09
4.35833e-09
2.67011e-09
3.2965e-09
3.07164e-09
5.41644e-09
2.14611e-09
2.26077e-09
2.21184e-09
5.1148e-09
2.0433e-09
2.00149e-09
3.56027e-09
1.86664e-09
4.1395e-09
4.14577e-09
1.91607e-09
4.51167e-09
2.12607e-09
2.11427e-09
2.38109e-09
2.0172e-09
1.97979e-09
2.94798e-09
2.35301e-09
2.13908e-09
2.02342e-09
4.1301e-09
4.71262e-09
2.22654e-09
4.55858e-09
1.83513e-09
4.62413e-09
3.67468e-09
1.91718e-09
1.62279e-09
1.81114e-09
2.40283e-09
3.97184e-09
3.26735e-09
1.36612e-09
1.51643e-09
4.42692e-09
1.28596e-09
1.28595e-09
1.45716e-09
1.63585e-09
1.85321e-09
2.15229e-09
3.5601e-09
3.29469e-09
4.43009e-09
1.29216e-09
1.29215e-09
3.89102e-09
1.60408e-09
3.15717e-09
1.4535e-09
1.46166e-09
1.92585e-09
3.33535e-09
3.45372e-09
3.67944e-09
3.37208e-09
3.33527e-09
7.28468e-10
5.38392e-09
9.29315e-10
9.00282e-10
4.3492e-09
4.31902e-09
9.32943e-10
6.4802e-10
9.1316e-10
4.01192e-09
SCALARS rr_uec(PEX,_P_ext) float
LOOKUP_TABLE default
-3.96351e-09
-9.02894e-09
-7.21088e-09
-9.42483e-09
-4.92772e-09
-7.6533e-09
-3.91901e-09
-9.37255e-09
-8.05922e-09
-1.01466e-08
-3.59709e-09
-9.40126e-09
-8.27337e-09
-8.73763e-09
-1.02365e-08
-8.59351e-09
-7.39062e-09
-8.35546e-09
-7.4848e-09
-7.31735e-09
-8.23124e-09
-1.46123e-09
-8.43373e-09
-7.77288e-09
-7.04581e-09
-8.12779e-09
-3.33228e-09
-7.13944e-09
-5.60388e-09
-6.59484e-09
-7.30903e-09
-5.793e-09
-3.69138e-09
-4.94157e-09
-4.85672e-09
-4.95271e-09
-6.41148e-09
-4.86663e-09
-7.3016e-09
-4.14915e-09
-4.71025e-09
-5.65057e-09
-5.65117e-09
-8.0216e-09
-4.63151e-09
-5.10945e-09
-7.04362e-09
-7.13265e-09
-6.68389e-09
-6.39894e-09
-6.57058e-09
-5.09503e-09
-7.90912e-09
-6.54689e-09
-7.28159e-09
-3.35968e-09
-5.1856e-09
-6.59489e-09
-5.18543e-09
-7.97699e-09
-9.43439e-09
-9.24606e-09
-3.27719e-09
-6.51919e-09
-8.85604e-09
-8.35819e-09
-9.12589e-09
-7.89423e-09
-7.26974e-09
-1.03624e-08
-8.58105e-09
-8.48755e-09
-5.81981e-09
-6.76545e-09
-7.16655e-09
-3.81046e-09
-7.37818e-09
-8.28067e-09
-7.96068e-09
-5.62251e-09
-5.07428e-09
-5.56185e-09
-1.05303e-08
-5.08138e-09
-6.85112e-09
-2.54484e-09
-8.24714e-09
-6.89176e-09
-4.90479e-09
-7.1908e-10
-5.67299e-09
-7.82076e-10
-6.2606e-09
-5.9999e-09
-5.3689e-09
-4.89711e-09
-4.66037e-09
-8.90816e-09
-7.38366e-09
-7.10835e-09
-6.03965e-09
-5.79442e-09
-4.87563e-09
-8.43736e-09
-8.577e-09
-7.7237e-09
-6.79238e-09
-6.89077e-09
-5.17561e-09
-1.02919e-08
-6.6139e-09
-3.49347e-09
-4.66882e-09
-9.23412e-09
-8.65051e-09
-6.32235e-09
-6.01325e-09
-3.87262e-09
-6.23703e-09
-6.29736e-09
-5.47729e-09
-9.97853e-09
-1.02901e-08
-8.83878e-09
-9.72421e-09
-7.62901e-09
-4.31545e-09
-9.61807e-09
-4.2209e-09
-5.44425e-09
-4.48243e-09
-9.1807e-09
-8.96703e-09
-9.0142e-09
-6.02658e-09
-3.65362e-09
-4.04028e-09
-6.6064e-09
-8.07366e-09
-3.65239e-09
-5.03336e-09
-7.78587e-09
-5.89992e-09
-9.50636e-09
-4.7135e-09
-7.7572e-09
-7.0401e-09
-6.80657e-09
-4.35056e-09
-5.56038e-09
-6.19981e-09
-8.85912e-09
-5.19777e-09
-8.02143e-09
-9.29027e-09
-9.43841e-09
-6.17576e-09
-5.18448e-09
-5.15506e-09
-8.09839e-09
-6.79913e-09
-5.15456e-09
-3.41111e-09
-5.03441e-09
-5.00727e-09
-8.67128e-09
-5.25434e-09
-5.3123e-09
-5.75469e-09
-5.1203e-09
-7.64414e-09
-5.36256e-09
-4.74829e-09
-5.96757e-09
-5.66529e-09
-6.78792e-09
-7.56102e-09
-7.27837e-09
-6.18222e-09
-7.2605e-09
-5.5854e-09
-8.4126e-09
-9.02901e-09
-5.0342e-09
-8.84383e-09
-5.03212e-09
-8.73412e-09
-8.02918e-09
-7.49568e-09
-7.63048e-09
-8.92139e-09
-4.23181e-09
-5.54345e-09
-5.15488e-09
-8.99808e-09
-8.85909e-09
-8.21348e-09
-8.94499e-09
-9.10789e-09
-7.64927e-09
-9.37998e-09
-6.29407e-09
-5.68061e-09
-1.02407e-08
-5.98235e-09
-9.3013e-09
-7.40945e-09
-4.73052e-09
-5.68938e-09
-9.28159e-09
-7.72373e-09
-7.03291e-09
-9.06033e-09
-8.88734e-09
-5.75091e-09
-5.70216e-09
-5.53973e-09
-7.88424e-09
-8.69987e-09
-9.99835e-09
-9.60586e-09
-1.04512e-08
-9.47027e-09
-1.03492e-08
-8.68325e-09
-9.0728e-09
-9.14349e-09
-8.61948e-09
-9.05515e-09
-8.33541e-09
-8.21133e-09
-5.82763e-09
-7.82445e-09
-9.15501e-09
-6.35965e-09
-9.32692e-09
-8.56815e-09
-9.92583e-09
-5.97232e-09
-9.4395e-09
-9.02352e-09
-5.86493e-09
-8.08431e-09
-5.82533e-09
-9.08443e-09
-8.29358e-09
-6.10627e-09
-5.74746e-09
-4.97114e-09
-5.71841e-09
-9.09689e-09
-4.17455e-09
-7.01173e-09
-5.72612e-09
-6.4244e-09
-9.44837e-09
-9.14557e-09
-2.86789e-09
-9.17883e-09
-5.00006e-09
-5.42037e-09
-9.39683e-09
-7.63863e-09
-5.48425e-09
-1.04841e-08
-5.96424e-09
-2.86789e-09
-5.54274e-09
-8.15612e-09
-1.0181e-08
-7.71892e-09
-9.08048e-09
-8.5044e-09
-4.46392e-09
-4.37559e-09
-3.74294e-09
-4.29723e-09
-6.08401e-09
-4.65358e-09
-7.4966e-09
-4.6919e-09
-8.07299e-09
-5.76558e-09
-5.55114e-09
-6.49256e-09
-6.03744e-09
-8.01921e-09
-5.78937e-09
-5.95777e-09
-2.62891e-09
-6.00164e-09
-8.68111e-09
-8.6873e-09
-7.86857e-09
-5.77821e-09
-3.7621e-09
-1.09236e-08
-7.33984e-09
-6.13002e-09
-5.65132e-09
-5.62697e-09
-5.82882e-09
-7.10132e-09
-5.72438e-09
-4.10044e-09
-5.64931e-09
-3.87543e-09
-6.99808e-09
-5.76361e-09
-2.45029e-09
-5.42851e-09
-6.41823e-09
-5.76382e-09
-8.86839e-09
-5.98549e-09
-7.71835e-09
-2.96115e-09
-6.19533e-09
-5.91817e-09
-5.16801e-09
-5.55587e-09
-6.55598e-09
-6.17036e-09
-6.45261e-09
-5.48782e-09
-5.57414e-09
-6.01943e-09
-8.0462e-09
-5.67633e-09
-8.0415e-09
-7.25925e-09
-5.72887e-09
-5.88882e-09
-5.94525e-09
-6.57559e-09
-5.93544e-09
-5.55763e-09
-6.3154e-09
-6.62244e-09
-7.81834e-09
-5.944e-09
-5.90566e-09
-8.54907e-09
-8.42933e-09
-5.68063e-09
-5.7301e-09
-2.55999e-09
-6.92299e-09
-4.80443e-09
-6.49823e-09
-2.87517e-09
-2.98458e-09
-2.66721e-09
-2.71088e-09
-2.87593e-09
-3.02963e-09
-3.12214e-09
-7.29012e-09
-5.39469e-09
-5.44325e-09
-6.22337e-09
-6.06244e-09
-5.9868e-09
-6.33238e-09
-5.85884e-09
-5.99231e-09
-6.09182e-09
-5.9646e-09
-7.32322e-09
-5.42326e-09
-7.52762e-09
-5.85748e-09
-5.65456e-09
-5.97213e-09
-6.3717e-09
-6.65821e-09
-6.20325e-09
-7.10405e-09
-6.63712e-09
-6.15482e-09
-4.43859e-09
-6.19032e-09
-6.05308e-09
-6.51705e-09
-6.24372e-09
-5.91619e-09
-5.62633e-09
-6.19752e-09
-6.46439e-09
-8.77528e-09
-5.79612e-09
-8.53169e-09
-8.89352e-09
-6.09016e-09
-8.52052e-09
-6.53644e-09
-5.23619e-09
-7.1322e-09
-6.25155e-09
-4.50189e-09
-3.95518e-09
-7.04148e-09
-7.49971e-09
-6.34924e-09
-5.27821e-09
-6.34967e-09
-3.01131e-09
-6.27747e-09
-5.89011e-09
-3.00802e-09
-1.15242e-09
-1.26065e-09
-5.43766e-09
-5.79852e-09
-6.73445e-09
-6.47387e-09
-5.92477e-10
-6.19078e-10
-6.41112e-09
-6.478e-09
-6.13211e-09
-2.26034e-09
-5.42576e-09
-6.30726e-09
-6.43141e-09
-5.54777e-09
-4.89668e-09
-2.35388e-09
-9.28864e-09
-5.83486e-09
-7.1292e-09
-7.24066e-09
-5.2036e-09
-6.58565e-09
-5.08772e-09
-5.61406e-09
-2.79001e-09
-4.21015e-09
-6.59349e-09
-6.63419e-09
-5.70187e-09
-5.98868e-09
-6.1799e-09
-6.51611e-09
-6.23254e-09
-3.07313e-09
-5.46845e-09
-6.1657e-09
-5.82753e-09
-8.74507e-09
-3.07254e-09
-4.73327e-09
-4.87541e-09
-4.62025e-09
-3.00369e-09
-3.00389e-09
-5.29309e-09
-4.27412e-09
-6.11269e-09
-3.28884e-09
-3.58702e-09
-1.17118e-09
-1.17117e-09
-2.45313e-09
-3.89434e-09
-2.62368e-09
-5.20824e-09
-5.63279e-09
-6.01146e-09
-6.77344e-09
-6.14379e-09
-5.68811e-09
-4.47838e-09
-2.77154e-09
-5.623e-09
-5.82539e-09
-5.63992e-09
-3.11445e-09
-2.87787e-09
-2.24203e-09
-5.63197e-09
-5.74593e-09
-4.61751e-09
-5.21517e-09
-4.81241e-09
-4.40631e-09
-5.89832e-09
-4.40592e-09
-5.20594e-09
-5.0192e-09
-3.07664e-09
-3.79845e-09
-3.53263e-09
-6.23703e-09
-2.46702e-09
-2.59892e-09
-2.54248e-09
-5.89017e-09
-2.34899e-09
-2.30061e-09
-4.09834e-09
-2.14572e-09
-4.76896e-09
-4.77617e-09
-2.2026e-09
-5.19386e-09
-2.44485e-09
-2.4304e-09
-2.73803e-09
-2.3188e-09
-2.27657e-09
-3.39667e-09
-2.70598e-09
-2.45911e-09
-2.32599e-09
-4.75539e-09
-5.42755e-09
-2.56024e-09
-5.24876e-09
-2.10941e-09
-5.32452e-09
-4.23036e-09
-2.2038e-09
-1.86596e-09
-2.08185e-09
-2.76223e-09
-4.57268e-09
-3.7643e-09
-1.57473e-09
-1.74796e-09
-5.09759e-09
-1.48233e-09
-1.48232e-09
-1.67965e-09
-1.88536e-09
-2.13127e-09
-2.47995e-09
-4.10083e-09
-3.79582e-09
-5.10114e-09
-1.48931e-09
-1.4893e-09
-4.48299e-09
-1.84398e-09
-3.63453e-09
-1.67091e-09
-1.6809e-09
-2.21473e-09
-3.84363e-09
-3.98002e-09
-4.24009e-09
-3.8859e-09
-3.84353e-09
-8.39685e-10
-6.20431e-09
-1.07111e-09
-1.03777e-09
-5.01202e-09
-4.97724e-09
-1.07542e-09
-7.46958e-10
-1.05249e-09
-4.62319e-09
SCALARS cell_type float
LOOKUP_TABLE default
0
0
0
0
0
0
0
0
0
0
0
0
0
0
0
0
0
0
0
0
0
1
0
0
0
0
0
0
0
0
0
0
0
0
0
0
0
0
0
0
0
0
0
0
0
0
0
0
0
0
0
0
0
0
0
0
0
0
0
0
0
0
0
0
0
0
0
0
0
0
0
0
0
0
0
0
0
0
0
0
0
0
0
0
0
0
0
0
0
0
0
0
0
0
0
0
0
0
0
0
0
0
0
0
0
0
0
0
0
0
0
0
0
0
0
0
0
0
0
0
0
0
0
0
0
0
0
0
0
0
0
0
0
0
0
0
0
0
0
0
0
0
0
0
0
0
0
0
0
0
0
0
0
0
0
0
0
0
0
0
0
0
0
0
0
0
0
0
0
0
0
0
0
0
0
0
0
0
0
0
0
0
0
0
0
0
0
0
0
0
0
0
0
0
0
0
0
0
0
0
0
0
0
0
0
0
0
0
0
0
0
0
0
0
0
0
0
0
0
0
0
0
0
0
0
0
0
0
0
0
0
0
0
0
0
0
0
0
0
0
0
0
0
0
0
0
0
0
0
0
0
0
0
0
0
0
0
0
0
0
0
0
0
0
0
0
0
0
0
0
0
0
0
0
0
0
0
0
0
0
0
0
0
0
0
0
0
0
0
0
0
0
0
0
0
0
0
0
0
0
0
0
0
0
0
0
0
0
0
0
0
0
0
0
0
0
0
0
0
0
0
0
0
0
0
0
0
0
0
0
0
0
0
0
0
0
0
0
0
0
0
0
0
0
0
0
0
0
0
0
2
2
2
2
2
2
2
0
0
0
0
0
0
0
0
0
0
0
0
0
0
0
0
0
0
0
0
0
0
0
0
0
0
0
0
0
0
0
0
0
0
0
0
0
0
0
0
0
0
0
0
0
0
0
0
0
0
0
0
0
0
0
0
0
0
0
1
1
0
0
0
0
0
0
0
0
0
0
0
0
0
0
0
0
0
0
0
0
0
0
0
0
0
0
0
0
0
0
0
0
0
0
0
0
0
0
0
0
0
0
0
1
1
0
0
0
0
0
0
0
0
0
0
0
0
0
0
0
0
0
0
0
0
0
0
0
0
0
0
0
0
0
0
0
0
0
0
0
0
0
0
0
0
0
0
0
0
0
0
0
0
0
0
0
0
0
0
0
0
0
0
0
0
0
0
0
0
0
1
1
0
1
1
1
0
0
0
0
0
0
0
0
0
0
0
0
0
0
0
0
0
0
0
1
0
0
1
0
0
1
1
0
0
TENSORS Lagrange_strain float
0.0305226 -0.00319468 8.91851e-09
-0.00319468 0.0133704 -1.38514e-07
8.91851e-09 -1.38514e-07 0.00738976

0.0291383 -0.00279381 1.04493e-07
-0.00279381 0.0334882 4.44809e-08
1.04493e-07 4.44809e-08 0.0330988

0.029965 0.00366967 2.52703e-07
0.00366967 0.03111 1.18903e-08
2.52703e-07 1.18903e-08 0.0304096

0.0291074 -0.00391509 9.97708e-08
-0.00391509 0.0327352 4.28872e-08
9.97708e-08 4.28872e-08 0.0330238

0.0352972 0.00266293 -8.47553e-08
0.00266293 0.0380092 -2.77409e-08
-8.47553e-08 -2.77409e-08 0.0352226

0.0276847 -0.00236117 -5.36636e-08
-0.00236117 0.0333192 -2.2604e-07
-5.36636e-08 -2.2604e-07 0.0303808

0.0302169 0.00339011 1.09677e-08
0.00339011 0.0134759 -2.26788e-07
1.09677e-08 -2.26788e-07 0.00745111

0.0316937 0.00392968 -1.08592e-08
0.00392968 0.0311404 -4.64528e-08
-1.08592e-08 -4.64528e-08 0.0314998

0.0331769 0.000713677 -1.46734e-07
0.000713677 0.0261746 4.81741e-08
-1.46734e-07 4.81741e-08 0.0280894

0.0353968 -0.000988613 1.07163e-07
-0.000988613 0.0275008 1.07677e-07
1.07163e-07 1.07677e-07 0.0326575

0.0280146 0.00204666 7.8459e-08
0.00204666 0.0137891 8.93842e-08
7.8459e-08 8.93842e-08 0.0117342

0.027902 -0.00176135 3.42643e-09
-0.00176135 0.0349373 -4.49835e-08
3.42643e-09 -4.49835e-08 0.0314885

0.031062 0.00364791 -2.04543e-07
0.00364791 0.0312404 -8.87667e-08
-2.04543e-07 -8.87667e-08 0.0310199

0.0290151 -0.00187527 8.18893e-08
-0.00187527 0.0347305 6.13596e-08
8.18893e-08 6.13596e-08 0.0324833

0.0345637 0.00440756 -5.33949e-08
0.00440756 0.0342955 -7.80879e-08
-5.33949e-08 -7.80879e-08 0.034816

0.0342601 7.29129e-05 3.0717e-08
7.29129e-05 0.0272363 7.106e-08
3.0717e-08 7.106e-08 0.0307195

0.0286397 -0.0023479 4.99195e-08
-0.0023479 0.0359418 -4.92188e-08
4.99195e-08 -4.92188e-08 0.0333848

0.0345049 -0.000352188 7.63452e-08
-0.000352188 0.0273066 1.46137e-07
7.63452e-08 1.46137e-07 0.0319153

0.0268713 0.00346936 6.81283e-08
0.00346936 0.0308861 -2.2244e-07
6.81283e-08 -2.2244e-07 0.0275252

0.0338183 -0.000548814 -9.6026e-09
-0.000548814 0.0263619 1.27976e-08
-9.6026e-09 1.27976e-08 0.0300769

0.0265742 0.00113223 -7.8048e-08
0.00113223 0.0339669 -9.97656e-08
-7.8048e-08 -9.97656e-08 0.0290949

0.0452013 0.000850979 -3.09208e-07
0.000850979 0.0451715 -1.36529e-07
-3.09208e-07 -1.36529e-07 0.0365653

0.0336094 0.000246933 6.76348e-08
0.000246933 0.0262682 2.56051e-08
6.76348e-08 2.56051e-08 0.0297485

0.0292549 -0.00362266 -1.54635e-07
-0.00362266 0.0310764 -1.33723e-07
-1.54635e-07 -1.33723e-07 0.0299895

0.0337138 0.000897545 -8.34369e-09
0.000897545 0.0264487 1.65679e-07
-8.34369e-09 1.65679e-07 0.0300239

0.0284933 0.00250123 1.21205e-07
0.00250123 0.0338273 -5.5793e-08
1.21205e-07 -5.5793e-08 0.0322244

0.0285813 0.000525603 -7.00347e-09
0.000525603 0.0176629 2.67235e-07
-7.00347e-09 2.67235e-07 0.0131495

0.0308555 0.00402432 -2.33833e-07
0.00402432 0.0305883 -2.32682e-08
-2.33833e-07 -2.32682e-08 0.0305522

0.0258791 0.00476507 1.34019e-07
0.00476507 0.0256878 1.58895e-07
1.34019e-07 1.58895e-07 0.0210908

0.0414449 0.0013666 3.71275e-08
0.0013666 0.0382734 -5.81708e-08
3.71275e-08 -5.81708e-08 0.0360636

0.0343432 0.00186617 -1.40247e-07
0.00186617 0.0279011 -6.97972e-08
-1.40247e-07 -6.97972e-08 0.0309405

0.0217238 -0.00228248 -8.35574e-08
-0.00228248 0.0299367 4.94037e-08
-8.35574e-08 4.94037e-08 0.0210877

0.0228266 -0.00534207 1.89757e-07
-0.00534207 0.023435 1.81221e-07
1.89757e-07 1.81221e-07 0.0125582

0.0347647 0.000798998 -3.12369e-07
0.000798998 0.0421689 -5.45363e-09
-3.12369e-07 -5.45363e-09 0.0357154

0.0373787 -0.000660367 1.01935e-07
-0.000660367 0.0411186 -3.14378e-07
1.01935e-07 -3.14378e-07 0.0358297

0.0409918 0.00280621 1.12146e-08
0.00280621 0.0359155 -1.92606e-07
1.12146e-08 -1.92606e-07 0.0356957

0.0371799 0.000703626 3.72823e-08
0.000703626 0.0431269 7.95171e-08
3.72823e-08 7.95171e-08 0.0360699

0.0401798 -0.00121561 -1.17808e-07
-0.00121561 0.0377547 1.84946e-07
-1.17808e-07 1.84946e-07 0.0357372

0.031156 -0.00366863 1.4691e-07
-0.00366863 0.0310639 -1.15586e-07
1.4691e-07 -1.15586e-07 0.0308662

0.0227107 0.00526884 -2.04106e-07
0.00526884 0.0236705 -1.21369e-07
-2.04106e-07 -1.21369e-07 0.0125603

0.0297062 -0.00231026 9.21207e-08
-0.00231026 0.0219945 2.25442e-08
9.21207e-08 2.25442e-08 0.0208381

0.0375443 -0.000521631 -1.82205e-07
-0.000521631 0.042976 -2.00307e-07
-1.82205e-07 -2.00307e-07 0.0360726

0.041157 0.0026281 -1.72498e-07
0.0026281 0.0393359 1.83712e-07
-1.72498e-07 1.83712e-07 0.0360551

0.0342337 -0.00161301 3.5335e-08
-0.00161301 0.0279431 -1.76953e-07
3.5335e-08 -1.76953e-07 0.0310243

0.0230672 -0.00551387 3.04549e-07
-0.00551387 0.0235232 5.71835e-08
3.04549e-07 5.71835e-08 0.0161886

0.0298881 -0.00232691 -3.04217e-08
-0.00232691 0.0221185 -1.92149e-08
-3.04217e-08 -1.92149e-08 0.0213065

0.0258475 0.00222169 -1.39379e-07
0.00222169 0.032591 2.90076e-08
-1.39379e-07 2.90076e-08 0.0278631

0.0275004 0.00252236 -1.75146e-07
0.00252236 0.0323116 1.41284e-07
-1.75146e-07 1.41284e-07 0.0284372

0.0341081 -0.00213544 1.19813e-07
-0.00213544 0.027058 -9.59696e-08
1.19813e-07 -9.59696e-08 0.0304139

0.0228639 -0.00438207 -2.69822e-08
-0.00438207 0.0272002 2.30911e-08
-2.69822e-08 2.30911e-08 0.0198157

0.0294399 0.00246566 -3.2349e-08
0.00246566 0.0217982 -1.05749e-07
-3.2349e-08 -1.05749e-07 0.0202454

0.0298169 -0.00326278 9.53171e-08
-0.00326278 0.024471 1.83345e-08
9.53171e-08 1.83345e-08 0.0230068

0.0344104 0.00257125 -1.58373e-07
0.00257125 0.0381264 7.86994e-08
-1.58373e-07 7.86994e-08 0.0352013

0.0286364 0.00382914 -1.7326e-07
0.00382914 0.0257343 1.67138e-07
-1.7326e-07 1.67138e-07 0.0230752

0.0348595 -0.0029088 1.37652e-07
-0.0029088 0.037358 2.24367e-07
1.37652e-07 2.24367e-07 0.0351198

0.0255372 -0.00544394 -1.21911e-07
-0.00544394 0.0228642 -1.70657e-08
-1.21911e-07 -1.70657e-08 0.0157929

0.0372726 0.00074412 1.59368e-07
0.00074412 0.0413286 -1.79427e-07
1.59368e-07 -1.79427e-07 0.0358502

0.0231285 -0.000691606 -1.25537e-07
-0.000691606 0.0312543 -2.24221e-08
-1.25537e-07 -2.24221e-08 0.0230613

0.040947 0.0013761 1.38413e-07
0.0013761 0.0376318 5.95373e-08
1.38413e-07 5.95373e-08 0.0358284

0.0276251 0.0027979 -1.58856e-07
0.0027979 0.0326857 2.00922e-07
-1.58856e-07 2.00922e-07 0.0301735

0.0360673 0.000782757 1.42981e-07
0.000782757 0.0280797 -2.26219e-07
1.42981e-07 -2.26219e-07 0.0336073

0.0361823 0.00153006 1.62195e-07
0.00153006 0.0316327 -3.74022e-08
1.62195e-07 -3.74022e-08 0.0341537

0.0285898 0.00404968 -1.85469e-08
0.00404968 0.0198663 -3.70174e-07
-1.85469e-08 -3.70174e-07 0.0137363

0.0309139 -0.000781822 -9.02447e-08
-0.000781822 0.0370105 -1.3659e-07
-9.02447e-08 -1.3659e-07 0.0338154

0.0314949 0.00124029 -1.30822e-07
0.00124029 0.0363481 -1.02496e-08
-1.30822e-07 -1.02496e-08 0.0341924

0.0284964 -0.000374145 -1.03286e-08
-0.000374145 0.036882 4.16845e-08
-1.03286e-08 4.16845e-08 0.0326074

0.0295472 0.00306361 -5.35601e-08
0.00306361 0.0347224 -6.67483e-08
-5.35601e-08 -6.67483e-08 0.0336431

0.0346509 0.00111893 2.13431e-07
0.00111893 0.0277877 -4.34392e-08
2.13431e-07 -4.34392e-08 0.0321463

0.0291329 -0.00368947 -1.30459e-07
-0.00368947 0.0309619 -7.14604e-08
-1.30459e-07 -7.14604e-08 0.0298527

0.0349858 -0.000236341 -9.89564e-08
-0.000236341 0.0275296 1.03822e-07
-9.89564e-08 1.03822e-07 0.0333281

0.0343852 -0.00254193 2.39038e-07
-0.00254193 0.0380575 -5.64044e-08
2.39038e-07 -5.64044e-08 0.0351914

0.0349417 0.00284227 -6.23903e-08
0.00284227 0.0374952 6.99637e-08
-6.23903e-08 6.99637e-08 0.0351712

0.0218525 -0.00212665 -2.0048e-07
-0.00212665 0.0298671 -4.16339e-08
-2.0048e-07 -4.16339e-08 0.0208146

0.0346328 -0.00368162 -1.7651e-07
-0.00368162 0.0318969 6.9333e-08
-1.7651e-07 6.9333e-08 0.0330146

0.0292372 -0.0032889 -3.15577e-08
-0.0032889 0.0320506 1.03099e-07
-3.15577e-08 1.03099e-07 0.0303753

0.0267351 -0.00400903 -2.61806e-07
-0.00400903 0.0175786 9.38341e-08
-2.61806e-07 9.38341e-08 0.0127049

0.0323421 0.00041759 1.56467e-07
0.00041759 0.0380286 8.34739e-09
1.56467e-07 8.34739e-09 0.0343383

0.0344697 0.00380767 1.06151e-07
0.00380767 0.0308828 1.2419e-07
1.06151e-07 1.2419e-07 0.0325969

0.0283242 0.00257464 2.11449e-07
0.00257464 0.0340626 -8.25732e-08
2.11449e-07 -8.25732e-08 0.0321515

0.0314822 0.00103525 1.75715e-07
0.00103525 0.0228055 6.02258e-08
1.75715e-07 6.02258e-08 0.0240258

0.0270495 -0.00434902 -2.18526e-07
-0.00434902 0.023697 1.13187e-08
-2.18526e-07 1.13187e-08 0.018292

0.0361887 -0.00139948 -4.4837e-08
-0.00139948 0.0386646 -9.56302e-08
-4.4837e-08 -9.56302e-08 0.0353313

0.0314956 0.00316302 -1.47727e-08
0.00316302 0.0343344 -7.8622e-08
-1.47727e-08 -7.8622e-08 0.0340236

0.0272532 -0.00414668 1.9266e-08
-0.00414668 0.0221381 -5.1251e-08
1.9266e-08 -5.1251e-08 0.0183797

0.0303022 0.00138773 -1.2321e-07
0.00138773 0.0227921 6.59184e-08
-1.2321e-07 6.59184e-08 0.0209177

0.0185733 -0.0026912 9.21399e-08
-0.0026912 0.0288779 4.37756e-07
9.21399e-08 4.37756e-07 0.0158662

0.0271507 0.00188411 -6.17957e-08
0.00188411 0.0342529 -6.06076e-08
-6.17957e-08 -6.06076e-08 0.030596

0.0353121 0.00304868 4.75934e-08
0.00304868 0.0307616 -1.15934e-08
4.75934e-08 -1.15934e-08 0.0326903

0.0226104 0.00537424 -1.63005e-08
0.00537424 0.024048 9.60148e-08
-1.63005e-08 9.60148e-08 0.0161711

0.0458546 0.00223203 -1.33777e-07
0.00223203 0.0416658 -8.06567e-08
-1.33777e-07 -8.06567e-08 0.0365662

0.0230424 -0.000533087 -9.61368e-08
-0.000533087 0.0312951 1.79302e-07
-9.61368e-08 1.79302e-07 0.0230312

0.0462683 -0.00224972 4.50981e-07
-0.00224972 0.041211 2.41457e-07
4.50981e-07 2.41457e-07 0.0365215

0.0369912 -0.00361539 2.54349e-07
-0.00361539 0.033426 2.22967e-08
2.54349e-07 2.22967e-08 0.0345528

0.0350681 0.00361001 3.2974e-08
0.00361001 0.0299479 4.24363e-08
3.2974e-08 4.24363e-08 0.0323937

0.0299061 -0.003151 4.73528e-08
-0.003151 0.0246476 -1.40762e-07
4.73528e-08 -1.40762e-07 0.0232442

0.0229736 0.00402025 -1.48228e-07
0.00402025 0.0277291 6.42977e-08
-1.48228e-07 6.42977e-08 0.0203464

0.0210596 -0.00137568 -7.57965e-08
-0.00137568 0.0298417 2.91069e-08
-7.57965e-08 2.91069e-08 0.0182201

0.0286925 0.00288158 9.68856e-08
0.00288158 0.0341602 -1.03033e-07
9.68856e-08 -1.03033e-07 0.0326362

0.0369378 0.00223044 4.22851e-08
0.00223044 0.0333873 2.17742e-07
4.22851e-08 2.17742e-07 0.0343168

0.0280966 0.00198288 1.82356e-07
0.00198288 0.033993 -2.30645e-07
1.82356e-07 -2.30645e-07 0.0308063

0.0318218 0.00206775 5.57282e-08
0.00206775 0.0252098 -1.28373e-07
5.57282e-08 -1.28373e-07 0.0255706

0.0238668 -0.00276777 -5.28608e-08
-0.00276777 0.0297101 -2.61369e-08
-5.28608e-08 -2.61369e-08 0.0215234

0.0278494 -0.00375511 -2.24009e-07
-0.00375511 0.0217792 -2.29891e-09
-2.24009e-07 -2.29891e-09 0.0180449

0.0292765 -0.00322367 8.50194e-08
-0.00322367 0.0325667 -7.90111e-08
8.50194e-08 -7.90111e-08 0.03234

0.0305683 0.00360559 -1.4774e-08
0.00360559 0.0321665 1.88176e-07
-1.4774e-08 1.88176e-07 0.032308

0.0286547 0.00304031 -5.21692e-08
0.00304031 0.0339602 -7.75846e-08
-5.21692e-08 -7.75846e-08 0.0325668

0.0291526 0.00172108 2.90684e-08
0.00172108 0.037542 7.56823e-08
2.90684e-08 7.56823e-08 0.0337798

0.0344092 0.00122931 8.3814e-08
0.00122931 0.0274735 4.60518e-08
8.3814e-08 4.60518e-08 0.0306161

0.019929 -0.000604064 -1.16639e-07
-0.000604064 0.0296073 -1.65879e-07
-1.16639e-07 -1.65879e-07 0.0180728

0.0297412 -0.00485097 -1.66498e-08
-0.00485097 0.032985 4.32143e-08
-1.66498e-08 4.32143e-08 0.0336755

0.0290271 0.00359067 2.26912e-07
0.00359067 0.0312996 -1.51145e-07
2.26912e-07 -1.51145e-07 0.0302063

0.0180779 0.00028238 -1.75191e-07
0.00028238 0.0292583 5.08651e-08
-1.75191e-07 5.08651e-08 0.0168497

0.0277945 0.00441376 2.34993e-07
0.00441376 0.0209338 -1.71682e-07
2.34993e-07 -1.71682e-07 0.0174249

0.0291365 -0.0030126 -1.95496e-08
-0.0030126 0.0326399 1.05506e-07
-1.95496e-08 1.05506e-07 0.032123

0.0351723 0.000757721 1.38875e-07
0.000757721 0.0272886 9.76933e-08
1.38875e-07 9.76933e-08 0.0324894

0.0293726 0.00351154 1.16848e-07
0.00351154 0.0251569 -2.43836e-07
1.16848e-07 -2.43836e-07 0.0230697

0.039556 0.00170592 -8.95264e-08
0.00170592 0.0389611 -3.22716e-08
-8.95264e-08 -3.22716e-08 0.0358687

0.0283245 0.00311633 1.5368e-07
0.00311633 0.0223642 -1.45895e-07
1.5368e-07 -1.45895e-07 0.0182549

0.0394091 -0.00174639 1.22437e-07
-0.00174639 0.0389867 2.26704e-08
1.22437e-07 2.26704e-08 0.035834

0.0232215 0.000103377 7.90826e-08
0.000103377 0.0314583 4.03135e-09
7.90826e-08 4.03135e-09 0.023078

0.0326949 -0.00028767 -1.63183e-07
-0.00028767 0.024617 3.09091e-08
-1.63183e-07 3.09091e-08 0.0269162

0.037978 -0.00212408 7.34934e-09
-0.00212408 0.0304061 -2.08668e-07
7.34934e-09 -2.08668e-07 0.0347246

0.0291837 0.00319789 8.95683e-08
0.00319789 0.033213 -1.19134e-07
8.95683e-08 -1.19134e-07 0.0332777

0.0288967 -0.00176812 -1.30434e-09
-0.00176812 0.0365359 2.35562e-08
-1.30434e-09 2.35562e-08 0.0334341

0.0365106 -0.00108218 1.53017e-09
-0.00108218 0.0264283 -5.39188e-08
1.53017e-09 -5.39188e-08 0.0337936

0.0311209 -0.00291872 -9.15159e-08
-0.00291872 0.0382287 -1.12483e-07
-9.15159e-08 -1.12483e-07 0.0347748

0.0380884 -0.000882456 9.72651e-09
-0.000882456 0.0386532 -8.25544e-09
9.72651e-09 -8.25544e-09 0.0357642

0.0301226 -0.00393004 -1.32736e-07
-0.00393004 0.0326471 1.06012e-07
-1.32736e-07 1.06012e-07 0.0326994

0.0212979 0.00146642 1.83755e-07
0.00146642 0.0295604 2.56074e-07
1.83755e-07 2.56074e-07 0.018264

0.0293333 -0.00363686 9.43882e-08
-0.00363686 0.0253048 1.61745e-08
9.43882e-08 1.61745e-08 0.0231402

0.0327961 -0.00181271 1.28136e-08
-0.00181271 0.039637 -1.20245e-07
1.28136e-08 -1.20245e-07 0.0351712

0.0350217 7.63926e-05 -2.31935e-09
7.63926e-05 0.0271722 8.55735e-08
-2.31935e-09 8.55735e-08 0.0331861

0.0307598 -0.00282193 -7.71042e-08
-0.00282193 0.0348225 1.50831e-07
-7.71042e-08 1.50831e-07 0.0340171

0.0294787 0.00338003 5.48152e-08
0.00338003 0.0328075 -1.16917e-07
5.48152e-08 -1.16917e-07 0.0332607

0.0264132 -0.00405377 1.86603e-07
-0.00405377 0.0272127 2.77642e-08
1.86603e-07 2.77642e-08 0.0215461

0.0370986 -0.000956478 2.63766e-07
-0.000956478 0.0415248 8.97866e-08
2.63766e-07 8.97866e-08 0.0358152

0.0226731 -0.00422856 -1.05054e-07
-0.00422856 0.0271965 1.47839e-07
-1.05054e-07 1.47839e-07 0.0168486

0.0341157 -0.00251836 1.20294e-07
-0.00251836 0.0285534 -1.3767e-07
1.20294e-07 -1.3767e-07 0.0309846

0.0363525 0.000288926 -6.46124e-08
0.000288926 0.0293824 9.02769e-09
-6.46124e-08 9.02769e-09 0.0341264

0.0395605 0.00239048 -6.36649e-08
0.00239048 0.0390349 -1.0171e-07
-6.36649e-08 -1.0171e-07 0.0357962

0.0238153 0.00260308 -6.07708e-08
0.00260308 0.0300953 -9.67052e-08
-6.07708e-08 -9.67052e-08 0.02176

0.0333653 0.00357227 1.68461e-07
0.00357227 0.0306567 -1.24849e-07
1.68461e-07 -1.24849e-07 0.0317057

0.0315823 -0.00318629 5.27243e-09
-0.00318629 0.026504 -4.8104e-08
5.27243e-09 -4.8104e-08 0.0268852

0.0288753 -0.00233507 -1.71388e-08
-0.00233507 0.0341673 -1.09559e-08
-1.71388e-08 -1.09559e-08 0.0325424

0.0261988 0.0044916 -1.31623e-07
0.0044916 0.0245157 -1.7096e-07
-1.31623e-07 -1.7096e-07 0.0180499

0.0283699 -0.00285946 8.1055e-08
-0.00285946 0.0339653 6.09759e-08
8.1055e-08 6.09759e-08 0.0323859

0.0330844 0.00404828 1.39116e-07
0.00404828 0.0304067 -3.38876e-08
1.39116e-07 -3.38876e-08 0.0314814

0.0332696 -0.00330304 6.0244e-08
-0.00330304 0.0283044 -1.03466e-08
6.0244e-08 -1.03466e-08 0.0299885

0.0291062 -0.00328714 8.28554e-08
-0.00328714 0.0319253 1.10901e-07
8.28554e-08 1.10901e-07 0.030379

0.031395 -0.00242323 -2.83124e-08
-0.00242323 0.0246756 9.8217e-10
-2.83124e-08 9.8217e-10 0.0251101

0.0328917 -0.00246044 8.01214e-08
-0.00246044 0.0266612 -3.90789e-08
8.01214e-08 -3.90789e-08 0.0285426

0.0294357 -0.00333343 -7.16631e-10
-0.00333343 0.0328862 -1.47344e-07
-7.16631e-10 -1.47344e-07 0.0333419

0.0260875 0.00462286 -9.51553e-09
0.00462286 0.0254961 -4.6801e-08
-9.51553e-09 -4.6801e-08 0.0210551

0.028098 0.00201156 1.31221e-07
0.00201156 0.0342684 -2.66355e-08
1.31221e-07 -2.66355e-08 0.0310495

0.0308276 0.00347228 3.00567e-08
0.00347228 0.032193 2.51441e-08
3.00567e-08 2.51441e-08 0.0325367

0.0291027 0.00333963 4.77169e-08
0.00333963 0.0331267 1.40876e-07
4.77169e-08 1.40876e-07 0.0331954

0.0289299 0.00151897 -1.8803e-07
0.00151897 0.0354 2.49853e-07
-1.8803e-07 2.49853e-07 0.0326318

0.0309948 -0.0010593 1.16214e-07
-0.0010593 0.0231021 2.44139e-07
1.16214e-07 2.44139e-07 0.0220386

0.0238429 0.00239994 -2.14336e-07
0.00239994 0.0303538 -7.28196e-08
-2.14336e-07 -7.28196e-08 0.0220735

0.0291586 -0.0031959 1.9529e-09
-0.0031959 0.0325733 -3.16744e-08
1.9529e-09 -3.16744e-08 0.0315573

0.0289334 0.00334818 1.50997e-07
0.00334818 0.0308738 -2.35553e-07
1.50997e-07 -2.35553e-07 0.0285142

0.0265651 -0.00458032 -2.06991e-07
-0.00458032 0.0251863 -4.93098e-09
-2.06991e-07 -4.93098e-09 0.021219

0.0262324 0.00488238 -2.01586e-07
0.00488238 0.020912 1.05764e-07
-2.01586e-07 1.05764e-07 0.0167337

0.0234628 -0.00427666 1.47478e-07
-0.00427666 0.027415 9.44076e-08
1.47478e-07 9.44076e-08 0.0205901

0.0266242 -0.00401796 -1.70294e-07
-0.00401796 0.027433 7.86251e-08
-1.70294e-07 7.86251e-08 0.0220107

0.0352948 -0.000904265 1.31517e-07
-0.000904265 0.0273402 7.17082e-08
1.31517e-07 7.17082e-08 0.0325915

0.0259991 0.00391242 2.29245e-07
0.00391242 0.0280413 1.17465e-08
2.29245e-07 1.17465e-08 0.0220631

0.0307306 0.00171245 4.21749e-08
0.00171245 0.0233205 9.14977e-09
4.21749e-08 9.14977e-09 0.0219863

0.0213958 0.00171799 9.51542e-08
0.00171799 0.0301845 -1.50352e-08
9.51542e-08 -1.50352e-08 0.0210954

0.0242211 -0.00288261 1.29991e-07
-0.00288261 0.0298962 5.6203e-08
1.29991e-07 5.6203e-08 0.0220469

0.0312863 -0.000130716 8.88735e-08
-0.000130716 0.0391945 2.08309e-07
8.88735e-08 2.08309e-07 0.0346029

0.0230194 0.000293938 1.07238e-07
0.000293938 0.0314012 1.92338e-07
1.07238e-07 1.92338e-07 0.0230209

0.0227388 0.00399196 -2.48472e-07
0.00399196 0.0280763 -2.74573e-08
-2.48472e-07 -2.74573e-08 0.0206018

0.0288348 0.00158174 -9.34864e-09
0.00158174 0.0357618 1.31424e-07
-9.34864e-09 1.31424e-07 0.0328299

0.0292614 -0.0035714 3.95446e-08
-0.0035714 0.0250856 -1.5405e-07
3.95446e-08 -1.5405e-07 0.023198

0.0369031 0.00272591 4.96514e-08
0.00272591 0.0296678 3.92701e-08
4.96514e-08 3.92701e-08 0.0337359

0.0371018 0.00347452 -1.33204e-07
0.00347452 0.0333585 -5.10244e-08
-1.33204e-07 -5.10244e-08 0.0345844

0.0344763 -0.00244 1.06942e-08
-0.00244 0.0284773 -1.57376e-08
1.06942e-08 -1.57376e-08 0.0313189

0.0389783 -0.000264945 7.35503e-08
-0.000264945 0.033859 -8.24844e-08
7.35503e-08 -8.24844e-08 0.0351391

0.0314193 -0.004177 -1.15764e-07
-0.004177 0.0317209 9.99562e-08
-1.15764e-07 9.99562e-08 0.0320945

0.0294077 0.00300047 1.54317e-07
0.00300047 0.0222903 -1.46245e-07
1.54317e-07 -1.46245e-07 0.0210295

0.0301729 0.00396297 8.10294e-08
0.00396297 0.0326006 -6.85205e-08
8.10294e-08 -6.85205e-08 0.0326568

0.0302204 0.0038372 3.07761e-08
0.0038372 0.0325446 1.01559e-07
3.07761e-08 1.01559e-07 0.0326117

0.0261979 0.00395231 -6.74261e-08
0.00395231 0.0277179 6.77497e-08
-6.74261e-08 6.77497e-08 0.0218262

0.0343832 0.00356762 5.56225e-08
0.00356762 0.0317193 1.94606e-07
5.56225e-08 1.94606e-07 0.0327681

0.0301927 0.000451403 1.38257e-07
0.000451403 0.0203956 2.11195e-07
1.38257e-07 2.11195e-07 0.0205373

0.033122 0.00419008 -9.07438e-09
0.00419008 0.032311 2.13563e-08
-9.07438e-09 2.13563e-08 0.0334188

0.0304438 -0.00165028 2.23146e-09
-0.00165028 0.0365435 2.37241e-08
2.23146e-09 2.37241e-08 0.0335975

0.0372858 0.00322473 -1.33128e-07
0.00322473 0.0333953 5.09382e-08
-1.33128e-07 5.09382e-08 0.0345965

0.030679 -0.0038862 -3.61317e-08
-0.0038862 0.0322113 -1.05438e-07
-3.61317e-08 -1.05438e-07 0.0326171

0.0293197 -0.000643399 4.4731e-08
-0.000643399 0.0368294 4.6443e-08
4.4731e-08 4.6443e-08 0.0327845

0.0287612 -0.00314517 4.36401e-08
-0.00314517 0.0221035 -1.84861e-08
4.36401e-08 -1.84861e-08 0.0187268

0.0289495 0.00383534 9.73725e-08
0.00383534 0.0255331 -4.95159e-08
9.73725e-08 -4.95159e-08 0.0230318

0.0216658 0.00188641 2.57484e-07
0.00188641 0.0300058 -7.44382e-08
2.57484e-07 -7.44382e-08 0.0210469

0.0349212 -0.000161004 -7.38713e-08
-0.000161004 0.0273399 7.17953e-08
-7.38713e-08 7.17953e-08 0.033237

0.0343523 3.15291e-07 1.27974e-07
3.15291e-07 0.0272254 7.80952e-08
1.27974e-07 7.80952e-08 0.0319797

0.0291117 0.00303228 -3.33383e-08
0.00303228 0.0326172 1.04313e-07
-3.33383e-08 1.04313e-07 0.032071

0.0313902 0.00315825 -6.81805e-08
0.00315825 0.0341836 -8.46753e-08
-6.81805e-08 -8.46753e-08 0.0339918

0.0291146 -0.00319618 -9.76069e-08
-0.00319618 0.0331741 1.7099e-08
-9.76069e-08 1.7099e-08 0.0333143

0.028721 -8.5337e-05 -8.66002e-08
-8.5337e-05 0.0366315 -1.44543e-07
-8.66002e-08 -1.44543e-07 0.032463

0.0294093 0.00336724 -1.01828e-07
0.00336724 0.0330109 -1.01795e-07
-1.01828e-07 -1.01795e-07 0.0332901

0.0327961 -0.00134306 -2.21669e-07
-0.00134306 0.0253174 -1.44615e-07
-2.21669e-07 -1.44615e-07 0.0277773

0.026308 -0.0042439 9.95921e-08
-0.0042439 0.0281283 1.72416e-07
9.95921e-08 1.72416e-07 0.024224

0.0362258 -0.000330578 -9.86051e-08
-0.000330578 0.0293286 -3.03699e-08
-9.86051e-08 -3.03699e-08 0.0339617

0.0267338 -0.00443506 7.33574e-08
-0.00443506 0.0251466 -1.54854e-07
7.33574e-08 -1.54854e-07 0.0209125

0.0308413 0.00250091 -4.28446e-08
0.00250091 0.0349943 -6.21803e-08
-4.28446e-08 -6.21803e-08 0.0340014

0.0350444 -0.00348803 1.583e-08
-0.00348803 0.0303315 -2.32954e-08
1.583e-08 -2.32954e-08 0.032552

0.0304459 -0.0012468 5.68619e-08
-0.0012468 0.02294 -5.95672e-08
5.68619e-08 -5.95672e-08 0.0214407

0.0370742 -0.00306933 -8.23792e-08
-0.00306933 0.0315934 5.22447e-08
-8.23792e-08 5.22447e-08 0.0339218

0.0349007 0.000321301 -1.45566e-08
0.000321301 0.0275048 -1.3796e-07
-1.45566e-08 -1.3796e-07 0.0333652

0.035773 -0.00308029 -9.90928e-08
-0.00308029 0.0331936 -5.69381e-08
-9.90928e-08 -5.69381e-08 0.034077

0.0348601 -0.00340181 -9.25218e-08
-0.00340181 0.0295398 5.34737e-08
-9.25218e-08 5.34737e-08 0.0321162

0.034841 -0.00113065 -1.74906e-08
-0.00113065 0.0277994 -1.69913e-07
-1.74906e-08 -1.69913e-07 0.0322792

0.0314297 -0.00305462 6.1909e-08
-0.00305462 0.0343816 1.1193e-07
6.1909e-08 1.1193e-07 0.03408

0.0291814 -0.00406089 1.69583e-07
-0.00406089 0.0268518 -9.24189e-08
1.69583e-07 -9.24189e-08 0.0253002

0.034924 -0.00323544 -1.13016e-07
-0.00323544 0.0298594 -2.73146e-08
-1.13016e-07 -2.73146e-08 0.0321333

0.0314032 0.00140558 -2.41948e-07
0.00140558 0.0232877 -5.22286e-09
-2.41948e-07 -5.22286e-09 0.0244395

0.0335996 0.00347519 2.94786e-08
0.00347519 0.0333797 -3.83538e-08
2.94786e-08 -3.83538e-08 0.0335846

0.0298367 -0.00495475 -7.00651e-08
-0.00495475 0.0330146 -1.44647e-07
-7.00651e-08 -1.44647e-07 0.0337913

0.0299869 0.0049083 8.97079e-10
0.0049083 0.0328767 -1.06281e-07
8.97079e-10 -1.06281e-07 0.0337583

0.0276378 -0.00373231 1.86782e-08
-0.00373231 0.0347389 -1.04236e-07
1.86782e-08 -1.04236e-07 0.033701

0.0278749 0.00353826 1.95945e-07
0.00353826 0.0347665 -5.59813e-08
1.95945e-07 -5.59813e-08 0.033666

0.0363574 -0.00115094 -5.58241e-08
-0.00115094 0.0262948 3.95367e-08
-5.58241e-08 3.95367e-08 0.0336922

0.0361271 0.00124432 -2.48488e-08
0.00124432 0.0265156 3.23471e-08
-2.48488e-08 3.23471e-08 0.0336551

0.0349656 -0.00130321 -3.06676e-09
-0.00130321 0.028416 -1.52324e-07
-3.06676e-09 -1.52324e-07 0.032513

0.034369 0.00424857 1.84661e-08
0.00424857 0.0342226 -8.31461e-08
1.84661e-08 -8.31461e-08 0.0347443

0.0342453 -0.00434628 -2.8757e-08
-0.00434628 0.0342146 -6.5321e-08
-2.8757e-08 -6.5321e-08 0.0347327

0.0304634 0.00208827 -1.15411e-07
0.00208827 0.0380889 8.07459e-08
-1.15411e-07 8.07459e-08 0.0347814

0.0306064 -0.00205446 -1.82794e-07
-0.00205446 0.0380192 -3.59924e-08
-1.82794e-07 -3.59924e-08 0.0347688

0.0394227 -0.00052773 9.04422e-08
-0.00052773 0.0327865 1.02737e-07
9.04422e-08 1.02737e-07 0.0351887

0.0396245 0.000511993 -5.14666e-08
0.000511993 0.0325594 6.28214e-08
-5.14666e-08 6.28214e-08 0.0352338

0.0239242 0.00127263 3.65489e-08
0.00127263 0.0319424 6.24211e-08
3.65489e-08 6.24211e-08 0.0251387

0.0311032 -0.00325707 -1.20246e-07
-0.00325707 0.0321793 1.26756e-07
-1.20246e-07 1.26756e-07 0.0327385

0.0277289 -0.00477385 8.80224e-08
-0.00477385 0.0332473 1.28339e-08
8.80224e-08 1.28339e-08 0.0333904

0.0332945 -0.00060859 -1.37846e-07
-0.00060859 0.0263562 3.86035e-09
-1.37846e-07 3.86035e-09 0.0283952

0.0381119 -0.00224627 -2.47052e-08
-0.00224627 0.0307366 -9.35494e-08
-2.47052e-08 -9.35494e-08 0.0348245

0.0381594 0.00217841 -4.0716e-08
0.00217841 0.0308493 4.67761e-08
-4.0716e-08 4.67761e-08 0.0348565

0.0360127 1.5559e-05 -1.24585e-07
1.5559e-05 0.0250819 5.74924e-08
-1.24585e-07 5.74924e-08 0.0334054

0.0241995 0.00302147 -6.32146e-08
0.00302147 0.0303409 -1.01139e-07
-6.32146e-08 -1.01139e-07 0.0242334

0.0276237 0.00474448 -1.00673e-07
0.00474448 0.0332479 1.34634e-07
-1.00673e-07 1.34634e-07 0.0333283

0.0286217 -0.00306806 -8.19465e-08
-0.00306806 0.0341941 -9.77649e-09
-8.19465e-08 -9.77649e-09 0.0326892

0.0310271 0.00302824 1.64604e-07
0.00302824 0.0251029 -2.41946e-07
1.64604e-07 -2.41946e-07 0.0254209

0.0371536 0.00315777 6.5073e-08
0.00315777 0.031481 1.96527e-07
6.5073e-08 1.96527e-07 0.0340095

0.0291727 -0.00405714 -8.51389e-08
-0.00405714 0.0268873 4.7281e-08
-8.51389e-08 4.7281e-08 0.0252754

0.03633 -0.000452394 -2.125e-08
-0.000452394 0.0296363 -9.91071e-08
-2.125e-08 -9.91071e-08 0.0340645

0.0272947 -0.00448373 -1.11933e-07
-0.00448373 0.0333306 1.14817e-07
-1.11933e-07 1.14817e-07 0.0333769

0.0239969 0.0010763 8.42778e-08
0.0010763 0.0321829 1.43455e-08
8.42778e-08 1.43455e-08 0.0254596

0.0241882 0.00281947 -1.64708e-07
0.00281947 0.0306439 2.79084e-08
-1.64708e-07 2.79084e-08 0.0245007

0.0267457 0.00458445 9.10956e-08
0.00458445 0.0240016 9.91462e-08
9.10956e-08 9.91462e-08 0.0181825

0.0297966 0.000199338 -8.83301e-08
0.000199338 0.0200568 1.59067e-07
-8.83301e-08 1.59067e-07 0.0193291

0.0318479 -0.00301616 -9.46649e-08
-0.00301616 0.0340962 -6.22134e-08
-9.46649e-08 -6.22134e-08 0.0339693

0.0228807 0.00399104 -2.15585e-07
0.00399104 0.0276124 3.05873e-08
-2.15585e-07 3.05873e-08 0.0176231

0.0291558 0.003093 3.38102e-08
0.003093 0.0326999 2.06031e-07
3.38102e-08 2.06031e-07 0.0309533

0.0315349 -0.000692887 -4.17334e-09
-0.000692887 0.0231211 2.41505e-07
-4.17334e-09 2.41505e-07 0.0244408

0.0326982 0.00146067 -7.57983e-08
0.00146067 0.0253026 -1.17926e-07
-7.57983e-08 -1.17926e-07 0.027562

0.0359072 5.61423e-05 -3.59978e-08
5.61423e-05 0.0249151 1.40127e-07
-3.59978e-08 1.40127e-07 0.0333215

0.0279149 -0.00379578 -2.39264e-08
-0.00379578 0.0348805 1.49274e-07
-2.39264e-08 1.49274e-07 0.0337503

0.0392359 -0.000841407 -1.38931e-07
-0.000841407 0.0415172 -1.61027e-07
-1.38931e-07 -1.61027e-07 0.0361186

0.0298122 0.0049267 -4.8431e-08
0.0049267 0.0328929 -1.19826e-07
-4.8431e-08 -1.19826e-07 0.0337134

0.0302351 0.000214108 -3.22628e-08
0.000214108 0.0203643 1.99377e-07
-3.22628e-08 1.99377e-07 0.0172468

0.0266262 -0.00423978 -1.39319e-07
-0.00423978 0.0280819 3.26096e-08
-1.39319e-07 3.26096e-08 0.0243935

0.0276958 0.00480363 -9.07587e-08
0.00480363 0.0332509 -1.21262e-07
-9.07587e-08 -1.21262e-07 0.0333905

0.0278944 -0.00145477 -5.41286e-08
-0.00145477 0.0350162 -5.23812e-08
-5.41286e-08 -5.23812e-08 0.0313903

0.024423 -0.00329687 -3.81561e-08
-0.00329687 0.0299596 -5.03393e-08
-3.81561e-08 -5.03393e-08 0.0241736

0.0279398 0.0037704 5.9874e-08
0.0037704 0.0348418 -6.88269e-08
5.9874e-08 -6.88269e-08 0.0337212

0.0313023 -0.00340095 -2.27783e-08
-0.00340095 0.0269605 -1.11384e-07
-2.27783e-08 -1.11384e-07 0.0269418

0.0401985 0.00140547 8.62901e-08
0.00140547 0.0405353 1.64346e-07
8.62901e-08 1.64346e-07 0.0360991

0.0258356 0.00399303 1.01258e-07
0.00399303 0.0289012 -2.26288e-07
1.01258e-07 -2.26288e-07 0.0244669

0.0366048 0.00110004 9.35051e-09
0.00110004 0.0263053 -1.04247e-07
9.35051e-09 -1.04247e-07 0.0338319

0.0332775 0.00397397 1.34915e-07
0.00397397 0.0320543 1.72059e-07
1.34915e-07 1.72059e-07 0.0332512

0.0291741 0.00305936 -5.50275e-08
0.00305936 0.032543 -7.28956e-08
-5.50275e-08 -7.28956e-08 0.032096

0.0342981 -0.00430035 1.36221e-08
-0.00430035 0.034438 1.13132e-07
1.36221e-08 1.13132e-07 0.0348167

0.0354199 -0.00305586 6.08405e-08
-0.00305586 0.0305329 6.84718e-08
6.08405e-08 6.84718e-08 0.0326874

0.0333025 0.0013846 1.20629e-07
0.0013846 0.0394976 3.21807e-07
1.20629e-07 3.21807e-07 0.034934

0.0291429 -0.00307138 6.71416e-08
-0.00307138 0.0328109 -3.28068e-08
6.71416e-08 -3.28068e-08 0.0313236

0.0292142 -0.00122933 1.00009e-07
-0.00122933 0.0192572 2.14647e-07
1.00009e-07 2.14647e-07 0.0163847

0.0287281 -0.0018287 -6.31199e-08
-0.0018287 0.0183861 1.34912e-07
-6.31199e-08 1.34912e-07 0.01617

0.0384523 0.00219628 -7.24998e-08
0.00219628 0.0331754 -6.21211e-08
-7.24998e-08 -6.21211e-08 0.0346951

0.028005 0.00293783 -6.98481e-08
0.00293783 0.0322734 -2.23323e-07
-6.98481e-08 -2.23323e-07 0.0294628

0.0320059 0.00382476 -1.29654e-07
0.00382476 0.0309025 1.04564e-07
-1.29654e-07 1.04564e-07 0.0313945

0.0319896 8.96712e-05 2.1151e-07
8.96712e-05 0.0245348 -1.52645e-08
2.1151e-07 -1.52645e-08 0.0248433

0.0301814 0.000864 1.58612e-08
0.000864 0.038504 -3.4658e-08
1.58612e-08 -3.4658e-08 0.0340301

0.0353327 0.00218594 1.225e-07
0.00218594 0.0292688 -2.33887e-07
1.225e-07 -2.33887e-07 0.032795

0.0247686 -0.00333065 1.39734e-07
-0.00333065 0.0299506 4.14665e-08
1.39734e-07 4.14665e-08 0.0244262

0.0285983 -0.000337164 -1.11473e-07
-0.000337164 0.0365844 -1.4691e-07
-1.11473e-07 -1.4691e-07 0.0323336

0.0251716 0.00173575 -1.62207e-07
0.00173575 0.0319691 5.6487e-08
-1.62207e-07 5.6487e-08 0.0256375

0.0332164 -0.00389984 -6.42627e-08
-0.00389984 0.03044 6.09384e-08
-6.42627e-08 6.09384e-08 0.0315322

0.0290114 -0.00388629 -2.23681e-08
-0.00388629 0.0281491 1.68601e-07
-2.23681e-08 1.68601e-07 0.025667

0.0261031 0.00408871 -2.1624e-08
0.00408871 0.0284945 1.4902e-07
-2.1624e-08 1.4902e-07 0.0242747

0.0451943 -0.00201246 -1.05739e-07
-0.00201246 0.0395269 -6.92829e-08
-1.05739e-07 -6.92829e-08 0.0362952

0.031607 0.000255647 -3.84248e-08
0.000255647 0.039248 3.02387e-07
-3.84248e-08 3.02387e-07 0.0347012

0.0305592 0.0026444 -9.16597e-08
0.0026444 0.0383659 -1.51558e-07
-9.16597e-08 -1.51558e-07 0.0348894

0.0386885 0.00208966 -1.61274e-08
0.00208966 0.0301653 -2.19492e-07
-1.61274e-08 -2.19492e-07 0.0348743

0.0313117 -0.00344163 1.85742e-08
-0.00344163 0.0320793 -2.11542e-08
1.85742e-08 -2.11542e-08 0.0325101

0.031758 0.00233022 -1.38744e-07
0.00233022 0.0255756 2.03934e-07
-1.38744e-07 2.03934e-07 0.0258326

0.0349259 -0.000706645 2.8148e-07
-0.000706645 0.0414914 9.33676e-09
2.8148e-07 9.33676e-09 0.0356575

0.0357178 -0.00251215 -7.74809e-08
-0.00251215 0.0294954 -3.11495e-08
-7.74809e-08 -3.11495e-08 0.0331937

0.0332333 -0.00203467 6.52698e-08
-0.00203467 0.0266054 -7.70744e-08
6.52698e-08 -7.70744e-08 0.0286221

0.0252084 0.00150708 -1.51211e-07
0.00150708 0.0322132 5.61781e-09
-1.51211e-07 5.61781e-09 0.0259029

0.0267568 -0.00333641 -1.87126e-08
-0.00333641 0.0299539 -4.96953e-08
-1.87126e-08 -4.96953e-08 0.0251419

0.0364057 -0.00335186 6.50828e-08
-0.00335186 0.0352189 -2.34525e-07
6.50828e-08 -2.34525e-07 0.0346745

0.0284236 0.0041417 -1.86373e-07
0.0041417 0.027666 1.43553e-07
-1.86373e-07 1.43553e-07 0.0254217

0.0371702 -0.00333711 -8.92152e-08
-0.00333711 0.0332583 1.17279e-07
-8.92152e-08 1.17279e-07 0.0345442

0.0321452 0.000337132 -1.80171e-07
0.000337132 0.0248197 -1.00323e-07
-1.80171e-07 -1.00323e-07 0.0253915

0.0191311 -0.00368128 -1.3291e-07
-0.00368128 0.0274786 -6.52539e-08
-1.3291e-07 -6.52539e-08 0.0162835

0.0291563 -0.00379409 2.42337e-07
-0.00379409 0.0281414 6.67873e-08
2.42337e-07 6.67873e-08 0.0257609

0.0230079 0.00411851 -6.05557e-08
0.00411851 0.0279719 2.21335e-07
-6.05557e-08 2.21335e-07 0.0175624

0.0296361 -0.00155549 -8.94283e-08
-0.00155549 0.0374584 -1.36753e-07
-8.94283e-08 -1.36753e-07 0.0335833

0.0243185 -0.00178922 -1.50144e-07
-0.00178922 0.0318123 1.49972e-08
-1.50144e-07 1.49972e-08 0.0254018

0.0423511 -0.00322654 1.17789e-07
-0.00322654 0.0422903 2.66313e-07
1.17789e-07 2.66313e-07 0.0363035

0.0262901 0.00308339 -5.8877e-08
0.00308339 0.0306441 2.79628e-08
-5.8877e-08 2.79628e-08 0.0254317

0.0334119 -0.00431251 6.49427e-08
-0.00431251 0.0325967 5.73272e-09
6.49427e-08 5.73272e-09 0.0335014

0.0240396 -0.00154687 5.70844e-08
-0.00154687 0.0318265 -8.48543e-08
5.70844e-08 -8.48543e-08 0.0251312

0.036151 -0.00253222 -3.86214e-08
-0.00253222 0.0294563 -9.98038e-08
-3.86214e-08 -9.98038e-08 0.0334544

0.026626 0.00309701 1.34024e-07
0.00309701 0.0303378 -1.04394e-07
1.34024e-07 -1.04394e-07 0.0252673

0.0342761 -0.000652182 1.10489e-08
-0.000652182 0.0272276 1.36882e-07
1.10489e-08 1.36882e-07 0.0305196

0.0188616 -0.00386478 -1.86452e-07
-0.00386478 0.0297532 5.92593e-08
-1.86452e-07 5.92593e-08 0.01294

0.0279481 0.00274757 -1.64965e-08
0.00274757 0.0325664 1.71037e-07
-1.64965e-08 1.71037e-07 0.0305155

0.0313778 -0.00250595 2.14107e-07
-0.00250595 0.0246795 -1.36801e-07
2.14107e-07 -1.36801e-07 0.0253597

0.0390396 -0.00286197 2.52789e-07
-0.00286197 0.0321599 -2.40472e-08
2.52789e-07 -2.40472e-08 0.0348682

0.0287003 0.00411375 1.56704e-07
0.00411375 0.0272507 5.30291e-08
1.56704e-07 5.30291e-08 0.0252096

0.0313016 -0.00390922 -4.29948e-08
-0.00390922 0.0284895 -8.12467e-08
-4.29948e-08 -8.12467e-08 0.0286771

0.0353383 0.00275695 -4.28283e-08
0.00275695 0.0307975 8.3784e-08
-4.28283e-08 8.3784e-08 0.0329751

0.0297169 -0.0036943 -1.85041e-07
-0.0036943 0.032874 5.12807e-08
-1.85041e-07 5.12807e-08 0.0332774

0.0270062 -0.00340169 -1.45646e-07
-0.00340169 0.0299265 1.9585e-08
-1.45646e-07 1.9585e-08 0.0253511

0.0283882 0.00376167 6.1011e-08
0.00376167 0.0288861 -2.27723e-07
6.1011e-08 -2.27723e-07 0.0258398

0.0313116 0.00340463 -8.74131e-08
0.00340463 0.0268507 -7.0474e-08
-8.74131e-08 -7.0474e-08 0.0269161

0.0364633 -0.00193908 -3.29157e-09
-0.00193908 0.0305674 -2.48295e-08
-3.29157e-09 -2.48295e-08 0.03357

0.0254886 -0.00215786 1.38967e-07
-0.00215786 0.0317412 3.95839e-08
1.38967e-07 3.95839e-08 0.0258062

0.0346308 -0.0023081 -5.09681e-08
-0.0023081 0.0282821 -1.55392e-07
-5.09681e-08 -1.55392e-07 0.0313954

0.0341186 0.00221731 -1.76173e-07
0.00221731 0.0273818 -4.04192e-10
-1.76173e-07 -4.04192e-10 0.0305452

0.0335797 -0.00124266 -2.22119e-07
-0.00124266 0.0392202 2.11995e-07
-2.22119e-07 2.11995e-07 0.0348584

0.0320104 -0.00174231 2.19847e-07
-0.00174231 0.0252857 -1.26057e-07
2.19847e-07 -1.26057e-07 0.0258235

0.024958 7.95729e-05 6.81453e-08
7.95729e-05 0.0330864 1.11489e-08
6.81453e-08 1.11489e-08 0.0268113

0.0331824 0.00242253 -6.65757e-08
0.00242253 0.0271442 -1.03084e-07
-6.65757e-08 -1.03084e-07 0.0288674

0.0310582 0.00358972 2.54309e-07
0.00358972 0.0272428 -6.17611e-08
2.54309e-07 -6.17611e-08 0.0270721

0.0252508 -0.00203602 -5.8534e-08
-0.00203602 0.0318033 -8.75548e-08
-5.8534e-08 -8.75548e-08 0.025564

0.0251568 -0.000154149 4.25297e-09
-0.000154149 0.0332268 1.37444e-07
4.25297e-09 1.37444e-07 0.0270935

0.0353432 0.00384834 6.93452e-09
0.00384834 0.0329319 -6.8393e-08
6.93452e-09 -6.8393e-08 0.033829

0.0275351 -0.00142733 1.28124e-08
-0.00142733 0.0352717 1.28835e-07
1.28124e-08 1.28835e-07 0.0313813

0.0311744 -0.00347505 7.80485e-08
-0.00347505 0.0269285 5.35405e-08
7.80485e-08 5.35405e-08 0.0269595

0.031237 0.0027656 -2.33523e-08
0.0027656 0.0248785 3.92485e-08
-2.33523e-08 3.92485e-08 0.0252

0.0345144 0.00311046 -1.73398e-07
0.00311046 0.0293316 5.09303e-09
-1.73398e-07 5.09303e-09 0.0317342

0.0279397 0.000714958 -8.48558e-08
0.000714958 0.0359675 -2.31409e-08
-8.48558e-08 -2.31409e-08 0.0317566

0.0286632 0.00377195 1.01147e-07
0.00377195 0.0285065 1.46681e-07
1.01147e-07 1.46681e-07 0.0256806

0.0367167 0.00304979 -4.8573e-08
0.00304979 0.0360542 -2.00339e-07
-4.8573e-08 -2.00339e-07 0.0348381

0.0226434 -0.00753167 1.69684e-07
-0.00753167 0.0186596 -2.68758e-07
1.69684e-07 -2.68758e-07 0.0108274

0.0332259 -0.00327897 2.79085e-08
-0.00327897 0.0285794 -7.55773e-08
2.79085e-08 -7.55773e-08 0.0300665

0.0206932 0.000911529 2.32866e-07
0.000911529 0.029977 -1.21887e-07
2.32866e-07 -1.21887e-07 0.0183147

0.0312403 -0.00377195 9.20764e-08
-0.00377195 0.0291763 1.6028e-07
9.20764e-08 1.6028e-07 0.0289766

0.0015374 -0.00650965 -4.6867e-08
-0.00650965 0.0275298 2.05338e-07
-4.6867e-08 2.05338e-07 0.0029037

0.00146789 0.00635939 -1.37762e-08
0.00635939 0.0275475 -6.03573e-08
-1.37762e-08 -6.03573e-08 0.0029965

0.0119679 0.0144848 7.79856e-08
0.0144848 0.0175081 9.77908e-08
7.79856e-08 9.77908e-08 0.00276681

0.0121491 -0.0144755 -2.36077e-08
-0.0144755 0.0172 2.96031e-08
-2.36077e-08 2.96031e-08 0.00279935

0.0292997 -0.000163813 2.67747e-08
-0.000163813 0 0
2.67747e-08 0 0.00294793

0.0235591 -0.0112668 1.2057e-07
-0.0112668 0.00538788 -5.80633e-08
1.2057e-07 -5.80633e-08 0.00297355

0.0236009 0.0113329 -1.80717e-07
0.0113329 0.00544188 -8.70287e-08
-1.80717e-07 -8.70287e-08 0.00303463

0.036837 0.00190648 -1.28122e-07
0.00190648 0.0301852 5.93572e-08
-1.28122e-07 5.93572e-08 0.0338114

0.0386276 0.00340126 -3.37754e-08
0.00340126 0.0365451 -9.0827e-10
-3.37754e-08 -9.0827e-10 0.0355081

0.0343477 0.000870133 -1.76547e-07
0.000870133 0.0274068 2.16834e-08
-1.76547e-07 2.16834e-08 0.0316268

0.0328093 0.00284293 -8.45926e-08
0.00284293 0.0268407 -7.05599e-08
-8.45926e-08 -7.05599e-08 0.0285924

0.0256552 0.00230742 -1.2019e-07
0.00230742 0.0323048 1.42101e-07
-1.2019e-07 1.42101e-07 0.0275841

0.0306545 0.00375944 1.06322e-07
0.00375944 0.0276256 1.57414e-07
1.06322e-07 1.57414e-07 0.0270673

0.0332409 -0.00389324 -1.06473e-07
-0.00389324 0.0304082 1.63093e-10
-1.06473e-07 1.63093e-10 0.031569

0.0309145 0.00364521 -1.5505e-07
0.00364521 0.0272374 4.88274e-08
-1.5505e-07 4.88274e-08 0.0268754

0.0249435 -0.000370579 1.09085e-07
-0.000370579 0.0330576 1.24618e-08
1.09085e-07 1.24618e-08 0.0267935

0.0384704 -0.00347589 6.65324e-08
-0.00347589 0.0368075 1.135e-08
6.65324e-08 1.135e-08 0.0355137

0.0251315 -0.000634182 -9.43603e-08
-0.000634182 0.0331456 1.29074e-07
-9.43603e-08 1.29074e-07 0.0270524

0.0359467 0.00303979 -3.04928e-08
0.00303979 0.0329471 3.15428e-08
-3.04928e-08 3.15428e-08 0.0340313

0.0295685 0.00346717 5.13373e-08
0.00346717 0.0248031 3.48578e-08
5.13373e-08 3.48578e-08 0.0229817

0.0304383 -0.00170969 4.87851e-08
-0.00170969 0.0374376 -1.63642e-07
4.87851e-08 -1.63642e-07 0.0346682

0.0338539 0.00179986 1.70685e-07
0.00179986 0.0271325 -1.00986e-07
1.70685e-07 -1.00986e-07 0.0302628

0.0311418 -0.0039104 1.1945e-07
-0.0039104 0.0284783 -1.553e-08
1.1945e-07 -1.553e-08 0.0285608

0.0315234 -0.00321323 8.87096e-08
-0.00321323 0.0266438 7.40489e-08
8.87096e-08 7.40489e-08 0.0269976

0.0384024 -0.00213608 -5.78297e-08
-0.00213608 0.0333525 1.77238e-07
-5.78297e-08 1.77238e-07 0.0346767

0.0326179 0.0036548 -5.82972e-08
0.0036548 0.0291779 -1.47797e-07
-5.82972e-08 -1.47797e-07 0.0300977

0.0325815 0.00312949 -2.13474e-08
0.00312949 0.0272029 -7.30715e-08
-2.13474e-08 -7.30715e-08 0.0287339

0.0269067 -0.000364282 -7.41473e-09
-0.000364282 0.0349187 -2.52792e-07
-7.41473e-09 -2.52792e-07 0.0301107

0.0258539 0.00076398 -1.0603e-07
0.00076398 0.0339372 -1.0091e-07
-1.0603e-07 -1.0091e-07 0.0287689

0.0327151 0.000344577 -8.51373e-08
0.000344577 0.0248185 -9.47147e-08
-8.51373e-08 -9.47147e-08 0.0273929

0.0313282 -0.000942595 1.90038e-07
-0.000942595 0.0229653 -5.37831e-08
1.90038e-07 -5.37831e-08 0.0238493

0.0308222 0.00397512 -1.79997e-07
0.00397512 0.028753 3.73634e-09
-1.79997e-07 3.73634e-09 0.0285705

0.0330538 -0.00342275 1.71834e-08
-0.00342275 0.0284878 -1.65685e-08
1.71834e-08 -1.65685e-08 0.0299125

0.0363405 -0.00281661 -2.74335e-08
-0.00281661 0.0326703 1.02544e-07
-2.74335e-08 1.02544e-07 0.0340774

0.0291522 -0.0041171 1.77841e-07
-0.0041171 0.029138 1.66136e-07
1.77841e-07 1.66136e-07 0.0277023

0.0269234 -0.0036113 7.19115e-08
-0.0036113 0.0304075 -2.01278e-07
7.19115e-08 -2.01278e-07 0.0271631

0.0282741 0.00388965 1.03237e-07
0.00388965 0.0298451 -1.44435e-07
1.03237e-07 -1.44435e-07 0.0277005

0.0258556 -0.00124594 1.02676e-07
-0.00124594 0.0335485 2.28693e-08
1.02676e-07 2.28693e-08 0.0284626

0.0266069 -0.000201623 1.30564e-07
-0.000201623 0.0348449 7.40858e-08
1.30564e-07 7.40858e-08 0.0298632

0.0277119 0.000750974 9.79302e-08
0.000750974 0.0359669 -2.45208e-08
9.79302e-08 -2.45208e-08 0.0315975

0.0262005 -0.00274241 6.87441e-08
-0.00274241 0.0319016 1.4473e-07
6.87441e-08 1.4473e-07 0.0276591

0.0345149 0.00316766 -9.10696e-08
0.00316766 0.0291144 -1.49916e-07
-9.10696e-08 -1.49916e-07 0.0315737

0.0338432 -0.00125797 -8.72635e-08
-0.00125797 0.0268819 -1.06578e-07
-8.72635e-08 -1.06578e-07 0.0301444

0.0257449 0.000971987 8.57815e-09
0.000971987 0.0337638 -9.54352e-08
8.57815e-09 -9.54352e-08 0.0284886

0.0277735 -0.00126675 8.61522e-08
-0.00126675 0.0353273 1.43795e-07
8.61522e-08 1.43795e-07 0.031306

0.0272437 -0.00213161 -1.04966e-07
-0.00213161 0.0335917 -1.23692e-07
-1.04966e-07 -1.23692e-07 0.0301683

0.0327134 -0.00107439 -1.64459e-07
-0.00107439 0.0252758 1.34946e-07
-1.64459e-07 1.34946e-07 0.0272039

0.0332507 -0.00426015 -1.23825e-07
-0.00426015 0.0323184 5.56766e-09
-1.23825e-07 5.56766e-09 0.0334639

0.0264415 0.00121683 2.50641e-08
0.00121683 0.0337698 -9.52525e-08
2.50641e-08 -9.52525e-08 0.028762

0.0397307 -0.00242523 -1.34931e-07
-0.00242523 0.0351496 -2.2765e-07
-1.34931e-07 -2.2765e-07 0.0353912

0.0188594 0.00315783 3.67054e-08
0.00315783 0.0278277 2.30215e-07
3.67054e-08 2.30215e-07 0.0162454

0.0337498 -0.00351376 -9.62089e-08
-0.00351376 0.0334298 4.95964e-08
-9.62089e-08 4.95964e-08 0.0336604

0.0352744 -0.00398954 -3.19306e-08
-0.00398954 0.0329829 1.7994e-07
-3.19306e-08 1.7994e-07 0.0338379

0.0266381 -9.02826e-05 -9.20847e-08
-9.02826e-05 0.03485 6.89797e-08
-9.20847e-08 6.89797e-08 0.0298714

0.0331785 -0.00217089 -2.82748e-07
-0.00217089 0.027104 -2.03786e-08
-2.82748e-07 -2.03786e-08 0.0288484

0.0292931 0.00168065 1.49948e-08
0.00168065 0.0357486 1.29996e-07
1.49948e-08 1.29996e-07 0.0328161

0.0131889 -0.000377932 -3.91727e-08
-0.000377932 0.0283158 2.06652e-08
-3.91727e-08 2.06652e-08 0.0111337

0.0270648 0.00186382 -4.56582e-08
0.00186382 0.033995 -2.28702e-07
-4.56582e-08 -2.28702e-07 0.0302487

0.0310501 -0.00384866 1.28899e-07
-0.00384866 0.0291 3.47424e-09
1.28899e-07 3.47424e-09 0.0287523

0.0185914 0.00319892 -4.54132e-08
0.00319892 0.0300901 3.50235e-09
-4.54132e-08 3.50235e-09 0.0131052

0.0425132 0.00350883 -1.98487e-07
0.00350883 0.0417639 -8.30178e-08
-1.98487e-07 -8.30178e-08 0.0364081

0.0431165 -0.00373939 -1.31209e-07
-0.00373939 0.0413338 2.64465e-07
-1.31209e-07 2.64465e-07 0.0363905

0.0310063 -0.00398068 1.98734e-07
-0.00398068 0.0304138 -7.23051e-09
1.98734e-07 -7.23051e-09 0.0304031

0.0288685 -0.00405384 7.77314e-08
-0.00405384 0.0290965 3.00377e-09
7.77314e-08 3.00377e-09 0.0275431

0.0329867 0.00271984 -7.25564e-08
0.00271984 0.0274784 8.63696e-09
-7.25564e-08 8.63696e-09 0.0290207

0.0327161 0.00195503 3.35994e-08
0.00195503 0.0255461 2.10794e-07
3.35994e-08 2.10794e-07 0.0277709

0.0463062 0.0004182 4.53452e-07
0.0004182 0.0462608 5.80315e-07
4.53452e-07 5.80315e-07 0.0366218

0.0468222 -0.000949461 -1.50282e-07
-0.000949461 0.0456734 1.61379e-08
-1.50282e-07 1.61379e-08 0.0366927

0.0347309 0.00063688 4.016e-08
0.00063688 0.0275227 -1.66727e-07
4.016e-08 -1.66727e-07 0.0321543

0.0277012 0.000880167 -1.48927e-07
0.000880167 0.0355 -5.33603e-08
-1.48927e-07 -5.33603e-08 0.0312884

0.0275575 0.000880408 -1.64724e-07
0.000880408 0.0355002 -5.38068e-08
-1.64724e-07 -5.38068e-08 0.0311849

0.0234225 0.0073862 6.29023e-09
0.0073862 0.0182733 3.35463e-07
6.29023e-09 3.35463e-07 0.0108838

0.0271977 -0.00366628 4.80619e-08
-0.00366628 0.0302901 -2.68768e-07
4.80619e-08 -2.68768e-07 0.0272687

0.0364941 0.00238544 -8.8168e-08
0.00238544 0.029521 8.24398e-09
-8.8168e-08 8.24398e-09 0.0337184

0.0332091 0.00124415 5.68883e-08
0.00124415 0.0264566 1.6615e-07
5.68883e-08 1.6615e-07 0.0283785

0.0290982 -0.00348369 -3.91067e-08
-0.00348369 0.0304137 -2.10705e-07
-3.91067e-08 -2.10705e-07 0.0281205

0.0327474 -0.00264096 -2.28138e-07
-0.00264096 0.0266799 6.37875e-08
-2.28138e-07 6.37875e-08 0.028533

0.0224239 0.00759876 -1.98315e-07
0.00759876 0.0185623 -2.03397e-07
-1.98315e-07 -2.03397e-07 0.0108862

0.0330804 0.00409199 2.28012e-07
0.00409199 0.0325752 -4.50546e-08
2.28012e-07 -4.50546e-08 0.033117

0.0258442 -0.00257171 -1.55482e-07
-0.00257171 0.0319626 7.13325e-08
-1.55482e-07 7.13325e-08 0.0274562

0.0324195 0.0037763 -1.77154e-07
0.0037763 0.0292136 1.35463e-08
-1.77154e-07 1.35463e-08 0.0300895

0.0267677 -0.00054231 7.06517e-08
-0.00054231 0.0348837 -2.44805e-07
7.06517e-08 -2.44805e-07 0.0300805

0.026941 0.002557 1.52177e-07
0.002557 0.0323857 -3.6345e-08
1.52177e-07 -3.6345e-08 0.0282334

0.0304686 0.00398104 4.50787e-08
0.00398104 0.0292686 3.41784e-08
4.50787e-08 3.41784e-08 0.0287208

0.0275583 -0.00292989 2.60927e-07
-0.00292989 0.0317924 1.78891e-07
2.60927e-07 1.78891e-07 0.028196

0.0294009 -0.00356666 -8.10949e-08
-0.00356666 0.0302938 -2.77348e-07
-8.10949e-08 -2.77348e-07 0.0282519

0.01811 0.00142268 -1.76531e-07
0.00142268 0.0279892 -9.09575e-08
-1.76531e-07 -9.09575e-08 0.0131059

0.0234346 -0.00428478 2.56675e-07
-0.00428478 0.0275082 -7.59195e-08
2.56675e-07 -7.59195e-08 0.017693

0.0261587 -0.00152234 1.06705e-07
-0.00152234 0.0335578 -1.63098e-07
1.06705e-07 -1.63098e-07 0.0286976

0.0329597 0.00346607 1.44895e-07
0.00346607 0.0288243 -2.39824e-08
1.44895e-07 -2.39824e-08 0.0300116

0.0302646 0.00384774 1.97652e-07
0.00384774 0.0298304 -1.38238e-07
1.97652e-07 -1.38238e-07 0.0289355

0.0273644 -0.00279351 2.28911e-07
-0.00279351 0.0319224 9.92952e-08
2.28911e-07 9.92952e-08 0.0280863

0.0265068 -0.00153681 -1.89669e-07
-0.00153681 0.033517 7.91872e-09
-1.89669e-07 7.91872e-09 0.0286921

0.0308975 0.00370886 -1.95959e-07
0.00370886 0.029508 3.49719e-08
-1.95959e-07 3.49719e-08 0.0288866

0.026711 -0.00181127 -7.35026e-08
-0.00181127 0.0334088 -2.0171e-07
-7.35026e-08 -2.0171e-07 0.0288996

0.0191359 0.00354661 3.54101e-07
0.00354661 0.0275598 9.47312e-08
3.54101e-07 9.47312e-08 0.0162646

0.0308151 -0.000533376 -1.49898e-07
-0.000533376 0.0387403 -3.25955e-08
-1.49898e-07 -3.25955e-08 0.0342269

0.0286033 0.00403753 1.31557e-08
0.00403753 0.0294632 1.1583e-08
1.31557e-08 1.1583e-08 0.0276628

0.0355098 0.00196998 2.12693e-09
0.00196998 0.0294478 -4.06091e-09
2.12693e-09 -4.06091e-09 0.0327787

0.0361869 -0.0021092 -1.38524e-08
-0.0021092 0.0296993 5.85469e-08
-1.38524e-08 5.85469e-08 0.033153

0.0284608 -0.0030893 -1.11647e-08
-0.0030893 0.0185402 -3.11736e-07
-1.11647e-08 -3.11736e-07 0.0157034

0.0283011 -0.00278293 2.15837e-07
-0.00278293 0.0327122 -8.56231e-08
2.15837e-07 -8.56231e-08 0.0305131

0.0291364 0.00349191 1.33177e-07
0.00349191 0.0315391 7.60115e-08
1.33177e-07 7.60115e-08 0.0304291

0.0348913 -0.00290011 -6.63327e-08
-0.00290011 0.0376 -3.62929e-08
-6.63327e-08 -3.62929e-08 0.0351664

0.0393808 0.00188006 1.72766e-07
0.00188006 0.0445159 -6.75438e-08
1.72766e-07 -6.75438e-08 0.0363604

0.0448507 0.00128704 1.74367e-07
0.00128704 0.039038 -1.02096e-07
1.74367e-07 -1.02096e-07 0.0363423

0.0354898 0.00433464 -8.35887e-08
0.00433464 0.0350656 -6.91998e-09
-8.35887e-08 -6.91998e-09 0.0349343

0.0265239 0.00337931 5.14081e-08
0.00337931 0.0309472 2.28659e-07
5.14081e-08 2.28659e-07 0.0272051

0.0329753 0.00348829 6.04979e-08
0.00348829 0.0286139 1.88201e-07
6.04979e-08 1.88201e-07 0.0299928

0.0220233 0.00575213 -8.13407e-08
0.00575213 0.0241962 -1.79683e-07
-8.13407e-08 -1.79683e-07 0.0160451

0.0385408 -0.00150834 1.59852e-07
-0.00150834 0.0443407 4.24557e-08
1.59852e-07 4.24557e-08 0.0362897

0.0459525 -0.000462549 -1.15717e-07
-0.000462549 0.0453432 4.52401e-08
-1.15717e-07 4.52401e-08 0.0366179

0.045086 -3.15401e-05 1.12412e-07
-3.15401e-05 0.0462053 3.05546e-07
1.12412e-07 3.05546e-07 0.0365998

0.0176145 -0.00678248 -1.59333e-07
-0.00678248 0.0230707 1.12561e-07
-1.59333e-07 1.12561e-07 0.010721

0.039213 -0.00155232 2.34606e-08
-0.00155232 0.0386368 3.6072e-08
2.34606e-08 3.6072e-08 0.0357823

0.0383199 0.00117364 -1.58009e-08
0.00117364 0.0414325 -3.24754e-07
-1.58009e-08 -3.24754e-07 0.0360531

0.0331104 -0.00342688 -5.37396e-08
-0.00342688 0.0281677 -1.80247e-07
-5.37396e-08 -1.80247e-07 0.0298465

0.0317837 0.000140102 -7.6783e-09
0.000140102 0.0385934 -4.70561e-08
-7.6783e-09 -4.70561e-08 0.0343826

0.0285238 -0.0026533 6.53228e-08
-0.0026533 0.0333156 1.50942e-09
6.53228e-08 1.50942e-09 0.0315283

0.0355912 0.000829819 6.25728e-08
0.000829819 0.0273276 -1.50047e-07
6.25728e-08 -1.50047e-07 0.0329358

0.0288221 0.00203913 -1.47764e-07
0.00203913 0.0367426 -1.86704e-07
-1.47764e-07 -1.86704e-07 0.0336037

0.0298134 0.000944107 -1.05486e-07
0.000944107 0.0373133 -1.36268e-07
-1.05486e-07 -1.36268e-07 0.0332983

0.034334 0.00267813 1.59235e-07
0.00267813 0.0287981 1.75855e-07
1.59235e-07 1.75855e-07 0.0311662

0.0132604 -0.000409043 -2.04807e-07
-0.000409043 0.0280765 -5.92424e-08
-2.04807e-07 -5.92424e-08 0.0111831

0.0309056 -0.00361677 1.429e-07
-0.00361677 0.0308564 7.3507e-09
1.429e-07 7.3507e-09 0.0305509

0.0328646 -0.00343456 -1.30914e-07
-0.00343456 0.0319589 8.748e-08
-1.30914e-07 8.748e-08 0.032516

0.0335053 -0.00414857 8.34204e-08
-0.00414857 0.0324719 7.69672e-08
8.34204e-08 7.69672e-08 0.0336696

0.0265178 0.0041405 1.59738e-07
0.0041405 0.0176646 -9.69999e-08
1.59738e-07 -9.69999e-08 0.0125844

0.0387505 -0.00268979 -2.18965e-07
-0.00268979 0.0394965 -7.21431e-08
-2.18965e-07 -7.21431e-08 0.0358869

0.0230462 0.00690871 9.25997e-08
0.00690871 0.0254612 5.27779e-08
9.25997e-08 5.27779e-08 0.0125887

0.0308159 -0.00281072 1.05738e-07
-0.00281072 0.0347389 -1.04254e-07
1.05738e-07 -1.04254e-07 0.0338896

0.0353418 0.00193162 -1.51801e-07
0.00193162 0.0284132 5.71198e-08
-1.51801e-07 5.71198e-08 0.0322819

0.0317604 -0.00188848 4.19393e-08
-0.00188848 0.0249072 1.90076e-07
4.19393e-08 1.90076e-07 0.025349

0.0292376 0.00315093 9.41326e-08
0.00315093 0.0326684 1.90617e-07
9.41326e-08 1.90617e-07 0.0312194

0.0343692 0.002682 2.37499e-07
0.002682 0.0285816 -9.91179e-09
2.37499e-07 -9.91179e-09 0.0311609

0.0324562 0.00149524 1.64759e-07
0.00149524 0.040291 1.53286e-07
1.64759e-07 1.53286e-07 0.0352666

0.0318792 -0.00414406 -1.91896e-08
-0.00414406 0.0311418 9.29459e-08
-1.91896e-08 9.29459e-08 0.0317492

0.0395961 0.00264885 -5.12632e-08
0.00264885 0.0331339 1.70771e-07
-5.12632e-08 1.70771e-07 0.0352461

0.0279201 -0.00241218 1.45627e-07
-0.00241218 0.0334857 -8.39809e-08
1.45627e-07 -8.39809e-08 0.0304123

0.0292963 0.000557273 2.39861e-07
0.000557273 0.0372372 -9.96948e-08
2.39861e-07 -9.96948e-08 0.0331877

0.0418578 0.00133409 -1.29618e-07
0.00133409 0.0370264 1.15049e-08
-1.29618e-07 1.15049e-08 0.0360445

0.0420115 -0.00114514 1.16786e-07
-0.00114514 0.0372519 1.65508e-08
1.16786e-07 1.65508e-08 0.0360265

0.0283333 0.00236428 1.70303e-07
0.00236428 0.0181538 -9.88129e-08
1.70303e-07 -9.88129e-08 0.0159229

0.034957 0.00105856 -5.09509e-08
0.00105856 0.0285133 5.14394e-08
-5.09509e-08 5.14394e-08 0.0329946

0.0128488 0.000921346 -2.17819e-07
0.000921346 0.0315813 4.75103e-08
-2.17819e-07 4.75103e-08 0.00611196

0.0131439 -0.0013856 -4.02143e-08
-0.0013856 0.0320865 -3.70585e-08
-4.02143e-08 -3.70585e-08 0.00610229

0.0152478 0.00714428 1.15472e-07
0.00714428 0.028412 -3.35608e-08
1.15472e-07 -3.35608e-08 0.00597463

0.0346956 -0.0038115 -1.41163e-07
-0.0038115 0.0312084 1.34177e-07
-1.41163e-07 1.34177e-07 0.032875

0.0155574 -0.00618285 2.57378e-07
-0.00618285 0.0261117 2.95929e-08
2.57378e-07 2.95929e-08 0.010455

0.0154917 -0.00707688 -4.26108e-08
-0.00707688 0.0273839 -3.79719e-08
-4.26108e-08 -3.79719e-08 0.00590453

0.0283736 0.00341696 -1.7044e-07
0.00341696 0.0309475 2.28007e-07
-1.7044e-07 2.28007e-07 0.0281001

0.025157 0.00931261 7.36978e-08
0.00931261 0.0189947 9.89563e-08
7.36978e-08 9.89563e-08 0.00592442

0.0364655 0.00172765 -2.12683e-07
0.00172765 0.0384738 -1.23631e-07
-2.12683e-07 -1.23631e-07 0.035405

0.0394552 2.53635e-05 -1.48721e-07
2.53635e-05 0.0354695 2.13664e-07
-1.48721e-07 2.13664e-07 0.0353857

0.0260696 -0.0092314 -1.21372e-07
-0.0092314 0.0187867 9.21743e-09
-1.21372e-07 9.21743e-09 0.00587862

0.0276393 -0.00305726 2.34181e-07
-0.00305726 0.032033 9.1125e-08
2.34181e-07 9.1125e-08 0.0295667

0.0262117 0.00440937 5.16748e-08
0.00440937 0.0201266 3.18998e-07
5.16748e-08 3.18998e-07 0.0130231

0.0172546 0.00796134 7.19055e-08
0.00796134 0.0271108 -3.51358e-08
7.19055e-08 -3.51358e-08 0.0059783

0.0181685 0.00274969 2.01155e-07
0.00274969 0.0275437 -1.54095e-07
2.01155e-07 -1.54095e-07 0.0128289

0.0172795 -0.00826414 2.11059e-07
-0.00826414 0.0271143 1.26328e-07
2.11059e-07 1.26328e-07 0.00580452

0.0179057 -0.00156806 3.72568e-07
-0.00156806 0.027959 -3.74377e-07
3.72568e-07 -3.74377e-07 0.0126697

0.0369767 0.00092108 1.7078e-07
0.00092108 0.0412164 1.824e-08
1.7078e-07 1.824e-08 0.035739

0.0220948 -0.005843 -1.49485e-07
-0.005843 0.0236253 -3.36514e-08
-1.49485e-07 -3.36514e-08 0.0151335

0.0156765 0.00597496 1.11926e-07
0.00597496 0.0258612 4.99822e-08
1.11926e-07 4.99822e-08 0.0107327

0.0301659 0.0047227 7.81901e-08
0.0047227 0.0143288 8.89086e-08
7.81901e-08 8.89086e-08 0.00610611

0.0328747 -0.00383958 5.21845e-08
-0.00383958 0.0300674 -1.83949e-09
5.21845e-08 -1.83949e-09 0.0309917

0.0308303 0.00168965 1.79122e-07
0.00168965 0.036769 -2.00859e-07
1.79122e-07 -2.00859e-07 0.0338837

0.0260468 -0.00483459 -2.3422e-07
-0.00483459 0.0191676 1.80289e-07
-2.3422e-07 1.80289e-07 0.0126741

0.0329367 -0.00377644 3.39957e-08
-0.00377644 0.0300185 -4.49793e-08
3.39957e-08 -4.49793e-08 0.0310678

0.0299763 -0.00451274 -6.81746e-08
-0.00451274 0.0130351 1.64599e-07
-6.81746e-08 1.64599e-07 0.00602766

0.0324109 -0.00371801 -7.42329e-09
-0.00371801 0.0312477 1.10225e-07
-7.42329e-09 1.10225e-07 0.0319176

0.0280395 -0.00330288 2.91085e-07
-0.00330288 0.0319417 1.39936e-07
2.91085e-07 1.39936e-07 0.0295693

0.0234107 0.0087309 -1.72012e-07
0.0087309 0.0204534 1.89854e-07
-1.72012e-07 1.89854e-07 0.00601655

0.018172 -0.00291505 3.03855e-08
-0.00291505 0.0268223 -5.12974e-07
3.03855e-08 -5.12974e-07 0.0122499

0.023282 -0.00900614 1.16043e-07
-0.00900614 0.0201232 3.48551e-08
1.16043e-07 3.48551e-08 0.00587457

0.0170571 0.00639659 3.31777e-08
0.00639659 0.0235279 -1.3984e-07
3.31777e-08 -1.3984e-07 0.0108134

0.0307675 -0.00395003 1.37302e-07
-0.00395003 0.0301035 -9.38321e-09
1.37302e-07 -9.38321e-09 0.0300283

0.0388394 -0.00195353 2.39133e-07
-0.00195353 0.0368673 1.30131e-07
2.39133e-07 1.30131e-07 0.0354292

0.0454469 0.00150188 4.39635e-07
0.00150188 0.044859 4.57797e-07
4.39635e-07 4.57797e-07 0.0365462

0.043475 -0.000709559 -1.84259e-07
-0.000709559 0.0461343 1.5517e-07
-1.84259e-07 1.5517e-07 0.036512

0.0285628 0.0017117 3.12784e-08
0.0017117 0.0354956 2.95184e-07
3.12784e-08 2.95184e-07 0.0323269

0.0452426 -0.00144417 -2.41183e-07
-0.00144417 0.0448868 2.02987e-07
-2.41183e-07 2.02987e-07 0.0365639

0.0437178 0.000566862 8.08896e-08
0.000566862 0.0464089 -8.86729e-08
8.08896e-08 -8.86729e-08 0.036545

0.0465818 0.000989125 3.29875e-07
0.000989125 0.0432884 2.93171e-07
3.29875e-07 2.93171e-07 0.0365201

0.0396704 -0.00163553 -6.6202e-08
-0.00163553 0.0459799 -1.70666e-07
-6.6202e-08 -1.70666e-07 0.0364102

0.0190242 -0.00387897 -3.08667e-07
-0.00387897 0.0271839 1.82581e-07
-3.08667e-07 1.82581e-07 0.0154451

0.0420552 -0.00174597 1.65094e-07
-0.00174597 0.0366527 1.45152e-07
1.65094e-07 1.45152e-07 0.0359333

0.0358936 -0.0045621 -5.35198e-08
-0.0045621 0.0350815 -8.68576e-08
-5.35198e-08 -8.68576e-08 0.0348992

0.0396725 -0.00241539 3.09179e-08
-0.00241539 0.0359929 -6.3041e-08
3.09179e-08 -6.3041e-08 0.0354968

0.0351152 0.00203824 -8.12e-08
0.00203824 0.0284964 -3.02653e-08
-8.12e-08 -3.02653e-08 0.0321696

0.0396125 0.00133477 -1.18599e-07
0.00133477 0.0471265 4.43131e-08
-1.18599e-07 4.43131e-08 0.0364759

0.0463994 0.00258734 2.07186e-07
0.00258734 0.0403362 2.1906e-07
2.07186e-07 2.1906e-07 0.0364571

0.0400061 0.00150134 -2.27994e-08
0.00150134 0.036601 -3.10032e-08
-2.27994e-08 -3.10032e-08 0.0355448

0.0278691 -0.00191576 -8.34e-08
-0.00191576 0.0125069 1.66927e-07
-8.34e-08 1.66927e-07 0.0106073

0.0282668 0.00325949 -2.42069e-07
0.00325949 0.0314895 -6.94005e-08
-2.42069e-07 -6.94005e-08 0.0293551

0.0231523 -0.00772209 -9.76775e-08
-0.00772209 0.0181517 2.06381e-07
-9.76775e-08 2.06381e-07 0.0102727

0.0227952 -0.00730319 -1.6168e-07
-0.00730319 0.0257278 -2.18332e-08
-1.6168e-07 -2.18332e-08 0.0119349

0.0289755 -0.00463863 9.59172e-08
-0.00463863 0.0190988 -3.30708e-07
9.59172e-08 -3.30708e-07 0.0125943

0.0374995 -0.000659257 1.29323e-07
-0.000659257 0.0448193 1.50699e-07
1.29323e-07 1.50699e-07 0.0362217

0.0374971 0.000357322 1.49633e-07
0.000357322 0.0446971 4.10478e-07
1.49633e-07 4.10478e-07 0.036202

0.0425182 -0.00326624 -1.64533e-07
-0.00326624 0.0393707 2.12921e-07
-1.64533e-07 2.12921e-07 0.0361559

0.0429103 -0.00293741 6.61237e-08
-0.00293741 0.0390897 1.44102e-08
6.61237e-08 1.44102e-08 0.0361628

0.0424153 0.00349564 4.70804e-08
0.00349564 0.0398919 -4.92123e-09
4.70804e-08 -4.92123e-09 0.0362005

0.0443061 0.000415439 -4.40761e-07
0.000415439 0.0449854 -7.16642e-07
-4.40761e-07 -7.16642e-07 0.0365631

0.0425216 -0.00273787 -1.29169e-08
-0.00273787 0.0394279 7.55665e-10
-1.29169e-08 7.55665e-10 0.0362173

0.0425154 -0.00250623 -1.29266e-07
-0.00250623 0.0441762 2.54637e-07
-1.29266e-07 2.54637e-07 0.0364908

0.0450247 0.000330726 -3.82761e-08
0.000330726 0.0453736 -9.68166e-08
-3.82761e-08 -9.68166e-08 0.0365814

0.0435476 -0.00277634 4.09667e-08
-0.00277634 0.0388384 6.84546e-08
4.09667e-08 6.84546e-08 0.0362579

0.043423 0.00283202 6.85409e-08
0.00283202 0.038991 5.7648e-08
6.85409e-08 5.7648e-08 0.0362959

0.0451006 -0.000469935 2.78975e-07
-0.000469935 0.0454875 -3.48348e-07
2.78975e-07 -3.48348e-07 0.0366299

0.0451321 -0.000424129 -7.35515e-07
-0.000424129 0.0442701 9.2869e-07
-7.35515e-07 9.2869e-07 0.0366482

0.0427105 0.00163506 -2.05319e-07
0.00163506 0.0441572 4.18046e-08
-2.05319e-07 4.18046e-08 0.0365345

0.0410333 0.00360928 2.85901e-08
0.00360928 0.0404344 3.88776e-08
2.85901e-08 3.88776e-08 0.0362498

SCALARS pressure float
LOOKUP_TABLE default
-59.8657
19.2631
5.791
21.2407
15.8412
5.87486
-58.4911
7.76537
-3.79301
15.0895
-24.3165
7.59992
5.57963
12.2507
23.2848
5.52664
18.4784
13.1768
-0.686605
6.74239
-0.900742
33.0604
5.78928
5.78508
6.58815
14.8686
-38.2578
6.65764
-15.1895
30.5584
5.16467
-15.6034
-41.9198
27.2652
20.7315
27.2981
31.8141
19.7635
4.8489
-42.4617
-17.3495
31.8349
31.9228
5.98006
-21.7205
-15.9228
-1.04615
-3.39521
6.53102
-16.1583
-18.8554
-15.299
20.7081
-15.3263
20.2622
-33.0448
21.0812
-15.4133
21.091
7.03012
21.7147
16.081
-45.4319
12.7596
16.3238
10.8802
21.5244
13.7963
5.76187
21.7662
20.7641
20.7348
-17.6326
11.5739
3.96545
-31.4906
14.3233
10.9712
14.1137
-8.68894
-28.8569
14.9422
20.1163
-21.962
-23.3602
-27.9949
7.08256
9.6103
-22.1308
37.6583
-15.462
38.3595
18.2628
10.7372
-15.1206
-15.8161
-30.1316
14.7191
14.3323
4.58851
-10.735
-21.8756
-25.019
16.1753
14.0677
14.9268
18.655
3.76656
-24.4774
26.4527
7.20236
-21.3276
-24.5276
14.8035
15.0431
-16.0974
20.1185
-29.025
20.5812
-16.6799
-2.89264
23.7801
21.6765
15.9959
26.619
22.5801
21.7359
15.672
-29.6915
-16.0509
24.0378
21.5669
20.9408
22.0144
-21.9499
23.5337
-33.7359
5.45135
21.7042
23.577
-21.8735
6.66136
-5.94813
15.0487
-30.3166
15.588
7.81599
2.40357
5.16676
-9.36497
-0.453956
22.5889
-15.401
5.27897
15.1691
21.5103
11.4813
-21.0528
-21.203
10.7655
-2.83384
-15.1452
-21.1389
-15.1108
-20.9258
15.2442
-20.5762
-21.1407
-15.1553
-21.0032
18.9612
-15.893
-14.7705
12.0361
-14.44
18.7601
19.0102
7.45622
18.0061
11.746
-16.1945
15.2526
14.9262
-21.4663
10.4026
-14.1684
16.0115
14.5618
17.0427
14.8007
10.3201
-26.8934
-16.0339
-15.9038
21.8559
14.4922
14.5908
20.8743
22.4347
9.48088
21.6831
-0.379805
-8.14165
20.7307
-17.7806
19.8994
10.3405
-21.4542
15.6852
22.4738
14.6973
9.37202
14.1571
21.0069
-7.80699
8.80748
-7.8807
14.6143
26.8664
26.5209
27.897
26.3285
26.6635
26.2311
13.7939
23.3773
23.9753
23.9195
23.347
21.1443
21.8075
-8.23588
15.8968
28.1267
-3.17914
23.5227
23.1527
27.7707
-8.46375
28.0323
15.3089
-7.55686
17.4525
-8.23136
20.1803
29.5453
-7.46141
-8.07256
-29.5031
-18.1239
19.4819
-31.8906
5.72117
-7.76628
-1.18239
28.1847
26.5796
30.3594
26.7001
-34.6999
-8.15091
28.2728
8.05474
-8.26574
26.3857
-6.27627
30.4042
-7.9261
26.9855
14.5323
14.7529
23.7912
10.0244
17.9796
8.0983
-29.7639
-24.4643
16.7682
1.75694
8.16112
-13.5701
17.3963
11.6722
-8.07306
9.43058
-10.7924
7.50019
-10.724
-8.45501
33.1908
19.1082
25.0318
25.2557
13.7971
-10.3749
26.3709
14.651
-1.65285
-10.2446
-12.5285
17.4664
-7.46069
17.5344
-12.0073
-21.266
-10.5778
-34.5807
15.5268
-7.73774
34.3667
-11.5451
16.8328
-8.38162
15.9359
-12.7225
4.27969
-50.976
8.50293
-7.7215
21.2854
-8.12554
-0.119866
10.6904
21.0748
-12.0265
-10.1715
-6.04978
14.2848
-10.1507
6.87212
6.37181
16.2676
-10.3899
-6.31123
-1.69645
-5.64324
-11.0469
-5.82711
15.2706
7.7902
-5.53878
-8.93204
7.78752
7.67662
-10.6439
16.2715
-27.0906
2.28888
-28.3942
-0.953399
-8.72062
-7.94021
-11.6166
-10.7817
-9.72211
-7.61925
-7.74246
16.5995
24.7225
12.0882
-0.288244
-0.819174
-5.65736
7.28861
-6.30161
-6.29886
24.868
-5.71263
14.0853
-15.8606
24.2704
5.95553
-0.387732
-5.62654
16.2374
2.47232
0.200983
2.44339
0.457321
-0.734879
-9.89654
-0.0926202
2.10949
15.0342
-1.28145
-1.39932
-0.992857
-0.385015
1.96193
8.03252
-1.18702
8.0599
5.57142
-0.431914
7.01931
5.47855
-3.86337
16.4386
-1.8971
23.0103
-21.8882
15.0093
15.6465
2.03613
-1.99129
12.5137
-26.3857
5.77999
-1.65219
-50.3422
30.43
30.5664
5.81244
-1.13767
-1.04275
-0.844071
33.3438
33.2188
13.0642
6.06802
6.64749
-28.837
-1.27195
16.495
-3.17334
-4.33579
-0.0143763
-25.1504
14.2703
-1.27311
2.85615
2.68794
-2.71459
-0.0469522
-3.1997
-4.02197
-37.8552
-33.5851
-0.125387
1.87123
-0.531091
-3.73313
-1.93024
-1.87159
-0.920412
-21.8226
17.2104
-0.763551
12.5359
14.1509
-26.6673
6.27225
7.12104
18.435
36.3482
36.3806
22.5877
-1.74733
2.59487
-20.8438
36.0475
32.687
32.7538
-24.6872
21.7261
30.4564
2.59441
15.6877
10.3471
17.1244
17.6853
12.4766
5.66859
-25.2788
4.25051
10.385
16.2061
-31.5896
28.2473
-52.564
18.641
10.2747
-10.5961
7.39992
5.4446
24.4197
9.38921
24.3529
4.09595
12.3711
30.5733
29.4014
-22.9021
17.3952
-70.0231
-74.1644
-66.9696
11.6214
-31.1289
-63.4072
-3.79235
-69.7278
16.4244
16.3682
-73.5385
5.20158
-39.5989
-70.528
-37.6267
-71.6615
-39.3186
21.0886
-23.8649
-28.9178
-70.4124
4.82046
15.721
-36.0617
6.03995
-63.4167
9.81329
3.87403
-67.6939
-37.4915
-66.2044
-23.6363
5.01866
20.4796
35.2935
36.6468
11.7847
36.77
36.8233
36.4127
36.3254
-24.3859
28.1859
20.6219
21.9311
11.508
35.9819
36.0133
18.0781
-23.8191
3.24056
-30.3952
-56.4412
-50.3303
36.0655
35.7469
35.3045
35.3746
36.0815
35.5213
33.0381
37.29
35.3228
35.9285
35.5615
34.1217
34.2581
35.7785
35.2331
