# vtk DataFile Version 3.0
vtk output at time 4245
ASCII
DATASET UNSTRUCTURED_GRID
POINTS 626 float
-3.68058e-05 0.000978749 0 3.68058e-05 0.000978749 0 -0.000829194 0.00052125 0 
-0.0008235 0.0005 0 -0.000866 0.0004575 0 -0.000866 -0.0004575 0 
-0.0008235 -0.0005 0 -0.000829194 -0.00052125 0 -3.68058e-05 -0.000978749 0 
3.68058e-05 -0.000978749 0 0.000829194 -0.00052125 0 0.000866 -0.0004575 0 
0.000866 0.0004575 0 0.000829194 0.00052125 0 8.5e-05 0 0 
-3.68058e-05 0.000978749 -0.001 3.68058e-05 0.000978749 -0.001 -0.000829194 0.00052125 -0.001 
-0.0008235 0.0005 -0.001 -0.000866 0.0004575 -0.001 -0.000866 -0.0004575 -0.001 
-0.0008235 -0.0005 -0.001 -0.000829194 -0.00052125 -0.001 -3.68058e-05 -0.000978749 -0.001 
3.68058e-05 -0.000978749 -0.001 0.000829194 -0.00052125 -0.001 0.000866 -0.0004575 -0.001 
0.000866 0.0004575 -0.001 0.000829194 0.00052125 -0.001 8.5e-05 0 -0.001 
8.46223e-17 0.0009575 0 -0.000715996 0.000586607 0 -0.000602797 0.000651965 0 
-0.000489599 0.000717321 0 -0.000376401 0.000782678 0 -0.000263202 0.000848036 0 
-0.000150004 0.000913393 0 -0.000835948 0.000469948 0 -0.000866 -0.000326786 0 
-0.000866 -0.000196071 0 -0.000866 -6.53571e-05 0 -0.000866 6.53571e-05 0 
-0.000866 0.000196071 0 -0.000866 0.000326786 0 -0.000835948 -0.000469948 0 
-0.000150004 -0.000913393 0 -0.000263202 -0.000848036 0 -0.000376401 -0.000782678 0 
-0.000489599 -0.000717321 0 -0.000602797 -0.000651965 0 -0.000715996 -0.000586607 0 
8.47648e-17 -0.0009575 0 0.000715996 -0.000586607 0 0.000602797 -0.000651965 0 
0.000489599 -0.000717321 0 0.000376401 -0.000782678 0 0.000263202 -0.000848036 0 
0.000150004 -0.000913393 0 0.000829194 -0.00047875 0 0.000866 0.000326786 0 
0.000866 0.000196071 0 0.000866 6.53571e-05 0 0.000866 -6.53571e-05 0 
0.000866 -0.000196071 0 0.000866 -0.000326786 0 0.000829194 0.00047875 0 
0.000150004 0.000913393 0 0.000263202 0.000848036 0 0.000376401 0.000782678 0 
0.000489599 0.000717321 0 0.000602797 0.000651965 0 0.000715996 0.000586607 0 
5.29966e-05 6.64557e-05 0 -1.89143e-05 8.28689e-05 0 -7.65824e-05 3.68801e-05 0 
-7.65824e-05 -3.68801e-05 0 -1.89143e-05 -8.28689e-05 0 5.29966e-05 -6.64557e-05 0 
8.46223e-17 0.0009575 -0.001 -0.000715996 0.000586607 -0.001 -0.000602797 0.000651965 -0.001 
-0.000489599 0.000717321 -0.001 -0.000376401 0.000782678 -0.001 -0.000263202 0.000848036 -0.001 
-0.000150004 0.000913393 -0.001 -0.000835948 0.000469948 -0.001 -0.000866 -0.000326786 -0.001 
-0.000866 -0.000196071 -0.001 -0.000866 -6.53571e-05 -0.001 -0.000866 6.53571e-05 -0.001 
-0.000866 0.000196071 -0.001 -0.000866 0.000326786 -0.001 -0.000835948 -0.000469948 -0.001 
-0.000150004 -0.000913393 -0.001 -0.000263202 -0.000848036 -0.001 -0.000376401 -0.000782678 -0.001 
-0.000489599 -0.000717321 -0.001 -0.000602797 -0.000651965 -0.001 -0.000715996 -0.000586607 -0.001 
8.47648e-17 -0.0009575 -0.001 0.000715996 -0.000586607 -0.001 0.000602797 -0.000651965 -0.001 
0.000489599 -0.000717321 -0.001 0.000376401 -0.000782678 -0.001 0.000263202 -0.000848036 -0.001 
0.000150004 -0.000913393 -0.001 0.000829194 -0.00047875 -0.001 0.000866 0.000326786 -0.001 
0.000866 0.000196071 -0.001 0.000866 6.53571e-05 -0.001 0.000866 -6.53571e-05 -0.001 
0.000866 -0.000196071 -0.001 0.000866 -0.000326786 -0.001 0.000829194 0.00047875 -0.001 
0.000150004 0.000913393 -0.001 0.000263202 0.000848036 -0.001 0.000376401 0.000782678 -0.001 
0.000489599 0.000717321 -0.001 0.000602797 0.000651965 -0.001 0.000715996 0.000586607 -0.001 
5.29966e-05 6.64557e-05 -0.001 -1.89143e-05 8.28689e-05 -0.001 -7.65824e-05 3.68801e-05 -0.001 
-7.65824e-05 -3.68801e-05 -0.001 -1.89143e-05 -8.28689e-05 -0.001 5.29966e-05 -6.64557e-05 -0.001 
0.000131234 6.38474e-05 0 0.00012964 -6.2443e-05 0 3.13827e-05 0.0001394 0 
3.12554e-05 -0.000136939 0 -0.000140461 8.25467e-19 0 -8.90565e-05 -0.000102707 0 
-9.04142e-05 0.000102872 0 -0.000765769 -0.00025965 0 -0.000756873 0.000262774 0 
-0.00015609 0.000787505 0 -0.000155807 -0.00079355 0 0.000605069 0.000528035 0 
0.000608694 -0.00052497 0 0.000744069 0.000116929 0 -0.000494418 0.000596218 0 
-0.000483866 -0.000584648 0 0.000269496 0.000702219 0 0.000263201 -0.000717324 0 
0.000754429 -0.000127825 0 -0.000748858 5.84659e-07 0 -0.000747838 0.000373886 0 
-0.0006542 0.000324842 0 -0.000645137 0.000210123 0 -0.000550884 0.000274171 0 
-0.000538857 0.000163195 0 -0.00045062 0.000224461 0 -0.000438393 0.000123907 0 
-0.000354088 0.000181668 0 -0.000363908 0.000282171 0 -0.000270361 0.000239477 0 
-0.000279138 0.000337653 0 -0.000188888 0.000294791 0 -0.000196448 0.000393271 0 
-0.000104767 0.000348259 0 -0.000113332 0.000449012 0 -2.01066e-05 0.000403223 0 
-2.89189e-05 0.000507105 0 6.9524e-05 0.000461596 0 -0.000213644 0.000490203 0 
7.33757e-05 0.000357726 0 0.000163331 0.00041299 0 0.000163359 0.000313022 0 
0.000248077 0.000366368 0 0.000250914 0.000265758 0 0.000335709 0.000322266 0 
0.000340555 0.000218148 0 0.000427299 0.000276717 0 0.000431508 0.000173093 0 
0.000328731 0.000425633 0 0.00034586 0.000114823 0 0.000435362 7.05241e-05 0 
0.000350892 1.5455e-05 0 0.000441547 -3.11896e-05 0 0.000353547 -8.47783e-05 0 
0.000445767 -0.000132964 0 0.000356135 -0.000186358 0 0.000449094 -0.000234674 0 
0.000359978 -0.000287876 0 0.00026856 -0.000240545 0 0.000271895 -0.000341045 0 
0.000181792 -0.00029305 0 0.00018533 -0.000392851 0 9.75701e-05 -0.00034483 0 
9.98764e-05 -0.000444884 0 8.75116e-06 -0.000396343 0 1.20916e-05 -0.000500496 0 
-7.83929e-05 -0.000449843 0 -8.1471e-05 -0.000347249 0 -0.000171566 -0.000403733 0 
-0.000169889 -0.000298891 0 -0.000259867 -0.000354132 0 -0.000257696 -0.000249137 0 
-0.00034313 -0.000299896 0 -0.000344514 -0.000199127 0 -0.000434309 -0.000250039 0 
-0.000169832 -0.000505815 0 -0.000435227 -0.000146227 0 0.000280331 -0.000442424 0 
-0.000340889 8.76793e-05 0 -0.000515252 4.06198e-05 0 6.50491e-05 0.000568253 0 
0.00053278 1.74743e-05 0 0.000522071 0.000229831 0 -0.00037162 0.000391659 0 
-0.000255272 -0.000150439 0 -0.000442893 -0.000350705 0 0.000450067 -0.000332559 0 
0.000545175 -0.000276306 0 -0.000527797 -0.000197598 0 0.000105306 -0.000551033 0 
1.45836e-05 -0.000609147 0 0.00017145 0.000214453 0 0.000515525 0.000341711 0 
0.000636086 0.000290368 0 -0.000558657 0.000404468 0 -4.01232e-05 0.000616718 0 
6.60192e-05 0.000696422 0 -0.000101806 0.0002546 0 0.000271142 -3.88908e-05 0 
0.000179455 -0.00018534 0 -8.79553e-05 -0.000254307 0 -0.000749267 -0.000373451 0 
-0.000655941 -0.000323397 0 0.000709746 0.000466718 0 0.000698426 -0.000473086 0 
-5.25801e-05 -0.00084886 0 -4.93005e-05 0.000848038 0 0.000617396 -0.000413362 0 
0.000702056 -0.000369817 0 0.000131459 -0.000679171 0 2.48171e-05 -0.000715924 0 
-0.000664217 -0.00042729 0 -0.000528828 -8.80444e-05 0 -0.000611101 -0.000136672 0 
-0.000426972 -4.45841e-05 0 0.000800669 0.000378216 0 0.000821144 -0.000415062 0 
7.2799e-05 0.00088254 0 6.81831e-05 -0.00087503 0 0.000104963 -0.000788946 0 
-7.40696e-05 -0.000660054 0 0.000126061 0.000809943 0 0.000764361 0.000295682 0 
0.000166862 0.000630623 0 0.000516462 -0.00046707 0 -0.000563585 -0.000389606 0 
-0.000622598 -1.40238e-05 0 0.000629891 0.000171529 0 2.5614e-06 -0.000299794 0 
8.6901e-05 -0.00024329 0 0.000272045 -0.000136982 0 -0.00075148 0.000138321 0 
0.000209366 -0.000599589 0 0.000324913 -0.000630055 0 0.000614044 0.00041245 0 
0.00049651 -0.000573327 0 0.000394822 -0.000507321 0 -0.000173714 -0.000206698 0 
0.000264897 5.63722e-05 0 0.000247997 0.000152811 0 -4.63327e-05 -0.000920208 0 
9.18688e-05 0.000258626 0 -5.54111e-06 0.000290558 0 -0.000184219 0.000201484 0 
-0.000263559 0.000142267 0 -0.000256427 5.13624e-05 0 -0.000336894 -2.06179e-06 0 
-0.000228499 -4.2388e-05 0 -0.00017589 0.000106626 0 -0.000769947 -0.000133367 0 
0.000767591 -0.000500293 0 -5.05874e-05 0.000737978 0 0.000754456 -3.51771e-06 0 
0.00064691 -6.15298e-05 0 0.000630483 -0.00018134 0 0.000749187 -0.000265543 0 
-0.000760805 -0.000462521 0 0.000638155 6.09315e-05 0 -4.46661e-05 0.000922995 0 
-2.37945e-05 0.000207237 0 0.000776979 0.000500181 0 -0.000605691 0.000527596 0 
-0.000377914 -0.000653727 0 -0.000372325 -0.000526022 0 -0.000275829 -0.000589621 0 
-0.000254285 -0.000710579 0 -0.000379307 0.000656222 0 -0.000379818 0.00052718 0 
-0.000266817 0.000721555 0 -0.000150544 0.000668174 0 0.000381963 0.00065079 0 
0.000493113 0.000590432 0 0.000505439 0.000463708 0 -0.000269094 0.000596608 0 
0.000385815 0.000532045 0 0.000283599 0.0005899 0 -0.000176405 -0.000108505 0 
-0.000278769 -0.000475415 0 0.000185395 2.33014e-06 0 0.000186773 0.000517571 0 
0.000540032 -8.68444e-05 0 -0.000600694 -0.000514877 0 -0.00063703 8.98033e-05 0 
-0.000459677 0.000335729 0 -0.000338836 -0.000100751 0 -0.000457327 0.000432721 0 
-8.72007e-06 -0.000210238 0 0.000156073 0.000129496 0 -7.70692e-05 -0.000555049 0 
0.00036091 -0.000389728 0 0.000531628 0.000120564 0 -0.000285451 0.000435562 0 
0.000192719 -0.000494604 0 0.00041642 0.00039368 0 -0.000135943 0.000554637 0 
-0.000170665 -0.000610079 0 -0.000666304 0.000434981 0 -0.000758736 0.000479231 0 
-0.000470189 -0.000458901 0 0.000203433 -8.59809e-05 0 0.000101846 0.000170114 0 
-0.00035513 -0.00040726 0 0.000100184 -0.000165831 0 2.96286e-05 0.00081537 0 
0.000720946 0.000381836 0 -0.000539809 -0.000292001 0 0.00052211 -0.000182426 0 
-6.41339e-05 -0.000753908 0 0.000638039 -0.000299861 0 -0.000605136 -0.000230182 0 
-3.41638e-05 -0.000145561 0 -0.000104037 0.000172396 0 -0.000808575 -0.00042774 0 
-0.000807207 -0.000465052 0 -0.00080817 0.000429771 0 -0.000806589 0.000469738 0 
-9.50634e-05 -0.000178909 0 0.000247777 0.000445058 0 1.48293e-05 -0.000814201 0 
-4.11555e-05 0.000140955 0 0.000276104 -0.000536845 0 0.000765969 -0.000436638 0 
0.000780871 -0.000362769 0 0.000424176 -0.000642018 0 0.00053413 -0.000368009 0 
-0.000416333 4.17911e-05 0 -0.000133891 -6.23822e-05 0 4.2574e-05 0.000206312 0 
0.000141163 -0.000121542 0 0.000707423 0.000212137 0 0.000172327 0.000723882 0 
7.72652e-06 -0.00090254 0 -0.000134435 5.66935e-05 0 -0.000188826 3.70894e-05 0 
0.000197119 8.09714e-05 0 1.27801e-05 0.000917296 0 0.000800767 0.00044758 0 
-0.000686682 0.000507104 0 9.35831e-05 0.000110457 0 -0.000696793 -0.000509595 0 
-0.00068446 -8.52012e-05 0 -0.000691033 -0.000201242 0 5.24052e-05 -0.000189075 0 
-0.000151818 -0.000701092 0 -0.000296988 0.000518087 0 9.31023e-05 -0.000108117 0 
0.00044261 -0.000416726 0 0.000197044 -0.000784423 0 -0.000516861 0.000504567 0 
0.000298997 0.000502377 0 0.000131234 6.38474e-05 -0.001 0.00012964 -6.2443e-05 -0.001 
3.13827e-05 0.0001394 -0.001 3.12554e-05 -0.000136939 -0.001 -0.000140461 8.25467e-19 -0.001 
-8.90565e-05 -0.000102707 -0.001 -9.04142e-05 0.000102872 -0.001 -0.000765769 -0.00025965 -0.001 
-0.000756873 0.000262774 -0.001 -0.00015609 0.000787505 -0.001 -0.000155807 -0.00079355 -0.001 
0.000605069 0.000528035 -0.001 0.000608694 -0.00052497 -0.001 0.000744069 0.000116929 -0.001 
-0.000494418 0.000596218 -0.001 -0.000483866 -0.000584648 -0.001 0.000269496 0.000702219 -0.001 
0.000263201 -0.000717324 -0.001 0.000754429 -0.000127825 -0.001 -0.000748858 5.84659e-07 -0.001 
-0.000747838 0.000373886 -0.001 -0.0006542 0.000324842 -0.001 -0.000645137 0.000210123 -0.001 
-0.000550884 0.000274171 -0.001 -0.000538857 0.000163195 -0.001 -0.00045062 0.000224461 -0.001 
-0.000438393 0.000123907 -0.001 -0.000354088 0.000181668 -0.001 -0.000363908 0.000282171 -0.001 
-0.000270361 0.000239477 -0.001 -0.000279138 0.000337653 -0.001 -0.000188888 0.000294791 -0.001 
-0.000196448 0.000393271 -0.001 -0.000104767 0.000348259 -0.001 -0.000113332 0.000449012 -0.001 
-2.01066e-05 0.000403223 -0.001 -2.89189e-05 0.000507105 -0.001 6.9524e-05 0.000461596 -0.001 
-0.000213644 0.000490203 -0.001 7.33757e-05 0.000357726 -0.001 0.000163331 0.00041299 -0.001 
0.000163359 0.000313022 -0.001 0.000248077 0.000366368 -0.001 0.000250914 0.000265758 -0.001 
0.000335709 0.000322266 -0.001 0.000340555 0.000218148 -0.001 0.000427299 0.000276717 -0.001 
0.000431508 0.000173093 -0.001 0.000328731 0.000425633 -0.001 0.00034586 0.000114823 -0.001 
0.000435362 7.05241e-05 -0.001 0.000350892 1.5455e-05 -0.001 0.000441547 -3.11896e-05 -0.001 
0.000353547 -8.47783e-05 -0.001 0.000445767 -0.000132964 -0.001 0.000356135 -0.000186358 -0.001 
0.000449094 -0.000234674 -0.001 0.000359978 -0.000287876 -0.001 0.00026856 -0.000240545 -0.001 
0.000271895 -0.000341045 -0.001 0.000181792 -0.00029305 -0.001 0.00018533 -0.000392851 -0.001 
9.75701e-05 -0.00034483 -0.001 9.98764e-05 -0.000444884 -0.001 8.75116e-06 -0.000396343 -0.001 
1.20916e-05 -0.000500496 -0.001 -7.83929e-05 -0.000449843 -0.001 -8.1471e-05 -0.000347249 -0.001 
-0.000171566 -0.000403733 -0.001 -0.000169889 -0.000298891 -0.001 -0.000259867 -0.000354132 -0.001 
-0.000257696 -0.000249137 -0.001 -0.00034313 -0.000299896 -0.001 -0.000344514 -0.000199127 -0.001 
-0.000434309 -0.000250039 -0.001 -0.000169832 -0.000505815 -0.001 -0.000435227 -0.000146227 -0.001 
0.000280331 -0.000442424 -0.001 -0.000340889 8.76793e-05 -0.001 -0.000515252 4.06198e-05 -0.001 
6.50491e-05 0.000568253 -0.001 0.00053278 1.74743e-05 -0.001 0.000522071 0.000229831 -0.001 
-0.00037162 0.000391659 -0.001 -0.000255272 -0.000150439 -0.001 -0.000442893 -0.000350705 -0.001 
0.000450067 -0.000332559 -0.001 0.000545175 -0.000276306 -0.001 -0.000527797 -0.000197598 -0.001 
0.000105306 -0.000551033 -0.001 1.45836e-05 -0.000609147 -0.001 0.00017145 0.000214453 -0.001 
0.000515525 0.000341711 -0.001 0.000636086 0.000290368 -0.001 -0.000558657 0.000404468 -0.001 
-4.01232e-05 0.000616718 -0.001 6.60192e-05 0.000696422 -0.001 -0.000101806 0.0002546 -0.001 
0.000271142 -3.88908e-05 -0.001 0.000179455 -0.00018534 -0.001 -8.79553e-05 -0.000254307 -0.001 
-0.000749267 -0.000373451 -0.001 -0.000655941 -0.000323397 -0.001 0.000709746 0.000466718 -0.001 
0.000698426 -0.000473086 -0.001 -5.25801e-05 -0.00084886 -0.001 -4.93005e-05 0.000848038 -0.001 
0.000617396 -0.000413362 -0.001 0.000702056 -0.000369817 -0.001 0.000131459 -0.000679171 -0.001 
2.48171e-05 -0.000715924 -0.001 -0.000664217 -0.00042729 -0.001 -0.000528828 -8.80444e-05 -0.001 
-0.000611101 -0.000136672 -0.001 -0.000426972 -4.45841e-05 -0.001 0.000800669 0.000378216 -0.001 
0.000821144 -0.000415062 -0.001 7.2799e-05 0.00088254 -0.001 6.81831e-05 -0.00087503 -0.001 
0.000104963 -0.000788946 -0.001 -7.40696e-05 -0.000660054 -0.001 0.000126061 0.000809943 -0.001 
0.000764361 0.000295682 -0.001 0.000166862 0.000630623 -0.001 0.000516462 -0.00046707 -0.001 
-0.000563585 -0.000389606 -0.001 -0.000622598 -1.40238e-05 -0.001 0.000629891 0.000171529 -0.001 
2.5614e-06 -0.000299794 -0.001 8.6901e-05 -0.00024329 -0.001 0.000272045 -0.000136982 -0.001 
-0.00075148 0.000138321 -0.001 0.000209366 -0.000599589 -0.001 0.000324913 -0.000630055 -0.001 
0.000614044 0.00041245 -0.001 0.00049651 -0.000573327 -0.001 0.000394822 -0.000507321 -0.001 
-0.000173714 -0.000206698 -0.001 0.000264897 5.63722e-05 -0.001 0.000247997 0.000152811 -0.001 
-4.63327e-05 -0.000920208 -0.001 9.18688e-05 0.000258626 -0.001 -5.54111e-06 0.000290558 -0.001 
-0.000184219 0.000201484 -0.001 -0.000263559 0.000142267 -0.001 -0.000256427 5.13624e-05 -0.001 
-0.000336894 -2.06179e-06 -0.001 -0.000228499 -4.2388e-05 -0.001 -0.00017589 0.000106626 -0.001 
-0.000769947 -0.000133367 -0.001 0.000767591 -0.000500293 -0.001 -5.05874e-05 0.000737978 -0.001 
0.000754456 -3.51771e-06 -0.001 0.00064691 -6.15298e-05 -0.001 0.000630483 -0.00018134 -0.001 
0.000749187 -0.000265543 -0.001 -0.000760805 -0.000462521 -0.001 0.000638155 6.09315e-05 -0.001 
-4.46661e-05 0.000922995 -0.001 -2.37945e-05 0.000207237 -0.001 0.000776979 0.000500181 -0.001 
-0.000605691 0.000527596 -0.001 -0.000377914 -0.000653727 -0.001 -0.000372325 -0.000526022 -0.001 
-0.000275829 -0.000589621 -0.001 -0.000254285 -0.000710579 -0.001 -0.000379307 0.000656222 -0.001 
-0.000379818 0.00052718 -0.001 -0.000266817 0.000721555 -0.001 -0.000150544 0.000668174 -0.001 
0.000381963 0.00065079 -0.001 0.000493113 0.000590432 -0.001 0.000505439 0.000463708 -0.001 
-0.000269094 0.000596608 -0.001 0.000385815 0.000532045 -0.001 0.000283599 0.0005899 -0.001 
-0.000176405 -0.000108505 -0.001 -0.000278769 -0.000475415 -0.001 0.000185395 2.33014e-06 -0.001 
0.000186773 0.000517571 -0.001 0.000540032 -8.68444e-05 -0.001 -0.000600694 -0.000514877 -0.001 
-0.00063703 8.98033e-05 -0.001 -0.000459677 0.000335729 -0.001 -0.000338836 -0.000100751 -0.001 
-0.000457327 0.000432721 -0.001 -8.72007e-06 -0.000210238 -0.001 0.000156073 0.000129496 -0.001 
-7.70692e-05 -0.000555049 -0.001 0.00036091 -0.000389728 -0.001 0.000531628 0.000120564 -0.001 
-0.000285451 0.000435562 -0.001 0.000192719 -0.000494604 -0.001 0.00041642 0.00039368 -0.001 
-0.000135943 0.000554637 -0.001 -0.000170665 -0.000610079 -0.001 -0.000666304 0.000434981 -0.001 
-0.000758736 0.000479231 -0.001 -0.000470189 -0.000458901 -0.001 0.000203433 -8.59809e-05 -0.001 
0.000101846 0.000170114 -0.001 -0.00035513 -0.00040726 -0.001 0.000100184 -0.000165831 -0.001 
2.96286e-05 0.00081537 -0.001 0.000720946 0.000381836 -0.001 -0.000539809 -0.000292001 -0.001 
0.00052211 -0.000182426 -0.001 -6.41339e-05 -0.000753908 -0.001 0.000638039 -0.000299861 -0.001 
-0.000605136 -0.000230182 -0.001 -3.41638e-05 -0.000145561 -0.001 -0.000104037 0.000172396 -0.001 
-0.000808575 -0.00042774 -0.001 -0.000807207 -0.000465052 -0.001 -0.00080817 0.000429771 -0.001 
-0.000806589 0.000469738 -0.001 -9.50634e-05 -0.000178909 -0.001 0.000247777 0.000445058 -0.001 
1.48293e-05 -0.000814201 -0.001 -4.11555e-05 0.000140955 -0.001 0.000276104 -0.000536845 -0.001 
0.000765969 -0.000436638 -0.001 0.000780871 -0.000362769 -0.001 0.000424176 -0.000642018 -0.001 
0.00053413 -0.000368009 -0.001 -0.000416333 4.17911e-05 -0.001 -0.000133891 -6.23822e-05 -0.001 
4.2574e-05 0.000206312 -0.001 0.000141163 -0.000121542 -0.001 0.000707423 0.000212137 -0.001 
0.000172327 0.000723882 -0.001 7.72652e-06 -0.00090254 -0.001 -0.000134435 5.66935e-05 -0.001 
-0.000188826 3.70894e-05 -0.001 0.000197119 8.09714e-05 -0.001 1.27801e-05 0.000917296 -0.001 
0.000800767 0.00044758 -0.001 -0.000686682 0.000507104 -0.001 9.35831e-05 0.000110457 -0.001 
-0.000696793 -0.000509595 -0.001 -0.00068446 -8.52012e-05 -0.001 -0.000691033 -0.000201242 -0.001 
5.24052e-05 -0.000189075 -0.001 -0.000151818 -0.000701092 -0.001 -0.000296988 0.000518087 -0.001 
9.31023e-05 -0.000108117 -0.001 0.00044261 -0.000416726 -0.001 0.000197044 -0.000784423 -0.001 
-0.000516861 0.000504567 -0.001 0.000298997 0.000502377 -0.001 
CELLS 563 3941
6 14 304 127 29 554 377 
6 143 259 55 393 509 103 
6 300 319 174 550 569 424 
6 259 349 55 509 599 103 
6 50 365 307 98 615 557 
6 299 320 164 549 570 414 
6 126 304 14 376 554 29 
6 298 319 300 548 569 550 
6 205 240 238 455 490 488 
6 257 308 145 507 558 395 
6 130 352 273 380 602 523 
6 295 320 299 545 570 549 
6 324 327 289 574 577 539 
6 235 258 143 485 508 393 
6 50 307 49 98 557 97 
6 207 283 279 457 533 529 
6 143 373 235 393 623 485 
6 145 308 252 395 558 502 
6 194 303 196 444 553 446 
6 279 306 207 529 556 457 
6 206 305 163 456 555 413 
6 51 357 9 99 607 24 
6 238 252 205 488 502 455 
6 293 317 209 543 567 459 
6 207 316 283 457 566 533 
6 142 301 249 392 551 499 
6 273 359 130 523 609 380 
6 211 327 324 461 577 574 
6 169 265 217 419 515 467 
6 7 365 50 22 615 98 
6 283 316 253 533 566 503 
6 159 268 223 409 518 473 
6 274 337 132 524 587 382 
6 232 361 329 482 611 579 
6 231 266 45 481 516 93 
6 229 362 330 479 612 580 
6 9 244 57 24 494 105 
6 230 276 52 480 526 100 
6 209 311 293 459 561 543 
6 131 342 302 381 592 552 
6 270 271 204 520 521 454 
6 66 243 1 114 493 16 
6 59 241 12 107 491 27 
6 280 306 279 530 556 529 
6 269 337 274 519 587 524 
6 179 256 224 429 506 474 
6 163 305 166 413 555 416 
6 201 303 194 451 553 444 
6 280 332 306 530 582 556 
6 186 255 225 436 505 475 
6 210 310 273 460 560 523 
6 153 270 204 403 520 454 
6 136 231 45 386 481 93 
6 171 265 169 421 515 419 
6 138 230 52 388 480 100 
6 225 354 325 475 604 575 
6 36 284 232 84 534 482 
6 161 268 159 411 518 409 
6 71 286 229 119 536 479 
6 290 303 201 540 553 451 
6 139 355 60 389 605 108 
6 60 355 248 108 605 498 
6 273 352 302 523 602 552 
6 235 373 245 485 623 495 
6 67 356 247 115 606 497 
6 221 295 277 471 545 527 
6 142 356 67 392 606 115 
6 139 283 253 389 533 503 
6 203 315 262 453 565 512 
6 41 257 145 89 507 395 
6 36 232 135 84 482 385 
6 71 229 137 119 479 387 
6 254 255 188 504 505 438 
6 233 350 334 483 600 584 
6 262 346 203 512 596 453 
6 304 325 127 554 575 377 
6 222 329 247 472 579 497 
6 218 298 260 468 548 510 
6 290 321 291 540 571 541 
6 272 310 240 522 560 490 
6 269 274 270 519 524 520 
6 244 245 57 494 495 105 
6 49 307 141 97 557 391 
6 225 325 256 475 575 506 
6 273 310 272 523 560 522 
6 312 368 255 562 618 505 
6 249 305 206 499 555 456 
6 228 331 251 478 581 501 
6 302 342 263 552 592 513 
6 338 339 44 588 589 92 
6 190 254 188 440 504 438 
6 37 341 340 85 591 590 
6 138 233 230 388 483 480 
6 228 335 331 478 585 581 
6 181 256 179 431 506 429 
6 195 263 226 445 513 476 
6 268 285 223 518 535 473 
6 290 291 288 540 541 538 
6 219 330 248 469 580 498 
6 201 321 290 451 571 540 
6 240 310 202 490 560 452 
6 188 255 186 438 505 436 
6 270 274 271 520 524 521 
6 262 349 259 512 599 509 
6 141 324 289 391 574 539 
6 296 301 142 546 551 392 
6 247 356 222 497 606 472 
6 239 252 238 489 502 488 
6 254 312 255 504 562 505 
6 54 261 53 102 511 101 
6 289 327 303 539 577 553 
6 268 353 285 518 603 535 
6 273 302 210 523 552 460 
6 292 299 293 542 549 543 
6 278 283 139 528 533 389 
6 175 265 171 425 515 421 
6 227 338 38 477 588 86 
6 264 360 265 514 610 515 
6 43 340 146 91 590 396 
6 165 268 161 415 518 411 
6 205 351 240 455 601 490 
6 64 281 63 112 531 111 
6 288 291 47 538 541 95 
6 135 295 294 385 545 544 
6 42 257 41 90 507 89 
6 245 373 57 495 623 105 
6 31 363 323 79 613 573 
6 292 293 140 542 543 390 
6 267 353 268 517 603 518 
6 155 270 153 405 520 403 
6 244 344 245 494 594 495 
6 61 278 139 109 528 389 
6 135 294 35 385 544 83 
6 69 297 296 117 547 546 
6 186 225 184 436 475 434 
6 329 361 243 579 611 493 
6 255 328 225 505 578 475 
6 213 332 280 463 582 530 
6 39 275 133 87 525 383 
6 330 362 241 580 612 491 
6 195 226 193 445 476 443 
6 211 324 251 461 574 501 
6 151 153 152 401 403 402 
6 295 299 294 545 549 544 
6 265 313 217 515 563 467 
6 258 259 143 508 509 393 
6 251 331 211 501 581 461 
6 149 151 150 399 401 400 
6 293 370 317 543 620 567 
6 153 204 152 403 454 402 
6 151 152 150 401 402 400 
6 33 292 140 81 542 390 
6 210 263 197 460 513 447 
6 301 305 249 551 555 499 
6 298 300 297 548 550 547 
6 68 296 142 116 546 392 
6 321 369 291 571 619 541 
6 179 224 177 429 474 427 
6 167 267 165 417 517 415 
6 259 346 262 509 596 512 
6 303 327 196 553 577 446 
6 269 270 155 519 520 405 
6 265 360 313 515 610 563 
6 223 269 157 473 519 407 
6 157 269 155 407 519 405 
6 144 279 278 394 529 528 
6 169 217 167 419 467 417 
6 177 264 175 427 514 425 
6 267 268 165 517 518 415 
6 159 223 157 409 473 407 
6 232 277 135 482 527 385 
6 193 254 190 443 504 440 
6 217 267 167 467 517 417 
6 249 356 142 499 606 392 
6 184 256 181 434 506 431 
6 248 355 219 498 605 469 
6 229 260 137 479 510 387 
6 149 150 148 399 400 398 
6 64 348 281 112 598 531 
6 311 374 293 561 624 543 
6 264 265 175 514 515 425 
6 297 300 296 547 550 546 
6 141 289 288 391 539 538 
6 197 263 195 447 513 445 
6 218 260 219 468 510 469 
6 224 264 177 474 514 427 
6 137 298 297 387 548 547 
6 277 295 135 527 545 385 
6 133 228 227 383 478 477 
6 261 349 262 511 599 512 
6 221 277 222 471 527 472 
6 256 325 224 506 575 474 
6 199 210 197 449 460 447 
6 226 254 193 476 504 443 
6 144 278 62 394 528 110 
6 279 283 278 529 533 528 
6 289 290 288 539 540 538 
6 137 297 70 387 547 118 
6 34 294 292 82 544 542 
6 235 236 216 485 486 466 
6 141 288 48 391 538 96 
6 178 306 180 428 556 430 
6 185 186 184 435 436 434 
6 63 281 144 111 531 394 
6 225 256 184 475 506 434 
6 46 291 136 94 541 386 
6 147 149 148 397 399 398 
6 271 272 204 521 522 454 
6 233 334 234 483 584 484 
6 145 275 40 395 525 88 
6 220 322 287 470 572 537 
6 280 334 213 530 584 463 
6 144 280 279 394 530 529 
6 140 287 32 390 537 80 
6 154 155 153 404 405 403 
6 334 350 213 584 600 463 
6 176 177 175 426 427 425 
6 260 298 137 510 548 387 
6 33 140 32 81 390 80 
6 49 141 48 97 391 96 
6 56 143 55 104 393 103 
6 68 142 67 116 392 115 
6 63 144 62 111 394 110 
6 61 139 60 109 389 108 
6 148 308 257 398 558 507 
6 71 137 70 119 387 118 
6 53 138 52 101 388 100 
6 46 136 45 94 386 93 
6 36 135 35 84 385 83 
6 43 146 134 91 396 384 
6 133 227 38 383 477 86 
6 192 193 190 442 443 440 
6 293 374 140 543 624 390 
6 34 292 33 82 542 81 
6 207 306 178 457 556 428 
6 43 134 42 91 384 90 
6 39 133 38 87 383 86 
6 41 145 40 89 395 88 
6 194 195 193 444 445 443 
6 69 296 68 117 546 116 
6 294 299 292 544 549 542 
6 173 175 171 423 425 421 
6 260 330 219 510 580 469 
6 183 184 181 433 434 431 
6 134 257 42 384 507 90 
6 55 349 54 103 599 102 
6 163 165 161 413 415 411 
6 166 167 165 416 417 415 
6 210 302 263 460 552 513 
6 271 273 272 521 523 522 
6 53 261 138 101 511 388 
6 217 326 267 467 576 517 
6 289 303 290 539 553 540 
6 178 179 177 428 429 427 
6 238 240 202 488 490 452 
6 62 278 61 110 528 109 
6 35 294 34 83 544 82 
6 284 361 232 534 611 482 
6 70 297 69 118 547 117 
6 224 304 264 474 554 514 
6 156 157 155 406 407 405 
6 48 288 47 96 538 95 
6 221 320 295 471 570 545 
6 187 188 186 437 438 436 
6 47 291 46 95 541 94 
6 151 154 153 401 404 403 
6 286 362 229 536 612 479 
6 168 169 167 418 419 417 
6 40 275 39 88 525 87 
6 307 324 141 557 574 391 
6 300 301 296 550 551 546 
6 32 287 31 80 537 79 
6 147 220 149 397 470 399 
6 333 344 231 583 594 481 
6 299 370 293 549 620 543 
6 271 359 273 521 609 523 
6 224 325 304 474 575 554 
6 228 237 227 478 487 477 
6 305 375 343 555 625 593 
6 218 319 298 468 569 548 
6 240 351 272 490 601 522 
6 277 329 222 527 579 472 
6 253 355 139 503 605 389 
6 158 159 157 408 409 407 
6 236 246 216 486 496 466 
6 192 194 193 442 444 443 
6 220 309 149 470 559 399 
6 183 185 184 433 435 434 
6 196 197 195 446 447 445 
6 276 347 58 526 597 106 
6 136 333 231 386 583 481 
6 67 247 66 115 497 114 
6 60 248 59 108 498 107 
6 261 262 250 511 512 500 
6 173 176 175 423 426 425 
6 344 357 231 594 607 481 
6 144 281 280 394 531 530 
6 152 205 150 402 455 400 
6 163 166 165 413 416 415 
6 185 187 186 435 437 436 
6 233 234 230 483 484 480 
6 170 171 169 420 421 419 
6 146 147 134 396 397 384 
6 176 178 177 426 428 427 
6 285 337 223 535 587 473 
6 154 156 155 404 406 405 
6 263 342 226 513 592 476 
6 235 245 236 485 495 486 
6 160 161 159 410 411 409 
6 58 347 242 106 597 492 
6 166 168 167 416 418 417 
6 287 374 220 537 624 470 
6 189 190 188 439 440 438 
6 148 257 134 398 507 384 
6 194 196 195 444 446 445 
6 252 308 205 502 558 455 
6 285 345 337 535 595 587 
6 301 375 305 551 625 555 
6 180 181 179 430 431 429 
6 281 348 234 531 598 484 
6 198 199 197 448 449 447 
6 151 309 154 401 559 404 
6 228 367 335 478 617 585 
6 54 349 261 102 599 511 
6 156 158 157 406 408 407 
6 168 170 169 418 420 419 
6 200 202 199 450 452 449 
6 147 148 134 397 398 384 
6 158 160 159 408 410 409 
6 150 308 148 400 558 398 
6 253 316 208 503 566 458 
6 232 329 277 482 579 527 
6 178 180 179 428 430 429 
6 191 192 190 441 442 440 
6 214 238 202 464 488 452 
6 172 173 171 422 423 421 
6 187 189 188 437 439 438 
6 162 163 161 412 413 411 
6 228 251 237 478 501 487 
6 215 258 235 465 508 485 
6 182 183 181 432 433 431 
6 202 310 199 452 560 449 
6 219 253 208 469 503 458 
6 222 249 206 472 499 456 
6 196 198 197 446 448 447 
6 229 330 260 479 580 510 
6 132 358 274 382 608 524 
6 149 309 151 399 559 401 
6 226 312 254 476 562 504 
6 154 309 209 404 559 459 
6 77 129 76 125 379 124 
6 73 128 72 121 378 120 
6 76 131 75 124 381 123 
6 74 132 73 122 382 121 
6 75 130 74 123 380 122 
6 14 127 77 29 377 125 
6 72 126 14 120 376 29 
6 133 367 228 383 617 478 
6 237 282 227 487 532 477 
6 239 366 252 489 616 502 
6 200 214 202 450 464 452 
6 192 201 194 442 451 444 
6 170 172 171 420 422 421 
6 220 311 309 470 561 559 
6 198 200 199 448 450 449 
6 189 191 190 439 441 440 
6 146 323 322 396 573 572 
6 160 162 161 410 412 411 
6 251 307 237 501 557 487 
6 199 310 210 449 560 460 
6 57 373 56 105 623 104 
6 214 239 238 464 489 488 
6 182 212 183 432 462 433 
6 180 182 181 430 432 431 
6 146 322 147 396 572 397 
6 172 218 208 422 468 458 
6 172 208 173 422 458 423 
6 162 221 206 412 471 456 
6 162 206 163 412 456 413 
6 176 207 178 426 457 428 
6 272 351 204 522 601 454 
6 198 211 200 448 461 450 
6 182 213 212 432 463 462 
6 234 334 281 484 584 531 
6 154 209 156 404 459 406 
6 185 203 187 435 453 437 
6 168 174 170 418 424 420 
6 189 215 191 439 465 441 
6 215 216 191 465 466 441 
6 221 222 206 471 472 456 
6 158 164 160 408 414 410 
6 218 219 208 468 469 458 
6 205 308 150 455 558 400 
6 191 314 192 441 564 442 
6 215 235 216 465 485 466 
6 215 318 258 465 568 508 
6 152 351 205 402 601 455 
6 138 261 250 388 511 500 
6 192 314 201 442 564 451 
6 234 347 230 484 597 480 
6 226 342 312 476 592 562 
6 138 250 233 388 500 483 
6 147 322 220 397 572 470 
6 216 314 191 466 564 441 
6 306 332 180 556 582 430 
6 222 356 249 472 606 499 
6 128 345 285 378 595 535 
6 314 321 201 564 571 451 
6 212 315 183 462 565 433 
6 312 342 336 562 592 586 
6 282 339 338 532 589 588 
6 340 341 323 590 591 573 
6 309 311 209 559 561 459 
6 183 315 185 433 565 435 
6 208 316 173 458 566 423 
6 173 316 176 423 566 426 
6 3 341 37 18 591 85 
6 44 339 6 92 589 21 
6 252 366 145 502 616 395 
6 246 321 314 496 571 564 
6 246 314 216 496 564 466 
6 126 364 313 376 614 563 
6 156 317 158 406 567 408 
6 275 367 133 525 617 383 
6 176 316 207 426 566 457 
6 185 315 203 435 565 453 
6 180 332 182 430 582 432 
6 302 352 131 552 602 381 
6 251 324 307 501 574 557 
6 187 318 189 437 568 439 
6 172 319 218 422 569 468 
6 162 320 221 412 570 471 
6 305 343 166 555 593 416 
6 170 319 172 420 569 422 
6 158 317 164 408 567 414 
6 209 317 156 459 567 406 
6 285 353 128 535 603 378 
6 223 337 269 473 587 519 
6 160 320 162 410 570 412 
6 211 331 200 461 581 450 
6 174 319 170 424 569 420 
6 203 318 187 453 568 437 
6 189 318 215 439 568 465 
6 198 327 211 448 577 461 
6 164 320 160 414 570 410 
6 326 353 267 576 603 517 
6 236 344 333 486 594 583 
6 196 327 198 446 577 448 
6 219 355 253 469 605 503 
6 281 334 280 531 584 530 
6 274 359 271 524 609 521 
6 164 370 299 414 620 549 
6 174 375 300 424 625 550 
6 287 363 31 537 613 79 
6 243 361 1 493 611 16 
6 241 362 12 491 612 27 
6 307 365 237 557 615 487 
6 166 343 168 416 593 418 
6 200 331 214 450 581 464 
6 313 326 217 563 576 467 
6 9 357 244 24 607 494 
6 1 361 30 16 611 78 
6 12 362 65 27 612 113 
6 337 345 132 587 595 382 
6 242 348 64 492 598 112 
6 231 357 266 481 607 516 
6 182 332 213 432 582 463 
6 245 344 236 495 594 486 
6 258 346 259 508 596 509 
6 145 366 275 395 616 525 
6 291 369 136 541 619 386 
6 236 333 246 486 583 496 
6 331 335 214 581 585 464 
6 312 336 129 562 586 379 
6 315 372 262 565 622 512 
6 220 374 311 470 624 561 
6 140 374 287 390 624 537 
6 126 360 304 376 610 554 
6 230 347 276 480 597 526 
6 313 364 326 563 614 576 
6 56 373 143 104 623 393 
6 239 367 366 489 617 616 
6 204 351 152 454 601 402 
6 300 375 301 550 625 551 
6 214 335 239 464 585 489 
6 247 329 243 497 579 493 
6 262 372 250 512 622 500 
6 248 330 241 498 580 491 
6 318 346 258 568 596 508 
6 333 369 246 583 619 496 
6 282 338 227 532 588 477 
6 146 340 323 396 590 573 
6 304 360 264 554 610 514 
6 366 367 275 616 617 525 
6 129 336 76 379 586 124 
6 73 345 128 121 595 378 
6 76 336 131 124 586 381 
6 250 350 233 500 600 483 
6 129 371 328 379 621 578 
6 132 345 73 382 595 121 
6 168 343 174 418 593 424 
6 131 352 75 381 602 123 
6 66 247 243 114 497 493 
6 59 248 241 107 498 491 
6 74 358 132 122 608 382 
6 203 346 318 453 596 568 
6 313 360 126 563 610 376 
6 128 364 72 378 614 120 
6 128 353 326 378 603 576 
6 77 371 129 125 621 379 
6 129 368 312 379 618 562 
6 244 357 344 494 607 594 
6 328 354 225 578 604 475 
6 326 364 128 576 614 378 
6 75 352 130 123 602 380 
6 350 372 212 600 622 462 
6 136 369 333 386 619 583 
6 325 354 127 575 604 377 
6 213 350 212 463 600 462 
6 130 358 74 380 608 122 
6 250 372 350 500 622 600 
6 317 370 164 567 620 414 
6 72 364 126 120 614 376 
6 328 368 129 578 618 379 
6 127 371 77 377 621 125 
6 336 342 131 586 592 381 
6 212 372 315 462 622 565 
6 234 348 347 484 598 597 
6 8 266 51 23 516 99 
6 10 276 58 25 526 106 
6 246 369 321 496 619 571 
6 30 284 0 78 534 15 
6 65 286 13 113 536 28 
6 58 242 11 106 492 26 
6 266 357 51 516 607 99 
6 255 368 328 505 618 578 
6 347 348 242 597 598 492 
6 322 363 287 572 613 537 
6 323 363 322 573 613 572 
6 335 367 239 585 617 489 
6 30 361 284 78 611 534 
6 65 362 286 113 612 536 
6 237 365 282 487 615 532 
6 130 359 358 380 609 608 
6 343 375 174 593 625 424 
6 354 371 127 604 621 377 
6 328 371 354 578 621 604 
6 358 359 274 608 609 524 
6 0 284 36 15 534 84 
6 45 266 8 93 516 23 
6 52 276 10 100 526 25 
6 11 242 64 26 492 112 
6 13 286 71 28 536 119 
6 2 323 3 17 573 18 
6 31 323 2 79 573 17 
6 323 341 3 573 591 18 
6 37 340 4 85 590 19 
6 4 340 43 19 590 91 
6 38 338 5 86 588 20 
6 5 338 44 20 588 92 
6 6 282 7 21 532 22 
6 6 339 282 21 589 532 
6 282 365 7 532 615 22 

CELL_TYPES 563
13
13
13
13
13
13
13
13
13
13
13
13
13
13
13
13
13
13
13
13
13
13
13
13
13
13
13
13
13
13
13
13
13
13
13
13
13
13
13
13
13
13
13
13
13
13
13
13
13
13
13
13
13
13
13
13
13
13
13
13
13
13
13
13
13
13
13
13
13
13
13
13
13
13
13
13
13
13
13
13
13
13
13
13
13
13
13
13
13
13
13
13
13
13
13
13
13
13
13
13
13
13
13
13
13
13
13
13
13
13
13
13
13
13
13
13
13
13
13
13
13
13
13
13
13
13
13
13
13
13
13
13
13
13
13
13
13
13
13
13
13
13
13
13
13
13
13
13
13
13
13
13
13
13
13
13
13
13
13
13
13
13
13
13
13
13
13
13
13
13
13
13
13
13
13
13
13
13
13
13
13
13
13
13
13
13
13
13
13
13
13
13
13
13
13
13
13
13
13
13
13
13
13
13
13
13
13
13
13
13
13
13
13
13
13
13
13
13
13
13
13
13
13
13
13
13
13
13
13
13
13
13
13
13
13
13
13
13
13
13
13
13
13
13
13
13
13
13
13
13
13
13
13
13
13
13
13
13
13
13
13
13
13
13
13
13
13
13
13
13
13
13
13
13
13
13
13
13
13
13
13
13
13
13
13
13
13
13
13
13
13
13
13
13
13
13
13
13
13
13
13
13
13
13
13
13
13
13
13
13
13
13
13
13
13
13
13
13
13
13
13
13
13
13
13
13
13
13
13
13
13
13
13
13
13
13
13
13
13
13
13
13
13
13
13
13
13
13
13
13
13
13
13
13
13
13
13
13
13
13
13
13
13
13
13
13
13
13
13
13
13
13
13
13
13
13
13
13
13
13
13
13
13
13
13
13
13
13
13
13
13
13
13
13
13
13
13
13
13
13
13
13
13
13
13
13
13
13
13
13
13
13
13
13
13
13
13
13
13
13
13
13
13
13
13
13
13
13
13
13
13
13
13
13
13
13
13
13
13
13
13
13
13
13
13
13
13
13
13
13
13
13
13
13
13
13
13
13
13
13
13
13
13
13
13
13
13
13
13
13
13
13
13
13
13
13
13
13
13
13
13
13
13
13
13
13
13
13
13
13
13
13
13
13
13
13
13
13
13
13
13
13
13
13
13
13
13
13
13
13
13
13
13
13
13
13
13
13
13
13
13
13
13
13
13
13
13
13
13
13
13
13
13
13
13
13
13
13
13
13
13
13
13
13
13
13
13
13
13
13
13
13
13
13
13
13
13
13
13
13
13
13
13

POINT_DATA 626
VECTORS displacement float
2.85302e-20 -1.38812e-18 -8.17972e-19
-1.40414e-20 -1.63091e-18 -7.99043e-19
1.32707e-18 -9.49011e-19 -7.69856e-19
1.33215e-18 -9.05817e-19 -7.46359e-19
1.47986e-18 -7.54058e-19 -7.78589e-19
1.33591e-18 5.55497e-19 -7.36704e-19
1.37047e-18 7.55166e-19 -7.3967e-19
1.22312e-18 7.42686e-19 -7.66683e-19
9.49844e-20 1.34656e-18 -8.4406e-19
-1.40981e-20 1.25207e-18 -8.06052e-19
-1.44837e-18 7.46148e-19 -7.5601e-19
-1.36358e-18 7.09622e-19 -7.7746e-19
-1.3659e-18 -5.81103e-19 -7.96453e-19
-1.318e-18 -7.58963e-19 -8.14056e-19
0 0 0
1.23885e-19 -1.36024e-18 7.4083e-19
-7.3233e-20 -1.36101e-18 6.52733e-19
1.14613e-18 -7.6637e-19 9.39584e-19
1.13576e-18 -6.1159e-19 6.69499e-19
1.33801e-18 -6.54894e-19 6.72242e-19
1.28059e-18 7.7342e-19 8.26652e-19
1.28566e-18 6.56918e-19 7.67433e-19
1.45525e-18 8.32624e-19 9.16671e-19
1.41889e-19 1.43007e-18 7.69902e-19
-2.27198e-20 1.51933e-18 7.95699e-19
-1.04114e-18 8.07374e-19 6.2737e-19
-1.37509e-18 8.23302e-19 6.81643e-19
-1.52255e-18 -7.58434e-19 7.35404e-19
-1.34178e-18 -7.71234e-19 7.74914e-19
0 0 0
3.00929e-20 -1.34717e-18 -8.07812e-19
1.02288e-18 -9.88219e-19 -7.24105e-19
9.4589e-19 -9.07232e-19 -7.49307e-19
7.92411e-19 -1.06856e-18 -7.81562e-19
6.30939e-19 -1.20965e-18 -7.98089e-19
4.25413e-19 -1.22688e-18 -7.9257e-19
2.80114e-19 -1.51611e-18 -7.86359e-19
1.32711e-18 -7.48915e-19 -7.74745e-19
1.37228e-18 3.96512e-19 -7.31181e-19
1.26478e-18 2.93649e-19 -7.27417e-19
1.30424e-18 7.36022e-20 -7.28438e-19
1.31816e-18 -1.0433e-19 -7.25347e-19
1.32988e-18 -3.12786e-19 -7.4834e-19
1.37677e-18 -5.46441e-19 -7.62974e-19
1.27898e-18 5.74272e-19 -7.43499e-19
2.84622e-19 1.33911e-18 -7.77035e-19
4.69588e-19 1.24266e-18 -7.66781e-19
6.23959e-19 1.14132e-18 -7.40645e-19
8.3419e-19 1.11827e-18 -7.33791e-19
9.71002e-19 9.73215e-19 -7.46273e-19
1.0783e-18 8.0809e-19 -7.71138e-19
2.34286e-20 1.40626e-18 -8.25478e-19
-1.04465e-18 1.01504e-18 -7.4893e-19
-9.32681e-19 1.02694e-18 -7.43197e-19
-7.58163e-19 1.10469e-18 -8.23656e-19
-5.18529e-19 1.09146e-18 -7.83586e-19
-3.38831e-19 1.31738e-18 -7.89094e-19
-1.29612e-19 1.30568e-18 -8.16019e-19
-1.25132e-18 7.64272e-19 -7.60436e-19
-1.17487e-18 -4.47623e-19 -8.29208e-19
-1.39299e-18 -2.93273e-19 -8.05453e-19
-1.35448e-18 -5.23274e-21 -8.03313e-19
-1.27405e-18 1.56298e-19 -7.85727e-19
-1.30119e-18 3.42781e-19 -7.7978e-19
-1.33858e-18 5.13366e-19 -7.6784e-19
-1.20046e-18 -7.00961e-19 -7.94896e-19
-2.19314e-19 -1.35411e-18 -8.1246e-19
-3.66625e-19 -1.22858e-18 -8.12427e-19
-5.33903e-19 -1.13112e-18 -8.20885e-19
-6.99275e-19 -9.95283e-19 -8.38534e-19
-8.16572e-19 -9.60381e-19 -8.20557e-19
-1.13688e-18 -8.68872e-19 -8.27423e-19
0 0 0
0 0 0
0 0 0
0 0 0
0 0 0
0 0 0
1.6541e-20 -1.41542e-18 6.82616e-19
1.07657e-18 -8.6447e-19 6.61253e-19
9.08754e-19 -9.15303e-19 7.18258e-19
6.93515e-19 -1.10678e-18 7.63934e-19
5.34294e-19 -1.18846e-18 6.37336e-19
3.55916e-19 -1.26371e-18 7.86268e-19
1.80241e-19 -1.24358e-18 7.45901e-19
1.20584e-18 -6.71456e-19 6.65989e-19
1.3333e-18 4.92859e-19 8.49011e-19
1.35182e-18 2.95221e-19 6.2e-19
1.39582e-18 6.95089e-20 6.71762e-19
1.37311e-18 -9.49843e-20 7.13344e-19
1.31915e-18 -2.61291e-19 7.42086e-19
1.32051e-18 -4.17173e-19 7.26735e-19
1.31009e-18 7.40131e-19 8.39646e-19
3.16795e-19 1.54381e-18 5.96329e-19
3.6499e-19 1.34831e-18 6.37731e-19
6.12729e-19 1.10712e-18 7.56033e-19
8.0911e-19 1.05506e-18 8.18722e-19
9.34512e-19 9.55875e-19 8.37834e-19
1.09531e-18 9.18446e-19 9.34481e-19
6.90654e-20 1.44232e-18 7.70538e-19
-1.01109e-18 9.16079e-19 7.61917e-19
-8.06607e-19 9.29227e-19 7.67032e-19
-6.65529e-19 1.09307e-18 9.02225e-19
-5.95121e-19 1.19165e-18 8.30363e-19
-3.87057e-19 1.34035e-18 8.01178e-19
-1.7633e-19 1.41396e-18 8.42855e-19
-1.21501e-18 7.33674e-19 7.83939e-19
-1.57548e-18 -4.2466e-19 5.956e-19
-1.38957e-18 -2.17635e-19 7.52082e-19
-1.36263e-18 -6.47826e-20 7.68206e-19
-1.46086e-18 1.07175e-19 6.39373e-19
-1.46185e-18 3.81524e-19 7.94744e-19
-1.3541e-18 5.66704e-19 6.21422e-19
-1.48517e-18 -6.83967e-19 6.42108e-19
-2.50758e-19 -1.3851e-18 7.35891e-19
-4.22138e-19 -1.24799e-18 7.36728e-19
-5.92451e-19 -1.18248e-18 6.69342e-19
-8.02609e-19 -1.08744e-18 7.36547e-19
-8.97681e-19 -9.99107e-19 7.83813e-19
-9.96319e-19 -8.94912e-19 7.31354e-19
0 0 0
0 0 0
0 0 0
0 0 0
0 0 0
0 0 0
-1.45709e-19 -7.35027e-20 -3.46684e-19
-1.4561e-19 7.50736e-20 -3.05339e-19
-2.92428e-20 -1.50684e-19 -3.34804e-19
-2.69544e-20 1.55309e-19 -3.2479e-19
1.64351e-19 3.60492e-21 -3.26304e-19
1.13227e-19 1.26084e-19 -2.90909e-19
1.22953e-19 -1.18551e-19 -2.94365e-19
1.23223e-18 3.55741e-19 -7.32129e-19
1.14623e-18 -3.98493e-19 -7.64146e-19
3.14971e-19 -1.23763e-18 -8.00478e-19
3.01958e-19 1.14939e-18 -7.88554e-19
-8.95103e-19 -8.50373e-19 -8.27874e-19
-8.35636e-19 8.31601e-19 -7.5943e-19
-1.22642e-18 -1.59238e-19 -8.1981e-19
8.23287e-19 -8.48934e-19 -7.59553e-19
7.66649e-19 8.28045e-19 -7.49714e-19
-3.61839e-19 -1.08017e-18 -8.08324e-19
-3.03949e-19 1.13865e-18 -7.6618e-19
-1.07474e-18 2.37096e-19 -7.85342e-19
1.07911e-18 -3.64006e-20 -7.46367e-19
1.26146e-18 -5.93384e-19 -7.67436e-19
9.80583e-19 -4.63397e-19 -7.44475e-19
9.28626e-19 -2.6968e-19 -7.54267e-19
9.03243e-19 -4.12697e-19 -7.70084e-19
7.749e-19 -2.12163e-19 -7.5898e-19
6.35139e-19 -3.06945e-19 -7.34817e-19
5.88166e-19 -2.01378e-19 -7.16695e-19
5.24578e-19 -2.75957e-19 -6.9866e-19
5.34146e-19 -4.11469e-19 -7.35832e-19
3.69208e-19 -3.46483e-19 -6.90132e-19
4.18092e-19 -5.50018e-19 -7.28136e-19
2.60446e-19 -4.61632e-19 -6.49443e-19
3.33042e-19 -5.92293e-19 -7.3734e-19
1.70574e-19 -5.15712e-19 -6.74377e-19
1.87023e-19 -6.30422e-19 -7.27723e-19
1.61569e-20 -6.73664e-19 -6.99371e-19
7.23209e-20 -7.71794e-19 -7.48264e-19
-1.08492e-19 -7.46427e-19 -7.48929e-19
3.7297e-19 -7.25583e-19 -7.40766e-19
-1.23548e-19 -5.42528e-19 -7.25429e-19
-2.60423e-19 -6.30197e-19 -7.47294e-19
-2.42394e-19 -4.93408e-19 -6.95638e-19
-3.73618e-19 -5.7498e-19 -7.18836e-19
-4.12307e-19 -4.16211e-19 -6.71845e-19
-5.20891e-19 -5.36054e-19 -7.50044e-19
-5.2111e-19 -3.15608e-19 -7.15175e-19
-6.56505e-19 -4.35206e-19 -7.59172e-19
-6.9214e-19 -2.24582e-19 -7.40677e-19
-5.17618e-19 -6.58558e-19 -7.92402e-19
-4.94791e-19 -1.52678e-19 -7.01154e-19
-6.45397e-19 -8.01074e-20 -7.25427e-19
-4.6889e-19 7.25679e-21 -7.11576e-19
-6.79853e-19 8.55467e-20 -7.45599e-19
-4.91415e-19 1.47628e-19 -7.18378e-19
-7.16405e-19 2.46951e-19 -7.30509e-19
-5.1808e-19 2.92441e-19 -7.10106e-19
-6.00341e-19 4.132e-19 -7.50899e-19
-5.34883e-19 4.67956e-19 -7.17667e-19
-3.92535e-19 3.54216e-19 -6.70514e-19
-3.45819e-19 5.3408e-19 -7.13531e-19
-2.71129e-19 4.94215e-19 -6.79213e-19
-2.40687e-19 6.17789e-19 -7.15741e-19
-1.30415e-19 5.48562e-19 -6.80951e-19
-9.82088e-20 7.12593e-19 -7.16777e-19
3.70281e-20 5.6239e-19 -7.00768e-19
1.20564e-20 7.37552e-19 -7.01838e-19
1.57106e-19 6.03107e-19 -6.98627e-19
1.37004e-19 5.27396e-19 -6.81082e-19
2.88797e-19 5.74099e-19 -7.05327e-19
2.55396e-19 4.47947e-19 -6.89345e-19
4.18962e-19 5.58593e-19 -7.09493e-19
4.19514e-19 3.84052e-19 -6.83989e-19
5.24388e-19 4.41533e-19 -6.79626e-19
5.43827e-19 2.70321e-19 -7.04135e-19
6.88074e-19 3.29353e-19 -7.29183e-19
2.93982e-19 7.52276e-19 -7.52859e-19
6.56144e-19 2.09168e-19 -7.03893e-19
-3.9505e-19 6.65304e-19 -7.2752e-19
4.84418e-19 -9.77379e-20 -6.6564e-19
8.09233e-19 -5.12552e-20 -7.4068e-19
-4.1127e-20 -8.70795e-19 -7.72488e-19
-7.26235e-19 -3.63564e-21 -7.93278e-19
-8.66241e-19 -3.44495e-19 -7.60631e-19
5.82487e-19 -5.6528e-19 -7.59987e-19
3.76674e-19 2.23495e-19 -6.35614e-19
6.73503e-19 5.60237e-19 -7.30624e-19
-6.57795e-19 5.30737e-19 -7.41126e-19
-7.21347e-19 5.01899e-19 -7.82564e-19
7.69151e-19 3.3039e-19 -7.10473e-19
-1.6119e-19 8.06468e-19 -7.43096e-19
2.58404e-20 8.69724e-19 -7.38581e-19
-2.41273e-19 -3.17866e-19 -6.39978e-19
-7.89471e-19 -4.75338e-19 -7.80583e-19
-1.02605e-18 -4.41909e-19 -8.01811e-19
8.88952e-19 -6.41141e-19 -7.39818e-19
1.45189e-19 -9.5145e-19 -7.66633e-19
-2.67517e-20 -1.10031e-18 -7.91241e-19
1.20867e-19 -3.79612e-19 -5.96792e-19
-3.49943e-19 7.1166e-20 -6.3465e-19
-2.5117e-19 2.52102e-19 -5.926e-19
1.23638e-19 4.00444e-19 -6.0127e-19
1.18869e-18 5.3859e-19 -7.25967e-19
1.00543e-18 4.81302e-19 -7.33092e-19
-1.13775e-18 -7.18947e-19 -8.02934e-19
-1.10558e-18 7.49942e-19 -7.41158e-19
1.21711e-19 1.24429e-18 -8.05837e-19
1.20808e-19 -1.26191e-18 -8.06368e-19
-9.71009e-19 6.99229e-19 -7.68417e-19
-1.08369e-18 6.40687e-19 -7.74995e-19
-1.93258e-19 1.11529e-18 -7.74284e-19
-1.71922e-21 1.08453e-18 -7.35268e-19
1.10649e-18 6.69961e-19 -7.43292e-19
8.15674e-19 1.31115e-19 -7.26126e-19
9.78798e-19 2.12146e-19 -7.38245e-19
6.71184e-19 7.39914e-20 -6.9218e-19
-1.23219e-18 -5.57084e-19 -8.12586e-19
-1.10556e-18 6.33138e-19 -8.08874e-19
-6.89234e-20 -1.30834e-18 -8.12141e-19
-3.70333e-20 1.29141e-18 -8.00344e-19
-1.00139e-19 1.20599e-18 -7.6968e-19
1.4035e-19 9.52084e-19 -7.41476e-19
-1.09174e-19 -1.30202e-18 -8.00727e-19
-1.14048e-18 -4.64865e-19 -7.86054e-19
-2.10461e-19 -1.00164e-18 -8.24254e-19
-7.18534e-19 7.67605e-19 -7.74921e-19
8.23226e-19 5.54168e-19 -7.30798e-19
8.81712e-19 1.46619e-20 -7.34632e-19
-9.81046e-19 -2.31642e-19 -8.18112e-19
1.26788e-20 4.56285e-19 -6.27673e-19
-1.14109e-19 3.91327e-19 -5.98363e-19
-3.91632e-19 2.24411e-19 -6.45232e-19
1.20613e-18 -2.01427e-19 -7.49652e-19
-2.97058e-19 9.48375e-19 -7.48848e-19
-4.66637e-19 9.58987e-19 -7.64174e-19
-9.46644e-19 -6.52967e-19 -8.02036e-19
-7.31385e-19 9.23285e-19 -7.75964e-19
-5.66695e-19 7.53692e-19 -7.48535e-19
2.72628e-19 3.19451e-19 -6.13497e-19
-3.68559e-19 -7.44956e-20 -6.37095e-19
-3.20907e-19 -2.3763e-19 -6.57655e-19
8.16526e-20 1.3028e-18 -8.26446e-19
-1.47268e-19 -3.87736e-19 -6.19996e-19
3.67746e-22 -4.59397e-19 -6.49168e-19
2.83325e-19 -3.19431e-19 -6.08832e-19
3.49294e-19 -2.28644e-19 -6.1751e-19
3.63955e-19 -8.51544e-20 -5.74986e-19
5.01898e-19 2.09139e-20 -6.56705e-19
3.38298e-19 5.74163e-20 -5.30327e-19
2.3943e-19 -1.58706e-19 -4.57901e-19
1.15113e-18 2.16565e-19 -7.17551e-19
-1.23072e-18 7.87869e-19 -7.66344e-19
1.75947e-19 -1.18643e-18 -7.78349e-19
-1.00793e-18 8.51552e-21 -7.83116e-19
-8.03971e-19 1.16709e-19 -7.81247e-19
-9.22562e-19 3.00646e-19 -7.74006e-19
-1.14333e-18 4.61809e-19 -7.80221e-19
1.12575e-18 6.66934e-19 -7.73247e-19
-9.45309e-19 -5.82987e-20 -7.9148e-19
1.18809e-19 -1.48689e-18 -8.17823e-19
3.941e-20 -3.12661e-19 -5.20934e-19
-1.10452e-18 -6.54828e-19 -8.02689e-19
9.15503e-19 -7.51111e-19 -7.55338e-19
6.45859e-19 9.88911e-19 -7.39783e-19
5.82483e-19 7.57562e-19 -7.3169e-19
4.41618e-19 9.69763e-19 -7.3001e-19
3.85296e-19 1.088e-18 -7.51917e-19
6.55158e-19 -1.05652e-18 -7.87542e-19
6.32574e-19 -8.47e-19 -7.7701e-19
4.12815e-19 -1.0469e-18 -7.90939e-19
3.10824e-19 -9.6856e-19 -7.76958e-19
-4.94873e-19 -1.0064e-18 -8.12321e-19
-7.71005e-19 -8.61562e-19 -8.08876e-19
-7.85712e-19 -6.92397e-19 -8.14204e-19
4.76733e-19 -9.27042e-19 -7.96141e-19
-6.42316e-19 -7.88567e-19 -7.86193e-19
-4.57773e-19 -8.58925e-19 -8.13348e-19
2.52226e-19 1.43315e-19 -4.96567e-19
4.58513e-19 7.22483e-19 -7.22667e-19
-2.2266e-19 -6.39393e-21 -4.95187e-19
-3.01589e-19 -8.65583e-19 -7.94538e-19
-7.70956e-19 1.46654e-19 -7.54631e-19
9.12789e-19 7.7614e-19 -7.34251e-19
1.03419e-18 -1.15184e-19 -7.43783e-19
7.63091e-19 -5.27225e-19 -7.63591e-19
5.30751e-19 1.46901e-19 -6.71007e-19
6.68688e-19 -6.55726e-19 -7.57342e-19
1.949e-20 3.28636e-19 -5.16034e-19
-1.93909e-19 -2.03328e-19 -4.94665e-19
1.75261e-19 7.86929e-19 -7.21707e-19
-4.88064e-19 5.99552e-19 -7.26932e-19
-8.2924e-19 -1.6854e-19 -7.87993e-19
4.87767e-19 -6.54512e-19 -7.70051e-19
-2.65849e-19 8.31081e-19 -7.4346e-19
-6.64094e-19 -6.09853e-19 -7.78546e-19
2.81724e-19 -8.15264e-19 -7.76905e-19
2.78982e-19 8.90621e-19 -7.53586e-19
1.12861e-18 -7.06884e-19 -7.51337e-19
1.10196e-18 -7.18285e-19 -7.69385e-19
8.12948e-19 7.24324e-19 -7.21217e-19
-2.73211e-19 1.30795e-19 -5.22997e-19
-1.24276e-19 -2.27557e-19 -4.86754e-19
5.68537e-19 6.27885e-19 -7.13739e-19
-1.19982e-19 2.13647e-19 -4.69021e-19
2.06651e-20 -1.18432e-18 -7.98532e-19
-1.07828e-18 -5.56761e-19 -8.17917e-19
9.16434e-19 4.34873e-19 -7.30878e-19
-7.06759e-19 3.2525e-19 -7.55019e-19
1.29623e-19 1.11171e-18 -7.73567e-19
-8.79873e-19 4.86124e-19 -7.75268e-19
9.15301e-19 3.66561e-19 -7.4491e-19
4.32856e-20 1.65494e-19 -3.46309e-19
1.48187e-19 -2.18743e-19 -5.01798e-19
1.2008e-18 5.41372e-19 -7.54514e-19
1.38115e-18 6.83065e-19 -7.55855e-19
1.2244e-18 -6.39999e-19 -7.9407e-19
1.39042e-18 -7.92057e-19 -7.73915e-19
1.48294e-19 2.71061e-19 -4.83277e-19
-3.57702e-19 -6.91149e-19 -7.89542e-19
3.64356e-20 1.15712e-18 -7.93176e-19
4.85091e-20 -1.76508e-19 -3.43301e-19
-4.22923e-19 8.03024e-19 -7.48976e-19
-1.21608e-18 6.69346e-19 -7.75185e-19
-1.11366e-18 5.77832e-19 -7.88181e-19
-6.12325e-19 1.10376e-18 -7.92393e-19
-7.73433e-19 6.34225e-19 -7.74439e-19
6.11865e-19 -4.69794e-20 -7.20703e-19
1.57798e-19 6.39221e-20 -3.44452e-19
-7.07364e-20 -2.89642e-19 -5.30443e-19
-1.76368e-19 1.66606e-19 -4.7042e-19
-1.08457e-18 -3.24202e-19 -8.01381e-19
-1.76186e-19 -1.05547e-18 -8.10786e-19
5.90123e-20 1.35934e-18 -7.96997e-19
1.50243e-19 -5.96327e-20 -3.26205e-19
2.42419e-19 -4.39795e-20 -4.55086e-19
-2.56999e-19 -1.26898e-19 -5.23036e-19
2.22365e-20 -1.33559e-18 -7.97027e-19
-1.29896e-18 -6.8784e-19 -7.94077e-19
1.08555e-18 -7.78865e-19 -7.40406e-19
-1.09257e-19 -1.20989e-19 -3.25012e-19
1.11341e-18 7.77161e-19 -7.62749e-19
1.05696e-18 8.0476e-20 -7.41426e-19
1.00651e-18 2.73069e-19 -7.26939e-19
-6.47554e-20 2.63857e-19 -4.86025e-19
2.6405e-19 9.54013e-19 -7.6938e-19
5.14181e-19 -7.33839e-19 -7.70609e-19
-9.55276e-20 1.11154e-19 -3.09096e-19
-6.03197e-19 6.83835e-19 -7.59033e-19
-2.12267e-19 1.20889e-18 -7.9248e-19
7.16609e-19 -7.19398e-19 -7.52223e-19
-4.43179e-19 -7.25931e-19 -7.93518e-19
-1.40879e-19 -7.33896e-20 4.17997e-19
-1.47782e-19 4.50465e-20 1.99182e-19
-5.50322e-20 -1.61733e-19 2.93215e-19
-2.76076e-20 1.32881e-19 2.28732e-19
1.64337e-19 -1.97933e-20 3.58135e-19
1.01158e-19 1.1283e-19 2.57428e-19
9.3465e-20 -1.25712e-19 2.64682e-19
1.16697e-18 4.03902e-19 8.50253e-19
1.08303e-18 -3.77362e-19 7.14488e-19
2.08786e-19 -1.15595e-18 7.22441e-19
2.68374e-19 1.26513e-18 6.94588e-19
-9.37595e-19 -8.44274e-19 7.95499e-19
-8.86862e-19 9.13935e-19 6.26778e-19
-1.24083e-18 -1.16043e-19 8.42727e-19
7.13966e-19 -9.07711e-19 6.80971e-19
7.36067e-19 8.67179e-19 8.29581e-19
-4.20946e-19 -1.04607e-18 6.86903e-19
-3.40027e-19 1.10917e-18 7.35548e-19
-1.30165e-18 2.44647e-19 7.61601e-19
1.12183e-18 3.17713e-20 6.80857e-19
1.12521e-18 -5.79796e-19 8.40694e-19
9.51234e-19 -4.80295e-19 7.48117e-19
1.03161e-18 -3.39532e-19 7.27053e-19
9.19731e-19 -4.03168e-19 6.56146e-19
7.80803e-19 -2.52347e-19 6.65404e-19
7.19093e-19 -3.22934e-19 6.14033e-19
6.3276e-19 -2.01044e-19 5.57334e-19
5.48764e-19 -2.91529e-19 5.65516e-19
6.15372e-19 -4.42784e-19 6.28758e-19
3.81106e-19 -3.79864e-19 6.56105e-19
4.0345e-19 -4.94705e-19 7.81612e-19
2.74775e-19 -4.58226e-19 6.5325e-19
2.77376e-19 -6.02846e-19 7.84684e-19
1.62177e-19 -4.72399e-19 6.83542e-19
1.64395e-19 -6.73594e-19 6.94948e-19
3.14056e-20 -6.45974e-19 6.03071e-19
6.61468e-20 -7.4886e-19 6.02286e-19
-1.05366e-19 -7.25554e-19 7.45151e-19
3.11951e-19 -7.53779e-19 7.05623e-19
-1.13724e-19 -5.47413e-19 7.63922e-19
-2.90565e-19 -6.943e-19 6.52394e-19
-2.43641e-19 -4.7545e-19 7.2692e-19
-4.04433e-19 -5.46611e-19 6.66239e-19
-4.08213e-19 -4.02902e-19 4.8085e-19
-5.13124e-19 -4.70683e-19 5.99405e-19
-5.02043e-19 -3.56719e-19 7.42553e-19
-6.5946e-19 -3.91668e-19 6.51693e-19
-6.6726e-19 -2.77658e-19 6.6832e-19
-5.144e-19 -6.38926e-19 6.91271e-19
-5.51037e-19 -2.18134e-19 5.85441e-19
-7.13847e-19 -1.26203e-19 6.64067e-19
-5.45506e-19 -5.96638e-20 5.70127e-19
-7.27697e-19 5.28238e-20 7.25271e-19
-5.90176e-19 1.10859e-19 5.85954e-19
-6.95749e-19 2.24074e-19 7.63937e-19
-5.54236e-19 2.42853e-19 5.57909e-19
-7.23325e-19 3.70396e-19 8.61979e-19
-6.16677e-19 4.49883e-19 7.07258e-19
-3.82009e-19 3.69573e-19 6.91073e-19
-4.08566e-19 5.78622e-19 7.60868e-19
-2.98845e-19 4.56496e-19 6.82244e-19
-2.68216e-19 5.96494e-19 7.63797e-19
-1.62024e-19 4.86859e-19 5.74004e-19
-1.38485e-19 7.53167e-19 7.35794e-19
-5.83293e-21 5.93731e-19 7.869e-19
-1.81726e-21 7.02341e-19 6.21466e-19
1.53068e-19 6.8286e-19 7.96373e-19
1.57123e-19 4.9481e-19 7.95345e-19
2.9148e-19 5.96266e-19 6.53088e-19
2.80929e-19 4.38373e-19 5.99392e-19
3.81708e-19 4.67659e-19 8.01873e-19
4.02985e-19 3.86436e-19 7.07333e-19
5.59144e-19 4.032e-19 7.66557e-19
5.5813e-19 2.87905e-19 8.41715e-19
6.90441e-19 3.42636e-19 7.53965e-19
2.68326e-19 7.18495e-19 7.941e-19
7.35727e-19 1.94861e-19 6.14768e-19
-4.04857e-19 7.16057e-19 8.26526e-19
5.13857e-19 -1.72192e-19 7.11562e-19
8.26824e-19 -6.88841e-20 7.4867e-19
-8.73792e-20 -8.6859e-19 7.88287e-19
-8.11053e-19 -2.94295e-20 7.85504e-19
-8.23077e-19 -3.4186e-19 7.73286e-19
5.03198e-19 -6.02668e-19 7.75778e-19
4.11393e-19 1.88067e-19 5.86755e-19
6.66823e-19 5.48322e-19 7.47941e-19
-6.94638e-19 6.07489e-19 8.12045e-19
-8.35714e-19 4.67595e-19 8.03585e-19
8.53909e-19 2.46849e-19 6.93811e-19
-1.27768e-19 8.32773e-19 7.95932e-19
6.91367e-21 9.1317e-19 6.44986e-19
-2.71318e-19 -3.15551e-19 5.2437e-19
-8.1188e-19 -5.21633e-19 7.73794e-19
-9.46312e-19 -4.09958e-19 7.3701e-19
8.26132e-19 -6.40924e-19 6.04238e-19
6.19872e-20 -9.69291e-19 6.48276e-19
-1.32133e-19 -1.11449e-18 6.50875e-19
1.2391e-19 -3.55665e-19 6.49845e-19
-4.16285e-19 4.41241e-20 6.2479e-19
-2.61739e-19 2.8009e-19 6.76637e-19
1.80274e-19 3.40059e-19 6.37452e-19
1.06503e-18 5.12411e-19 8.09711e-19
8.10639e-19 4.65564e-19 7.44634e-19
-1.03885e-18 -7.40201e-19 5.73648e-19
-9.08226e-19 7.23655e-19 6.77019e-19
1.36917e-19 1.39151e-18 6.63288e-19
3.06768e-20 -1.28395e-18 6.45989e-19
-9.13634e-19 7.16954e-19 6.50616e-19
-1.09129e-18 5.89981e-19 8.50095e-19
-1.51223e-19 1.04082e-18 7.51995e-19
-4.14809e-21 9.94834e-19 7.84079e-19
1.04745e-18 7.0214e-19 8.77691e-19
9.10752e-19 1.30295e-19 7.85681e-19
9.83699e-19 1.72284e-19 7.87859e-19
6.41861e-19 5.27813e-20 6.23228e-19
-1.37129e-18 -5.11893e-19 6.19168e-19
-1.23861e-18 6.62456e-19 7.32124e-19
-1.10062e-19 -1.38404e-18 5.98783e-19
-4.17412e-20 1.46789e-18 7.55007e-19
-1.17122e-19 1.26767e-18 7.06117e-19
1.66317e-19 9.5547e-19 5.6854e-19
-2.13108e-19 -1.26457e-18 6.7229e-19
-1.31082e-18 -3.95246e-19 6.31576e-19
-2.48203e-19 -9.48952e-19 7.86803e-19
-6.69237e-19 7.47726e-19 6.89331e-19
8.10818e-19 5.81492e-19 8.31923e-19
9.29795e-19 -8.12527e-21 7.7124e-19
-9.7151e-19 -2.64699e-19 8.15567e-19
3.6871e-20 4.4667e-19 6.93056e-19
-1.14672e-19 3.36232e-19 7.12047e-19
-4.06521e-19 1.89534e-19 6.97319e-19
1.1699e-18 -2.29945e-19 8.19518e-19
-2.55864e-19 9.40488e-19 7.58871e-19
-3.94087e-19 1.0313e-18 8.25751e-19
-1.04471e-18 -6.3364e-19 7.86364e-19
-7.28939e-19 9.23685e-19 6.30517e-19
-5.45598e-19 8.76044e-19 6.02108e-19
2.46506e-19 3.05454e-19 6.44815e-19
-4.24044e-19 -8.35026e-20 5.50085e-19
-3.88532e-19 -2.35659e-19 6.37272e-19
1.82871e-19 1.50757e-18 8.6493e-19
-1.43452e-19 -3.69851e-19 6.65892e-19
-1.33496e-20 -4.31265e-19 6.18708e-19
2.41907e-19 -2.8983e-19 5.54337e-19
3.91899e-19 -2.2846e-19 5.70877e-19
3.54323e-19 -1.14821e-19 6.10221e-19
5.33842e-19 -3.50359e-20 6.46238e-19
3.16889e-19 3.15779e-20 4.81213e-19
2.36298e-19 -1.48722e-19 3.10637e-19
1.18088e-18 2.05902e-19 7.89429e-19
-1.17289e-18 7.55131e-19 6.56822e-19
4.41045e-20 -1.07622e-18 7.35289e-19
-1.30254e-18 9.16101e-20 6.38851e-19
-9.97319e-19 1.19467e-19 7.87644e-19
-1.00935e-18 3.2909e-19 7.72714e-19
-1.19402e-18 4.12776e-19 8.09107e-19
1.16581e-18 6.83829e-19 9.05367e-19
-9.88413e-19 -7.63641e-20 7.53573e-19
8.34209e-20 -1.50167e-18 6.55575e-19
7.1864e-21 -2.63627e-19 5.99807e-19
-1.34172e-18 -7.48723e-19 7.7474e-19
9.71172e-19 -7.60055e-19 8.34151e-19
5.82888e-19 1.02716e-18 7.53271e-19
6.23201e-19 8.0525e-19 7.03076e-19
4.3288e-19 9.55292e-19 7.49777e-19
4.03939e-19 1.08675e-18 6.7778e-19
4.97382e-19 -1.01968e-18 6.67604e-19
5.55599e-19 -8.33839e-19 7.00106e-19
4.2043e-19 -1.01136e-18 6.15092e-19
2.41336e-19 -1.08171e-18 6.26971e-19
-5.80223e-19 -1.00862e-18 7.15374e-19
-7.20104e-19 -8.77012e-19 5.89286e-19
-7.86291e-19 -6.84555e-19 6.63017e-19
3.89555e-19 -8.88695e-19 7.82641e-19
-5.40399e-19 -8.24505e-19 7.26869e-19
-3.87755e-19 -9.66527e-19 8.31173e-19
2.65845e-19 1.15646e-19 5.47484e-19
4.58905e-19 7.48376e-19 6.22863e-19
-2.64859e-19 -4.77338e-21 6.25823e-19
-2.64734e-19 -8.58969e-19 7.52904e-19
-8.12814e-19 1.3174e-19 6.14572e-19
1.02495e-18 7.50351e-19 7.30997e-19
1.03379e-18 -1.69861e-19 7.04244e-19
7.02839e-19 -4.8835e-19 6.8943e-19
5.01726e-19 1.23768e-19 7.95051e-19
6.95309e-19 -7.01054e-19 8.14123e-19
1.69275e-20 2.45248e-19 5.46518e-19
-2.43476e-19 -1.57509e-19 5.30449e-19
1.41053e-19 8.8058e-19 7.08642e-19
-5.62905e-19 6.56623e-19 7.56606e-19
-8.04436e-19 -1.81062e-19 6.44498e-19
4.33231e-19 -6.78199e-19 7.21854e-19
-2.57098e-19 7.16254e-19 6.33988e-19
-6.77313e-19 -5.89654e-19 7.5058e-19
1.9851e-19 -8.34712e-19 6.92097e-19
2.94898e-19 9.11919e-19 8.06467e-19
1.00832e-18 -6.5962e-19 8.56944e-19
1.13375e-18 -6.7345e-19 6.90211e-19
7.45363e-19 6.96527e-19 7.17336e-19
-2.97382e-19 9.4739e-20 4.45582e-19
-1.4934e-19 -2.26781e-19 3.84354e-19
5.5162e-19 6.21349e-19 7.65531e-19
-1.22724e-19 2.01741e-19 3.41408e-19
-8.37363e-20 -1.26638e-18 6.36228e-19
-1.14054e-18 -5.29169e-19 7.27904e-19
8.02153e-19 4.54437e-19 6.61238e-19
-8.33484e-19 2.88122e-19 7.90342e-19
1.14372e-19 1.21424e-18 6.61636e-19
-1.05312e-18 4.78747e-19 6.91363e-19
1.0314e-18 2.96476e-19 7.04454e-19
3.43504e-20 1.42708e-19 3.85759e-19
1.25095e-19 -2.18762e-19 5.55648e-19
1.16677e-18 6.22945e-19 7.34419e-19
1.31781e-18 6.71752e-19 8.01327e-19
1.25081e-18 -5.76343e-19 8.32292e-19
1.1745e-18 -6.05801e-19 6.68195e-19
1.5613e-19 2.31876e-19 5.71924e-19
-4.00798e-19 -6.77855e-19 8.19855e-19
-3.9727e-21 1.2289e-18 7.0617e-19
5.1882e-20 -1.5337e-19 3.37691e-19
-4.08125e-19 7.64749e-19 7.72022e-19
-1.11161e-18 7.03758e-19 7.04915e-19
-1.17679e-18 5.94057e-19 8.21311e-19
-5.42665e-19 1.05813e-18 7.99522e-19
-8.51085e-19 6.24827e-19 6.87724e-19
6.78997e-19 -8.67302e-20 6.329e-19
1.47241e-19 4.97006e-20 2.98574e-19
-6.80659e-20 -2.86498e-19 4.98134e-19
-1.77397e-19 1.43329e-19 5.2836e-19
-1.05604e-18 -2.93582e-19 8.29925e-19
-2.54155e-19 -1.08817e-18 6.33774e-19
6.36455e-20 1.37351e-18 7.23181e-19
1.18616e-19 -7.12789e-20 3.38018e-19
2.48423e-19 -6.74247e-20 4.07159e-19
-2.71575e-19 -1.08579e-19 4.21623e-19
-1.15211e-21 -1.37509e-18 7.23893e-19
-1.30315e-18 -6.23589e-19 5.91531e-19
1.06266e-18 -6.52904e-19 7.09554e-19
-9.47727e-20 -1.03565e-19 3.63993e-19
1.15742e-18 8.36875e-19 9.37083e-19
1.15392e-18 1.22236e-19 7.51962e-19
1.00911e-18 3.44865e-19 7.06357e-19
-6.06591e-20 2.58609e-19 5.42781e-19
2.45812e-19 1.09235e-18 6.47851e-19
4.38921e-19 -8.91978e-19 8.07e-19
-1.10102e-19 8.66196e-20 2.46839e-19
-6.63887e-19 6.71978e-19 8.18852e-19
-2.63084e-19 1.23392e-18 8.76252e-19
7.70776e-19 -8.27137e-19 7.69467e-19
-5.00837e-19 -7.69364e-19 7.95741e-19
SCALARS effective_fluid_pressure_TPM float
LOOKUP_TABLE default
-2.53838e-11
-2.53494e-11
-2.50708e-11
-2.50755e-11
-2.50153e-11
-2.51301e-11
-2.50764e-11
-2.50972e-11
-2.5348e-11
-2.53406e-11
-2.53271e-11
-2.53158e-11
-2.5547e-11
-2.56305e-11
-2.57817e-11
-2.547e-11
-2.5476e-11
-2.52874e-11
-2.52702e-11
-2.51876e-11
-2.46201e-11
-2.4722e-11
-2.47265e-11
-2.5261e-11
-2.52863e-11
-2.50435e-11
-2.50559e-11
-2.54084e-11
-2.54151e-11
-2.57023e-11
-2.53921e-11
-2.51008e-11
-2.51755e-11
-2.5378e-11
-2.53356e-11
-2.5486e-11
-2.54619e-11
-2.50516e-11
-2.51246e-11
-2.50597e-11
-2.50134e-11
-2.49563e-11
-2.4952e-11
-2.49663e-11
-2.50854e-11
-2.51917e-11
-2.50793e-11
-2.48584e-11
-2.48853e-11
-2.49977e-11
-2.50878e-11
-2.53521e-11
-2.53134e-11
-2.51314e-11
-2.50489e-11
-2.50748e-11
-2.52712e-11
-2.54557e-11
-2.53159e-11
-2.54661e-11
-2.53522e-11
-2.53452e-11
-2.52327e-11
-2.51404e-11
-2.52106e-11
-2.56008e-11
-2.55215e-11
-2.55556e-11
-2.55629e-11
-2.54751e-11
-2.55537e-11
-2.56309e-11
-2.57341e-11
-2.56352e-11
-2.55408e-11
-2.54825e-11
-2.56094e-11
-2.57449e-11
-2.54802e-11
-2.5229e-11
-2.53324e-11
-2.54139e-11
-2.53373e-11
-2.52083e-11
-2.53285e-11
-2.52135e-11
-2.45802e-11
-2.46234e-11
-2.4484e-11
-2.43589e-11
-2.43305e-11
-2.48023e-11
-2.46821e-11
-2.51984e-11
-2.50989e-11
-2.51046e-11
-2.4995e-11
-2.4855e-11
-2.47768e-11
-2.52979e-11
-2.49538e-11
-2.49973e-11
-2.51375e-11
-2.50998e-11
-2.52484e-11
-2.53752e-11
-2.50622e-11
-2.53916e-11
-2.53756e-11
-2.52572e-11
-2.52005e-11
-2.50013e-11
-2.50932e-11
-2.54036e-11
-2.53526e-11
-2.53168e-11
-2.54423e-11
-2.56193e-11
-2.56546e-11
-2.53898e-11
-2.57455e-11
-2.57509e-11
-2.56293e-11
-2.56096e-11
-2.55996e-11
-2.56768e-11
-2.57564e-11
-2.57755e-11
-2.56943e-11
-2.56949e-11
-2.545e-11
-2.54908e-11
-2.55748e-11
-2.50601e-11
-2.50681e-11
-2.54334e-11
-2.51847e-11
-2.55401e-11
-2.52893e-11
-2.53771e-11
-2.52581e-11
-2.49516e-11
-2.54477e-11
-2.52122e-11
-2.52073e-11
-2.50488e-11
-2.50983e-11
-2.50921e-11
-2.50798e-11
-2.51536e-11
-2.51638e-11
-2.52119e-11
-2.51907e-11
-2.52764e-11
-2.52702e-11
-2.54012e-11
-2.53978e-11
-2.54232e-11
-2.54334e-11
-2.53698e-11
-2.53376e-11
-2.53197e-11
-2.52634e-11
-2.52835e-11
-2.53162e-11
-2.54424e-11
-2.54157e-11
-2.55637e-11
-2.55103e-11
-2.56594e-11
-2.56159e-11
-2.56797e-11
-2.56421e-11
-2.56406e-11
-2.5534e-11
-2.57146e-11
-2.55766e-11
-2.56768e-11
-2.54789e-11
-2.55859e-11
-2.54113e-11
-2.54775e-11
-2.53273e-11
-2.54039e-11
-2.5547e-11
-2.55335e-11
-2.55195e-11
-2.55294e-11
-2.55314e-11
-2.55203e-11
-2.55456e-11
-2.54071e-11
-2.53911e-11
-2.55507e-11
-2.53378e-11
-2.54519e-11
-2.53391e-11
-2.53705e-11
-2.53048e-11
-2.52726e-11
-2.52215e-11
-2.52058e-11
-2.52336e-11
-2.55152e-11
-2.52851e-11
-2.51705e-11
-2.52649e-11
-2.5386e-11
-2.55891e-11
-2.53409e-11
-2.5328e-11
-2.51736e-11
-2.53304e-11
-2.53374e-11
-2.52281e-11
-2.54484e-11
-2.54104e-11
-2.56972e-11
-2.56227e-11
-2.55014e-11
-2.5162e-11
-2.52312e-11
-2.53379e-11
-2.54512e-11
-2.57024e-11
-2.56115e-11
-2.5512e-11
-2.50668e-11
-2.51054e-11
-2.56016e-11
-2.52994e-11
-2.53236e-11
-2.54575e-11
-2.53124e-11
-2.52996e-11
-2.54165e-11
-2.53947e-11
-2.50695e-11
-2.51999e-11
-2.51556e-11
-2.52546e-11
-2.55493e-11
-2.53007e-11
-2.54679e-11
-2.54098e-11
-2.54468e-11
-2.53325e-11
-2.55303e-11
-2.54801e-11
-2.52991e-11
-2.53341e-11
-2.50215e-11
-2.51468e-11
-2.54064e-11
-2.55866e-11
-2.56151e-11
-2.56294e-11
-2.50464e-11
-2.54023e-11
-2.52531e-11
-2.5561e-11
-2.51897e-11
-2.53463e-11
-2.53945e-11
-2.57656e-11
-2.58048e-11
-2.5326e-11
-2.55664e-11
-2.54767e-11
-2.54564e-11
-2.5391e-11
-2.5354e-11
-2.52705e-11
-2.53886e-11
-2.54894e-11
-2.5056e-11
-2.52923e-11
-2.53859e-11
-2.53221e-11
-2.528e-11
-2.52187e-11
-2.51889e-11
-2.50603e-11
-2.53242e-11
-2.54259e-11
-2.56119e-11
-2.56227e-11
-2.51623e-11
-2.49188e-11
-2.51039e-11
-2.50809e-11
-2.50555e-11
-2.53219e-11
-2.5301e-11
-2.5351e-11
-2.52961e-11
-2.54576e-11
-2.55254e-11
-2.54886e-11
-2.5268e-11
-2.54921e-11
-2.53589e-11
-2.53838e-11
-2.52134e-11
-2.573e-11
-2.5327e-11
-2.53833e-11
-2.5028e-11
-2.51212e-11
-2.51802e-11
-2.52425e-11
-2.52692e-11
-2.55927e-11
-2.57687e-11
-2.5344e-11
-2.54115e-11
-2.54605e-11
-2.53605e-11
-2.55224e-11
-2.55399e-11
-2.52691e-11
-2.51764e-11
-2.51638e-11
-2.51118e-11
-2.49657e-11
-2.56906e-11
-2.57354e-11
-2.52265e-11
-2.57019e-11
-2.54494e-11
-2.55723e-11
-2.51585e-11
-2.5359e-11
-2.53324e-11
-2.52933e-11
-2.51889e-11
-2.55564e-11
-2.5548e-11
-2.50955e-11
-2.50699e-11
-2.5052e-11
-2.50844e-11
-2.54833e-11
-2.5444e-11
-2.53816e-11
-2.56303e-11
-2.54233e-11
-2.53017e-11
-2.52801e-11
-2.51565e-11
-2.53641e-11
-2.52475e-11
-2.54343e-11
-2.56385e-11
-2.57082e-11
-2.54413e-11
-2.54219e-11
-2.53713e-11
-2.55124e-11
-2.54365e-11
-2.57755e-11
-2.5403e-11
-2.55809e-11
-2.5166e-11
-2.5743e-11
-2.51132e-11
-2.50721e-11
-2.51197e-11
-2.56626e-11
-2.5225e-11
-2.53147e-11
-2.57437e-11
-2.53602e-11
-2.53554e-11
-2.52043e-11
-2.54326e-11
-2.575e-11
-2.56604e-11
-2.58265e-11
-2.56047e-11
-2.56145e-11
-2.55924e-11
-2.57012e-11
-2.47309e-11
-2.4683e-11
-2.53006e-11
-2.52115e-11
-2.55172e-11
-2.49756e-11
-2.5302e-11
-2.54206e-11
-2.49867e-11
-2.54673e-11
-2.51652e-11
-2.5055e-11
-2.44717e-11
-2.50426e-11
-2.51027e-11
-2.48891e-11
-2.52002e-11
-2.50638e-11
-2.52509e-11
-2.52244e-11
-2.53455e-11
-2.53407e-11
-2.54283e-11
-2.54695e-11
-2.55936e-11
-2.55037e-11
-2.56198e-11
-2.54965e-11
-2.56312e-11
-2.54565e-11
-2.56069e-11
-2.55213e-11
-2.57862e-11
-2.56597e-11
-2.57486e-11
-2.5668e-11
-2.56712e-11
-2.5565e-11
-2.56352e-11
-2.54821e-11
-2.55355e-11
-2.55304e-11
-2.56686e-11
-2.54649e-11
-2.55689e-11
-2.53449e-11
-2.53936e-11
-2.51777e-11
-2.52654e-11
-2.50687e-11
-2.51505e-11
-2.53003e-11
-2.51358e-11
-2.52862e-11
-2.51733e-11
-2.53547e-11
-2.52585e-11
-2.53408e-11
-2.5261e-11
-2.52797e-11
-2.53392e-11
-2.52626e-11
-2.53291e-11
-2.51931e-11
-2.52931e-11
-2.51127e-11
-2.51691e-11
-2.49956e-11
-2.52573e-11
-2.49903e-11
-2.5074e-11
-2.53207e-11
-2.49823e-11
-2.54892e-11
-2.5305e-11
-2.54594e-11
-2.53591e-11
-2.53621e-11
-2.50146e-11
-2.50706e-11
-2.497e-11
-2.49274e-11
-2.5241e-11
-2.52152e-11
-2.57466e-11
-2.54704e-11
-2.5465e-11
-2.53313e-11
-2.53675e-11
-2.53865e-11
-2.57322e-11
-2.55643e-11
-2.54811e-11
-2.54702e-11
-2.46638e-11
-2.4805e-11
-2.5417e-11
-2.50504e-11
-2.52468e-11
-2.53513e-11
-2.5038e-11
-2.51045e-11
-2.5238e-11
-2.52738e-11
-2.47456e-11
-2.48771e-11
-2.48009e-11
-2.50567e-11
-2.54068e-11
-2.50634e-11
-2.5383e-11
-2.53404e-11
-2.53234e-11
-2.52389e-11
-2.53984e-11
-2.53733e-11
-2.55231e-11
-2.50654e-11
-2.48502e-11
-2.47e-11
-2.5416e-11
-2.54421e-11
-2.54809e-11
-2.54645e-11
-2.44296e-11
-2.52032e-11
-2.50963e-11
-2.54377e-11
-2.50572e-11
-2.50962e-11
-2.54871e-11
-2.56778e-11
-2.56563e-11
-2.52511e-11
-2.58343e-11
-2.57854e-11
-2.56035e-11
-2.54359e-11
-2.54061e-11
-2.52887e-11
-2.53979e-11
-2.55832e-11
-2.46186e-11
-2.50404e-11
-2.53416e-11
-2.51695e-11
-2.50993e-11
-2.50314e-11
-2.50464e-11
-2.47128e-11
-2.5345e-11
-2.54116e-11
-2.58048e-11
-2.54112e-11
-2.53237e-11
-2.51344e-11
-2.51393e-11
-2.52914e-11
-2.51956e-11
-2.54426e-11
-2.54113e-11
-2.53208e-11
-2.53379e-11
-2.55462e-11
-2.55276e-11
-2.5425e-11
-2.54807e-11
-2.54566e-11
-2.5534e-11
-2.5528e-11
-2.51689e-11
-2.56953e-11
-2.55238e-11
-2.51155e-11
-2.4748e-11
-2.47234e-11
-2.53139e-11
-2.5208e-11
-2.53466e-11
-2.5529e-11
-2.57382e-11
-2.52432e-11
-2.51077e-11
-2.5364e-11
-2.54876e-11
-2.52023e-11
-2.549e-11
-2.54513e-11
-2.53068e-11
-2.52352e-11
-2.52597e-11
-2.49943e-11
-2.56258e-11
-2.57704e-11
-2.50909e-11
-2.55666e-11
-2.53959e-11
-2.5408e-11
-2.49339e-11
-2.50143e-11
-2.52775e-11
-2.50213e-11
-2.48412e-11
-2.55747e-11
-2.5709e-11
-2.46526e-11
-2.46948e-11
-2.51378e-11
-2.52212e-11
-2.55673e-11
-2.55559e-11
-2.53313e-11
-2.57757e-11
-2.51362e-11
-2.5079e-11
-2.50883e-11
-2.51111e-11
-2.50453e-11
-2.51774e-11
-2.56035e-11
-2.5834e-11
-2.56236e-11
-2.53705e-11
-2.54511e-11
-2.53177e-11
-2.5623e-11
-2.55169e-11
-2.57405e-11
-2.54338e-11
-2.54119e-11
-2.52627e-11
-2.57582e-11
-2.47061e-11
-2.46608e-11
-2.47426e-11
-2.55595e-11
-2.52712e-11
-2.5484e-11
-2.56367e-11
-2.50829e-11
-2.52905e-11
-2.53975e-11
-2.55096e-11

CELL_DATA 563
TENSORS stress float
-5.37232e-12 1.27394e-12 1.10107e-12
1.27394e-12 4.80472e-12 2.82977e-12
1.10107e-12 2.82977e-12 1.051e-11

5.10454e-12 -2.08167e-12 4.43318e-13
-2.08167e-12 9.26788e-12 3.14178e-12
4.43318e-13 3.14178e-12 4.64195e-12

1.96632e-12 -2.89121e-13 -1.4456e-13
-2.89121e-13 1.50373e-12 -1.73472e-13
-1.4456e-13 -1.73472e-13 1.19534e-12

3.95547e-12 -1.61908e-12 1.32032e-12
-1.61908e-12 7.19362e-12 -6.5534e-13
1.32032e-12 -6.5534e-13 1.02572e-12

-2.02321e-12 -2.31296e-12 -3.90313e-12
-2.31296e-12 1.23172e-11 -3.2767e-12
-3.90313e-12 -3.2767e-12 2.75691e-12

-3.19354e-12 8.09538e-13 -4.29826e-12
8.09538e-13 -4.58132e-12 3.45981e-12
-4.29826e-12 3.45981e-12 -1.49736e-12

-5.77176e-12 -2.57498e-12 1.98891e-12
-2.57498e-12 4.86788e-12 6.47562e-12
1.98891e-12 6.47562e-12 8.41442e-12

-1.65677e-12 -2.77556e-12 -6.36065e-13
-2.77556e-12 -5.35751e-12 2.12022e-13
-6.36065e-13 2.12022e-13 -1.65677e-12

-7.80532e-12 -6.36065e-13 -1.70581e-12
-6.36065e-13 -2.25421e-12 -4.57051e-12
-1.70581e-12 -4.57051e-12 -1.02063e-12

9.33569e-12 1.38902e-12 -1.28177e-12
1.38902e-12 3.32198e-12 2.79108e-12
-1.28177e-12 2.79108e-12 2.2426e-12

-7.32134e-13 4.48137e-13 8.19175e-14
4.48137e-13 5.28157e-12 7.96407e-12
8.19175e-14 7.96407e-12 8.98232e-12

2.47785e-12 1.34441e-12 -1.99493e-12
1.34441e-12 3.86563e-12 1.73472e-13
-1.99493e-12 1.73472e-13 1.86106e-12

-6.1286e-13 -4.62593e-13 2.40934e-12
-4.62593e-13 3.55048e-12 4.67412e-12
2.40934e-12 4.67412e-12 1.39171e-12

4.04502e-12 8.09538e-13 -1.15648e-13
8.09538e-13 4.97021e-12 -9.63735e-14
-1.15648e-13 -9.63735e-14 3.27404e-12

5.28103e-12 9.25186e-13 -2.23587e-12
9.25186e-13 -5.35861e-12 -2.85266e-12
-2.23587e-12 -2.85266e-12 1.42609e-12

-9.2369e-13 -3.38271e-12 -1.91783e-12
-3.38271e-12 1.85187e-12 -3.18274e-12
-1.91783e-12 -3.18274e-12 9.26681e-13

2.81818e-12 3.06468e-12 1.03602e-13
3.06468e-12 5.59374e-12 -2.52499e-12
1.03602e-13 -2.52499e-12 2.04719e-12

1.84179e-12 3.11527e-12 2.43825e-12
3.11527e-12 -1.39636e-12 -4.14436e-12
2.43825e-12 -4.14436e-12 -1.62776e-13

3.51062e-12 4.62593e-13 -2.21177e-12
4.62593e-13 -1.90126e-13 4.08624e-12
-2.21177e-12 4.08624e-12 2.72467e-13

7.52878e-12 1.48536e-12 1.81182e-12
1.48536e-12 2.44026e-12 4.20068e-12
1.81182e-12 4.20068e-12 3.82804e-12

-4.03587e-12 -1.85037e-12 -2.72617e-12
-1.85037e-12 -9.58699e-12 5.5993e-12
-2.72617e-12 5.5993e-12 -3.57328e-12

3.92524e-14 -3.44053e-12 -3.76158e-12
-3.44053e-12 5.01845e-13 -7.03527e-12
-3.76158e-12 -7.03527e-12 -1.34853e-12

4.81287e-12 -2.09612e-12 -8.57724e-13
-2.09612e-12 1.57471e-12 -4.11033e-12
-8.57724e-13 -4.11033e-12 2.96249e-12

5.12545e-12 -1.85037e-12 -1.96602e-12
-1.85037e-12 4.99518e-13 -3.97059e-12
-1.96602e-12 -3.97059e-12 1.7331e-12

-4.34464e-12 -1.22876e-12 -2.69846e-12
-1.22876e-12 -1.10649e-12 -4.83313e-12
-2.69846e-12 -4.83313e-12 4.35488e-13

3.04126e-13 -1.61908e-12 -1.84555e-12
-1.61908e-12 -1.54625e-12 -3.78748e-12
-1.84555e-12 -3.78748e-12 -1.08365e-12

-3.72737e-12 -2.65834e-12 4.57051e-12
-2.65834e-12 -2.6622e-14 -2.21524e-12
4.57051e-12 -2.21524e-12 4.9077e-12

-6.22026e-13 -2.65991e-12 2.87193e-12
-2.65991e-12 2.15353e-12 -2.17804e-12
2.87193e-12 -2.17804e-12 -5.23564e-15

2.11368e-12 -3.80555e-12 4.83072e-12
-3.80555e-12 3.96405e-12 -5.46438e-12
4.83072e-12 -5.46438e-12 7.2022e-12

9.03558e-12 5.31982e-12 -1.25286e-12
5.31982e-12 1.36615e-11 -2.31296e-13
-1.25286e-12 -2.31296e-13 3.94706e-12

-3.64988e-13 -9.42903e-30 1.5227e-12
-9.42903e-30 -2.67795e-12 2.3997e-12
1.5227e-12 2.3997e-12 -3.64988e-13

9.00896e-13 2.31296e-12 -1.83351e-12
2.31296e-12 9.00896e-13 -9.97466e-13
-1.83351e-12 -9.97466e-13 4.60164e-12

-1.33228e-12 2.19732e-12 -8.5411e-13
2.19732e-12 -8.69684e-13 5.54871e-12
-8.5411e-13 5.54871e-12 6.22341e-12

2.02853e-12 -3.77302e-12 1.69136e-12
-3.77302e-12 -2.1348e-12 1.15648e-13
1.69136e-12 1.15648e-13 -1.30235e-13

-5.97537e-13 1.07697e-12 3.49595e-12
1.07697e-12 1.05047e-11 -4.52956e-12
3.49595e-12 -4.52956e-12 2.33222e-12

-2.51396e-12 2.13949e-12 2.98758e-13
2.13949e-12 -9.91544e-12 1.6829e-29
2.98758e-13 1.6829e-29 -1.43457e-12

4.08874e-12 -1.64799e-12 9.90238e-13
-1.64799e-12 1.24154e-11 -5.85951e-12
9.90238e-13 -5.85951e-12 4.08874e-12

-2.1347e-12 -4.62593e-12 -2.42861e-12
-4.62593e-12 -1.67211e-12 -4.59702e-12
-2.42861e-12 -4.59702e-12 -1.20952e-12

-8.2419e-13 2.54426e-12 -1.59016e-12
2.54426e-12 -1.74938e-12 -4.03805e-12
-1.59016e-12 -4.03805e-12 -6.69992e-13

-3.22455e-12 -2.2696e-12 -9.29764e-12
-2.2696e-12 -3.22455e-12 -5.79446e-12
-9.29764e-12 -5.79446e-12 4.94792e-12

7.70682e-14 -1.01192e-12 -2.8382e-12
-1.01192e-12 2.39003e-12 1.79375e-12
-2.8382e-12 1.79375e-12 2.39003e-12

-3.71831e-12 2.45752e-12 1.59257e-12
2.45752e-12 -8.34424e-12 1.15648e-13
1.59257e-12 1.15648e-13 -3.25572e-12

-9.64413e-12 2.31296e-13 4.04769e-13
2.31296e-13 -4.5556e-12 6.45703e-13
4.04769e-13 6.45703e-13 -3.47622e-12

-2.15635e-12 5.7535e-12 3.9224e-12
5.7535e-12 -1.69376e-12 -4.79458e-13
3.9224e-12 -4.79458e-13 -1.38537e-12

-3.21866e-12 1.73472e-12 6.56063e-12
1.73472e-12 -4.60644e-12 6.44016e-12
6.56063e-12 6.44016e-12 6.36276e-13

-1.9431e-13 8.09538e-13 -3.32971e-12
8.09538e-13 -1.9431e-13 -1.72087e-12
-3.32971e-12 -1.72087e-12 2.68283e-13

1.20899e-12 2.31296e-13 5.18008e-13
2.31296e-13 2.59677e-12 1.34923e-13
5.18008e-13 1.34923e-13 1.97998e-12

1.85433e-12 6.36065e-13 5.30054e-14
6.36065e-13 -9.21232e-13 -3.82603e-12
5.30054e-14 -3.82603e-12 1.08334e-12

2.41718e-12 3.23589e-12 1.47933e-12
3.23589e-12 2.41718e-12 -4.63557e-12
1.47933e-12 -4.63557e-12 7.21002e-13

-1.07434e-12 2.71773e-12 4.77049e-13
2.71773e-12 -1.07434e-12 1.63594e-12
4.77049e-13 1.63594e-12 2.4722e-12

-6.86828e-13 -1.85037e-12 -4.55847e-12
-1.85037e-12 2.38358e-13 -3.28875e-13
-4.55847e-12 -3.28875e-13 8.55148e-13

-1.95052e-12 1.27213e-12 3.46945e-13
1.27213e-12 -5.62745e-13 2.04794e-13
3.46945e-13 2.04794e-13 3.60059e-12

-1.03889e-12 -2.31296e-12 4.50546e-13
-2.31296e-12 4.97482e-12 -1.04083e-12
4.50546e-13 -1.04083e-12 1.9469e-13

8.76336e-14 -3.5851e-12 2.90084e-12
-3.5851e-12 -8.37552e-13 -4.65966e-12
2.90084e-12 -4.65966e-12 1.93801e-12

5.46109e-12 -1.15648e-12 -1.32032e-12
-1.15648e-12 3.7257e-13 -1.99493e-12
-1.32032e-12 -1.99493e-12 1.45195e-12

1.15743e-12 8.67362e-13 5.58966e-12
8.67362e-13 3.0078e-12 -3.62967e-12
5.58966e-12 -3.62967e-12 6.40015e-12

5.82303e-12 -4.16334e-12 -8.9266e-13
-4.16334e-12 8.13599e-12 -3.85494e-13
-8.9266e-13 -3.85494e-13 3.04747e-12

-5.77028e-13 1.02638e-12 1.20467e-14
1.02638e-12 -1.14435e-13 -1.56607e-12
1.20467e-14 -1.56607e-12 3.8947e-12

-8.55594e-13 6.01371e-12 4.6452e-12
6.01371e-12 6.0833e-12 1.11793e-12
4.6452e-12 1.11793e-12 1.91996e-12

-1.26764e-12 -1.22515e-12 4.09347e-12
-1.22515e-12 -1.5608e-11 -8.86636e-13
4.09347e-12 -8.86636e-13 -2.50122e-12

-3.97918e-12 -1.15648e-12 -2.29369e-12
-1.15648e-12 1.10934e-12 4.33681e-13
-2.29369e-12 4.33681e-13 2.99577e-14

8.814e-13 3.75857e-13 -2.91048e-12
3.75857e-13 -4.37856e-14 -4.9536e-12
-2.91048e-12 -4.9536e-12 4.18807e-13

-2.14537e-12 -2.1684e-12 -2.72737e-12
-2.1684e-12 1.67597e-13 -8.19898e-12
-2.72737e-12 -8.19898e-12 7.10649e-12

-1.69088e-12 -5.31982e-12 3.80194e-12
-5.31982e-12 1.59493e-13 -6.5534e-13
3.80194e-12 -6.5534e-13 -1.38248e-12

-3.23509e-12 4.62593e-13 2.65027e-13
4.62593e-13 -3.23509e-12 5.78241e-14
2.65027e-13 5.78241e-14 -4.59531e-13

-3.40547e-12 1.38778e-12 1.49379e-13
1.38778e-12 -3.40547e-12 -6.74615e-14
1.49379e-13 -6.74615e-14 -7.84114e-13

-3.34018e-12 -2.31296e-13 -1.27213e-12
-2.31296e-13 2.21094e-12 2.89121e-13
-1.27213e-12 2.89121e-13 -8.73014e-13

4.03111e-12 1.32995e-12 4.04769e-13
1.32995e-12 -5.94819e-13 4.15611e-12
4.04769e-13 4.15611e-12 1.76169e-13

-2.0859e-12 -2.31296e-13 -1.92747e-12
-2.31296e-13 -2.54849e-12 1.34923e-12
-1.92747e-12 1.34923e-12 -3.89724e-13

1.48618e-12 4.46804e-12 2.51535e-12
4.46804e-12 1.94877e-12 2.68271e-12
2.51535e-12 2.68271e-12 7.15193e-13

1.59102e-12 -2.89121e-12 3.32489e-13
-2.89121e-12 4.82917e-12 1.56125e-12
3.32489e-13 1.56125e-12 1.89942e-12

-1.0059e-12 2.45752e-12 -3.96095e-12
2.45752e-12 4.54522e-12 -2.60209e-13
-3.96095e-12 -2.60209e-13 2.69485e-12

-8.65986e-13 3.46945e-13 -1.36128e-12
3.46945e-13 -4.03393e-13 2.01421e-12
-1.36128e-12 2.01421e-12 2.83476e-12

2.71758e-12 -4.74158e-12 3.7682e-12
-4.74158e-12 4.04619e-13 -5.1078e-13
3.7682e-12 -5.1078e-13 1.484e-12

4.96252e-12 1.85037e-12 -2.631e-12
1.85037e-12 1.72437e-12 -3.08395e-13
-2.631e-12 -3.08395e-13 2.81919e-14

-3.80687e-12 8.96274e-13 1.13239e-13
8.96274e-13 3.59462e-12 9.12778e-12
1.13239e-13 9.12778e-12 8.52894e-12

4.49692e-12 -2.31296e-13 4.48137e-13
-2.31296e-13 4.03433e-12 2.21659e-12
4.48137e-13 2.21659e-12 3.26334e-12

-4.15645e-12 -2.28405e-12 2.06239e-12
-2.28405e-12 4.69479e-13 -3.73929e-12
2.06239e-12 -3.73929e-12 -6.09905e-13

2.55818e-13 -1.61908e-12 5.69086e-12
-1.61908e-12 6.26953e-12 4.91505e-13
5.69086e-12 4.91505e-13 -5.25774e-14

2.40125e-13 5.20417e-13 9.05911e-13
5.20417e-13 1.6279e-12 -2.78158e-12
9.05911e-13 -2.78158e-12 1.6279e-12

4.31675e-12 1.28659e-12 -2.81893e-12
1.28659e-12 2.00378e-12 5.19935e-12
-2.81893e-12 5.19935e-12 4.16255e-12

4.1188e-13 -3.41162e-12 4.7464e-12
-3.41162e-12 4.11262e-12 -1.58053e-12
4.7464e-12 -1.58053e-12 2.26225e-12

-6.9397e-12 -3.90674e-12 -8.67362e-14
-3.90674e-12 -2.77636e-12 -3.09841e-12
-8.67362e-14 -3.09841e-12 -4.00994e-12

3.53356e-12 1.27213e-12 2.89121e-12
1.27213e-12 4.45875e-12 -4.09106e-12
2.89121e-12 -4.09106e-12 5.84653e-12

-2.09644e-12 2.23165e-13 -2.82374e-12
2.23165e-13 1.14172e-12 -4.46951e-12
-2.82374e-12 -4.46951e-12 1.29591e-12

3.06044e-12 3.00685e-12 9.21572e-13
3.00685e-12 3.52303e-12 3.03577e-12
9.21572e-13 3.03577e-12 4.44822e-12

-3.99583e-12 4.55365e-13 -2.66352e-12
4.55365e-13 -3.53324e-12 2.97794e-12
-2.66352e-12 2.97794e-12 -1.06608e-12

1.30031e-11 1.50343e-12 2.43825e-12
1.50343e-12 4.6764e-12 -1.87928e-12
2.43825e-12 -1.87928e-12 4.8306e-12

4.24613e-12 2.31296e-13 2.33947e-12
2.31296e-13 2.39576e-12 1.05529e-12
2.33947e-12 1.05529e-12 6.2507e-12

-1.02516e-12 2.65991e-12 -7.32439e-12
2.65991e-12 -9.81442e-12 -4.25971e-12
-7.32439e-12 -4.25971e-12 -3.33812e-12

1.78458e-13 2.63461e-12 -8.45678e-13
2.63461e-12 3.41661e-12 -8.91455e-13
-8.45678e-13 -8.91455e-13 4.34179e-12

1.64403e-11 -2.9418e-12 6.245e-12
-2.9418e-12 -7.61456e-12 -1.00036e-11
6.245e-12 -1.00036e-11 3.33348e-12

3.77877e-12 -2.89121e-13 3.95131e-12
-2.89121e-13 5.16655e-12 8.86636e-13
3.95131e-12 8.86636e-13 4.85815e-12

3.77761e-12 2.54426e-12 1.6769e-12
2.54426e-12 3.77761e-12 -2.65027e-12
1.6769e-12 -2.65027e-12 1.15625e-12

-3.41696e-12 9.25186e-13 -1.52752e-12
9.25186e-13 -1.10399e-12 1.78291e-13
-1.52752e-12 1.78291e-13 -7.95599e-13

4.41853e-12 4.40909e-13 1.86242e-12
4.40909e-13 2.10556e-12 3.30079e-12
1.86242e-12 3.30079e-12 4.72692e-12

2.87385e-12 6.79433e-13 8.43268e-14
6.79433e-13 5.6089e-13 -2.3997e-12
8.43268e-14 -2.3997e-12 3.49065e-12

-3.8124e-13 1.73472e-13 -2.35151e-12
1.73472e-13 4.24469e-12 -4.33681e-13
-2.35151e-12 -4.33681e-13 1.77753e-12

-8.5596e-12 9.25186e-13 2.00457e-12
9.25186e-13 4.393e-12 1.58053e-12
2.00457e-12 1.58053e-12 -1.46651e-12

-3.40959e-12 -5.9595e-12 1.84555e-12
-5.9595e-12 -2.02181e-12 4.09587e-13
1.84555e-12 4.09587e-13 -1.86761e-12

-9.97919e-13 -7.51714e-13 6.45703e-12
-7.51714e-13 2.24023e-12 -2.66955e-12
6.45703e-12 -2.66955e-12 3.31961e-12

-4.4056e-13 9.25186e-13 1.1083e-13
9.25186e-13 -2.29093e-12 7.6617e-13
1.1083e-13 7.6617e-13 1.40981e-12

-3.07738e-13 1.11311e-12 -8.37968e-12
1.11311e-12 -7.70331e-13 -9.22777e-13
-8.37968e-12 -9.22777e-13 3.39301e-12

2.61234e-12 -1.4456e-12 -1.0842e-12
-1.4456e-12 -2.01359e-12 -4.06696e-12
-1.0842e-12 -4.06696e-12 -2.16779e-12

1.48273e-12 -4.62593e-13 -2.52499e-12
-4.62593e-13 1.94532e-12 -3.93204e-12
-2.52499e-12 -3.93204e-12 -2.13444e-13

1.97916e-12 6.93889e-13 -2.89121e-13
6.93889e-13 4.75472e-12 -4.34645e-12
-2.89121e-13 -4.34645e-12 8.99775e-13

4.19312e-12 4.11997e-12 4.37295e-13
4.11997e-12 4.65571e-12 3.29597e-12
4.37295e-13 3.29597e-12 3.88473e-12

6.16815e-13 2.02384e-13 3.72966e-12
2.02384e-13 6.16815e-13 1.64678e-12
3.72966e-12 1.64678e-12 -3.08371e-13

1.17784e-12 -8.96274e-13 -9.54098e-13
-8.96274e-13 -2.06031e-12 2.74665e-12
-9.54098e-13 2.74665e-12 3.49081e-12

3.71161e-12 -2.28405e-12 2.52499e-12
-2.28405e-12 5.56198e-12 -3.69111e-12
2.52499e-12 -3.69111e-12 1.55284e-12

-5.06561e-12 -1.15648e-12 1.25286e-13
-1.15648e-12 -4.60301e-12 3.13214e-12
1.25286e-13 3.13214e-12 -1.82746e-12

2.71645e-12 1.40223e-12 -8.25921e-12
1.40223e-12 3.17904e-12 -3.84049e-12
-8.25921e-12 -3.84049e-12 5.49201e-12

-7.64146e-13 -9.25186e-13 5.05479e-12
-9.25186e-13 2.9366e-12 -8.26403e-13
5.05479e-12 -8.26403e-13 5.86635e-12

3.01226e-12 -2.54426e-12 4.36572e-12
-2.54426e-12 3.93745e-12 4.52956e-13
4.36572e-12 4.52956e-13 1.62448e-12

2.0742e-12 -1.24322e-12 2.95867e-12
-1.24322e-12 -1.16395e-12 3.55859e-12
2.95867e-12 3.55859e-12 -5.4716e-13

-4.99213e-12 -6.36065e-13 1.03602e-12
-6.36065e-13 -3.662e-13 -7.61351e-13
1.03602e-12 -7.61351e-13 1.02158e-12

-2.70301e-13 1.50343e-12 2.87193e-12
1.50343e-12 -2.58327e-12 7.70506e-12
2.87193e-12 7.70506e-12 -1.19549e-12

-5.79629e-13 -4.04769e-13 4.47173e-12
-4.04769e-13 1.27074e-12 -8.98683e-13
4.47173e-12 -8.98683e-13 4.66309e-12

3.44917e-13 1.07706e-27 4.3079e-12
1.07706e-27 -3.35583e-12 3.51282e-12
4.3079e-12 3.51282e-12 -3.35583e-12

1.05618e-12 -5.49329e-13 2.74544e-12
-5.49329e-13 -3.56975e-12 -8.48087e-13
2.74544e-12 -8.48087e-13 1.51877e-12

-7.05636e-13 2.5795e-13 -1.39501e-12
2.5795e-13 -7.05636e-13 -8.23994e-13
-1.39501e-12 -8.23994e-13 -5.51438e-13

8.56292e-12 -3.87422e-12 -1.17576e-12
-3.87422e-12 6.24996e-12 4.50546e-12
-1.17576e-12 4.50546e-12 2.85761e-12

-2.65964e-12 -1.61908e-12 -1.34923e-12
-1.61908e-12 1.5037e-12 1.86965e-12
-1.34923e-12 1.86965e-12 1.65789e-12

-7.70864e-13 -2.52981e-12 -1.13721e-12
-2.52981e-12 -1.69605e-12 -1.87928e-12
-1.13721e-12 -1.87928e-12 -4.62468e-13

-1.38045e-12 4.19024e-28 4.04769e-12
4.19024e-28 -1.38045e-12 -5.32464e-13
4.04769e-12 -5.32464e-13 -1.84304e-12

8.0569e-13 -6.15827e-12 5.5463e-12
-6.15827e-12 6.8194e-12 -1.98529e-12
5.5463e-12 -1.98529e-12 1.57668e-12

-6.47357e-12 1.61908e-12 9.44461e-13
1.61908e-12 -1.20247e-11 9.44461e-13
9.44461e-13 9.44461e-13 -1.53924e-12

-6.19987e-12 -5.31078e-12 1.25286e-13
-5.31078e-12 -1.11134e-12 -1.2902e-12
1.25286e-13 -1.2902e-12 -4.94553e-13

2.66237e-12 -1.46367e-12 1.87047e-12
-1.46367e-12 2.66237e-12 5.15117e-12
1.87047e-12 5.15117e-12 5.74632e-12

-3.81503e-12 1.35887e-12 9.25186e-13
1.35887e-12 -1.03947e-12 -3.08877e-12
9.25186e-13 -3.08877e-12 1.94112e-13

-1.35538e-12 5.78241e-14 2.86952e-12
5.78241e-14 -9.68206e-12 1.32995e-12
2.86952e-12 1.32995e-12 -1.04699e-12

2.01167e-12 -3.00685e-12 3.73929e-12
-3.00685e-12 6.23888e-13 4.08142e-12
3.73929e-12 4.08142e-12 1.61295e-13

4.94451e-12 -1.96602e-12 -1.29622e-12
-1.96602e-12 6.79488e-12 4.56811e-12
-1.29622e-12 4.56811e-12 2.93994e-12

1.21336e-12 4.7994e-12 4.04769e-13
4.7994e-12 -3.41257e-12 -3.95131e-13
4.04769e-13 -3.95131e-13 -4.8281e-13

5.92591e-12 8.16766e-13 -7.70988e-13
8.16766e-13 -8.78023e-14 1.19985e-12
-7.70988e-13 1.19985e-12 3.30455e-12

-1.35681e-12 -3.05022e-12 2.24068e-13
-3.05022e-12 -1.35681e-12 4.24044e-13
2.24068e-13 4.24044e-13 -1.20261e-12

1.88115e-12 1.59016e-12 -9.15548e-13
1.59016e-12 1.88115e-12 -1.55402e-12
-9.15548e-13 -1.55402e-12 5.73609e-12

-3.38875e-13 -3.00685e-12 2.40934e-13
-3.00685e-12 1.97409e-12 2.2696e-12
2.40934e-13 2.2696e-12 1.3573e-12

3.78443e-12 -1.85037e-12 2.73701e-12
-1.85037e-12 2.39665e-12 -4.33681e-14
2.73701e-12 -4.33681e-14 2.37881e-13

1.99784e-13 -4.62593e-12 4.04769e-13
-4.62593e-12 -3.50096e-12 3.52727e-12
4.04769e-13 3.52727e-12 1.99784e-13

2.05554e-12 -9.8301e-13 2.61534e-12
-9.8301e-13 -3.03298e-12 -3.561e-12
2.61534e-12 -3.561e-12 8.21957e-13

-1.10748e-12 -2.08167e-12 -4.385e-12
-2.08167e-12 -2.49526e-12 9.34823e-13
-4.385e-12 9.34823e-13 -3.36497e-13

3.9707e-12 -2.60209e-13 3.13214e-12
-2.60209e-13 3.04551e-12 3.82844e-12
3.13214e-12 3.82844e-12 2.12033e-12

9.2777e-13 -3.46945e-13 -1.70099e-12
-3.46945e-13 1.39036e-12 -4.40427e-12
-1.70099e-12 -4.40427e-12 -6.14206e-13

5.49679e-13 -2.08167e-12 1.33236e-12
-2.08167e-12 -3.75507e-13 -6.57749e-12
1.33236e-12 -6.57749e-12 3.63363e-12

-1.09434e-12 -8.09538e-13 2.59727e-12
-8.09538e-13 -1.55694e-12 4.46209e-12
2.59727e-12 4.46209e-12 9.10224e-13

5.69929e-12 -1.15648e-13 -1.98529e-12
-1.15648e-13 3.84892e-12 -2.15395e-12
-1.98529e-12 -2.15395e-12 2.30694e-12

1.94158e-12 2.42861e-12 1.40705e-12
2.42861e-12 3.79195e-12 1.4456e-14
1.40705e-12 1.4456e-14 2.55837e-12

-4.62394e-12 3.15141e-12 4.44282e-12
3.15141e-12 9.27173e-13 8.42305e-12
4.44282e-12 8.42305e-12 -3.06408e-13

2.86377e-12 1.38778e-12 6.07153e-13
1.38778e-12 5.17674e-12 -2.8647e-12
6.07153e-13 -2.8647e-12 5.48513e-12

2.46579e-12 1.96602e-12 -3.08395e-13
1.96602e-12 2.46579e-12 2.48162e-13
-3.08395e-13 2.48162e-13 3.69937e-12

-4.29885e-13 -3.93204e-12 -2.65991e-12
-3.93204e-12 -2.28026e-12 4.19225e-12
-2.65991e-12 4.19225e-12 1.72888e-12

2.38341e-13 2.08167e-12 9.63735e-13
2.08167e-12 -2.07462e-12 2.85266e-12
9.63735e-13 2.85266e-12 2.08871e-12

2.555e-12 -1.50343e-12 -1.37332e-13
-1.50343e-12 3.01759e-12 4.29826e-12
-1.37332e-13 4.29826e-12 2.86339e-12

2.51043e-12 4.62593e-13 -1.54198e-12
4.62593e-13 3.89821e-12 6.74615e-14
-1.54198e-12 6.74615e-14 4.3608e-12

7.12904e-13 1.34441e-12 2.89121e-13
1.34441e-12 1.1755e-12 -6.74615e-13
2.89121e-13 -6.74615e-13 8.67101e-13

4.85098e-12 4.03897e-28 -1.79737e-12
4.03897e-28 -7.00138e-13 4.89578e-12
-1.79737e-12 4.89578e-12 2.07542e-12

-3.86977e-12 -9.54098e-13 -1.42151e-12
-9.54098e-13 -1.69023e-13 1.69858e-13
-1.42151e-12 1.69858e-13 1.21876e-12

-1.79026e-12 -1.73472e-12 -1.33116e-12
-1.73472e-12 -4.02476e-13 4.73194e-12
-1.33116e-12 4.73194e-12 5.22709e-13

5.07675e-12 3.70074e-12 -4.27898e-12
3.70074e-12 -1.06514e-11 -1.76364e-12
-4.27898e-12 -1.76364e-12 -7.82758e-13

3.87462e-12 -2.31296e-13 -3.42126e-13
-2.31296e-13 2.48684e-12 4.66448e-12
-3.42126e-13 4.66448e-12 2.33264e-12

2.99125e-12 -4.62593e-13 -1.01674e-12
-4.62593e-13 2.06606e-12 -9.8301e-13
-1.01674e-12 -9.8301e-13 3.14545e-12

2.10371e-12 -3.46945e-13 5.7535e-12
-3.46945e-13 -6.71852e-13 2.65991e-12
5.7535e-12 2.65991e-12 6.11284e-12

1.8997e-12 2.19732e-12 -4.77049e-13
2.19732e-12 -1.80105e-12 -1.04083e-12
-4.77049e-13 -1.04083e-12 1.2829e-12

2.14911e-12 7.51714e-13 1.92747e-12
7.51714e-13 -1.55164e-12 -1.93711e-12
1.92747e-12 -1.93711e-12 2.4575e-12

-2.00133e-12 1.59739e-12 -2.60209e-12
1.59739e-12 -1.07614e-12 -2.87464e-12
-2.60209e-12 -2.87464e-12 -1.23034e-12

1.21509e-12 -1.38778e-12 -1.86242e-12
-1.38778e-12 3.52806e-12 4.5151e-12
-1.86242e-12 4.5151e-12 5.99522e-12

3.47426e-12 1.6769e-12 -2.58763e-12
1.6769e-12 1.16129e-12 3.88144e-12
-2.58763e-12 3.88144e-12 3.01166e-12

-1.02441e-13 -1.85037e-12 2.57076e-12
-1.85037e-12 -5.65356e-12 2.77556e-12
2.57076e-12 2.77556e-12 3.60151e-13

2.19638e-12 2.37079e-12 3.74411e-12
2.37079e-12 5.43453e-12 -2.2696e-12
3.74411e-12 -2.2696e-12 3.89256e-12

5.52545e-13 -4.85452e-12 9.15548e-13
-4.85452e-12 -3.72641e-13 -3.56582e-13
9.15548e-13 -3.56582e-13 1.94032e-12

5.90275e-13 -1.40946e-12 -9.47773e-13
-1.40946e-12 -7.97503e-13 -2.73701e-12
-9.47773e-13 -2.73701e-12 -4.89108e-13

-1.80579e-12 -4.62593e-13 -3.25261e-12
-4.62593e-13 -3.65616e-12 3.72966e-12
-3.25261e-12 3.72966e-12 8.15569e-13

-1.85797e-12 -2.70328e-12 2.12022e-13
-2.70328e-12 3.23056e-12 -2.33224e-12
2.12022e-13 -2.33224e-12 -7.59377e-15

-3.85018e-12 -6.86661e-13 -8.52906e-13
-6.86661e-13 -1.53721e-12 -8.7218e-13
-8.52906e-13 -8.7218e-13 3.13158e-13

-9.97546e-12 -1.04083e-12 4.62593e-13
-1.04083e-12 -5.34953e-12 -4.81868e-12
4.62593e-13 -4.81868e-12 -4.27015e-12

4.02756e-12 1.61908e-12 -1.61908e-12
1.61908e-12 1.71459e-12 -2.11058e-12
-1.61908e-12 -2.11058e-12 1.72614e-13

-6.4674e-12 8.09538e-13 3.85494e-14
8.09538e-13 -4.15444e-12 3.90313e-13
3.85494e-14 3.90313e-13 -3.53765e-12

6.85313e-12 -6.36065e-13 -2.31296e-12
-6.36065e-13 -5.48352e-13 -4.24044e-12
-2.31296e-12 -4.24044e-12 9.93625e-13

2.55179e-12 2.89121e-12 -7.61351e-13
2.89121e-12 -1.61154e-12 -2.69846e-13
-7.61351e-13 -2.69846e-13 -5.32161e-13

5.80405e-13 6.36065e-13 -8.09538e-13
6.36065e-13 -3.44781e-13 9.63735e-13
-8.09538e-13 9.63735e-13 3.81856e-12

4.88983e-12 4.62593e-13 -9.15548e-13
4.62593e-13 5.81501e-12 -5.20417e-13
-9.15548e-13 -5.20417e-13 3.19365e-12

2.32065e-12 -6.93889e-13 -1.754e-12
-6.93889e-13 9.32875e-13 3.18033e-13
-1.754e-12 3.18033e-13 -6.09102e-13

-3.08745e-12 -1.15648e-12 1.0312e-12
-1.15648e-12 2.46367e-12 9.39642e-13
1.0312e-12 9.39642e-13 3.04901e-13

-2.96546e-12 -1.85037e-12 -1.06011e-12
-1.85037e-12 -1.11509e-12 4.16334e-12
-1.06011e-12 4.16334e-12 -1.42348e-12

2.16692e-13 -1.09866e-12 -1.65281e-12
-1.09866e-12 2.06706e-12 7.15272e-13
-1.65281e-12 7.15272e-13 2.52966e-12

7.05166e-12 -6.245e-12 3.7682e-12
-6.245e-12 4.2761e-12 3.66219e-13
3.7682e-12 3.66219e-13 4.4303e-12

1.44859e-12 2.54426e-12 -1.20467e-13
2.54426e-12 6.53711e-12 -1.73472e-13
-1.20467e-13 -1.73472e-13 2.37377e-12

-9.63494e-12 -1.50343e-12 -4.68375e-12
-1.50343e-12 -3.62123e-12 -1.9082e-12
-4.68375e-12 -1.9082e-12 -2.69605e-12

-4.88707e-13 1.85037e-12 7.32439e-13
1.85037e-12 -4.88707e-13 -4.46209e-12
7.32439e-13 -4.46209e-12 2.82281e-13

-4.60656e-13 -2.631e-12 -1.41428e-12
-2.631e-12 -3.23621e-12 -2.25514e-12
-1.41428e-12 -2.25514e-12 -1.5226e-13

3.75833e-13 2.31296e-13 6.23537e-12
2.31296e-13 8.38426e-13 1.3673e-13
6.23537e-12 1.3673e-13 1.91781e-12

2.22098e-12 3.46945e-13 -1.63353e-12
3.46945e-13 3.60876e-12 7.22801e-14
-1.63353e-12 7.22801e-14 3.76296e-12

-1.44973e-12 1.73472e-13 -2.46114e-12
1.73472e-13 -3.7627e-12 9.20367e-13
-2.46114e-12 9.20367e-13 5.54836e-13

-3.07173e-12 -5.90664e-14 2.89121e-13
-5.90664e-14 -1.22136e-12 -2.59689e-12
2.89121e-13 -2.59689e-12 -9.12962e-13

-1.8593e-13 -2.32019e-12 -1.88892e-12
-2.32019e-12 -6.48523e-13 -3.38986e-12
-1.88892e-12 -3.38986e-12 -1.11112e-12

-1.15354e-12 1.38778e-12 2.89121e-14
1.38778e-12 1.15943e-12 -1.96602e-12
2.89121e-14 -1.96602e-12 1.00523e-12

2.11505e-12 -3.70074e-12 3.64292e-12
-3.70074e-12 -6.60509e-13 1.9082e-12
3.64292e-12 1.9082e-12 -1.58569e-12

1.1939e-12 1.38778e-12 1.28177e-12
1.38778e-12 2.11909e-12 -2.12985e-12
1.28177e-12 -2.12985e-12 -3.96768e-14

-2.27659e-12 2.98517e-12 -2.55902e-12
2.98517e-12 3.63726e-14 -4.3079e-12
-2.55902e-12 -4.3079e-12 -1.35141e-12

1.3864e-12 -2.77556e-12 -3.18033e-12
-2.77556e-12 5.54974e-12 1.92747e-14
-3.18033e-12 1.92747e-14 1.3864e-12

1.88054e-12 2.31296e-13 -8.09538e-13
2.31296e-13 3.0172e-14 -4.51269e-12
-8.09538e-13 -4.51269e-12 3.0172e-14

-1.49473e-12 1.38778e-12 1.57571e-12
1.38778e-12 -4.27029e-12 -4.61629e-12
1.57571e-12 -4.61629e-12 -1.64893e-12

8.19621e-12 7.51714e-13 -6.74615e-13
7.51714e-13 -2.44343e-12 9.39642e-14
-6.74615e-13 9.39642e-14 -1.36405e-12

3.71431e-13 2.31296e-12 8.81818e-13
2.31296e-12 1.29662e-12 -1.90338e-12
8.81818e-13 -1.90338e-12 4.53477e-12

2.57332e-12 5.73904e-12 1.37332e-13
5.73904e-12 3.9611e-12 5.58966e-13
1.37332e-13 5.58966e-13 2.88171e-12

-7.03827e-12 2.77556e-12 -1.8311e-12
2.77556e-12 -3.80012e-12 1.68654e-13
-1.8311e-12 1.68654e-13 -1.17876e-12

4.70977e-12 -8.09538e-13 4.60665e-12
-8.09538e-13 3.32199e-12 -3.49234e-12
4.60665e-12 -3.49234e-12 5.32656e-12

1.02054e-12 1.15648e-13 9.37714e-12
1.15648e-13 9.53581e-14 -2.8382e-12
9.37714e-12 -2.8382e-12 1.63733e-12

1.13844e-12 -1.61908e-12 2.06239e-12
-1.61908e-12 1.60103e-12 -6.46305e-12
2.06239e-12 -6.46305e-12 1.90943e-12

-1.96048e-12 -1.61908e-12 -2.68882e-12
-1.61908e-12 3.12804e-12 4.24044e-13
-2.68882e-12 4.24044e-13 1.98289e-13

5.15105e-12 -9.8301e-13 -3.94168e-12
-9.8301e-13 -8.6266e-13 3.00204e-12
-3.94168e-12 3.00204e-12 1.14191e-12

-4.50874e-12 2.57317e-12 6.36065e-13
2.57317e-12 -1.73318e-12 4.30067e-13
6.36065e-13 4.30067e-13 -1.88738e-12

7.75162e-12 6.93889e-13 -2.98758e-13
6.93889e-13 7.28903e-12 -4.17297e-12
-2.98758e-13 -4.17297e-12 2.81729e-12

3.63719e-13 1.15648e-13 2.84302e-13
1.15648e-13 8.26312e-13 -8.50496e-13
2.84302e-13 -8.50496e-13 2.67668e-12

1.88805e-12 2.31296e-13 -4.53919e-12
2.31296e-13 -3.66307e-12 8.32185e-12
-4.53919e-12 8.32185e-12 -1.3501e-12

3.97265e-12 3.81639e-12 -2.13949e-12
3.81639e-12 1.1971e-12 -6.96299e-13
-2.13949e-12 -6.96299e-13 2.89327e-12

-8.12017e-12 2.31296e-13 6.35102e-12
2.31296e-13 -5.80721e-12 -2.22623e-12
6.35102e-12 -2.22623e-12 -3.03165e-12

-2.37443e-12 -7.40149e-12 2.53462e-12
-7.40149e-12 -3.76221e-12 3.14178e-12
2.53462e-12 3.14178e-12 -8.32452e-13

-1.37118e-12 -6.93889e-13 9.34823e-13
-6.93889e-13 -2.29637e-12 1.08902e-12
9.34823e-13 1.08902e-12 -1.67958e-12

-1.13779e-12 -1.19733e-12 2.48644e-12
-1.19733e-12 3.02555e-12 -4.46065e-12
2.48644e-12 -4.46065e-12 -9.83592e-13

3.26097e-12 -6.93889e-13 1.81182e-12
-6.93889e-13 4.18616e-12 -1.48415e-12
1.81182e-12 -1.48415e-12 2.33579e-12

4.42564e-12 3.46945e-13 -1.48415e-12
3.46945e-13 -2.00294e-13 -4.59461e-12
-1.48415e-12 -4.59461e-12 -3.54491e-13

2.56502e-12 4.62593e-13 -5.97516e-13
4.62593e-13 -6.73129e-13 -4.70785e-12
-5.97516e-13 -4.70785e-12 1.33144e-12

6.58346e-12 -5.49329e-13 -3.00685e-12
-5.49329e-13 1.95753e-12 1.25286e-13
-3.00685e-12 1.25286e-13 7.23954e-13

-4.08907e-13 2.08167e-12 -3.98023e-12
2.08167e-12 3.29184e-12 2.35151e-12
-3.98023e-12 2.35151e-12 1.28727e-12

5.83545e-12 -1.47451e-12 1.77327e-12
-1.47451e-12 2.13471e-12 -2.3997e-12
1.77327e-12 -2.3997e-12 1.67211e-12

2.18529e-12 9.25186e-13 4.77049e-13
9.25186e-13 1.7227e-12 -6.36065e-13
4.77049e-13 -6.36065e-13 3.34921e-13

9.55149e-13 1.23599e-12 -4.16334e-12
1.23599e-12 -8.95223e-13 1.06011e-13
-4.16334e-12 1.06011e-13 -1.04942e-12

-8.58964e-13 7.51714e-13 4.00914e-12
7.51714e-13 -1.32156e-12 4.40909e-12
4.00914e-12 4.40909e-12 -8.79759e-14

-1.75373e-12 4.04769e-13 1.88892e-12
4.04769e-13 3.79739e-12 9.15548e-14
1.88892e-12 9.15548e-14 1.63862e-12

9.41819e-13 -1.61546e-12 -3.67138e-12
-1.61546e-12 4.79226e-13 3.66219e-13
-3.67138e-12 3.66219e-13 1.70831e-13

3.59026e-12 5.49329e-12 -2.82374e-12
5.49329e-12 8.21619e-12 -4.39463e-12
-2.82374e-12 -4.39463e-12 3.12766e-12

5.01748e-12 1.15648e-13 -2.08167e-12
1.15648e-13 3.16711e-12 3.32489e-13
-2.08167e-12 3.32489e-13 1.31674e-12

1.58915e-12 -1.01192e-12 -8.67362e-14
-1.01192e-12 -1.18641e-12 4.15069e-12
-8.67362e-14 4.15069e-12 -2.61219e-13

8.60962e-12 2.94903e-12 1.00228e-12
2.94903e-12 -6.42242e-13 -1.4456e-13
1.00228e-12 -1.4456e-13 2.59591e-12

5.28005e-12 6.93889e-13 1.85037e-12
6.93889e-13 3.89227e-12 -4.84759e-12
1.85037e-12 -4.84759e-12 6.54117e-13

-4.36977e-12 3.75857e-13 2.12022e-13
3.75857e-13 -6.69026e-13 -1.16853e-13
2.12022e-13 -1.16853e-13 -9.77422e-13

1.06673e-12 -1.83411e-13 8.28692e-12
-1.83411e-13 -3.0966e-12 7.70988e-14
8.28692e-12 7.70988e-14 1.68352e-12

2.59317e-12 -9.25186e-13 -5.49329e-13
-9.25186e-13 6.29392e-12 5.20417e-13
-5.49329e-13 5.20417e-13 2.28478e-12

3.0569e-12 3.06468e-12 2.54426e-12
3.06468e-12 8.60801e-12 -3.19478e-12
2.54426e-12 -3.19478e-12 2.7485e-12

-2.26406e-12 -2.19732e-12 3.01649e-12
-2.19732e-12 -4.13688e-13 1.54198e-13
3.01649e-12 1.54198e-13 9.74091e-13

4.62281e-12 1.27213e-12 -2.631e-12
1.27213e-12 -3.122e-15 4.12961e-12
-2.631e-12 4.12961e-12 2.15565e-12

-1.98692e-12 -4.71213e-28 -2.65991e-12
-4.71213e-28 7.8864e-13 -9.13139e-13
-2.65991e-12 -9.13139e-13 2.02222e-12

2.49575e-12 -4.68375e-12 3.46945e-13
-4.68375e-12 2.03316e-12 -3.88385e-12
3.46945e-13 -3.88385e-12 2.80415e-12

-2.6508e-12 4.39463e-12 -1.00228e-12
4.39463e-12 1.51254e-12 -7.999e-13
-1.00228e-12 -7.999e-13 -1.26302e-12

-3.37672e-14 -5.16803e-13 -3.04179e-14
-5.16803e-13 -3.37672e-14 -4.385e-12
-3.04179e-14 -4.385e-12 1.04562e-12

-7.65086e-13 -2.00093e-12 -4.55365e-12
-2.00093e-12 -1.69027e-12 8.14657e-14
-4.55365e-12 8.14657e-14 1.54788e-12

-1.46788e-12 1.73472e-13 1.86724e-12
1.73472e-13 -5.42692e-13 3.83085e-12
1.86724e-12 3.83085e-12 3.00385e-12

2.9409e-12 1.04806e-13 8.52906e-13
1.04806e-13 2.4783e-12 5.6988e-12
8.52906e-13 5.6988e-12 5.56226e-12

6.92144e-13 -4.62593e-13 9.63735e-14
-4.62593e-13 -2.33042e-13 -2.76592e-12
9.63735e-14 -2.76592e-12 5.37946e-13

-2.08193e-12 -1.85037e-12 -4.57051e-12
-1.85037e-12 -6.94147e-13 1.84073e-12
-4.57051e-12 1.84073e-12 4.70277e-12

1.93386e-12 1.85037e-12 1.98529e-12
1.85037e-12 -3.15466e-12 4.04769e-13
1.98529e-12 4.04769e-13 1.16288e-12

1.50473e-12 -5.56557e-13 -2.51053e-12
-5.56557e-13 1.04213e-12 1.84013e-13
-2.51053e-12 1.84013e-13 2.12152e-12

-1.34983e-13 -2.65991e-12 -2.33224e-12
-2.65991e-12 3.27609e-13 9.49279e-13
-2.33224e-12 9.49279e-13 1.40699e-12

-2.96364e-12 -2.89121e-13 1.5998e-12
-2.89121e-13 -1.88084e-13 2.84422e-12
1.5998e-12 2.84422e-12 -1.57586e-12

5.13994e-12 7.44485e-13 2.59245e-12
7.44485e-13 2.36439e-12 1.34923e-12
2.59245e-12 1.34923e-12 2.82698e-12

3.7234e-12 1.79255e-12 -1.0842e-14
1.79255e-12 7.88673e-12 1.92747e-14
-1.0842e-14 1.92747e-14 3.8776e-12

2.63522e-12 -6.93889e-13 4.25971e-12
-6.93889e-13 1.71004e-12 -7.70988e-14
4.25971e-12 -7.70988e-14 1.40164e-12

-3.55691e-12 -5.92697e-13 -6.26428e-13
-5.92697e-13 -2.63172e-12 6.74615e-14
-6.26428e-13 6.74615e-14 -6.27152e-13

-1.22392e-12 -5.78241e-13 -3.23333e-12
-5.78241e-13 1.63854e-13 3.5851e-12
-3.23333e-12 3.5851e-12 6.26447e-13

-2.77282e-12 -1.07706e-27 -3.21888e-12
-1.07706e-27 3.24089e-12 -1.9082e-12
-3.21888e-12 -1.9082e-12 -4.59852e-13

1.32208e-12 1.15648e-13 2.9153e-13
1.15648e-13 8.59485e-13 4.81868e-14
2.9153e-13 4.81868e-14 1.93887e-12

4.27402e-12 -8.09538e-13 1.93711e-12
-8.09538e-13 2.88624e-12 -2.44307e-12
1.93711e-12 -2.44307e-12 3.34883e-12

-1.97061e-12 -1.85037e-12 -1.93229e-12
-1.85037e-12 3.4235e-13 3.46945e-13
-1.93229e-12 3.46945e-13 6.50745e-13

6.05931e-12 -1.56125e-12 -6.02335e-13
-1.56125e-12 -2.26737e-12 3.85494e-14
-6.02335e-13 3.85494e-14 1.12498e-12

1.09293e-12 -3.00685e-12 4.52956e-13
-3.00685e-12 4.79367e-12 4.55847e-12
4.52956e-13 4.55847e-12 1.86392e-12

-6.79526e-13 2.26237e-12 -3.67183e-12
2.26237e-12 -6.79526e-13 4.90541e-12
-3.67183e-12 4.90541e-12 8.62451e-13

5.38027e-12 2.37079e-12 6.28355e-12
2.37079e-12 -1.55862e-12 1.4456e-14
6.28355e-12 1.4456e-14 1.21694e-12

3.51223e-12 1.15648e-13 1.49379e-12
1.15648e-13 1.66186e-12 -1.95638e-12
1.49379e-12 -1.95638e-12 2.12445e-12

7.51195e-13 4.62593e-12 -3.30561e-12
4.62593e-12 4.91453e-12 -2.04312e-12
-3.30561e-12 -2.04312e-12 2.90996e-12

1.62837e-12 4.49583e-12 -3.85494e-13
4.49583e-12 4.40393e-12 -3.77302e-12
-3.85494e-13 -3.77302e-12 2.40593e-13

8.1041e-13 9.25186e-13 2.07203e-12
9.25186e-13 -2.89033e-12 4.48137e-13
2.07203e-12 4.48137e-13 8.1041e-13

-3.31384e-12 -1.32995e-12 2.3744e-12
-1.32995e-12 -7.93977e-12 4.43318e-13
2.3744e-12 4.43318e-13 -1.30927e-12

-2.58455e-12 3.5851e-12 5.11743e-12
3.5851e-12 -7.67307e-12 -3.63328e-12
5.11743e-12 -3.63328e-12 -8.88375e-13

-4.90887e-12 9.03502e-13 -1.39742e-13
9.03502e-13 2.49261e-12 3.80254e-12
-1.39742e-13 3.80254e-12 4.95977e-12

-6.99721e-13 1.62811e-12 7.34848e-13
1.62811e-12 3.46362e-12 9.35136e-12
7.34848e-13 9.35136e-12 4.85139e-12

4.24687e-12 -2.42861e-12 -5.49329e-13
-2.42861e-12 -3.79062e-13 -4.05733e-12
-5.49329e-13 -4.05733e-12 -3.79062e-13

7.42461e-13 2.89121e-12 4.18261e-12
2.89121e-12 -4.80865e-12 9.63735e-14
4.18261e-12 9.63735e-14 -1.26211e-12

1.91386e-12 -9.25186e-13 2.38043e-12
-9.25186e-13 -3.99104e-13 -3.06468e-12
2.38043e-12 -3.06468e-12 6.34894e-14

2.49744e-12 -1.89735e-13 4.39463e-12
-1.89735e-13 6.47065e-13 -8.80613e-13
4.39463e-12 -8.80613e-13 2.80583e-12

-8.8214e-13 1.96602e-12 -1.3685e-12
1.96602e-12 4.30461e-14 1.80218e-12
-1.3685e-12 1.80218e-12 -1.11152e-13

-1.75324e-12 -1.4456e-12 1.68654e-12
-1.4456e-12 -3.60361e-12 2.25514e-12
1.68654e-12 2.25514e-12 -8.28053e-13

1.79554e-12 1.85037e-12 4.96324e-13
1.85037e-12 -2.3678e-12 2.65027e-12
4.96324e-13 2.65027e-12 1.48715e-12

-1.93064e-12 -2.20454e-12 2.30122e-12
-2.20454e-12 -7.48176e-12 -2.65991e-12
2.30122e-12 -2.65991e-12 -3.88664e-13

-1.7786e-12 -1.15648e-13 4.57533e-12
-1.15648e-13 -2.70378e-12 -1.39742e-13
4.57533e-12 -1.39742e-13 -1.7786e-12

-1.34987e-12 -2.89121e-12 1.92747e-14
-2.89121e-12 -4.12543e-12 3.56582e-13
1.92747e-14 3.56582e-13 -5.78881e-13

-6.00833e-12 2.08167e-12 -2.94421e-12
2.08167e-12 -5.08314e-12 -1.9082e-12
-2.94421e-12 -1.9082e-12 -1.074e-12

-3.40269e-12 -6.03539e-13 -3.56582e-12
-6.03539e-13 2.61102e-12 -3.1996e-12
-3.56582e-12 -3.1996e-12 -1.24392e-12

-2.77926e-12 7.17019e-12 8.26885e-12
7.17019e-12 9.21482e-13 -2.21659e-13
8.26885e-12 -2.21659e-13 -1.54568e-12

-2.44143e-12 -1.93711e-12 -1.57089e-12
-1.93711e-12 -8.91773e-12 1.34923e-13
-1.57089e-12 1.34923e-13 -1.36205e-12

-1.17894e-12 3.46945e-13 -2.40934e-14
3.46945e-13 1.59662e-12 -4.35608e-12
-2.40934e-14 -4.35608e-12 -5.62149e-13

1.14605e-12 -6.93889e-13 5.78241e-14
-6.93889e-13 1.14605e-12 -6.69796e-13
5.78241e-14 -6.69796e-13 5.29261e-13

-1.03212e-12 3.23815e-12 -2.38043e-12
3.23815e-12 -5.65805e-12 -6.84252e-13
-2.38043e-12 -6.84252e-13 -1.0693e-13

-6.37017e-12 -1.02638e-12 1.4456e-14
-1.02638e-12 -4.05721e-12 -9.39642e-13
1.4456e-14 -9.39642e-13 -1.89844e-12

1.22248e-12 -2.54426e-12 -3.6646e-12
-2.54426e-12 5.84841e-12 -1.69617e-12
-3.6646e-12 -1.69617e-12 1.99347e-12

-3.71034e-12 1.34632e-28 5.01142e-13
1.34632e-28 -3.24775e-12 -1.70822e-12
5.01142e-13 -1.70822e-12 -1.85997e-12

3.90471e-12 -3.93204e-12 3.2767e-12
-3.93204e-12 1.59174e-12 -4.3609e-13
3.2767e-12 -4.3609e-13 3.59631e-12

-1.1952e-12 -1.6769e-12 -3.66822e-12
-1.6769e-12 1.58035e-12 -4.63075e-12
-3.66822e-12 -4.63075e-12 -8.86809e-13

3.72389e-12 2.89121e-12 4.85723e-12
2.89121e-12 6.96204e-12 -4.60665e-12
4.85723e-12 -4.60665e-12 4.95747e-12

-1.36224e-11 -1.38778e-12 4.18261e-12
-1.38778e-12 -2.05753e-12 3.88385e-12
4.18261e-12 3.88385e-12 -2.82852e-12

3.58747e-12 -9.1073e-13 4.50546e-12
-9.1073e-13 3.58747e-12 6.50521e-13
4.50546e-12 6.50521e-13 4.05006e-12

-1.91872e-12 -2.31296e-13 -1.38778e-12
-2.31296e-13 3.94248e-13 4.23562e-12
-1.38778e-12 4.23562e-12 1.01104e-12

5.62699e-12 2.74665e-13 -7.37257e-13
2.74665e-13 2.38884e-12 2.10395e-12
-7.37257e-13 2.10395e-12 4.70181e-12

2.30759e-12 3.46945e-13 7.22801e-14
3.46945e-13 -2.31833e-12 -1.92747e-12
7.22801e-14 -1.92747e-12 3.54118e-12

-4.22132e-12 -8.09538e-13 1.51788e-12
-8.09538e-13 1.3298e-12 5.60894e-12
1.51788e-12 5.60894e-12 1.3298e-12

-2.65263e-13 -1.15648e-12 3.43572e-12
-1.15648e-12 6.59923e-13 2.90084e-12
3.43572e-12 2.90084e-12 2.0477e-12

-2.61229e-12 -2.05998e-13 -4.62894e-12
-2.05998e-13 -5.85044e-12 1.06975e-12
-4.62894e-12 1.06975e-12 -2.76649e-12

2.76814e-13 -1.15648e-12 -2.29128e-12
-1.15648e-12 5.82793e-12 -4.77049e-12
-2.29128e-12 -4.77049e-12 2.43558e-12

6.18323e-13 6.4763e-12 -7.70988e-14
6.4763e-12 -8.63354e-12 -1.94675e-12
-7.70988e-14 -1.94675e-12 -2.77402e-12

-2.08079e-13 4.62593e-13 2.35874e-12
4.62593e-13 -2.98364e-12 -9.92647e-13
2.35874e-12 -9.92647e-13 1.00316e-13

3.31604e-12 -5.84024e-12 2.64063e-12
-5.84024e-12 -1.30989e-12 2.90084e-12
2.64063e-12 2.90084e-12 3.86281e-13

4.45213e-13 -4.04769e-13 -2.62377e-12
-4.04769e-13 1.83299e-12 6.93889e-13
-2.62377e-12 6.93889e-13 1.83299e-12

7.13329e-12 -2.54426e-12 -2.33224e-12
-2.54426e-12 2.04477e-12 -2.64545e-12
-2.33224e-12 -2.64545e-12 6.56986e-13

1.62391e-12 -2.19732e-12 -4.53919e-12
-2.19732e-12 -2.26465e-13 2.01903e-12
-4.53919e-12 2.01903e-12 1.7781e-12

-1.54798e-12 2.13949e-12 -2.60209e-13
2.13949e-12 -1.08538e-12 -3.32248e-12
-2.60209e-13 -3.32248e-12 -1.08538e-12

1.9335e-12 1.4456e-13 -2.69846e-12
1.4456e-13 -2.69243e-12 3.86458e-12
-2.69846e-12 3.86458e-12 4.70905e-12

2.4722e-12 4.27898e-12 3.98505e-12
4.27898e-12 1.08442e-12 3.47908e-12
3.98505e-12 3.47908e-12 1.54701e-12

6.31612e-12 -6.36065e-13 5.22826e-12
-6.36065e-13 3.54057e-12 1.16853e-13
5.22826e-12 1.16853e-13 4.61995e-12

-1.76289e-14 -6.93889e-13 -9.8301e-13
-6.93889e-13 -9.42815e-13 5.05961e-13
-9.8301e-13 5.05961e-13 -2.48479e-12

2.48396e-12 1.16371e-12 -7.6617e-13
1.16371e-12 2.94655e-12 -5.63785e-13
-7.6617e-13 -5.63785e-13 3.10075e-12

-1.72329e-12 1.09866e-12 4.32235e-12
1.09866e-12 -3.57366e-12 6.21609e-13
4.32235e-12 6.21609e-13 -3.3551e-13

9.63707e-13 2.31296e-12 -1.73472e-13
2.31296e-12 5.12704e-12 -1.32995e-12
-1.73472e-13 -1.32995e-12 2.50568e-12

-6.69929e-12 1.15648e-12 -4.00914e-12
1.15648e-12 9.95406e-12 -1.64799e-12
-4.00914e-12 -1.64799e-12 5.48004e-13

4.65352e-12 -4.62593e-13 -1.68654e-12
-4.62593e-13 -4.35e-13 8.14356e-13
-1.68654e-12 8.14356e-13 2.75931e-14

5.15808e-12 2.31296e-12 -4.24044e-13
2.31296e-12 2.38252e-12 3.43572e-12
-4.24044e-13 3.43572e-12 2.07412e-12

-1.22068e-12 -7.93275e-13 5.44029e-12
-7.93275e-13 6.29688e-13 -8.33631e-13
5.44029e-12 -8.33631e-13 1.09228e-12

-3.18097e-12 -5.20417e-13 1.92747e-14
-5.20417e-13 -3.18097e-12 -5.54148e-13
1.92747e-14 -5.54148e-13 1.13657e-12

-3.38813e-14 -6.36065e-13 -4.55124e-12
-6.36065e-13 1.81649e-12 3.22851e-13
-4.55124e-12 3.22851e-13 2.12489e-12

-1.04072e-11 -3.3538e-12 -4.62593e-13
-3.3538e-12 -1.15536e-12 2.21659e-13
-4.62593e-13 2.21659e-13 -1.00116e-12

-3.38572e-12 -3.93204e-12 1.40705e-12
-3.93204e-12 -6.10161e-13 5.17044e-12
1.40705e-12 5.17044e-12 -1.07275e-12

-1.43345e-12 5.20417e-13 -9.48075e-13
5.20417e-13 -4.20901e-12 -3.85494e-13
-9.48075e-13 -3.85494e-13 -1.43345e-12

-2.35687e-12 7.51714e-13 3.95613e-12
7.51714e-13 -1.43168e-12 -4.09467e-12
3.95613e-12 -4.09467e-12 -5.06498e-13

8.02047e-13 -6.50521e-13 -4.5398e-12
-6.50521e-13 4.96538e-12 2.51535e-12
-4.5398e-12 2.51535e-12 6.47849e-13

1.53523e-12 1.2649e-12 -3.2767e-13
1.2649e-12 1.07264e-12 3.3538e-12
-3.2767e-13 3.3538e-12 7.64241e-13

-6.11059e-13 4.48137e-13 -3.86458e-12
4.48137e-13 7.7672e-13 2.5539e-12
-3.86458e-12 2.5539e-12 -1.48466e-13

-2.87495e-12 -1.79255e-12 8.51942e-12
-1.79255e-12 3.63204e-13 8.14356e-13
8.51942e-12 8.14356e-13 6.716e-13

1.38447e-13 3.32489e-13 -1.8582e-12
3.32489e-13 4.30178e-12 -2.69846e-12
-1.8582e-12 -2.69846e-12 3.3766e-12

-9.35041e-12 -3.93204e-12 4.55847e-12
-3.93204e-12 -1.94892e-12 -2.59245e-12
4.55847e-12 -2.59245e-12 -3.0283e-12

7.0468e-13 1.6769e-12 -4.51028e-12
1.6769e-12 -2.99606e-12 2.98758e-12
-4.51028e-12 2.98758e-12 -6.63086e-14

5.23655e-12 -5.78241e-14 3.8453e-12
-5.78241e-14 3.38617e-12 1.8311e-13
3.8453e-12 1.8311e-13 2.46099e-12

-5.75631e-12 -8.67362e-13 4.99697e-12
-8.67362e-13 -2.05557e-12 1.06011e-13
4.99697e-12 1.06011e-13 -2.36397e-12

3.52543e-12 4.33681e-14 -3.28634e-12
4.33681e-14 -1.75312e-13 -4.39945e-12
-3.28634e-12 -4.39945e-12 -3.2951e-13

-1.70395e-12 2.89121e-13 2.09612e-12
2.89121e-13 2.92198e-12 -4.8765e-12
2.09612e-12 -4.8765e-12 1.22581e-12

1.52246e-12 1.27213e-12 -2.6069e-12
1.27213e-12 1.05987e-12 -5.87879e-12
-2.6069e-12 -5.87879e-12 1.3468e-13

1.34196e-12 6.59195e-12 -5.1849e-12
6.59195e-12 -7.9099e-12 4.7223e-13
-5.1849e-12 4.7223e-13 -8.16807e-13

-1.45533e-12 5.89806e-12 2.91771e-12
5.89806e-12 -6.75505e-14 -8.35558e-12
2.91771e-12 -8.35558e-12 7.64233e-12

6.66332e-12 5.78241e-13 -3.75857e-13
5.78241e-13 2.96258e-12 -4.81868e-13
-3.75857e-13 -4.81868e-13 4.65875e-12

1.10746e-12 -6.77626e-13 2.67602e-12
-6.77626e-13 -2.13069e-12 2.09612e-12
2.67602e-12 2.09612e-12 3.26623e-12

-1.94075e-12 4.62593e-13 5.24754e-12
4.62593e-13 3.14777e-12 3.72966e-12
5.24754e-12 3.72966e-12 6.38185e-14

1.63518e-11 4.08383e-12 -9.36329e-13
4.08383e-12 -3.07711e-12 4.48498e-12
-9.36329e-13 4.48498e-12 1.61976e-11

1.68904e-11 -4.74158e-12 1.88049e-12
-4.74158e-12 -2.07588e-12 -2.76712e-12
1.88049e-12 -2.76712e-12 1.76614e-11

1.09667e-11 -1.14347e-11 -2.09733e-12
-1.14347e-11 5.41556e-12 1.8823e-12
-2.09733e-12 1.8823e-12 1.71346e-11

9.29375e-12 1.12432e-11 4.63466e-12
1.12432e-11 5.59301e-12 -4.14045e-12
4.63466e-12 -4.14045e-12 1.66952e-11

-2.92072e-12 5.49329e-13 -3.65256e-12
5.49329e-13 1.83586e-11 3.25261e-14
-3.65256e-12 3.25261e-14 1.80502e-11

3.10795e-12 7.08345e-12 -2.7611e-12
7.08345e-12 1.37476e-11 9.81805e-13
-2.7611e-12 9.81805e-13 1.62147e-11

2.30696e-12 -7.69061e-12 1.49499e-12
-7.69061e-12 1.20214e-11 -2.77797e-12
1.49499e-12 -2.77797e-12 1.38718e-11

-1.0127e-11 -9.25186e-13 -2.35151e-12
-9.25186e-13 -3.18808e-12 -5.34873e-13
-2.35151e-12 -5.34873e-13 -2.87968e-12

1.55122e-12 9.25186e-13 -1.25286e-13
9.25186e-13 -6.77545e-12 8.52906e-13
-1.25286e-13 8.52906e-13 -1.84112e-12

-1.41921e-11 -1.03361e-12 6.58231e-12
-1.03361e-12 -1.7021e-12 -1.82507e-12
6.58231e-12 -1.82507e-12 -5.24864e-12

4.74533e-12 2.02384e-12 2.1684e-12
2.02384e-12 5.20792e-12 1.30104e-13
2.1684e-12 1.30104e-13 1.50718e-12

5.6603e-13 -1.73472e-12 1.04806e-12
-1.73472e-12 -3.59156e-13 -4.71267e-12
1.04806e-12 -4.71267e-12 2.2622e-12

-1.53547e-12 2.60209e-12 3.71038e-13
2.60209e-12 -1.07287e-12 -1.20467e-13
3.71038e-13 -1.20467e-13 -1.47687e-13

1.82915e-12 1.56125e-12 2.7081e-12
1.56125e-12 -9.46412e-13 4.67412e-12
2.7081e-12 4.67412e-12 9.03959e-13

-4.37516e-12 1.79255e-12 6.74133e-12
1.79255e-12 -4.83776e-12 -1.86001e-12
6.74133e-12 -1.86001e-12 -9.82815e-13

5.63061e-13 2.25514e-12 -3.23454e-13
2.25514e-12 2.87603e-12 4.49101e-12
-3.23454e-13 4.49101e-12 1.48825e-12

1.61107e-12 -1.73472e-12 1.61908e-12
-1.73472e-12 3.46144e-12 -2.31296e-12
1.61908e-12 -2.31296e-12 1.30267e-12

9.51454e-13 -1.43115e-12 1.89103e-12
-1.43115e-12 1.41405e-12 -4.33681e-13
1.89103e-12 -4.33681e-13 2.03084e-12

-1.47183e-11 2.31296e-12 2.40934e-13
2.31296e-12 -5.00388e-12 3.73929e-12
2.40934e-13 3.73929e-12 -4.54128e-12

-4.35904e-13 -2.55872e-12 -3.72002e-12
-2.55872e-12 9.51875e-13 1.97566e-12
-3.72002e-12 1.97566e-12 1.56867e-12

4.43502e-14 1.79255e-12 1.17576e-12
1.79255e-12 -4.11899e-12 -1.77327e-12
1.17576e-12 -1.77327e-12 -2.26861e-12

-2.05589e-12 1.85037e-12 -1.99493e-12
1.85037e-12 2.10745e-12 4.38861e-12
-1.99493e-12 4.38861e-12 1.33646e-12

-5.77147e-13 1.95518e-12 5.01142e-12
1.95518e-12 -1.50233e-12 -1.1083e-13
5.01142e-12 -1.1083e-13 -2.11912e-12

5.75628e-12 1.37332e-13 7.4834e-12
1.37332e-13 -2.57428e-13 8.7218e-13
7.4834e-12 8.7218e-13 3.59363e-13

6.31033e-12 -4.04769e-12 -1.41669e-12
-4.04769e-12 3.07218e-12 2.21659e-12
-1.41669e-12 2.21659e-12 2.96624e-13

-1.23468e-12 1.73472e-12 2.31296e-12
1.73472e-12 6.15691e-13 -3.85494e-13
2.31296e-12 -3.85494e-13 -1.55297e-13

-7.13176e-12 -2.37079e-12 4.96324e-12
-2.37079e-12 -6.55458e-13 -8.7218e-13
4.96324e-12 -8.7218e-13 -6.55458e-13

1.03363e-12 -1.16732e-12 4.81386e-12
-1.16732e-12 -3.12971e-12 7.999e-13
4.81386e-12 7.999e-13 1.65042e-12

-1.51348e-13 -1.50343e-12 2.38524e-12
-1.50343e-12 8.17533e-12 2.26478e-12
2.38524e-12 2.26478e-12 3.70359e-12

6.92232e-12 -8.81818e-13 2.43825e-12
-8.81818e-13 2.29639e-12 3.84952e-12
2.43825e-12 3.84952e-12 3.22158e-12

1.00456e-12 -3.75857e-13 -1.22394e-12
-3.75857e-13 7.9375e-14 -6.96299e-13
-1.22394e-12 -6.96299e-13 1.31296e-12

2.82988e-12 3.3538e-12 5.47402e-12
3.3538e-12 -4.08268e-13 1.01674e-12
5.47402e-12 1.01674e-12 2.98408e-12

-4.78166e-12 2.89121e-12 -4.33681e-13
2.89121e-12 -3.39388e-12 9.25186e-13
-4.33681e-13 9.25186e-13 -1.6977e-12

-4.37799e-13 8.09538e-13 6.45703e-12
8.09538e-13 4.18813e-12 1.1083e-13
6.45703e-12 1.1083e-13 1.41257e-12

1.15401e-12 1.04083e-12 3.93686e-12
1.04083e-12 4.85476e-12 5.21863e-12
3.93686e-12 5.21863e-12 -2.33766e-13

4.92139e-12 1.09866e-12 1.39742e-13
1.09866e-12 5.38398e-12 2.98758e-13
1.39742e-13 2.98758e-13 4.3046e-12

1.97835e-12 2.31296e-13 -3.31525e-12
2.31296e-13 1.51576e-12 -7.85444e-13
-3.31525e-12 -7.85444e-13 1.05317e-12

1.04422e-12 4.57759e-12 4.63737e-12
4.57759e-12 1.9694e-12 -5.48365e-12
4.63737e-12 -5.48365e-12 2.1236e-12

8.13077e-13 6.21609e-13 4.62563e-12
6.21609e-13 -2.88767e-12 1.73472e-13
4.62563e-12 1.73472e-13 3.50484e-13

-3.48877e-12 1.96602e-12 2.63582e-12
1.96602e-12 -2.56358e-12 -2.97794e-12
2.63582e-12 -2.97794e-12 -2.10099e-12

-2.06381e-12 3.26706e-12 -4.50305e-12
3.26706e-12 -5.30196e-12 -4.45246e-12
-4.50305e-12 -4.45246e-12 -8.30225e-13

1.51459e-12 4.10551e-12 -3.98023e-12
4.10551e-12 2.90237e-12 -4.86686e-13
-3.98023e-12 -4.86686e-13 2.81006e-13

-9.14299e-12 -1.9082e-12 -1.57089e-12
-1.9082e-12 -2.66669e-12 -3.37307e-13
-1.57089e-12 -3.37307e-13 -1.5873e-12

5.97979e-13 2.89121e-13 -8.10742e-13
2.89121e-13 4.29872e-12 6.50521e-12
-8.10742e-13 6.50521e-12 3.21934e-12

3.99634e-13 2.05998e-12 3.61913e-12
2.05998e-12 -5.25552e-13 4.82831e-12
3.61913e-12 4.82831e-12 1.47902e-12

2.72094e-12 8.09538e-13 -6.61604e-12
8.09538e-13 2.72094e-12 -6.74615e-14
-6.61604e-12 -6.74615e-14 1.48736e-12

-3.66948e-12 -1.82146e-12 -2.17804e-12
-1.82146e-12 3.12607e-14 -1.09083e-12
-2.17804e-12 -1.09083e-12 4.93854e-13

6.90793e-14 3.5851e-12 -3.66219e-13
3.5851e-12 -8.25759e-12 -4.81868e-14
-3.66219e-13 -4.81868e-14 -2.39316e-13

-1.85194e-12 -2.1937e-12 -3.57546e-12
-2.1937e-12 4.16176e-12 2.66955e-12
-3.57546e-12 2.66955e-12 -4.64166e-13

-3.90284e-12 -5.31982e-12 -4.90541e-12
-5.31982e-12 2.60492e-13 6.04262e-12
-4.90541e-12 6.04262e-12 -9.73089e-13

4.65767e-12 -1.33989e-12 4.53618e-12
-1.33989e-12 3.73249e-12 4.45246e-12
4.53618e-12 4.45246e-12 6.81644e-12

-3.82002e-12 3.3538e-12 -9.54098e-13
3.3538e-12 -1.1928e-13 -5.87878e-13
-9.54098e-13 -5.87878e-13 -1.1928e-13

-2.00901e-12 -3.64292e-12 -4.62593e-12
-3.64292e-12 3.5421e-12 2.41898e-12
-4.62593e-12 2.41898e-12 -3.1284e-13

2.30652e-13 -3.03577e-13 -3.5598e-13
-3.03577e-13 2.54362e-12 1.8311e-13
-3.5598e-13 1.8311e-13 3.8485e-13

-1.58689e-12 3.29597e-12 -4.34645e-12
3.29597e-12 -3.43726e-12 -1.05529e-12
-4.34645e-12 -1.05529e-12 -2.51207e-12

-6.56159e-13 -9.25186e-13 1.27936e-12
-9.25186e-13 7.3162e-13 -7.70988e-13
1.27936e-12 -7.70988e-13 2.69027e-13

3.98205e-12 -3.61401e-14 -4.38018e-12
-3.61401e-14 7.43903e-13 9.1073e-13
-4.38018e-12 9.1073e-13 8.60798e-12

2.79412e-12 -1.50343e-12 -6.45462e-12
-1.50343e-12 2.79412e-12 -1.8311e-12
-6.45462e-12 -1.8311e-12 2.02313e-12

-8.65011e-13 -2.42861e-12 4.9536e-12
-2.42861e-12 -2.25279e-12 2.69364e-12
4.9536e-12 2.69364e-12 -9.40228e-14

-1.33122e-12 -3.23815e-12 -1.38718e-12
-3.23815e-12 -6.88233e-12 -3.45499e-12
-1.38718e-12 -3.45499e-12 4.0657e-12

-2.92938e-11 -1.31261e-11 -1.5227e-12
-1.31261e-11 -2.00419e-11 -1.85134e-11
-1.5227e-12 -1.85134e-11 -1.23321e-11

-4.73798e-11 2.89121e-12 7.86408e-12
2.89121e-12 -3.43347e-12 -1.30683e-11
7.86408e-12 -1.30683e-11 -9.13878e-12

-2.19695e-12 2.96349e-12 8.67362e-14
2.96349e-12 -2.65954e-12 5.04034e-12
8.67362e-14 5.04034e-12 -9.63365e-13

1.33846e-12 -1.17817e-12 -5.21863e-12
-1.17817e-12 -9.74501e-13 -1.1083e-12
-5.21863e-12 -1.1083e-12 1.18427e-12

-2.76137e-12 -2.25514e-12 3.57546e-12
-2.25514e-12 -3.68656e-12 5.47643e-12
3.57546e-12 5.47643e-12 -6.02604e-13

7.92849e-12 5.78241e-13 -2.62136e-12
5.78241e-13 4.69034e-12 -7.60146e-13
-2.62136e-12 -7.60146e-13 5.61553e-12

3.78483e-11 -7.40149e-12 5.97516e-13
-7.40149e-12 -4.71021e-12 1.0418e-11
5.97516e-13 1.0418e-11 7.47141e-12

2.08279e-11 -1.06396e-11 -3.37307e-12
-1.06396e-11 4.17455e-12 -1.06011e-13
-3.37307e-12 -1.06011e-13 3.09516e-12

4.39315e-12 -2.81667e-12 4.48137e-12
-2.81667e-12 6.92402e-13 4.04996e-12
4.48137e-12 4.04996e-12 2.23438e-12

1.52721e-12 2.13949e-12 -4.65966e-12
2.13949e-12 -2.17354e-12 -1.94675e-12
-4.65966e-12 -1.94675e-12 6.0202e-13

7.28552e-13 -2.16524e-12 6.4751e-14
-2.16524e-12 -2.97219e-12 4.24044e-13
6.4751e-14 4.24044e-13 1.11761e-13

-1.02657e-12 -5.78241e-12 -7.36053e-12
-5.78241e-12 -1.02657e-12 -1.04806e-12
-7.36053e-12 -1.04806e-12 7.4543e-12

-6.68704e-13 -1.15648e-12 1.20467e-12
-1.15648e-12 7.19075e-13 -5.46438e-12
1.20467e-12 -5.46438e-12 1.02285e-13

-1.4124e-11 1.15648e-12 -6.37993e-12
1.15648e-12 -3.02179e-12 -6.26428e-13
-6.37993e-12 -6.26428e-13 -3.48438e-12

6.15145e-12 6.14381e-13 -6.64977e-13
6.14381e-13 1.98811e-12 -4.53739e-12
-6.64977e-13 -4.53739e-12 -3.24851e-13

-6.98242e-12 -2.31296e-13 -4.71267e-12
-2.31296e-13 1.80685e-12 -2.60209e-13
-4.71267e-12 -2.60209e-13 -1.5855e-12

-1.41968e-11 -9.25186e-13 -5.20417e-13
-9.25186e-13 -6.79534e-12 1.0071e-12
-5.20417e-13 1.0071e-12 -6.64114e-12

2.42722e-12 -4.91505e-12 -5.5981e-12
-4.91505e-12 4.74018e-12 -1.103e-11
-5.5981e-12 -1.103e-11 1.13707e-11

7.25582e-13 -2.31296e-13 -1.92747e-12
-2.31296e-13 -2.97516e-12 2.62136e-12
-1.92747e-12 2.62136e-12 -1.58738e-12

-1.20568e-12 2.61654e-12 3.73447e-12
2.61654e-12 -7.68198e-12 6.44739e-12
3.73447e-12 6.44739e-12 4.90495e-13

2.15456e-12 3.96095e-12 4.51028e-12
3.96095e-12 1.22937e-12 -2.5539e-13
4.51028e-12 -2.5539e-13 2.30876e-12

8.22412e-13 1.6769e-12 2.5539e-12
1.6769e-12 -3.34092e-12 1.92747e-14
2.5539e-12 1.92747e-14 8.22412e-13

3.53464e-13 2.04262e-28 5.93179e-12
2.04262e-28 -1.9595e-12 -8.67362e-13
5.93179e-12 -8.67362e-13 -5.71722e-13

-4.00792e-13 4.62593e-13 -2.12022e-12
4.62593e-13 -2.25116e-12 -2.31296e-13
-2.12022e-12 -2.31296e-13 1.29538e-12

-2.36986e-12 2.77556e-12 5.21863e-12
2.77556e-12 -6.5332e-12 -4.48137e-12
5.21863e-12 -4.48137e-12 -1.13628e-12

5.30548e-12 6.93889e-13 -3.37307e-12
6.93889e-13 -7.08229e-13 -5.41619e-12
-3.37307e-12 -5.41619e-12 9.87945e-13

1.78299e-12 -2.78279e-13 -5.23188e-12
-2.78279e-13 -2.84294e-12 -8.19175e-14
-5.23188e-12 -8.19175e-14 6.71731e-12

2.29951e-12 1.01192e-12 -1.78773e-12
1.01192e-12 -2.78901e-12 -8.67362e-13
-1.78773e-12 -8.67362e-13 4.14989e-12

-4.23341e-13 7.73398e-13 8.73385e-14
7.73398e-13 -4.58668e-12 2.01421e-12
8.73385e-14 2.01421e-12 -1.50272e-12

4.36907e-12 1.27213e-12 2.08167e-12
1.27213e-12 1.13092e-12 1.87928e-13
2.08167e-12 1.87928e-13 9.76722e-13

5.19177e-12 1.73472e-13 6.02335e-13
1.73472e-13 2.8788e-12 -1.39742e-13
6.02335e-13 -1.39742e-13 1.95362e-12

-1.08308e-12 -1.38778e-12 4.98733e-13
-1.38778e-12 -8.48457e-12 4.54883e-12
4.98733e-13 4.54883e-12 -3.55025e-12

-4.88317e-13 3.5851e-12 -3.31284e-12
3.5851e-12 6.45058e-12 -3.74893e-12
-3.31284e-12 -3.74893e-12 1.05366e-12

5.82774e-12 -4.91505e-13 4.56811e-12
-4.91505e-13 1.6644e-12 5.78241e-14
4.56811e-12 5.78241e-14 1.9728e-12

-5.49227e-12 6.36065e-13 -1.17817e-12
6.36065e-13 -4.56708e-12 -2.20695e-12
-1.17817e-12 -2.20695e-12 8.29833e-13

2.60019e-12 -9.25186e-13 3.73447e-12
-9.25186e-13 -6.37956e-13 1.91301e-12
3.73447e-12 1.91301e-12 5.83834e-12

-7.92995e-15 1.18539e-12 4.71507e-12
1.18539e-12 -1.8583e-12 3.81639e-12
4.71507e-12 3.81639e-12 7.63058e-13

3.85354e-13 2.31296e-12 -1.19503e-12
2.31296e-12 -3.77798e-12 2.26478e-13
-1.19503e-12 2.26478e-13 -5.39832e-13

2.86918e-12 2.31296e-13 4.00914e-12
2.31296e-13 1.94399e-12 -2.30574e-12
4.00914e-12 -2.30574e-12 2.71498e-12

-5.24361e-12 1.73472e-13 2.52499e-12
1.73472e-13 -4.31842e-12 2.28164e-12
2.52499e-12 2.28164e-12 -2.93064e-12

-2.23983e-12 2.60209e-12 -2.7611e-12
2.60209e-12 5.35727e-13 -6.65821e-12
-2.7611e-12 -6.65821e-12 6.24104e-12

-9.18922e-13 -6.93889e-13 -7.01117e-12
-6.93889e-13 1.85664e-12 3.67183e-12
-7.01117e-12 3.67183e-12 6.23054e-13

1.64331e-12 2.65991e-12 -5.65713e-12
2.65991e-12 4.41887e-12 2.3997e-12
-5.65713e-12 2.3997e-12 2.2601e-12

-8.09926e-14 -1.61908e-12 4.14406e-12
-1.61908e-12 -4.70692e-12 5.49329e-13
4.14406e-12 5.49329e-13 8.44193e-13

-2.90211e-12 1.76364e-12 -1.68353e-12
1.76364e-12 -9.84101e-12 3.5851e-12
-1.68353e-12 3.5851e-12 -4.34951e-13

-7.15445e-12 -3.9736e-12 3.46945e-13
-3.9736e-12 -1.14074e-12 -1.77448e-12
3.46945e-13 -1.77448e-12 -6.13579e-14

-1.10777e-11 2.2696e-12 -2.98758e-12
2.2696e-12 -6.91438e-12 7.51714e-13
-2.98758e-12 7.51714e-13 -3.83043e-12

1.74443e-12 1.15648e-13 3.29597e-12
1.15648e-13 -4.26928e-12 3.65256e-12
3.29597e-12 3.65256e-12 2.02449e-13

2.87304e-12 2.31296e-12 1.00228e-12
2.31296e-12 -2.21548e-12 7.70988e-14
1.00228e-12 7.70988e-14 2.41045e-12

-4.70843e-13 -2.89121e-12 -3.51522e-12
-2.89121e-12 -4.70843e-13 -3.81639e-12
-3.51522e-12 -3.81639e-12 4.15509e-12

4.21928e-12 -5.00179e-12 3.61401e-15
-5.00179e-12 2.64237e-11 -8.28812e-13
3.61401e-15 -8.28812e-13 7.45743e-12

-7.3977e-13 -1.37286e-11 1.35032e-13
-1.37286e-11 -2.77177e-13 -3.75857e-12
1.35032e-13 -3.75857e-12 8.02206e-13

-8.73979e-12 -2.31296e-13 2.04312e-12
-2.31296e-13 -2.53931e-11 -7.25693e-12
2.04312e-12 -7.25693e-12 -5.96423e-12

2.26983e-12 1.21431e-12 1.92386e-12
1.21431e-12 4.19457e-13 5.54148e-12
1.92386e-12 5.54148e-12 6.12477e-12

1.58047e-12 -3.70074e-12 -8.24957e-12
-3.70074e-12 -4.89583e-12 1.44078e-12
-8.24957e-12 1.44078e-12 -1.65768e-12

3.30723e-12 5.60894e-12 -8.50376e-12
5.60894e-12 -1.78129e-12 -4.81868e-13
-8.50376e-12 -4.81868e-13 6.85872e-13

-1.14682e-11 -9.25186e-13 4.04769e-13
-9.25186e-13 -5.45447e-12 5.78241e-13
4.04769e-13 5.78241e-13 -2.52472e-12

-2.89608e-13 5.05961e-13 3.2767e-13
5.05961e-13 2.02336e-12 9.06875e-12
3.2767e-13 9.06875e-12 9.43973e-13

-6.3581e-12 -4.16334e-12 3.93686e-12
-4.16334e-12 -2.06985e-11 2.12985e-12
3.93686e-12 2.12985e-12 -3.58254e-12

-2.42026e-12 -4.97287e-12 -3.29597e-12
-4.97287e-12 1.28049e-12 -2.93939e-12
-3.29597e-12 -2.93939e-12 9.72093e-13

4.37388e-12 -1.38778e-12 6.98708e-13
-1.38778e-12 -3.95279e-12 5.78241e-13
6.98708e-13 5.78241e-13 2.10544e-13

1.71609e-12 -2.02384e-12 2.52258e-12
-2.02384e-12 6.80461e-12 7.90263e-13
2.52258e-12 7.90263e-13 7.90899e-13

-1.23209e-11 1.96602e-12 -1.06975e-12
1.96602e-12 -2.60644e-12 2.26478e-13
-1.06975e-12 2.26478e-13 -3.68582e-12

4.51838e-12 -1.17094e-12 -5.53606e-12
-1.17094e-12 -1.95792e-12 -3.4839e-12
-5.53606e-12 -3.4839e-12 6.06036e-12

-4.06342e-12 1.85037e-12 7.21838e-12
1.85037e-12 -1.28786e-12 2.20695e-12
7.21838e-12 2.20695e-12 -3.62672e-13

-3.49843e-12 -6.93889e-13 4.77049e-12
-6.93889e-13 -2.11065e-12 1.94675e-12
4.77049e-12 1.94675e-12 -2.41905e-12

-2.25558e-12 3.70074e-12 -1.92747e-13
3.70074e-12 9.30924e-12 -4.81868e-13
-1.92747e-13 -4.81868e-13 6.74174e-13

1.06969e-12 -1.90277e-12 -4.65002e-12
-1.90277e-12 5.69562e-12 -4.6565e-12
-4.65002e-12 -4.6565e-12 8.47117e-12

9.16766e-13 7.17019e-12 1.27213e-12
7.17019e-12 9.16766e-13 7.70988e-14
1.27213e-12 7.70988e-14 2.99976e-13

1.95448e-12 -3.75857e-12 -8.25921e-12
-3.75857e-12 1.0293e-12 -4.68134e-12
-8.25921e-12 -4.68134e-12 9.20177e-12

4.02928e-12 1.50343e-12 1.01192e-13
1.50343e-12 3.2854e-13 -4.0766e-12
1.01192e-13 -4.0766e-12 -4.42448e-13

-3.24148e-12 4.45246e-12 6.7076e-12
4.45246e-12 -4.62925e-12 -2.49126e-12
6.7076e-12 -2.49126e-12 -3.08728e-12

2.77954e-12 8.09538e-13 5.68604e-13
8.09538e-13 1.39176e-12 1.1107e-12
5.68604e-13 1.1107e-12 3.39633e-12

-5.88956e-12 -6.93889e-13 -1.807e-12
-6.93889e-13 -1.00529e-11 2.69846e-13
-1.807e-12 2.69846e-13 -4.19339e-12

3.48741e-12 -3.46945e-13 -1.57089e-12
-3.46945e-13 1.63704e-12 1.17817e-12
-1.57089e-12 1.17817e-12 1.79124e-12

-2.1072e-13 1.85037e-12 1.56968e-12
1.85037e-12 -3.91146e-12 3.66219e-13
1.56968e-12 3.66219e-13 -1.2901e-12

-3.15818e-12 -2.31296e-12 -2.77556e-12
-2.31296e-12 -2.23299e-12 4.60665e-12
-2.77556e-12 4.60665e-12 -3.8262e-13

1.26152e-11 -3.23815e-12 4.31753e-12
-3.23815e-12 4.28849e-12 -7.32439e-13
4.31753e-12 -7.32439e-13 4.59688e-12

-9.63651e-12 -7.63278e-12 4.99215e-12
-7.63278e-12 -9.17392e-12 8.67362e-14
4.99215e-12 8.67362e-14 -3.9312e-12

-7.79815e-13 6.36065e-13 -1.37091e-12
6.36065e-13 4.30871e-12 5.38728e-12
-1.37091e-12 5.38728e-12 1.99574e-12

-5.29604e-12 3.00685e-12 9.30968e-12
3.00685e-12 -9.92197e-12 5.30054e-14
9.30968e-12 5.30054e-14 -2.36629e-12

-5.1571e-12 -2.54426e-12 -6.43775e-12
-2.54426e-12 8.56605e-13 -8.86636e-13
-6.43775e-12 -8.86636e-13 -2.07315e-12

-8.86087e-12 -5.49329e-13 -1.71545e-12
-5.49329e-13 2.24137e-12 -6.35583e-12
-1.71545e-12 -6.35583e-12 1.16198e-12

-3.23707e-12 1.64799e-12 -4.83795e-12
1.64799e-12 -1.3867e-12 1.02879e-12
-4.83795e-12 1.02879e-12 -6.15707e-13

5.50952e-12 -3.61401e-13 -2.75749e-12
-3.61401e-13 -6.5179e-12 -4.54401e-12
-2.75749e-12 -4.54401e-12 9.98125e-12

4.90214e-12 2.06721e-12 -5.52461e-12
2.06721e-12 -9.43824e-12 -4.09587e-14
-5.52461e-12 -4.09587e-14 1.23036e-11

4.08568e-12 -5.89806e-12 3.72122e-12
-5.89806e-12 -3.7784e-12 1.13239e-13
3.72122e-12 1.13239e-13 1.41085e-11

2.06356e-12 -1.85037e-12 -8.67362e-14
-1.85037e-12 6.75779e-13 1.92747e-12
-8.67362e-14 1.92747e-12 6.75779e-13

5.25261e-12 2.19732e-12 4.64761e-12
2.19732e-12 -2.98507e-13 8.43268e-14
4.64761e-12 8.43268e-14 1.06495e-11

4.09034e-12 5.05961e-12 9.50183e-13
5.05961e-12 -6.5493e-12 1.82387e-12
9.50183e-13 1.82387e-12 1.10292e-11

-8.2736e-13 -1.92446e-13 -4.61147e-12
-1.92446e-13 -2.67773e-12 1.41187e-12
-4.61147e-12 1.41187e-12 -3.64767e-13

-4.48162e-12 -5.66676e-12 6.52449e-12
-5.66676e-12 1.53209e-12 -2.71352e-12
6.52449e-12 -2.71352e-12 1.32511e-11

-1.43952e-12 2.47198e-12 -4.34163e-12
2.47198e-12 4.57418e-12 3.00685e-12
-4.34163e-12 3.00685e-12 7.19242e-13

-5.90898e-12 -2.31296e-13 2.06239e-12
-2.31296e-13 -3.57866e-13 -2.40934e-13
2.06239e-12 -2.40934e-13 -4.94705e-14

-1.13068e-12 8.29776e-12 -4.52715e-12
8.29776e-12 -2.05497e-13 -4.58015e-12
-4.52715e-12 -4.58015e-12 9.35476e-12

1.36021e-12 -1.05529e-12 1.7299e-12
-1.05529e-12 6.91133e-12 -2.62136e-12
1.7299e-12 -2.62136e-12 1.66861e-12

3.34485e-12 -4.45246e-12 -2.69123e-12
-4.45246e-12 1.03189e-12 -1.93952e-12
-2.69123e-12 -1.93952e-12 1.05921e-11

7.18848e-13 -4.33681e-12 6.04623e-12
-4.33681e-12 -1.17712e-11 -2.73821e-12
6.04623e-12 -2.73821e-12 7.50354e-12

2.92862e-12 -5.92697e-13 2.83338e-12
-5.92697e-13 1.54084e-12 -2.5298e-13
2.83338e-12 -2.5298e-13 8.01714e-12

4.86694e-12 4.25007e-12 -3.70918e-12
4.25007e-12 -4.38492e-12 2.84784e-12
-3.70918e-12 2.84784e-12 1.2731e-11

2.73457e-12 2.21539e-12 3.703e-12
2.21539e-12 -2.81654e-12 -7.69543e-12
3.703e-12 -7.69543e-12 6.28112e-12

1.40665e-12 -4.78495e-12 1.90037e-12
-4.78495e-12 -1.8315e-12 3.39235e-12
1.90037e-12 3.39235e-12 2.17764e-12

1.56064e-12 1.61908e-12 2.8647e-12
1.61908e-12 4.79879e-12 -4.68616e-12
2.8647e-12 -4.68616e-12 6.64916e-12

6.89113e-12 -3.28875e-12 3.75917e-12
-3.28875e-12 3.65298e-12 -1.50584e-12
3.75917e-12 -1.50584e-12 9.0499e-12

-7.67149e-12 -1.7806e-12 1.89374e-12
-1.7806e-12 4.35592e-12 1.02519e-11
1.89374e-12 1.02519e-11 1.11406e-11

-2.54665e-12 1.73472e-12 -7.26656e-12
1.73472e-12 3.46706e-12 6.26428e-14
-7.26656e-12 6.26428e-14 -2.33682e-13

-7.57634e-13 -1.86121e-12 -7.57737e-13
-1.86121e-12 -1.22023e-12 -1.25286e-13
-7.57737e-13 -1.25286e-13 2.17212e-12

5.46467e-13 2.57317e-12 -1.26731e-12
2.57317e-12 4.24721e-12 -5.42222e-12
-1.26731e-12 -5.42222e-12 1.02609e-11

-9.66236e-12 2.94903e-12 -5.19453e-12
2.94903e-12 -3.64865e-12 4.35126e-12
-5.19453e-12 4.35126e-12 -3.64865e-12

-4.24988e-12 1.88651e-12 -5.43426e-12
1.88651e-12 3.15161e-12 -7.51714e-13
-5.43426e-12 -7.51714e-13 9.9363e-12

1.41084e-12 -4.62593e-12 -3.66219e-12
-4.62593e-12 8.81232e-12 2.89121e-12
-3.66219e-12 2.89121e-12 3.10701e-12

2.02741e-12 -2.74665e-12 2.21659e-13
-2.74665e-12 1.10222e-12 2.33224e-12
2.21659e-13 2.33224e-12 2.18161e-12

-1.23672e-12 -6.07153e-12 2.75146e-12
-6.07153e-12 6.13653e-13 4.58136e-12
2.75146e-12 4.58136e-12 1.31037e-11

-1.30149e-12 1.38778e-12 -1.02397e-14
1.38778e-12 -8.24038e-12 -1.00879e-11
-1.02397e-14 -1.00879e-11 5.32901e-12

-2.82022e-12 7.14128e-12 1.88772e-12
7.14128e-12 -1.43244e-12 -3.62485e-12
1.88772e-12 -3.62485e-12 1.01324e-11

7.1834e-13 -4.10551e-12 -9.15548e-13
-4.10551e-12 -2.9824e-12 -9.18922e-12
-9.15548e-13 -9.18922e-12 7.65723e-12

-1.80875e-12 1.24535e-27 3.86458e-12
1.24535e-27 5.13014e-12 7.22801e-13
3.86458e-12 7.22801e-13 1.73779e-12

7.51088e-12 -5.05961e-12 1.73472e-13
-5.05961e-12 7.97348e-12 4.52956e-12
1.73472e-13 4.52956e-12 1.18878e-12

-4.2485e-12 5.29758e-12 -2.63566e-13
5.29758e-12 2.2278e-12 -1.31068e-12
-2.63566e-13 -1.31068e-12 -2.24393e-12

-6.1219e-12 -2.54426e-12 2.00457e-12
-2.54426e-12 2.3484e-11 9.06875e-12
2.00457e-12 9.06875e-12 3.74675e-12

-6.46732e-13 1.85037e-12 -9.92647e-13
1.85037e-12 -5.27266e-12 4.7223e-12
-9.92647e-13 4.7223e-12 -1.57192e-12

9.08232e-12 -4.85723e-12 6.42089e-12
-4.85723e-12 3.91509e-11 3.85494e-14
6.42089e-12 3.85494e-14 1.06243e-11

-1.66848e-11 5.08852e-12 -1.94675e-12
5.08852e-12 -8.35812e-12 9.89756e-12
-1.94675e-12 9.89756e-12 -7.27873e-12

-1.55225e-11 -4.62593e-13 -9.5988e-12
-4.62593e-13 -4.8829e-12 -9.12657e-12
-9.5988e-12 -9.12657e-12 -3.95771e-12

1.31594e-12 3.42158e-12 -3.45233e-12
3.42158e-12 4.55409e-12 -4.22116e-12
-3.45233e-12 -4.22116e-12 1.00755e-12

4.1643e-12 -3.46945e-12 -6.46425e-12
-3.46945e-12 -2.7746e-12 -1.69858e-12
-6.46425e-12 -1.69858e-12 5.08948e-12

-3.03263e-12 2.08167e-12 -5.60894e-12
2.08167e-12 8.99478e-12 6.49558e-12
-5.60894e-12 6.49558e-12 2.05516e-13

-6.86253e-13 2.31296e-13 5.16562e-12
2.31296e-13 4.86486e-12 -4.19225e-12
5.16562e-12 -4.19225e-12 -6.86253e-13

1.5948e-11 3.1225e-12 2.35151e-12
3.1225e-12 7.15875e-12 -4.80904e-12
2.35151e-12 -4.80904e-12 5.30838e-12

1.35128e-11 -1.27213e-12 1.48415e-12
-1.27213e-12 4.26094e-12 8.40136e-12
1.48415e-12 8.40136e-12 5.03193e-12

9.07022e-13 2.86229e-12 1.03361e-12
2.86229e-12 1.24718e-11 -1.58053e-12
1.03361e-12 -1.58053e-12 1.83221e-12

-2.5894e-11 2.31296e-12 -1.22973e-11
2.31296e-12 -2.76439e-12 9.3386e-12
-1.22973e-11 9.3386e-12 -3.38118e-12

8.24791e-12 -1.85037e-12 8.28812e-13
-1.85037e-12 6.39754e-12 -7.70988e-13
8.28812e-13 -7.70988e-13 4.54716e-12

-2.12724e-12 -1.15648e-12 8.3604e-12
-1.15648e-12 5.27425e-12 8.79408e-14
8.3604e-12 8.79408e-14 7.43301e-12

-1.3807e-12 2.31296e-12 -5.56075e-12
2.31296e-12 4.69667e-13 2.87193e-12
-5.56075e-12 2.87193e-12 -6.09716e-13

8.65534e-13 5.14635e-12 3.73929e-12
5.14635e-12 4.10368e-12 -1.74677e-12
3.73929e-12 -1.74677e-12 9.19221e-12

-1.01274e-12 3.00685e-12 5.57762e-12
3.00685e-12 -5.50148e-13 -3.82603e-12
5.57762e-12 -3.82603e-12 7.31393e-12

-3.78315e-13 3.3538e-12 6.57508e-12
3.3538e-12 2.85984e-12 -6.44739e-12
6.57508e-12 -6.44739e-12 7.48577e-12

7.8865e-12 -4.29344e-12 6.26428e-14
-4.29344e-12 1.99139e-11 -7.70988e-13
6.26428e-14 -7.70988e-13 7.11551e-12

-5.98801e-12 1.4456e-12 2.47981e-12
1.4456e-12 -4.60023e-12 -5.20417e-13
2.47981e-12 -5.20417e-13 -3.98344e-12

-1.10747e-11 9.25186e-13 -4.04769e-13
9.25186e-13 -8.97657e-13 -3.21888e-12
-4.04769e-13 -3.21888e-12 -2.28544e-12

-1.90301e-11 1.38778e-12 2.19732e-12
1.38778e-12 -5.15227e-12 -1.4456e-13
2.19732e-12 -1.4456e-13 -4.53548e-12

-5.01445e-12 4.97287e-12 3.34416e-12
4.97287e-12 1.92445e-12 -4.57774e-12
3.34416e-12 -4.57774e-12 -8.51112e-13

2.56359e-12 1.75785e-11 7.8448e-12
1.75785e-11 -3.44438e-11 1.78387e-11
7.8448e-12 1.78387e-11 -6.07148e-12

-8.64409e-12 6.01371e-12 -4.66448e-12
6.01371e-12 -6.79372e-12 2.48644e-12
-4.66448e-12 2.48644e-12 -9.34207e-13

-1.41499e-11 -6.245e-12 6.16791e-13
-6.245e-12 3.42862e-12 -4.33681e-13
6.16791e-13 -4.33681e-13 1.9047e-13

-1.45706e-11 -6.4763e-12 9.65663e-12
-6.4763e-12 -1.61798e-12 -1.41669e-11
9.65663e-12 -1.41669e-11 -2.23477e-12

-1.50645e-11 1.15648e-12 5.60894e-12
1.15648e-12 -2.11191e-12 -2.40934e-13
5.60894e-12 -2.40934e-13 -3.96228e-12

6.67185e-12 9.25186e-13 -8.92419e-12
9.25186e-13 2.04592e-12 -5.39692e-13
-8.92419e-12 -5.39692e-13 1.12073e-12

1.23362e-11 -2.31296e-12 -5.04997e-12
-2.31296e-12 -1.17186e-11 -9.68554e-12
-5.04997e-12 -9.68554e-12 -1.23318e-12

-2.22339e-11 2.498e-11 -3.93204e-12
2.498e-11 -3.73016e-12 -1.11215e-11
-3.93204e-12 -1.11215e-11 -4.50115e-12

-3.37057e-11 3.70074e-12 -1.8311e-12
3.70074e-12 -1.05761e-11 1.91783e-12
-1.8311e-12 1.91783e-12 -1.05761e-11

9.07174e-12 -5.08852e-12 -1.34923e-13
-5.08852e-12 -2.03049e-12 -2.59245e-12
-1.34923e-13 -2.59245e-12 4.36668e-13

VECTORS fluid_flux_TPM float
2.05863e-19 -1.25994e-19 -4.522e-21
-2.77018e-19 2.13785e-20 1.81655e-21
4.20694e-20 9.86671e-20 -1.31984e-20
-1.41953e-19 -9.16974e-20 -1.00502e-20
-1.35094e-19 6.20443e-20 8.85886e-21
-3.00386e-20 -7.78705e-20 1.10685e-20
1.78501e-19 -1.14847e-19 -1.33769e-20
4.84814e-20 7.96168e-20 -3.89776e-20
-5.3893e-20 7.2892e-20 -5.40632e-21
-1.48975e-19 -7.83958e-21 -6.9906e-21
-1.0484e-19 1.98726e-19 2.04286e-20
8.45738e-20 7.86022e-20 5.92627e-21
5.40371e-20 2.86188e-19 -2.24411e-20
3.9515e-20 -4.91516e-21 -1.73575e-20
-6.94407e-20 -7.20311e-21 1.46428e-20
-1.04536e-19 2.95619e-21 -2.92017e-20
3.00556e-20 -2.23158e-19 2.05743e-21
-1.4981e-20 -3.87786e-20 2.64644e-20
-1.12139e-19 1.88016e-20 1.43548e-20
-2.87884e-20 7.40902e-20 -3.67559e-20
1.71918e-19 3.999e-20 1.85108e-20
6.84484e-20 -1.56412e-19 1.85376e-20
-6.93318e-20 -1.56844e-19 2.53477e-21
2.0131e-19 5.6217e-22 -2.30689e-20
-7.06374e-20 -1.56389e-20 -2.10209e-20
1.29968e-20 5.69019e-21 -9.83712e-21
3.77979e-21 1.66126e-19 8.54139e-21
2.19242e-19 -4.7775e-20 -8.20839e-21
2.95027e-20 -1.2305e-19 -1.30332e-20
-2.78264e-20 2.51733e-20 -1.80483e-20
1.55475e-19 7.56718e-20 1.74994e-21
-1.78691e-19 -2.05538e-19 -2.21486e-20
-6.74386e-20 1.05924e-19 2.07103e-20
8.44227e-21 1.4425e-19 -1.85391e-20
4.82593e-20 -5.70899e-20 -4.4275e-21
-2.16668e-20 -4.63105e-20 -1.71532e-20
1.27221e-19 -2.75981e-19 -2.00808e-21
-1.9635e-19 2.25035e-20 3.97225e-21
-1.45712e-22 -4.82072e-20 -2.50908e-20
-4.60727e-19 -2.90606e-19 -1.36352e-20
1.2495e-19 2.43539e-19 4.39038e-21
7.12219e-20 9.58462e-21 -5.96148e-21
2.40362e-19 -4.33997e-21 -1.27981e-21
4.61887e-20 -8.78622e-20 -4.07167e-20
6.52819e-20 4.07311e-20 2.77901e-20
-9.73807e-20 1.76405e-19 -1.02855e-20
-5.37188e-21 -7.56735e-20 1.0935e-20
-1.15565e-19 -7.72492e-20 -1.15741e-20
7.53636e-20 1.15422e-19 -2.76102e-20
-2.21969e-19 3.3244e-20 -2.39809e-20
-2.38279e-20 -1.41522e-19 -5.75099e-21
3.82077e-20 2.8945e-19 7.19071e-21
1.31622e-19 -1.8524e-20 1.48233e-20
1.58526e-20 -2.31418e-19 -2.14717e-20
5.99869e-20 5.38468e-20 -6.36517e-21
-4.83947e-19 -1.91383e-19 -2.77217e-21
-4.58301e-20 -4.46123e-20 -2.56553e-20
5.87762e-20 1.2823e-19 -1.70685e-20
1.78589e-19 2.11881e-20 -1.94503e-20
2.01408e-20 1.0787e-19 -2.76781e-20
-1.17227e-19 -1.24664e-19 7.33236e-21
-1.18037e-19 2.68e-20 1.1106e-20
3.61869e-20 -2.12261e-19 8.07824e-21
-9.08473e-21 -1.20355e-19 -1.5058e-20
8.68648e-20 -2.17307e-20 -2.40183e-20
3.19187e-20 1.81132e-21 5.88185e-21
1.04272e-19 -5.92208e-20 -3.24592e-20
-2.93006e-20 1.48015e-19 -3.9658e-21
-1.16303e-19 1.23509e-19 4.15404e-20
1.33045e-19 8.49013e-20 -3.97786e-21
1.30272e-19 7.10175e-20 -5.2097e-21
1.46043e-20 -1.77526e-20 -3.54911e-20
-7.47672e-20 2.35486e-19 -4.00506e-21
-5.23113e-20 -6.10318e-21 1.60667e-20
-9.57384e-20 6.61869e-21 1.8958e-20
-1.8057e-20 5.91349e-20 1.22234e-20
1.85768e-19 7.66534e-20 2.05484e-21
5.5868e-20 -9.40284e-20 -2.10373e-20
6.0461e-21 -1.12732e-19 -2.33873e-20
2.06836e-19 3.45678e-20 5.44884e-21
-6.79865e-20 2.34627e-19 3.25984e-20
-4.33426e-20 2.87006e-20 -1.67689e-20
-2.58931e-20 -2.41186e-20 6.19007e-22
7.78995e-20 -1.21912e-19 -2.30374e-20
3.36651e-20 1.2921e-21 2.1335e-20
-1.27281e-19 2.01172e-19 -1.36097e-20
1.06957e-19 -1.41699e-21 -1.24254e-20
7.07096e-20 3.0957e-20 -1.801e-21
5.51754e-20 1.39013e-19 -3.1827e-21
-9.66552e-20 -1.84212e-19 -2.37571e-20
-2.01757e-19 -8.91997e-20 3.63116e-21
1.47645e-19 -1.10152e-19 2.46193e-20
1.90191e-19 -8.26017e-20 1.30877e-20
1.34617e-19 -3.58732e-20 8.82446e-21
-1.00479e-19 -6.0318e-22 -9.18875e-21
1.41739e-19 1.09974e-19 -2.80765e-20
-1.95392e-19 -2.28717e-19 -2.14473e-20
-1.03178e-19 -3.13842e-20 -1.37135e-20
-2.5992e-20 -2.05902e-20 -1.16494e-20
7.57529e-20 2.58309e-20 -2.45579e-20
2.20656e-19 -1.7299e-20 2.07478e-21
-1.85873e-19 1.35097e-19 -9.87442e-21
-1.9839e-19 -9.61551e-20 3.92175e-20
-1.75075e-19 -7.14303e-20 2.07792e-20
-8.38642e-20 -2.01608e-20 -1.79528e-20
-1.10674e-19 1.3221e-19 -2.34736e-21
1.1919e-19 -3.00407e-20 3.67274e-21
-1.72927e-19 -1.04557e-19 -5.0149e-21
7.76355e-21 1.5121e-20 -1.06574e-20
3.09075e-20 -1.15909e-19 -1.32358e-20
7.70317e-20 2.01407e-19 -2.60569e-20
-8.73514e-20 -1.39611e-19 -1.55084e-20
-2.88043e-20 -1.16219e-19 4.46896e-21
-1.53594e-19 -1.52207e-21 -3.9371e-21
7.63814e-22 -2.0595e-20 -1.85243e-20
-1.97183e-19 -1.12399e-19 -1.41801e-20
-2.58977e-20 -8.99153e-20 -1.18543e-21
-2.00194e-19 4.00124e-19 -3.62973e-21
2.10555e-19 9.80908e-21 7.65913e-21
6.80424e-20 -2.25141e-20 -1.46451e-20
-1.20397e-19 8.99147e-21 -6.62521e-21
-1.32105e-20 2.8431e-20 9.78373e-21
-5.02544e-20 4.25838e-21 -1.67838e-20
9.13469e-20 8.35619e-20 -4.71837e-21
-1.63669e-20 5.85718e-20 1.16107e-20
2.48707e-20 -7.48101e-20 -9.30284e-21
2.31158e-19 4.03549e-20 -2.87942e-21
1.36232e-19 6.13068e-21 -1.25355e-20
1.37029e-19 8.23082e-20 6.84161e-22
-2.24689e-19 7.67234e-20 -1.62104e-20
4.2044e-20 -2.78866e-20 1.52048e-20
-1.3179e-19 4.97595e-20 -5.71899e-21
1.13801e-19 8.12747e-20 -1.96045e-20
-1.3282e-19 -3.06086e-20 -2.28162e-20
6.67563e-20 1.07279e-19 -1.28221e-20
-3.2331e-20 1.13391e-19 1.46712e-20
6.68174e-20 -1.32297e-19 -6.9415e-21
1.4759e-19 1.15382e-20 -5.70265e-21
9.3464e-20 7.44574e-21 8.39975e-22
-1.94702e-19 -2.63932e-20 -1.4285e-20
1.04587e-19 8.52845e-21 -2.35926e-20
-2.42767e-22 4.85303e-21 -1.13439e-20
1.35364e-19 -1.55343e-19 2.02103e-21
-3.96879e-20 -1.22383e-19 1.39857e-20
1.90416e-19 -1.14807e-19 6.47962e-21
1.68962e-19 1.51701e-19 -1.36755e-20
-4.35838e-21 1.64743e-19 -9.55341e-21
-8.23282e-20 2.04941e-19 -4.89966e-21
-1.93529e-19 -2.12971e-19 -3.48551e-21
-3.30926e-20 2.35115e-19 9.34484e-22
1.02719e-19 -5.26235e-20 1.0866e-20
1.64329e-19 3.51148e-20 -6.54587e-21
-3.24702e-20 1.90306e-19 -8.12754e-21
3.87535e-20 9.04836e-20 6.9817e-21
-1.9009e-20 -3.6225e-20 -3.60443e-20
-7.53396e-20 1.53184e-19 -4.54896e-21
-1.3118e-19 -1.54643e-20 -1.85521e-20
-1.39678e-19 -1.53035e-20 1.11126e-22
-8.58609e-20 2.72309e-19 -6.76079e-21
-1.36467e-19 2.82322e-20 9.82807e-21
-1.97172e-19 2.67782e-20 -2.43949e-20
-6.03941e-20 -3.49922e-20 1.17917e-20
1.82805e-19 -3.17494e-21 -2.65214e-20
1.6286e-19 9.84934e-20 -9.47944e-22
-2.42415e-19 1.06461e-20 1.60346e-21
4.76049e-20 2.19389e-20 -2.20626e-20
-3.00117e-19 1.61284e-19 -1.1669e-20
-5.34155e-20 6.30583e-20 1.25554e-20
8.44246e-20 9.76537e-20 3.69269e-22
-1.26557e-19 -9.02384e-20 -1.91346e-20
5.3331e-20 -2.02757e-20 -1.15683e-20
-8.02512e-20 6.10768e-20 -6.0957e-21
-4.74138e-20 -9.69777e-20 1.26457e-20
2.21372e-20 2.53173e-19 -1.59453e-20
-2.6966e-19 -8.25926e-20 -2.26257e-20
-1.10419e-20 4.33571e-20 9.20583e-21
-1.1959e-20 4.2357e-20 -1.8507e-20
8.37469e-20 1.32018e-19 -7.72331e-21
-3.90168e-20 -4.10734e-20 -2.73393e-21
3.04523e-21 8.89666e-20 -1.03134e-20
3.39177e-20 1.72413e-19 -8.19568e-21
7.47331e-20 -7.22178e-20 -2.38073e-20
-6.40869e-20 -1.4879e-19 -3.28446e-20
1.37567e-19 2.32156e-19 -1.44765e-20
1.13705e-19 -1.95577e-20 -1.55418e-20
-8.77583e-21 -1.34214e-19 4.46993e-21
-2.34355e-20 -2.66047e-20 -1.83346e-20
1.5215e-19 4.28064e-20 -3.22933e-21
2.95176e-20 7.40292e-20 -8.01779e-21
-2.36754e-19 -1.51201e-19 9.19946e-21
-7.15502e-20 4.59151e-20 7.67833e-21
6.35552e-20 -1.48445e-19 -1.33539e-20
-1.38938e-19 6.68647e-20 -2.28331e-20
6.14113e-20 -2.30182e-19 -2.10702e-20
1.52269e-20 3.82179e-20 -1.03454e-20
1.099e-20 -5.73207e-20 -1.98611e-20
-8.23266e-21 -1.6404e-19 -8.66973e-21
3.13636e-20 3.47216e-20 -1.86598e-20
-1.47441e-19 -1.48517e-19 5.64006e-21
-1.38257e-19 -1.12708e-19 1.17767e-21
-5.82701e-20 -3.51723e-20 -1.30697e-20
-1.23252e-19 2.28705e-20 -3.20728e-20
2.8874e-19 2.03709e-19 2.33923e-22
1.2265e-19 -5.58522e-20 -1.47993e-20
-3.55418e-19 -9.98641e-20 -1.38491e-20
2.74007e-20 -7.0801e-21 2.03783e-21
6.74484e-20 3.89867e-21 -2.11167e-20
-7.59663e-20 -3.31682e-19 2.05449e-22
2.52287e-20 2.66375e-20 -9.52083e-21
1.73479e-19 -1.25342e-19 3.04084e-20
2.04272e-19 -3.34029e-20 -3.23945e-21
-2.44797e-19 1.23868e-19 4.87578e-21
2.29763e-20 -3.32887e-20 -9.60145e-21
-1.78791e-19 2.96498e-20 -1.26659e-20
3.94318e-20 1.13627e-20 -3.49527e-20
-3.28564e-19 -1.49373e-19 5.73652e-21
1.68135e-19 1.42867e-19 4.95086e-21
-7.82413e-20 7.88046e-21 -2.45049e-20
-1.37397e-19 2.97886e-20 -1.34895e-21
-1.16669e-22 7.08069e-20 -3.9703e-20
-5.3663e-21 -2.73535e-20 1.42766e-20
-6.67582e-20 1.47778e-21 -3.79551e-20
5.03593e-20 -9.73205e-20 2.05172e-20
-4.46993e-20 2.06504e-20 -8.06563e-21
-1.1131e-19 5.71605e-20 -7.59212e-21
-9.75104e-20 2.81342e-20 -2.77106e-20
-1.14982e-19 -7.83337e-20 -1.66119e-20
-2.87954e-20 7.19112e-20 -1.21615e-21
4.12126e-20 -6.16868e-20 -3.54509e-20
1.76235e-19 5.87765e-20 1.68204e-20
-1.90125e-19 6.50415e-21 -1.78116e-20
-2.11353e-20 -8.45371e-20 -1.45868e-20
5.94472e-20 -1.65154e-19 1.05385e-21
1.08547e-19 -1.4621e-19 1.91205e-20
-7.02354e-20 1.66245e-20 -4.46639e-20
1.31963e-19 -5.79876e-20 3.10947e-20
3.89132e-20 -1.23365e-19 -2.92328e-21
1.1583e-19 -7.55966e-21 3.44405e-20
7.26795e-20 -1.31077e-20 7.09334e-21
-1.4448e-19 6.70608e-20 1.27619e-22
-6.28648e-20 -6.82697e-20 -2.58962e-21
1.32421e-20 -1.13182e-19 -1.73455e-20
-1.94449e-19 7.54434e-21 -2.19771e-20
-2.22554e-19 -3.06334e-20 1.36253e-20
7.07935e-20 -1.83946e-19 5.43342e-21
-2.73998e-20 -1.30113e-19 -1.58953e-21
6.20751e-20 -1.07361e-19 -1.33207e-20
-1.35598e-20 -2.07716e-19 2.23038e-20
1.6528e-19 8.81608e-20 -1.08452e-20
-9.1233e-20 -1.57609e-19 2.79828e-20
-5.53083e-20 -4.92407e-20 -4.91648e-21
1.27109e-19 1.94599e-19 3.79281e-22
7.11872e-20 7.44228e-20 -3.59922e-21
1.23812e-19 -5.20402e-20 -1.23505e-20
1.24022e-19 -1.10542e-19 -1.16893e-20
4.12031e-20 -4.83675e-20 3.15712e-21
2.5665e-20 1.298e-19 1.29706e-20
8.39629e-20 -2.27708e-19 -2.54131e-20
2.23135e-20 7.88497e-20 -1.58214e-20
-1.39965e-19 2.99589e-20 -9.59116e-21
6.68669e-20 -5.58581e-20 -5.55765e-21
3.90135e-20 1.61232e-20 -1.88559e-20
-8.99257e-20 -9.60748e-21 -1.32571e-20
7.50708e-21 3.89753e-20 -5.70821e-22
1.04926e-20 -4.81424e-21 -1.15604e-20
3.58663e-19 -2.0019e-20 -1.42259e-20
-2.65402e-20 -1.40159e-19 -1.58212e-20
-2.70058e-19 1.2121e-19 -9.61206e-21
6.80518e-20 -5.02949e-21 1.77761e-20
-2.23662e-20 -2.97704e-20 2.23992e-20
8.43907e-20 -8.96418e-21 2.65449e-21
1.47834e-19 -6.27098e-20 -2.10075e-22
-8.87877e-20 -4.71546e-20 -1.50028e-20
-1.02534e-19 -1.23985e-20 2.4422e-20
-2.02454e-19 -1.19031e-21 8.81688e-21
1.84999e-19 -1.51266e-19 2.19543e-20
1.57969e-19 1.61881e-19 -2.16259e-21
3.35938e-20 -9.5904e-20 -2.10592e-20
1.0217e-19 -8.25183e-20 1.78343e-20
2.0961e-19 7.8063e-20 -1.23469e-20
1.58851e-19 3.00084e-20 3.25315e-21
-1.29979e-19 3.13618e-20 1.26385e-20
-1.62156e-19 -5.1683e-20 1.08861e-20
-1.26047e-19 -9.27595e-20 -1.50465e-20
-7.91268e-21 -1.50432e-19 2.58042e-21
2.51919e-19 -1.46303e-19 -1.13194e-21
1.43766e-20 -5.16373e-20 -9.17799e-21
-3.19563e-19 1.91086e-20 3.48985e-21
-1.85501e-19 -1.62647e-19 -3.31746e-20
3.39569e-19 -1.10556e-19 3.33791e-20
2.85052e-20 -9.60751e-20 3.1563e-20
-3.8234e-20 -9.27948e-20 -3.11786e-20
5.83719e-20 -5.83048e-21 1.56635e-20
2.2885e-20 1.28717e-19 4.46597e-20
1.36272e-19 3.88952e-20 -3.13768e-20
-2.32924e-19 6.21147e-20 3.94509e-20
-7.79063e-20 -4.01612e-20 -1.4772e-20
8.08975e-20 -1.97313e-19 9.51668e-21
8.65965e-20 -2.01021e-19 2.69973e-20
2.4221e-19 -1.77282e-19 2.59241e-22
1.42239e-19 -8.98117e-20 -6.79492e-21
-2.81713e-20 -8.0987e-20 -2.22937e-20
1.39747e-20 8.20953e-20 6.2159e-21
1.58288e-19 -1.25656e-19 -2.85715e-20
3.2253e-20 -8.54594e-21 -1.39937e-20
7.67032e-20 -8.78061e-20 -1.29834e-20
4.45291e-20 5.28209e-19 -1.8202e-20
-8.25966e-20 1.12646e-19 -7.78836e-21
-4.91738e-20 -7.56317e-20 -2.87699e-20
6.54229e-20 -7.66814e-20 2.41747e-20
1.64485e-20 7.68461e-20 1.36796e-20
2.3292e-20 3.30558e-20 -4.3577e-21
-6.70099e-20 -2.7846e-19 2.81313e-21
3.65652e-20 -4.71827e-20 -2.29798e-20
-1.51859e-19 1.69519e-19 1.39991e-20
9.12065e-20 -2.17677e-19 -1.24606e-21
-1.70753e-19 1.67134e-19 -2.02285e-20
7.71186e-20 -4.50608e-20 1.14179e-20
2.29627e-19 -1.09017e-19 -1.19924e-21
5.42485e-20 -5.25868e-20 -1.79528e-20
2.58234e-20 3.21672e-20 -3.49137e-20
6.2589e-20 4.16143e-20 -2.41891e-21
-1.07399e-19 -4.62292e-20 -3.7849e-21
4.69701e-20 -1.24044e-19 -2.85321e-21
-3.89569e-20 1.1344e-19 1.62059e-21
8.41677e-20 9.51945e-20 -4.84049e-21
-2.41806e-20 -6.55192e-20 -1.00859e-20
-1.13556e-19 5.24066e-20 -1.48808e-20
-1.52512e-19 2.55551e-20 -1.20854e-20
-2.07026e-19 1.36857e-20 4.12178e-21
1.01331e-19 9.02558e-20 -1.82172e-20
-1.21326e-19 -1.43034e-19 -1.55496e-20
-5.73652e-21 3.46656e-20 -1.19369e-20
-1.96745e-19 -5.70803e-20 -2.51679e-20
-7.85563e-20 -2.78816e-20 9.315e-21
-1.32522e-19 -3.10281e-20 -2.47862e-20
9.53685e-20 -6.52215e-20 -3.25954e-23
-9.93525e-20 -7.87753e-20 -8.46396e-21
-4.39853e-20 -1.09834e-19 -2.35263e-20
2.11869e-19 9.84313e-20 -9.18503e-21
-7.44371e-20 5.92567e-20 1.88483e-20
1.66934e-19 1.71639e-20 -7.9217e-21
-1.9728e-20 -1.28236e-20 6.05533e-21
7.9699e-20 2.57554e-20 1.25226e-20
-3.54903e-20 -3.20075e-20 -1.46479e-20
8.94282e-20 -1.29437e-19 -1.0944e-20
2.62784e-20 8.59673e-20 3.56202e-20
-2.0372e-19 1.61687e-20 -1.11519e-20
1.88156e-20 -6.86648e-20 -2.47654e-20
4.8563e-20 -7.72852e-22 -3.60125e-20
1.83098e-19 -2.43981e-20 1.95514e-20
-5.90724e-20 9.40082e-20 -1.48402e-20
-7.72384e-20 -3.40705e-20 1.23599e-20
1.77287e-19 -3.12824e-19 1.26804e-20
-2.87735e-19 -7.6794e-20 6.05762e-21
1.59068e-19 -2.3972e-19 5.47798e-21
1.95761e-19 1.8242e-19 -2.63544e-20
8.06187e-20 4.93697e-20 -1.75504e-20
3.88583e-20 -1.9683e-19 -2.33029e-20
-1.63005e-19 -6.00935e-20 1.37477e-20
-7.74569e-20 -2.87819e-20 1.62137e-20
-2.63395e-20 -2.21572e-19 -8.87222e-21
-1.13906e-19 -8.19005e-20 -2.88363e-20
1.96411e-20 2.57465e-20 1.01897e-20
1.21345e-19 -5.52267e-20 -2.76377e-20
-6.58786e-20 -1.1798e-19 -1.51076e-21
1.97318e-21 -2.15431e-19 -1.25508e-21
2.82902e-19 4.67118e-20 -8.70253e-21
-1.0258e-19 5.29309e-20 -8.35633e-21
2.02302e-19 9.04002e-20 -7.93888e-22
8.46332e-20 -8.97836e-20 -5.45953e-21
-1.65592e-19 -6.7007e-20 7.48414e-21
-1.37212e-19 -1.27447e-19 3.82427e-21
1.74332e-19 2.16294e-19 -5.84039e-21
-1.94569e-20 -1.1904e-19 -3.70878e-21
-3.98829e-20 -5.94703e-20 -1.90251e-20
-3.91176e-20 4.41823e-20 -1.65954e-20
-1.46782e-19 -5.48226e-20 -5.09783e-21
-3.4254e-20 1.962e-20 6.70955e-21
1.55398e-19 -7.47237e-20 -4.69546e-20
-3.43487e-21 -2.9563e-19 7.64407e-22
-5.19315e-20 -7.32645e-21 -2.26323e-20
1.37567e-19 -7.33331e-20 5.03516e-21
6.77123e-20 -2.16407e-20 -2.24222e-20
1.43072e-19 -1.02994e-19 -2.62263e-20
3.0111e-20 -4.9955e-20 2.80992e-21
-1.48584e-19 -9.95649e-20 8.32438e-21
-1.19408e-19 7.83759e-21 -9.00144e-21
3.37923e-20 6.75067e-20 6.35311e-21
-1.34343e-19 -1.09715e-19 1.83e-20
-3.61484e-20 7.2857e-20 1.81729e-21
3.90725e-20 3.04832e-20 -2.09177e-20
-5.29918e-20 -3.52409e-20 -2.05425e-20
-9.91532e-20 1.35019e-19 -2.19304e-20
-1.59883e-19 -9.03102e-20 3.74202e-21
1.53987e-19 -1.15431e-19 5.90289e-21
8.25907e-21 7.00546e-20 -1.49211e-20
4.64885e-20 -4.99291e-21 2.21216e-20
-8.48057e-20 8.47941e-20 -3.54497e-20
1.5066e-19 1.26127e-20 3.31887e-20
3.10756e-19 9.73351e-20 -2.71919e-20
-5.77706e-20 4.24728e-20 1.44592e-20
9.2797e-20 9.16936e-22 3.01215e-22
-7.36573e-20 2.24641e-20 -1.31944e-20
-6.23751e-20 -2.91583e-20 -2.34695e-20
4.98266e-20 5.08013e-20 -4.07805e-21
2.99822e-19 2.36163e-19 -3.37905e-20
-1.62456e-19 7.44559e-20 -3.08944e-20
5.74905e-20 -5.10827e-20 8.51567e-21
9.7234e-21 -9.83068e-20 -5.9273e-21
-7.10542e-20 2.44689e-19 -1.40983e-20
-9.34362e-20 -6.55276e-20 3.15606e-20
-4.04556e-20 2.71495e-19 -2.14287e-20
-1.78072e-19 -2.66509e-19 7.76274e-21
1.54689e-19 -1.74895e-20 -5.90318e-21
-9.50276e-20 -5.90258e-20 -4.97507e-20
3.14579e-19 2.06456e-20 2.5164e-20
-1.11472e-19 -4.15519e-19 -3.89461e-20
7.63118e-20 -1.59684e-19 1.89201e-20
1.54439e-20 3.33403e-20 -7.48853e-21
-2.66243e-20 -2.2672e-20 4.21406e-21
1.34294e-19 -4.5664e-20 -6.31437e-21
-1.84425e-19 2.8905e-19 1.96227e-21
2.73714e-19 8.33528e-20 -1.47426e-20
-3.69039e-20 -2.18683e-20 -3.74476e-20
-1.0839e-19 -5.67319e-20 5.36507e-21
7.69641e-21 1.60298e-19 2.7439e-21
-3.38236e-19 -5.56593e-19 -2.27656e-20
5.58933e-20 -5.2917e-20 7.44142e-21
5.28302e-20 -1.66591e-20 1.92151e-20
4.63636e-20 -3.16736e-20 -2.00027e-20
9.87453e-20 5.84764e-21 3.31528e-21
-1.21902e-19 -7.5155e-20 1.24006e-20
1.72968e-19 -5.87129e-20 -1.89905e-20
-2.39486e-19 -9.22081e-20 1.1421e-20
8.29494e-21 1.21916e-19 -2.95537e-20
-3.00861e-19 -2.38401e-19 -2.57538e-20
7.49224e-20 4.39737e-20 1.23514e-21
-1.0309e-19 -2.23304e-21 -2.55462e-20
-2.50507e-19 -5.96885e-20 -3.42881e-21
8.11822e-20 3.85061e-20 -4.73642e-21
1.35997e-19 -1.44246e-19 -5.09905e-21
-3.10635e-20 -5.98986e-20 5.73195e-21
-7.8818e-20 -1.41061e-19 -2.52453e-20
3.34887e-19 1.10639e-19 7.77917e-21
-6.21823e-21 9.21952e-20 -4.23267e-21
8.25596e-20 7.20593e-20 6.53414e-21
-2.6841e-19 -2.15355e-19 -1.82591e-20
-1.28889e-19 -1.00222e-20 6.83776e-21
1.15844e-19 1.06767e-19 -1.87568e-20
5.0916e-20 -2.18212e-19 2.26104e-20
1.06415e-19 -1.00873e-20 1.36713e-20
6.12668e-20 1.82283e-19 -2.2841e-20
2.47512e-20 2.25839e-20 -1.58316e-20
-4.62443e-20 -4.6308e-20 6.63279e-21
7.82199e-20 1.80445e-19 4.44947e-22
-1.281e-19 1.25619e-19 -2.52092e-20
-9.23397e-20 3.05821e-20 1.21288e-20
3.12297e-20 9.12491e-20 1.61729e-20
8.4621e-20 9.32944e-20 1.2188e-21
2.26697e-19 -3.90333e-19 -3.27777e-21
-2.77187e-20 -3.35605e-19 2.0683e-20
-8.41729e-20 5.51881e-20 -1.74999e-20
-9.88992e-20 3.40346e-20 2.4966e-20
-1.04273e-19 -3.99875e-20 8.74767e-22
1.44323e-21 1.64058e-19 5.52761e-21
1.43806e-19 -1.70721e-19 1.99932e-20
1.1826e-19 1.49729e-19 5.87045e-21
-7.52046e-20 2.32872e-20 -9.60252e-21
-1.47713e-19 -1.08076e-19 3.94899e-21
-1.51069e-19 -7.22001e-20 -2.29224e-20
1.51575e-19 -6.31367e-20 7.06542e-21
2.06539e-19 -1.98651e-19 3.49654e-20
6.27646e-20 -1.15172e-19 -4.3548e-21
-2.20382e-20 3.78433e-20 3.06915e-20
-9.24775e-20 -1.66924e-19 -2.19947e-21
-2.65531e-19 -6.08987e-20 -2.58101e-21
-7.81076e-20 -1.43766e-19 -1.8999e-20
-1.07415e-19 1.76397e-19 1.56446e-20
-6.48519e-20 1.93799e-20 2.01529e-21
1.1857e-20 -1.46396e-19 -1.80937e-20
2.49758e-20 -3.78124e-20 -3.27883e-21
-1.21995e-19 2.30193e-21 1.05401e-20
2.01769e-19 -6.44426e-21 -1.11178e-20
-8.24017e-20 3.59051e-20 7.97696e-21
2.35467e-19 2.76577e-20 1.19377e-22
-3.19731e-20 9.15214e-20 3.38353e-20
9.1816e-20 6.84509e-20 1.35348e-20
-8.37524e-20 -4.68345e-21 -1.39343e-21
1.68015e-19 3.37694e-20 1.06593e-21
1.20137e-20 -6.93225e-20 -5.10638e-21
1.15082e-19 -1.34697e-19 1.34238e-20
-1.13614e-19 -2.09455e-19 -1.85653e-20
-1.12395e-20 -2.09699e-20 -1.16667e-20
-6.69928e-20 -6.35701e-21 5.51635e-21
1.01718e-19 -1.52386e-19 -9.71417e-21
-7.38424e-20 -5.13785e-21 -8.87156e-21
4.31926e-20 3.5358e-20 1.48987e-20
-8.32196e-20 -3.48603e-19 1.10364e-20
-2.6461e-20 3.4263e-20 -1.00195e-20
-1.24662e-19 -2.18047e-20 6.13906e-21
-3.93816e-20 2.15737e-19 2.64264e-21
5.85485e-20 -5.95347e-20 3.22719e-21
-1.32059e-19 -1.36448e-19 1.31849e-20
-1.21659e-19 -9.80671e-20 1.04865e-20
1.32742e-19 7.84693e-20 7.97007e-21
1.41405e-19 2.66833e-19 -2.13071e-20
-3.12141e-20 1.36473e-19 -1.52991e-20
8.05696e-21 -3.46764e-19 -1.32872e-20
1.5518e-19 2.25262e-20 1.6794e-20
6.03028e-20 1.36314e-20 5.59636e-21
-2.14674e-19 5.17573e-20 2.1119e-20
-4.90091e-20 8.22177e-20 7.87077e-21
2.52736e-20 9.09383e-20 -1.82214e-20
1.22603e-21 1.8378e-19 -8.65873e-21
1.92118e-19 -1.38428e-19 2.42255e-20
1.46201e-19 -5.72148e-20 1.16247e-20
-2.58376e-19 -1.40096e-19 -2.96089e-21
1.65079e-19 -2.11633e-20 1.9314e-20
-1.1856e-20 -2.33149e-19 3.81463e-21
-1.03316e-19 2.01912e-19 -2.36687e-21
-6.71273e-20 -1.24667e-20 -1.82781e-21
2.02008e-19 2.4188e-20 -1.17184e-20
-9.84587e-20 -2.96072e-19 1.58642e-21
1.10695e-19 -2.92434e-19 1.54068e-20
-2.71002e-19 -2.46558e-19 -1.37835e-20
-3.15899e-20 -1.45894e-19 1.59544e-20
-2.21371e-20 -1.27718e-19 7.47719e-21
2.04546e-19 -4.06264e-19 -1.86289e-21
1.35761e-19 2.31928e-19 1.79537e-20
2.17755e-20 2.80306e-20 -1.70021e-20
9.56484e-20 5.18913e-20 -4.16402e-20
-1.71627e-19 4.27017e-19 -1.11481e-20
4.131e-20 -3.14751e-19 3.51628e-20
-4.73134e-20 6.8249e-20 -9.22963e-21
-2.18835e-19 -1.5728e-19 5.69178e-23
-1.55161e-19 1.52896e-19 1.13804e-20
9.76404e-20 2.88075e-19 -9.68162e-21
2.31683e-19 7.37433e-20 9.09998e-21
-1.11237e-19 -9.96969e-20 -1.40267e-20
-2.86565e-20 -4.67751e-19 -3.35084e-21
4.25657e-20 3.3984e-19 1.07033e-21
-1.70736e-19 1.07998e-19 -3.73577e-20
1.39591e-19 -1.87449e-19 7.11068e-21
-2.32232e-19 3.23056e-19 -6.97393e-21
5.11922e-19 -4.77689e-20 3.762e-21
9.33452e-20 -1.046e-19 1.56531e-21
-3.08806e-19 -2.13106e-19 3.18595e-20
3.18532e-20 1.54699e-19 -3.32813e-20
9.18765e-20 -1.6112e-19 -1.12607e-20
-6.49118e-20 -3.01548e-20 6.08944e-21
9.33833e-20 1.62019e-19 1.95761e-20
-2.93845e-19 -2.92281e-21 -1.23027e-20
3.59273e-20 1.3436e-19 3.43228e-20
-1.23966e-19 8.93916e-20 2.15994e-20
-1.16922e-19 -7.36758e-20 2.04463e-20
2.59178e-19 -6.10807e-20 2.98259e-20
-4.11155e-19 1.15236e-19 2.91221e-20
-1.56824e-19 -1.23686e-19 -2.9021e-20
-1.68893e-19 -2.40751e-19 -1.04447e-20
-1.37598e-19 -1.4415e-19 -3.04704e-20
2.99288e-19 -3.989e-19 -2.85351e-20
-3.51983e-20 -1.43278e-19 -2.81319e-20
TENSORS solid_stress_TPM float
-3.10965e-11 1.27394e-12 1.10107e-12
1.27394e-12 -2.09195e-11 2.82977e-12
1.10107e-12 2.82977e-12 -1.52142e-11

-2.00457e-11 -2.08167e-12 4.43318e-13
-2.08167e-12 -1.58824e-11 3.14178e-12
4.43318e-13 3.14178e-12 -2.05083e-11

-2.35408e-11 -2.89121e-13 -1.4456e-13
-2.89121e-13 -2.40034e-11 -1.73472e-13
-1.4456e-13 -1.73472e-13 -2.43118e-11

-2.11765e-11 -1.61908e-12 1.32032e-12
-1.61908e-12 -1.79383e-11 -6.5534e-13
1.32032e-12 -6.5534e-13 -2.41062e-11

-2.69332e-11 -2.31296e-12 -3.90313e-12
-2.31296e-12 -1.25928e-11 -3.2767e-12
-3.90313e-12 -3.2767e-12 -2.21531e-11

-2.8578e-11 8.09538e-13 -4.29826e-12
8.09538e-13 -2.99657e-11 3.45981e-12
-4.29826e-12 3.45981e-12 -2.68818e-11

-3.15077e-11 -2.57498e-12 1.98891e-12
-2.57498e-12 -2.08681e-11 6.47562e-12
1.98891e-12 6.47562e-12 -1.73215e-11

-2.71388e-11 -2.77556e-12 -6.36065e-13
-2.77556e-12 -3.08395e-11 2.12022e-13
-6.36065e-13 2.12022e-13 -2.71388e-11

-3.28955e-11 -6.36065e-13 -1.70581e-12
-6.36065e-13 -2.73444e-11 -4.57051e-12
-1.70581e-12 -4.57051e-12 -2.61108e-11

-1.54712e-11 1.38902e-12 -1.28177e-12
1.38902e-12 -2.14849e-11 2.79108e-12
-1.28177e-12 2.79108e-12 -2.25643e-11

-2.62136e-11 4.48137e-13 8.19175e-14
4.48137e-13 -2.01999e-11 7.96407e-12
8.19175e-14 7.96407e-12 -1.64991e-11

-2.28726e-11 1.34441e-12 -1.99493e-12
1.34441e-12 -2.14849e-11 1.73472e-13
-1.99493e-12 1.73472e-13 -2.34894e-11

-2.56996e-11 -4.62593e-13 2.40934e-12
-4.62593e-13 -2.15363e-11 4.67412e-12
2.40934e-12 4.67412e-12 -2.3695e-11

-2.12279e-11 8.09538e-13 -1.15648e-13
8.09538e-13 -2.03027e-11 -9.63735e-14
-1.15648e-13 -9.63735e-14 -2.19989e-11

-1.96345e-11 9.25186e-13 -2.23587e-12
9.25186e-13 -3.02741e-11 -2.85266e-12
-2.23587e-12 -2.85266e-12 -2.34894e-11

-2.62136e-11 -3.38271e-12 -1.91783e-12
-3.38271e-12 -2.3438e-11 -3.18274e-12
-1.91783e-12 -3.18274e-12 -2.43632e-11

-2.24615e-11 3.06468e-12 1.03602e-13
3.06468e-12 -1.96859e-11 -2.52499e-12
1.03602e-13 -2.52499e-12 -2.32324e-11

-2.30268e-11 3.11527e-12 2.43825e-12
3.11527e-12 -2.6265e-11 -4.14436e-12
2.43825e-12 -4.14436e-12 -2.50314e-11

-2.17419e-11 4.62593e-13 -2.21177e-12
4.62593e-13 -2.54426e-11 4.08624e-12
-2.21177e-12 4.08624e-12 -2.498e-11

-1.77327e-11 1.48536e-12 1.81182e-12
1.48536e-12 -2.28213e-11 4.20068e-12
1.81182e-12 4.20068e-12 -2.14335e-11

-2.94518e-11 -1.85037e-12 -2.72617e-12
-1.85037e-12 -3.50029e-11 5.5993e-12
-2.72617e-12 5.5993e-12 -2.89892e-11

-2.52884e-11 -3.44053e-12 -3.76158e-12
-3.44053e-12 -2.48258e-11 -7.03527e-12
-3.76158e-12 -7.03527e-12 -2.66762e-11

-2.01999e-11 -2.09612e-12 -8.57724e-13
-2.09612e-12 -2.3438e-11 -4.11033e-12
-8.57724e-13 -4.11033e-12 -2.20503e-11

-2.02513e-11 -1.85037e-12 -1.96602e-12
-1.85037e-12 -2.48772e-11 -3.97059e-12
-1.96602e-12 -3.97059e-12 -2.36436e-11

-2.97087e-11 -1.22876e-12 -2.69846e-12
-1.22876e-12 -2.64706e-11 -4.83313e-12
-2.69846e-12 -4.83313e-12 -2.49286e-11

-2.51342e-11 -1.61908e-12 -1.84555e-12
-1.61908e-12 -2.69846e-11 -3.78748e-12
-1.84555e-12 -3.78748e-12 -2.6522e-11

-2.91948e-11 -2.65834e-12 4.57051e-12
-2.65834e-12 -2.5494e-11 -2.21524e-12
4.57051e-12 -2.21524e-12 -2.05597e-11

-2.56996e-11 -2.65991e-12 2.87193e-12
-2.65991e-12 -2.2924e-11 -2.17804e-12
2.87193e-12 -2.17804e-12 -2.50828e-11

-2.35922e-11 -3.80555e-12 4.83072e-12
-3.80555e-12 -2.17419e-11 -5.46438e-12
4.83072e-12 -5.46438e-12 -1.85037e-11

-1.58824e-11 5.31982e-12 -1.25286e-12
5.31982e-12 -1.12564e-11 -2.31296e-13
-1.25286e-12 -2.31296e-13 -2.09709e-11

-2.5751e-11 -9.42903e-30 1.5227e-12
-9.42903e-30 -2.8064e-11 2.3997e-12
1.5227e-12 2.3997e-12 -2.5751e-11

-2.46716e-11 2.31296e-12 -1.83351e-12
2.31296e-12 -2.46716e-11 -9.97466e-13
-1.83351e-12 -9.97466e-13 -2.09709e-11

-2.69332e-11 2.19732e-12 -8.5411e-13
2.19732e-12 -2.64706e-11 5.54871e-12
-8.5411e-13 5.54871e-12 -1.93775e-11

-2.33866e-11 -3.77302e-12 1.69136e-12
-3.77302e-12 -2.755e-11 1.15648e-13
1.69136e-12 1.15648e-13 -2.55454e-11

-2.58538e-11 1.07697e-12 3.49595e-12
1.07697e-12 -1.47516e-11 -4.52956e-12
3.49595e-12 -4.52956e-12 -2.2924e-11

-2.80126e-11 2.13949e-12 2.98758e-13
2.13949e-12 -3.54141e-11 1.6829e-29
2.98758e-13 1.6829e-29 -2.69332e-11

-2.12793e-11 -1.64799e-12 9.90238e-13
-1.64799e-12 -1.29526e-11 -5.85951e-12
9.90238e-13 -5.85951e-12 -2.12793e-11

-2.7293e-11 -4.62593e-12 -2.42861e-12
-4.62593e-12 -2.68304e-11 -4.59702e-12
-2.42861e-12 -4.59702e-12 -2.63678e-11

-2.61622e-11 2.54426e-12 -1.59016e-12
2.54426e-12 -2.70874e-11 -4.03805e-12
-1.59016e-12 -4.03805e-12 -2.6008e-11

-2.87322e-11 -2.2696e-12 -9.29764e-12
-2.2696e-12 -2.87322e-11 -5.79446e-12
-9.29764e-12 -5.79446e-12 -2.05597e-11

-2.52884e-11 -1.01192e-12 -2.8382e-12
-1.01192e-12 -2.29754e-11 1.79375e-12
-2.8382e-12 1.79375e-12 -2.29754e-11

-2.91434e-11 2.45752e-12 1.59257e-12
2.45752e-12 -3.37693e-11 1.15648e-13
1.59257e-12 1.15648e-13 -2.86808e-11

-3.51057e-11 2.31296e-13 4.04769e-13
2.31296e-13 -3.00171e-11 6.45703e-13
4.04769e-13 6.45703e-13 -2.89378e-11

-2.73444e-11 5.7535e-12 3.9224e-12
5.7535e-12 -2.68818e-11 -4.79458e-13
3.9224e-12 -4.79458e-13 -2.65734e-11

-2.87836e-11 1.73472e-12 6.56063e-12
1.73472e-12 -3.01713e-11 6.44016e-12
6.56063e-12 6.44016e-12 -2.49286e-11

-2.5751e-11 8.09538e-13 -3.32971e-12
8.09538e-13 -2.5751e-11 -1.72087e-12
-3.32971e-12 -1.72087e-12 -2.52884e-11

-2.42604e-11 2.31296e-13 5.18008e-13
2.31296e-13 -2.28726e-11 1.34923e-13
5.18008e-13 1.34923e-13 -2.34894e-11

-2.33866e-11 6.36065e-13 5.30054e-14
6.36065e-13 -2.61622e-11 -3.82603e-12
5.30054e-14 -3.82603e-12 -2.41576e-11

-2.27699e-11 3.23589e-12 1.47933e-12
3.23589e-12 -2.27699e-11 -4.63557e-12
1.47933e-12 -4.63557e-12 -2.4466e-11

-2.65734e-11 2.71773e-12 4.77049e-13
2.71773e-12 -2.65734e-11 1.63594e-12
4.77049e-13 1.63594e-12 -2.30268e-11

-2.6008e-11 -1.85037e-12 -4.55847e-12
-1.85037e-12 -2.50828e-11 -3.28875e-13
-4.55847e-12 -3.28875e-13 -2.4466e-11

-2.7293e-11 1.27213e-12 3.46945e-13
1.27213e-12 -2.59052e-11 2.04794e-13
3.46945e-13 2.04794e-13 -2.17419e-11

-2.6265e-11 -2.31296e-12 4.50546e-13
-2.31296e-12 -2.02513e-11 -1.04083e-12
4.50546e-13 -1.04083e-12 -2.50314e-11

-2.55968e-11 -3.5851e-12 2.90084e-12
-3.5851e-12 -2.6522e-11 -4.65966e-12
2.90084e-12 -4.65966e-12 -2.37464e-11

-1.96859e-11 -1.15648e-12 -1.32032e-12
-1.15648e-12 -2.47744e-11 -1.99493e-12
-1.32032e-12 -1.99493e-12 -2.3695e-11

-2.4466e-11 8.67362e-13 5.58966e-12
8.67362e-13 -2.26157e-11 -3.62967e-12
5.58966e-12 -3.62967e-12 -1.92233e-11

-1.95831e-11 -4.16334e-12 -8.9266e-13
-4.16334e-12 -1.72701e-11 -3.85494e-13
-8.9266e-13 -3.85494e-13 -2.23587e-11

-2.61108e-11 1.02638e-12 1.20467e-14
1.02638e-12 -2.56482e-11 -1.56607e-12
1.20467e-14 -1.56607e-12 -2.16391e-11

-2.63678e-11 6.01371e-12 4.6452e-12
6.01371e-12 -1.94289e-11 1.11793e-12
4.6452e-12 1.11793e-12 -2.35922e-11

-2.64706e-11 -1.22515e-12 4.09347e-12
-1.22515e-12 -4.0811e-11 -8.86636e-13
4.09347e-12 -8.86636e-13 -2.77042e-11

-2.9349e-11 -1.15648e-12 -2.29369e-12
-1.15648e-12 -2.42604e-11 4.33681e-13
-2.29369e-12 4.33681e-13 -2.53398e-11

-2.45174e-11 3.75857e-13 -2.91048e-12
3.75857e-13 -2.54426e-11 -4.9536e-12
-2.91048e-12 -4.9536e-12 -2.498e-11

-2.76014e-11 -2.1684e-12 -2.72737e-12
-2.1684e-12 -2.52884e-11 -8.19898e-12
-2.72737e-12 -8.19898e-12 -1.83495e-11

-2.7036e-11 -5.31982e-12 3.80194e-12
-5.31982e-12 -2.51856e-11 -6.5534e-13
3.80194e-12 -6.5534e-13 -2.67276e-11

-2.86808e-11 4.62593e-13 2.65027e-13
4.62593e-13 -2.86808e-11 5.78241e-14
2.65027e-13 5.78241e-14 -2.59052e-11

-2.87322e-11 1.38778e-12 1.49379e-13
1.38778e-12 -2.87322e-11 -6.74615e-14
1.49379e-13 -6.74615e-14 -2.61108e-11

-2.87836e-11 -2.31296e-13 -1.27213e-12
-2.31296e-13 -2.32324e-11 2.89121e-13
-1.27213e-12 2.89121e-13 -2.63164e-11

-2.13307e-11 1.32995e-12 4.04769e-13
1.32995e-12 -2.59566e-11 4.15611e-12
4.04769e-13 4.15611e-12 -2.51856e-11

-2.73444e-11 -2.31296e-13 -1.92747e-12
-2.31296e-13 -2.7807e-11 1.34923e-12
-1.92747e-12 1.34923e-12 -2.56482e-11

-2.32324e-11 4.46804e-12 2.51535e-12
4.46804e-12 -2.27699e-11 2.68271e-12
2.51535e-12 2.68271e-12 -2.40034e-11

-2.37978e-11 -2.89121e-12 3.32489e-13
-2.89121e-12 -2.05597e-11 1.56125e-12
3.32489e-13 1.56125e-12 -2.34894e-11

-2.6522e-11 2.45752e-12 -3.96095e-12
2.45752e-12 -2.09709e-11 -2.60209e-13
-3.96095e-12 -2.60209e-13 -2.28213e-11

-2.63678e-11 3.46945e-13 -1.36128e-12
3.46945e-13 -2.59052e-11 2.01421e-12
-1.36128e-12 2.01421e-12 -2.26671e-11

-2.24615e-11 -4.74158e-12 3.7682e-12
-4.74158e-12 -2.47744e-11 -5.1078e-13
3.7682e-12 -5.1078e-13 -2.3695e-11

-2.03027e-11 1.85037e-12 -2.631e-12
1.85037e-12 -2.35408e-11 -3.08395e-13
-2.631e-12 -3.08395e-13 -2.5237e-11

-2.95031e-11 8.96274e-13 1.13239e-13
8.96274e-13 -2.21017e-11 9.12778e-12
1.13239e-13 9.12778e-12 -1.71673e-11

-2.09195e-11 -2.31296e-13 4.48137e-13
-2.31296e-13 -2.13821e-11 2.21659e-12
4.48137e-13 2.21659e-12 -2.21531e-11

-2.96573e-11 -2.28405e-12 2.06239e-12
-2.28405e-12 -2.50314e-11 -3.73929e-12
2.06239e-12 -3.73929e-12 -2.61108e-11

-2.49286e-11 -1.61908e-12 5.69086e-12
-1.61908e-12 -1.89149e-11 4.91505e-13
5.69086e-12 4.91505e-13 -2.5237e-11

-2.498e-11 5.20417e-13 9.05911e-13
5.20417e-13 -2.35922e-11 -2.78158e-12
9.05911e-13 -2.78158e-12 -2.35922e-11

-2.11765e-11 1.28659e-12 -2.81893e-12
1.28659e-12 -2.34894e-11 5.19935e-12
-2.81893e-12 5.19935e-12 -2.13307e-11

-2.498e-11 -3.41162e-12 4.7464e-12
-3.41162e-12 -2.12793e-11 -1.58053e-12
4.7464e-12 -1.58053e-12 -2.31296e-11

-3.18675e-11 -3.90674e-12 -8.67362e-14
-3.90674e-12 -2.77042e-11 -3.09841e-12
-8.67362e-14 -3.09841e-12 -2.89378e-11

-2.20503e-11 1.27213e-12 2.89121e-12
1.27213e-12 -2.11251e-11 -4.09106e-12
2.89121e-12 -4.09106e-12 -1.97373e-11

-2.73958e-11 2.23165e-13 -2.82374e-12
2.23165e-13 -2.41576e-11 -4.46951e-12
-2.82374e-12 -4.46951e-12 -2.40034e-11

-2.25129e-11 3.00685e-12 9.21572e-13
3.00685e-12 -2.20503e-11 3.03577e-12
9.21572e-13 3.03577e-12 -2.11251e-11

-2.94004e-11 4.55365e-13 -2.66352e-12
4.55365e-13 -2.89378e-11 2.97794e-12
-2.66352e-12 2.97794e-12 -2.64706e-11

-1.1976e-11 1.50343e-12 2.43825e-12
1.50343e-12 -2.03027e-11 -1.87928e-12
2.43825e-12 -1.87928e-12 -2.01485e-11

-2.12279e-11 2.31296e-13 2.33947e-12
2.31296e-13 -2.30782e-11 1.05529e-12
2.33947e-12 1.05529e-12 -1.92233e-11

-2.59052e-11 2.65991e-12 -7.32439e-12
2.65991e-12 -3.46945e-11 -4.25971e-12
-7.32439e-12 -4.25971e-12 -2.82182e-11

-2.52884e-11 2.63461e-12 -8.45678e-13
2.63461e-12 -2.20503e-11 -8.91455e-13
-8.45678e-13 -8.91455e-13 -2.11251e-11

-8.68647e-12 -2.9418e-12 6.245e-12
-2.9418e-12 -3.27413e-11 -1.00036e-11
6.245e-12 -1.00036e-11 -2.17933e-11

-2.13821e-11 -2.89121e-13 3.95131e-12
-2.89121e-13 -1.99943e-11 8.86636e-13
3.95131e-12 8.86636e-13 -2.03027e-11

-2.12279e-11 2.54426e-12 1.6769e-12
2.54426e-12 -2.12279e-11 -2.65027e-12
1.6769e-12 -2.65027e-12 -2.38492e-11

-2.88864e-11 9.25186e-13 -1.52752e-12
9.25186e-13 -2.65734e-11 1.78291e-13
-1.52752e-12 1.78291e-13 -2.6265e-11

-2.10223e-11 4.40909e-13 1.86242e-12
4.40909e-13 -2.33352e-11 3.30079e-12
1.86242e-12 3.30079e-12 -2.07139e-11

-2.27699e-11 6.79433e-13 8.43268e-14
6.79433e-13 -2.50828e-11 -2.3997e-12
8.43268e-14 -2.3997e-12 -2.21531e-11

-2.5494e-11 1.73472e-13 -2.35151e-12
1.73472e-13 -2.08681e-11 -4.33681e-13
-2.35151e-12 -4.33681e-13 -2.33352e-11

-3.40263e-11 9.25186e-13 2.00457e-12
9.25186e-13 -2.10737e-11 1.58053e-12
2.00457e-12 1.58053e-12 -2.69332e-11

-2.86294e-11 -5.9595e-12 1.84555e-12
-5.9595e-12 -2.72416e-11 4.09587e-13
1.84555e-12 4.09587e-13 -2.70874e-11

-2.61622e-11 -7.51714e-13 6.45703e-12
-7.51714e-13 -2.2924e-11 -2.66955e-12
6.45703e-12 -2.66955e-12 -2.18447e-11

-2.59052e-11 9.25186e-13 1.1083e-13
9.25186e-13 -2.77556e-11 7.6617e-13
1.1083e-13 7.6617e-13 -2.40548e-11

-2.5751e-11 1.11311e-12 -8.37968e-12
1.11311e-12 -2.62136e-11 -9.22777e-13
-8.37968e-12 -9.22777e-13 -2.20503e-11

-2.25643e-11 -1.4456e-12 -1.0842e-12
-1.4456e-12 -2.71902e-11 -4.06696e-12
-1.0842e-12 -4.06696e-12 -2.73444e-11

-2.35408e-11 -4.62593e-13 -2.52499e-12
-4.62593e-13 -2.30782e-11 -3.93204e-12
-2.52499e-12 -3.93204e-12 -2.5237e-11

-2.34894e-11 6.93889e-13 -2.89121e-13
6.93889e-13 -2.07139e-11 -4.34645e-12
-2.89121e-13 -4.34645e-12 -2.45688e-11

-2.12279e-11 4.11997e-12 4.37295e-13
4.11997e-12 -2.07653e-11 3.29597e-12
4.37295e-13 3.29597e-12 -2.15363e-11

-2.43632e-11 2.02384e-13 3.72966e-12
2.02384e-13 -2.43632e-11 1.64678e-12
3.72966e-12 1.64678e-12 -2.52884e-11

-2.43632e-11 -8.96274e-13 -9.54098e-13
-8.96274e-13 -2.76014e-11 2.74665e-12
-9.54098e-13 2.74665e-12 -2.20503e-11

-2.13821e-11 -2.28405e-12 2.52499e-12
-2.28405e-12 -1.95317e-11 -3.69111e-12
2.52499e-12 -3.69111e-12 -2.35408e-11

-3.02227e-11 -1.15648e-12 1.25286e-13
-1.15648e-12 -2.97601e-11 3.13214e-12
1.25286e-13 3.13214e-12 -2.69846e-11

-2.29754e-11 1.40223e-12 -8.25921e-12
1.40223e-12 -2.25129e-11 -3.84049e-12
-8.25921e-12 -3.84049e-12 -2.01999e-11

-2.61622e-11 -9.25186e-13 5.05479e-12
-9.25186e-13 -2.24615e-11 -8.26403e-13
5.05479e-12 -8.26403e-13 -1.95317e-11

-2.23587e-11 -2.54426e-12 4.36572e-12
-2.54426e-12 -2.14335e-11 4.52956e-13
4.36572e-12 4.52956e-13 -2.37464e-11

-2.32324e-11 -1.24322e-12 2.95867e-12
-1.24322e-12 -2.64706e-11 3.55859e-12
2.95867e-12 3.55859e-12 -2.58538e-11

-3.06853e-11 -6.36065e-13 1.03602e-12
-6.36065e-13 -2.60594e-11 -7.61351e-13
1.03602e-12 -7.61351e-13 -2.46716e-11

-2.51342e-11 1.50343e-12 2.87193e-12
1.50343e-12 -2.74472e-11 7.70506e-12
2.87193e-12 7.70506e-12 -2.60594e-11

-2.63164e-11 -4.04769e-13 4.47173e-12
-4.04769e-13 -2.4466e-11 -8.98683e-13
4.47173e-12 -8.98683e-13 -2.10737e-11

-2.46716e-11 1.07706e-27 4.3079e-12
1.07706e-27 -2.83724e-11 3.51282e-12
4.3079e-12 3.51282e-12 -2.83724e-11

-2.45174e-11 -5.49329e-13 2.74544e-12
-5.49329e-13 -2.91434e-11 -8.48087e-13
2.74544e-12 -8.48087e-13 -2.40548e-11

-2.58538e-11 2.5795e-13 -1.39501e-12
2.5795e-13 -2.58538e-11 -8.23994e-13
-1.39501e-12 -8.23994e-13 -2.56996e-11

-1.65505e-11 -3.87422e-12 -1.17576e-12
-3.87422e-12 -1.88635e-11 4.50546e-12
-1.17576e-12 4.50546e-12 -2.22559e-11

-2.77042e-11 -1.61908e-12 -1.34923e-12
-1.61908e-12 -2.35408e-11 1.86965e-12
-1.34923e-12 1.86965e-12 -2.33866e-11

-2.61108e-11 -2.52981e-12 -1.13721e-12
-2.52981e-12 -2.7036e-11 -1.87928e-12
-1.13721e-12 -1.87928e-12 -2.58024e-11

-2.60594e-11 4.19024e-28 4.04769e-12
4.19024e-28 -2.60594e-11 -5.32464e-13
4.04769e-12 -5.32464e-13 -2.6522e-11

-2.45688e-11 -6.15827e-12 5.5463e-12
-6.15827e-12 -1.85551e-11 -1.98529e-12
5.5463e-12 -1.98529e-12 -2.37978e-11

-3.16619e-11 1.61908e-12 9.44461e-13
1.61908e-12 -3.7213e-11 9.44461e-13
9.44461e-13 9.44461e-13 -2.67276e-11

-3.15591e-11 -5.31078e-12 1.25286e-13
-5.31078e-12 -2.64706e-11 -1.2902e-12
1.25286e-13 -1.2902e-12 -2.58538e-11

-2.30268e-11 -1.46367e-12 1.87047e-12
-1.46367e-12 -2.30268e-11 5.15117e-12
1.87047e-12 5.15117e-12 -1.99429e-11

-2.91948e-11 1.35887e-12 9.25186e-13
1.35887e-12 -2.64192e-11 -3.08877e-12
9.25186e-13 -3.08877e-12 -2.51856e-11

-2.67276e-11 5.78241e-14 2.86952e-12
5.78241e-14 -3.50543e-11 1.32995e-12
2.86952e-12 1.32995e-12 -2.64192e-11

-2.32838e-11 -3.00685e-12 3.73929e-12
-3.00685e-12 -2.46716e-11 4.08142e-12
3.73929e-12 4.08142e-12 -2.51342e-11

-2.04055e-11 -1.96602e-12 -1.29622e-12
-1.96602e-12 -1.85551e-11 4.56811e-12
-1.29622e-12 4.56811e-12 -2.24101e-11

-2.43118e-11 4.7994e-12 4.04769e-13
4.7994e-12 -2.89378e-11 -3.95131e-13
4.04769e-13 -3.95131e-13 -2.6008e-11

-1.95317e-11 8.16766e-13 -7.70988e-13
8.16766e-13 -2.55454e-11 1.19985e-12
-7.70988e-13 1.19985e-12 -2.21531e-11

-2.6779e-11 -3.05022e-12 2.24068e-13
-3.05022e-12 -2.6779e-11 4.24044e-13
2.24068e-13 4.24044e-13 -2.66248e-11

-2.3695e-11 1.59016e-12 -9.15548e-13
1.59016e-12 -2.3695e-11 -1.55402e-12
-9.15548e-13 -1.55402e-12 -1.98401e-11

-2.5494e-11 -3.00685e-12 2.40934e-13
-3.00685e-12 -2.3181e-11 2.2696e-12
2.40934e-13 2.2696e-12 -2.37978e-11

-2.10737e-11 -1.85037e-12 2.73701e-12
-1.85037e-12 -2.24615e-11 -4.33681e-14
2.73701e-12 -4.33681e-14 -2.46202e-11

-2.52884e-11 -4.62593e-12 4.04769e-13
-4.62593e-12 -2.89892e-11 3.52727e-12
4.04769e-13 3.52727e-12 -2.52884e-11

-2.33866e-11 -9.8301e-13 2.61534e-12
-9.8301e-13 -2.84752e-11 -3.561e-12
2.61534e-12 -3.561e-12 -2.46202e-11

-2.61108e-11 -2.08167e-12 -4.385e-12
-2.08167e-12 -2.74986e-11 9.34823e-13
-4.385e-12 9.34823e-13 -2.53398e-11

-2.12793e-11 -2.60209e-13 3.13214e-12
-2.60209e-13 -2.22045e-11 3.82844e-12
3.13214e-12 3.82844e-12 -2.31296e-11

-2.44146e-11 -3.46945e-13 -1.70099e-12
-3.46945e-13 -2.3952e-11 -4.40427e-12
-1.70099e-12 -4.40427e-12 -2.59566e-11

-2.51856e-11 -2.08167e-12 1.33236e-12
-2.08167e-12 -2.61108e-11 -6.57749e-12
1.33236e-12 -6.57749e-12 -2.21017e-11

-2.63164e-11 -8.09538e-13 2.59727e-12
-8.09538e-13 -2.6779e-11 4.46209e-12
2.59727e-12 4.46209e-12 -2.43118e-11

-1.93261e-11 -1.15648e-13 -1.98529e-12
-1.15648e-13 -2.11765e-11 -2.15395e-12
-1.98529e-12 -2.15395e-12 -2.27185e-11

-2.32324e-11 2.42861e-12 1.40705e-12
2.42861e-12 -2.13821e-11 1.4456e-14
1.40705e-12 1.4456e-14 -2.26157e-11

-3.00171e-11 3.15141e-12 4.44282e-12
3.15141e-12 -2.4466e-11 8.42305e-12
4.44282e-12 8.42305e-12 -2.56996e-11

-2.24101e-11 1.38778e-12 6.07153e-13
1.38778e-12 -2.00971e-11 -2.8647e-12
6.07153e-13 -2.8647e-12 -1.97887e-11

-2.27185e-11 1.96602e-12 -3.08395e-13
1.96602e-12 -2.27185e-11 2.48162e-13
-3.08395e-13 2.48162e-13 -2.14849e-11

-2.58024e-11 -3.93204e-12 -2.65991e-12
-3.93204e-12 -2.76528e-11 4.19225e-12
-2.65991e-12 4.19225e-12 -2.36436e-11

-2.51342e-11 2.08167e-12 9.63735e-13
2.08167e-12 -2.74472e-11 2.85266e-12
9.63735e-13 2.85266e-12 -2.32838e-11

-2.28726e-11 -1.50343e-12 -1.37332e-13
-1.50343e-12 -2.24101e-11 4.29826e-12
-1.37332e-13 4.29826e-12 -2.25643e-11

-2.29754e-11 4.62593e-13 -1.54198e-12
4.62593e-13 -2.15877e-11 6.74615e-14
-1.54198e-12 6.74615e-14 -2.11251e-11

-2.47744e-11 1.34441e-12 2.89121e-13
1.34441e-12 -2.43118e-11 -6.74615e-13
2.89121e-13 -6.74615e-13 -2.46202e-11

-2.03541e-11 4.03897e-28 -1.79737e-12
4.03897e-28 -2.59052e-11 4.89578e-12
-1.79737e-12 4.89578e-12 -2.31296e-11

-2.94518e-11 -9.54098e-13 -1.42151e-12
-9.54098e-13 -2.5751e-11 1.69858e-13
-1.42151e-12 1.69858e-13 -2.43632e-11

-2.74472e-11 -1.73472e-12 -1.33116e-12
-1.73472e-12 -2.60594e-11 4.73194e-12
-1.33116e-12 4.73194e-12 -2.51342e-11

-2.01485e-11 3.70074e-12 -4.27898e-12
3.70074e-12 -3.58767e-11 -1.76364e-12
-4.27898e-12 -1.76364e-12 -2.6008e-11

-2.13307e-11 -2.31296e-13 -3.42126e-13
-2.31296e-13 -2.27185e-11 4.66448e-12
-3.42126e-13 4.66448e-12 -2.28726e-11

-2.24615e-11 -4.62593e-13 -1.01674e-12
-4.62593e-13 -2.33866e-11 -9.8301e-13
-1.01674e-12 -9.8301e-13 -2.23073e-11

-2.36436e-11 -3.46945e-13 5.7535e-12
-3.46945e-13 -2.64192e-11 2.65991e-12
5.7535e-12 2.65991e-12 -1.96345e-11

-2.36436e-11 2.19732e-12 -4.77049e-13
2.19732e-12 -2.73444e-11 -1.04083e-12
-4.77049e-13 -1.04083e-12 -2.42604e-11

-2.33352e-11 7.51714e-13 1.92747e-12
7.51714e-13 -2.7036e-11 -1.93711e-12
1.92747e-12 -1.93711e-12 -2.30268e-11

-2.71902e-11 1.59739e-12 -2.60209e-12
1.59739e-12 -2.6265e-11 -2.87464e-12
-2.60209e-12 -2.87464e-12 -2.64192e-11

-2.4466e-11 -1.38778e-12 -1.86242e-12
-1.38778e-12 -2.21531e-11 4.5151e-12
-1.86242e-12 4.5151e-12 -1.96859e-11

-2.22045e-11 1.6769e-12 -2.58763e-12
1.6769e-12 -2.45174e-11 3.88144e-12
-2.58763e-12 3.88144e-12 -2.26671e-11

-2.5751e-11 -1.85037e-12 2.57076e-12
-1.85037e-12 -3.13021e-11 2.77556e-12
2.57076e-12 2.77556e-12 -2.52884e-11

-2.33352e-11 2.37079e-12 3.74411e-12
2.37079e-12 -2.00971e-11 -2.2696e-12
3.74411e-12 -2.2696e-12 -2.16391e-11

-2.48258e-11 -4.85452e-12 9.15548e-13
-4.85452e-12 -2.5751e-11 -3.56582e-13
9.15548e-13 -3.56582e-13 -2.3438e-11

-2.48772e-11 -1.40946e-12 -9.47773e-13
-1.40946e-12 -2.6265e-11 -2.73701e-12
-9.47773e-13 -2.73701e-12 -2.59566e-11

-2.74986e-11 -4.62593e-13 -3.25261e-12
-4.62593e-13 -2.9349e-11 3.72966e-12
-3.25261e-12 3.72966e-12 -2.48772e-11

-2.7293e-11 -2.70328e-12 2.12022e-13
-2.70328e-12 -2.22045e-11 -2.33224e-12
2.12022e-13 -2.33224e-12 -2.54426e-11

-2.92976e-11 -6.86661e-13 -8.52906e-13
-6.86661e-13 -2.69846e-11 -8.7218e-13
-8.52906e-13 -8.7218e-13 -2.51342e-11

-3.54141e-11 -1.04083e-12 4.62593e-13
-1.04083e-12 -3.07881e-11 -4.81868e-12
4.62593e-13 -4.81868e-12 -2.97087e-11

-2.14849e-11 1.61908e-12 -1.61908e-12
1.61908e-12 -2.37978e-11 -2.11058e-12
-1.61908e-12 -2.11058e-12 -2.53398e-11

-3.15591e-11 8.09538e-13 3.85494e-14
8.09538e-13 -2.92462e-11 3.90313e-13
3.85494e-14 3.90313e-13 -2.86294e-11

-1.82981e-11 -6.36065e-13 -2.31296e-12
-6.36065e-13 -2.56996e-11 -4.24044e-12
-2.31296e-12 -4.24044e-12 -2.41576e-11

-2.27699e-11 2.89121e-12 -7.61351e-13
2.89121e-12 -2.69332e-11 -2.69846e-13
-7.61351e-13 -2.69846e-13 -2.58538e-11

-2.51342e-11 6.36065e-13 -8.09538e-13
6.36065e-13 -2.60594e-11 9.63735e-13
-8.09538e-13 9.63735e-13 -2.18961e-11

-2.06111e-11 4.62593e-13 -9.15548e-13
4.62593e-13 -1.96859e-11 -5.20417e-13
-9.15548e-13 -5.20417e-13 -2.23073e-11

-2.27185e-11 -6.93889e-13 -1.754e-12
-6.93889e-13 -2.41062e-11 3.18033e-13
-1.754e-12 3.18033e-13 -2.56482e-11

-2.84752e-11 -1.15648e-12 1.0312e-12
-1.15648e-12 -2.2924e-11 9.39642e-13
1.0312e-12 9.39642e-13 -2.50828e-11

-2.84752e-11 -1.85037e-12 -1.06011e-12
-1.85037e-12 -2.66248e-11 4.16334e-12
-1.06011e-12 4.16334e-12 -2.69332e-11

-2.54426e-11 -1.09866e-12 -1.65281e-12
-1.09866e-12 -2.35922e-11 7.15272e-13
-1.65281e-12 7.15272e-13 -2.31296e-11

-1.84523e-11 -6.245e-12 3.7682e-12
-6.245e-12 -2.12279e-11 3.66219e-13
3.7682e-12 3.66219e-13 -2.10737e-11

-2.39006e-11 2.54426e-12 -1.20467e-13
2.54426e-12 -1.88121e-11 -1.73472e-13
-1.20467e-13 -1.73472e-13 -2.29754e-11

-3.45403e-11 -1.50343e-12 -4.68375e-12
-1.50343e-12 -2.85266e-11 -1.9082e-12
-4.68375e-12 -1.9082e-12 -2.76014e-11

-2.56482e-11 1.85037e-12 7.32439e-13
1.85037e-12 -2.56482e-11 -4.46209e-12
7.32439e-13 -4.46209e-12 -2.48772e-11

-2.58024e-11 -2.631e-12 -1.41428e-12
-2.631e-12 -2.8578e-11 -2.25514e-12
-1.41428e-12 -2.25514e-12 -2.5494e-11

-2.5237e-11 2.31296e-13 6.23537e-12
2.31296e-13 -2.47744e-11 1.3673e-13
6.23537e-12 1.3673e-13 -2.3695e-11

-2.30782e-11 3.46945e-13 -1.63353e-12
3.46945e-13 -2.16905e-11 7.22801e-14
-1.63353e-12 7.22801e-14 -2.15363e-11

-2.69332e-11 1.73472e-13 -2.46114e-12
1.73472e-13 -2.92462e-11 9.20367e-13
-2.46114e-12 9.20367e-13 -2.49286e-11

-2.82696e-11 -5.90664e-14 2.89121e-13
-5.90664e-14 -2.64192e-11 -2.59689e-12
2.89121e-13 -2.59689e-12 -2.61108e-11

-2.54426e-11 -2.32019e-12 -1.88892e-12
-2.32019e-12 -2.59052e-11 -3.38986e-12
-1.88892e-12 -3.38986e-12 -2.63678e-11

-2.6265e-11 1.38778e-12 2.89121e-14
1.38778e-12 -2.3952e-11 -1.96602e-12
2.89121e-14 -1.96602e-12 -2.41062e-11

-2.3438e-11 -3.70074e-12 3.64292e-12
-3.70074e-12 -2.62136e-11 1.9082e-12
3.64292e-12 1.9082e-12 -2.71388e-11

-2.41576e-11 1.38778e-12 1.28177e-12
1.38778e-12 -2.32324e-11 -2.12985e-12
1.28177e-12 -2.12985e-12 -2.53912e-11

-2.76014e-11 2.98517e-12 -2.55902e-12
2.98517e-12 -2.52884e-11 -4.3079e-12
-2.55902e-12 -4.3079e-12 -2.66762e-11

-2.35922e-11 -2.77556e-12 -3.18033e-12
-2.77556e-12 -1.94289e-11 1.92747e-14
-3.18033e-12 1.92747e-14 -2.35922e-11

-2.3438e-11 2.31296e-13 -8.09538e-13
2.31296e-13 -2.52884e-11 -4.51269e-12
-8.09538e-13 -4.51269e-12 -2.52884e-11

-2.68818e-11 1.38778e-12 1.57571e-12
1.38778e-12 -2.96573e-11 -4.61629e-12
1.57571e-12 -4.61629e-12 -2.7036e-11

-1.69103e-11 7.51714e-13 -6.74615e-13
7.51714e-13 -2.755e-11 9.39642e-14
-6.74615e-13 9.39642e-14 -2.64706e-11

-2.51342e-11 2.31296e-12 8.81818e-13
2.31296e-12 -2.4209e-11 -1.90338e-12
8.81818e-13 -1.90338e-12 -2.09709e-11

-2.25643e-11 5.73904e-12 1.37332e-13
5.73904e-12 -2.11765e-11 5.58966e-13
1.37332e-13 5.58966e-13 -2.22559e-11

-3.21245e-11 2.77556e-12 -1.8311e-12
2.77556e-12 -2.88864e-11 1.68654e-13
-1.8311e-12 1.68654e-13 -2.6265e-11

-2.06111e-11 -8.09538e-13 4.60665e-12
-8.09538e-13 -2.19989e-11 -3.49234e-12
4.60665e-12 -3.49234e-12 -1.99943e-11

-2.41576e-11 1.15648e-13 9.37714e-12
1.15648e-13 -2.50828e-11 -2.8382e-12
9.37714e-12 -2.8382e-12 -2.35408e-11

-2.36436e-11 -1.61908e-12 2.06239e-12
-1.61908e-12 -2.3181e-11 -6.46305e-12
2.06239e-12 -6.46305e-12 -2.28726e-11

-2.71902e-11 -1.61908e-12 -2.68882e-12
-1.61908e-12 -2.21017e-11 4.24044e-13
-2.68882e-12 4.24044e-13 -2.50314e-11

-1.99943e-11 -9.8301e-13 -3.94168e-12
-9.8301e-13 -2.6008e-11 3.00204e-12
-3.94168e-12 3.00204e-12 -2.40034e-11

-2.96573e-11 2.57317e-12 6.36065e-13
2.57317e-12 -2.68818e-11 4.30067e-13
6.36065e-13 4.30067e-13 -2.7036e-11

-1.75271e-11 6.93889e-13 -2.98758e-13
6.93889e-13 -1.79897e-11 -4.17297e-12
-2.98758e-13 -4.17297e-12 -2.24615e-11

-2.498e-11 1.15648e-13 2.84302e-13
1.15648e-13 -2.45174e-11 -8.50496e-13
2.84302e-13 -8.50496e-13 -2.26671e-11

-2.32838e-11 2.31296e-13 -4.53919e-12
2.31296e-13 -2.8835e-11 8.32185e-12
-4.53919e-12 8.32185e-12 -2.6522e-11

-2.16391e-11 3.81639e-12 -2.13949e-12
3.81639e-12 -2.44146e-11 -6.96299e-13
-2.13949e-12 -6.96299e-13 -2.27185e-11

-3.36151e-11 2.31296e-13 6.35102e-12
2.31296e-13 -3.13021e-11 -2.22623e-12
6.35102e-12 -2.22623e-12 -2.85266e-11

-2.77042e-11 -7.40149e-12 2.53462e-12
-7.40149e-12 -2.9092e-11 3.14178e-12
2.53462e-12 3.14178e-12 -2.61622e-11

-2.63164e-11 -6.93889e-13 9.34823e-13
-6.93889e-13 -2.72416e-11 1.08902e-12
9.34823e-13 1.08902e-12 -2.66248e-11

-2.63164e-11 -1.19733e-12 2.48644e-12
-1.19733e-12 -2.21531e-11 -4.46065e-12
2.48644e-12 -4.46065e-12 -2.61622e-11

-2.22045e-11 -6.93889e-13 1.81182e-12
-6.93889e-13 -2.12793e-11 -1.48415e-12
1.81182e-12 -1.48415e-12 -2.31296e-11

-2.07139e-11 3.46945e-13 -1.48415e-12
3.46945e-13 -2.53398e-11 -4.59461e-12
-1.48415e-12 -4.59461e-12 -2.5494e-11

-2.27699e-11 4.62593e-13 -5.97516e-13
4.62593e-13 -2.6008e-11 -4.70785e-12
-5.97516e-13 -4.70785e-12 -2.40034e-11

-1.82981e-11 -5.49329e-13 -3.00685e-12
-5.49329e-13 -2.2924e-11 1.25286e-13
-3.00685e-12 1.25286e-13 -2.41576e-11

-2.59566e-11 2.08167e-12 -3.98023e-12
2.08167e-12 -2.22559e-11 2.35151e-12
-3.98023e-12 2.35151e-12 -2.42604e-11

-1.92747e-11 -1.47451e-12 1.77327e-12
-1.47451e-12 -2.29754e-11 -2.3997e-12
1.77327e-12 -2.3997e-12 -2.3438e-11

-2.29754e-11 9.25186e-13 4.77049e-13
9.25186e-13 -2.3438e-11 -6.36065e-13
4.77049e-13 -6.36065e-13 -2.48258e-11

-2.44146e-11 1.23599e-12 -4.16334e-12
1.23599e-12 -2.6265e-11 1.06011e-13
-4.16334e-12 1.06011e-13 -2.64192e-11

-2.58024e-11 7.51714e-13 4.00914e-12
7.51714e-13 -2.6265e-11 4.40909e-12
4.00914e-12 4.40909e-12 -2.50314e-11

-2.66248e-11 4.04769e-13 1.88892e-12
4.04769e-13 -2.10737e-11 9.15548e-14
1.88892e-12 9.15548e-14 -2.32324e-11

-2.4466e-11 -1.61546e-12 -3.67138e-12
-1.61546e-12 -2.49286e-11 3.66219e-13
-3.67138e-12 3.66219e-13 -2.5237e-11

-2.17419e-11 5.49329e-12 -2.82374e-12
5.49329e-12 -1.71159e-11 -4.39463e-12
-2.82374e-12 -4.39463e-12 -2.22045e-11

-2.03541e-11 1.15648e-13 -2.08167e-12
1.15648e-13 -2.22045e-11 3.32489e-13
-2.08167e-12 3.32489e-13 -2.40548e-11

-2.37464e-11 -1.01192e-12 -8.67362e-14
-1.01192e-12 -2.6522e-11 4.15069e-12
-8.67362e-14 4.15069e-12 -2.55968e-11

-1.61908e-11 2.94903e-12 1.00228e-12
2.94903e-12 -2.54426e-11 -1.4456e-13
1.00228e-12 -1.4456e-13 -2.22045e-11

-1.95831e-11 6.93889e-13 1.85037e-12
6.93889e-13 -2.09709e-11 -4.84759e-12
1.85037e-12 -4.84759e-12 -2.4209e-11

-2.9092e-11 3.75857e-13 2.12022e-13
3.75857e-13 -2.53912e-11 -1.16853e-13
2.12022e-13 -1.16853e-13 -2.56996e-11

-2.43118e-11 -1.83411e-13 8.28692e-12
-1.83411e-13 -2.84752e-11 7.70988e-14
8.28692e-12 7.70988e-14 -2.3695e-11

-2.2924e-11 -9.25186e-13 -5.49329e-13
-9.25186e-13 -1.92233e-11 5.20417e-13
-5.49329e-13 5.20417e-13 -2.32324e-11

-2.23073e-11 3.06468e-12 2.54426e-12
3.06468e-12 -1.67561e-11 -3.19478e-12
2.54426e-12 -3.19478e-12 -2.26157e-11

-2.79098e-11 -2.19732e-12 3.01649e-12
-2.19732e-12 -2.60594e-11 1.54198e-13
3.01649e-12 1.54198e-13 -2.46716e-11

-2.08681e-11 1.27213e-12 -2.631e-12
1.27213e-12 -2.5494e-11 4.12961e-12
-2.631e-12 4.12961e-12 -2.33352e-11

-2.73444e-11 -4.71213e-28 -2.65991e-12
-4.71213e-28 -2.45688e-11 -9.13139e-13
-2.65991e-12 -9.13139e-13 -2.33352e-11

-2.22559e-11 -4.68375e-12 3.46945e-13
-4.68375e-12 -2.27185e-11 -3.88385e-12
3.46945e-13 -3.88385e-12 -2.19475e-11

-2.77556e-11 4.39463e-12 -1.00228e-12
4.39463e-12 -2.35922e-11 -7.999e-13
-1.00228e-12 -7.999e-13 -2.63678e-11

-2.55454e-11 -5.16803e-13 -3.04179e-14
-5.16803e-13 -2.55454e-11 -4.385e-12
-3.04179e-14 -4.385e-12 -2.4466e-11

-2.63678e-11 -2.00093e-12 -4.55365e-12
-2.00093e-12 -2.7293e-11 8.14657e-14
-4.55365e-12 8.14657e-14 -2.40548e-11

-2.68818e-11 1.73472e-13 1.86724e-12
1.73472e-13 -2.59566e-11 3.83085e-12
1.86724e-12 3.83085e-12 -2.24101e-11

-2.24101e-11 1.04806e-13 8.52906e-13
1.04806e-13 -2.28726e-11 5.6988e-12
8.52906e-13 5.6988e-12 -1.97887e-11

-2.44146e-11 -4.62593e-13 9.63735e-14
-4.62593e-13 -2.53398e-11 -2.76592e-12
9.63735e-14 -2.76592e-12 -2.45688e-11

-2.7807e-11 -1.85037e-12 -4.57051e-12
-1.85037e-12 -2.64192e-11 1.84073e-12
-4.57051e-12 1.84073e-12 -2.10223e-11

-2.32324e-11 1.85037e-12 1.98529e-12
1.85037e-12 -2.8321e-11 4.04769e-13
1.98529e-12 4.04769e-13 -2.40034e-11

-2.40034e-11 -5.56557e-13 -2.51053e-12
-5.56557e-13 -2.4466e-11 1.84013e-13
-2.51053e-12 1.84013e-13 -2.33866e-11

-2.5237e-11 -2.65991e-12 -2.33224e-12
-2.65991e-12 -2.47744e-11 9.49279e-13
-2.33224e-12 9.49279e-13 -2.3695e-11

-2.82182e-11 -2.89121e-13 1.5998e-12
-2.89121e-13 -2.54426e-11 2.84422e-12
1.5998e-12 2.84422e-12 -2.68304e-11

-2.01999e-11 7.44485e-13 2.59245e-12
7.44485e-13 -2.29754e-11 1.34923e-12
2.59245e-12 1.34923e-12 -2.25129e-11

-2.16905e-11 1.79255e-12 -1.0842e-14
1.79255e-12 -1.75271e-11 1.92747e-14
-1.0842e-14 1.92747e-14 -2.15363e-11

-2.2924e-11 -6.93889e-13 4.25971e-12
-6.93889e-13 -2.38492e-11 -7.70988e-14
4.25971e-12 -7.70988e-14 -2.41576e-11

-2.92462e-11 -5.92697e-13 -6.26428e-13
-5.92697e-13 -2.8321e-11 6.74615e-14
-6.26428e-13 6.74615e-14 -2.63164e-11

-2.66762e-11 -5.78241e-13 -3.23333e-12
-5.78241e-13 -2.52884e-11 3.5851e-12
-3.23333e-12 3.5851e-12 -2.48258e-11

-2.77556e-11 -1.07706e-27 -3.21888e-12
-1.07706e-27 -2.17419e-11 -1.9082e-12
-3.21888e-12 -1.9082e-12 -2.54426e-11

-2.40034e-11 1.15648e-13 2.9153e-13
1.15648e-13 -2.4466e-11 4.81868e-14
2.9153e-13 4.81868e-14 -2.33866e-11

-2.11251e-11 -8.09538e-13 1.93711e-12
-8.09538e-13 -2.25129e-11 -2.44307e-12
1.93711e-12 -2.44307e-12 -2.20503e-11

-2.7036e-11 -1.85037e-12 -1.93229e-12
-1.85037e-12 -2.4723e-11 3.46945e-13
-1.93229e-12 3.46945e-13 -2.44146e-11

-1.92233e-11 -1.56125e-12 -6.02335e-13
-1.56125e-12 -2.755e-11 3.85494e-14
-6.02335e-13 3.85494e-14 -2.41576e-11

-2.44146e-11 -3.00685e-12 4.52956e-13
-3.00685e-12 -2.07139e-11 4.55847e-12
4.52956e-13 4.55847e-12 -2.36436e-11

-2.63164e-11 2.26237e-12 -3.67183e-12
2.26237e-12 -2.63164e-11 4.90541e-12
-3.67183e-12 4.90541e-12 -2.47744e-11

-1.94289e-11 2.37079e-12 6.28355e-12
2.37079e-12 -2.63678e-11 1.4456e-14
6.28355e-12 1.4456e-14 -2.35922e-11

-2.14335e-11 1.15648e-13 1.49379e-12
1.15648e-13 -2.32838e-11 -1.95638e-12
1.49379e-12 -1.95638e-12 -2.28213e-11

-2.4723e-11 4.62593e-12 -3.30561e-12
4.62593e-12 -2.05597e-11 -2.04312e-12
-3.30561e-12 -2.04312e-12 -2.25643e-11

-2.35922e-11 4.49583e-12 -3.85494e-13
4.49583e-12 -2.08167e-11 -3.77302e-12
-3.85494e-13 -3.77302e-12 -2.498e-11

-2.43632e-11 9.25186e-13 2.07203e-12
9.25186e-13 -2.8064e-11 4.48137e-13
2.07203e-12 4.48137e-13 -2.43632e-11

-2.86294e-11 -1.32995e-12 2.3744e-12
-1.32995e-12 -3.32553e-11 4.43318e-13
2.3744e-12 4.43318e-13 -2.66248e-11

-2.79612e-11 3.5851e-12 5.11743e-12
3.5851e-12 -3.30497e-11 -3.63328e-12
5.11743e-12 -3.63328e-12 -2.6265e-11

-3.03255e-11 9.03502e-13 -1.39742e-13
9.03502e-13 -2.2924e-11 3.80254e-12
-1.39742e-13 3.80254e-12 -2.04569e-11

-2.63678e-11 1.62811e-12 7.34848e-13
1.62811e-12 -2.22045e-11 9.35136e-12
7.34848e-13 9.35136e-12 -2.08167e-11

-2.06625e-11 -2.42861e-12 -5.49329e-13
-2.42861e-12 -2.52884e-11 -4.05733e-12
-5.49329e-13 -4.05733e-12 -2.52884e-11

-2.4723e-11 2.89121e-12 4.18261e-12
2.89121e-12 -3.02741e-11 9.63735e-14
4.18261e-12 9.63735e-14 -2.67276e-11

-2.35922e-11 -9.25186e-13 2.38043e-12
-9.25186e-13 -2.59052e-11 -3.06468e-12
2.38043e-12 -3.06468e-12 -2.54426e-11

-2.27185e-11 -1.89735e-13 4.39463e-12
-1.89735e-13 -2.45688e-11 -8.80613e-13
4.39463e-12 -8.80613e-13 -2.24101e-11

-2.6265e-11 1.96602e-12 -1.3685e-12
1.96602e-12 -2.53398e-11 1.80218e-12
-1.3685e-12 1.80218e-12 -2.5494e-11

-2.71388e-11 -1.4456e-12 1.68654e-12
-1.4456e-12 -2.89892e-11 2.25514e-12
1.68654e-12 2.25514e-12 -2.62136e-11

-2.3695e-11 1.85037e-12 4.96324e-13
1.85037e-12 -2.78584e-11 2.65027e-12
4.96324e-13 2.65027e-12 -2.40034e-11

-2.72416e-11 -2.20454e-12 2.30122e-12
-2.20454e-12 -3.27927e-11 -2.65991e-12
2.30122e-12 -2.65991e-12 -2.56996e-11

-2.71388e-11 -1.15648e-13 4.57533e-12
-1.15648e-13 -2.8064e-11 -1.39742e-13
4.57533e-12 -1.39742e-13 -2.71388e-11

-2.65734e-11 -2.89121e-12 1.92747e-14
-2.89121e-12 -2.9349e-11 3.56582e-13
1.92747e-14 3.56582e-13 -2.58024e-11

-3.13535e-11 2.08167e-12 -2.94421e-12
2.08167e-12 -3.04283e-11 -1.9082e-12
-2.94421e-12 -1.9082e-12 -2.64192e-11

-2.87322e-11 -6.03539e-13 -3.56582e-12
-6.03539e-13 -2.27185e-11 -3.1996e-12
-3.56582e-12 -3.1996e-12 -2.65734e-11

-2.79612e-11 7.17019e-12 8.26885e-12
7.17019e-12 -2.42604e-11 -2.21659e-13
8.26885e-12 -2.21659e-13 -2.67276e-11

-2.77042e-11 -1.93711e-12 -1.57089e-12
-1.93711e-12 -3.41805e-11 1.34923e-13
-1.57089e-12 1.34923e-13 -2.66248e-11

-2.66248e-11 3.46945e-13 -2.40934e-14
3.46945e-13 -2.38492e-11 -4.35608e-12
-2.40934e-14 -4.35608e-12 -2.6008e-11

-2.42604e-11 -6.93889e-13 5.78241e-14
-6.93889e-13 -2.42604e-11 -6.69796e-13
5.78241e-14 -6.69796e-13 -2.48772e-11

-2.62136e-11 3.23815e-12 -2.38043e-12
3.23815e-12 -3.08395e-11 -6.84252e-13
-2.38043e-12 -6.84252e-13 -2.52884e-11

-3.19703e-11 -1.02638e-12 1.4456e-14
-1.02638e-12 -2.96573e-11 -9.39642e-13
1.4456e-14 -9.39642e-13 -2.74986e-11

-2.41062e-11 -2.54426e-12 -3.6646e-12
-2.54426e-12 -1.94803e-11 -1.69617e-12
-3.6646e-12 -1.69617e-12 -2.33352e-11

-2.8835e-11 1.34632e-28 5.01142e-13
1.34632e-28 -2.83724e-11 -1.70822e-12
5.01142e-13 -1.70822e-12 -2.69846e-11

-2.12279e-11 -3.93204e-12 3.2767e-12
-3.93204e-12 -2.35408e-11 -4.3609e-13
3.2767e-12 -4.3609e-13 -2.15363e-11

-2.67276e-11 -1.6769e-12 -3.66822e-12
-1.6769e-12 -2.3952e-11 -4.63075e-12
-3.66822e-12 -4.63075e-12 -2.64192e-11

-2.16391e-11 2.89121e-12 4.85723e-12
2.89121e-12 -1.84009e-11 -4.60665e-12
4.85723e-12 -4.60665e-12 -2.04055e-11

-3.88064e-11 -1.38778e-12 4.18261e-12
-1.38778e-12 -2.72416e-11 3.88385e-12
4.18261e-12 3.88385e-12 -2.80126e-11

-2.20503e-11 -9.1073e-13 4.50546e-12
-9.1073e-13 -2.20503e-11 6.50521e-13
4.50546e-12 6.50521e-13 -2.15877e-11

-2.69332e-11 -2.31296e-13 -1.38778e-12
-2.31296e-13 -2.46202e-11 4.23562e-12
-1.38778e-12 4.23562e-12 -2.40034e-11

-1.98915e-11 2.74665e-13 -7.37257e-13
2.74665e-13 -2.31296e-11 2.10395e-12
-7.37257e-13 2.10395e-12 -2.08167e-11

-2.33352e-11 3.46945e-13 7.22801e-14
3.46945e-13 -2.79612e-11 -1.92747e-12
7.22801e-14 -1.92747e-12 -2.21017e-11

-2.96059e-11 -8.09538e-13 1.51788e-12
-8.09538e-13 -2.40548e-11 5.60894e-12
1.51788e-12 5.60894e-12 -2.40548e-11

-2.5751e-11 -1.15648e-12 3.43572e-12
-1.15648e-12 -2.48258e-11 2.90084e-12
3.43572e-12 2.90084e-12 -2.3438e-11

-2.79612e-11 -2.05998e-13 -4.62894e-12
-2.05998e-13 -3.11993e-11 1.06975e-12
-4.62894e-12 1.06975e-12 -2.81154e-11

-2.51856e-11 -1.15648e-12 -2.29128e-12
-1.15648e-12 -1.96345e-11 -4.77049e-12
-2.29128e-12 -4.77049e-12 -2.30268e-11

-2.45688e-11 6.4763e-12 -7.70988e-14
6.4763e-12 -3.38207e-11 -1.94675e-12
-7.70988e-14 -1.94675e-12 -2.79612e-11

-2.58024e-11 4.62593e-13 2.35874e-12
4.62593e-13 -2.8578e-11 -9.92647e-13
2.35874e-12 -9.92647e-13 -2.5494e-11

-2.19475e-11 -5.84024e-12 2.64063e-12
-5.84024e-12 -2.65734e-11 2.90084e-12
2.64063e-12 2.90084e-12 -2.48772e-11

-2.498e-11 -4.04769e-13 -2.62377e-12
-4.04769e-13 -2.35922e-11 6.93889e-13
-2.62377e-12 6.93889e-13 -2.35922e-11

-1.77327e-11 -2.54426e-12 -2.33224e-12
-2.54426e-12 -2.28213e-11 -2.64545e-12
-2.33224e-12 -2.64545e-12 -2.4209e-11

-2.3695e-11 -2.19732e-12 -4.53919e-12
-2.19732e-12 -2.55454e-11 2.01903e-12
-4.53919e-12 2.01903e-12 -2.35408e-11

-2.6522e-11 2.13949e-12 -2.60209e-13
2.13949e-12 -2.60594e-11 -3.32248e-12
-2.60209e-13 -3.32248e-12 -2.60594e-11

-2.37464e-11 1.4456e-13 -2.69846e-12
1.4456e-13 -2.83724e-11 3.86458e-12
-2.69846e-12 3.86458e-12 -2.09709e-11

-2.29754e-11 4.27898e-12 3.98505e-12
4.27898e-12 -2.43632e-11 3.47908e-12
3.98505e-12 3.47908e-12 -2.39006e-11

-1.90691e-11 -6.36065e-13 5.22826e-12
-6.36065e-13 -2.18447e-11 1.16853e-13
5.22826e-12 1.16853e-13 -2.07653e-11

-2.51856e-11 -6.93889e-13 -9.8301e-13
-6.93889e-13 -2.61108e-11 5.05961e-13
-9.8301e-13 5.05961e-13 -2.76528e-11

-2.27699e-11 1.16371e-12 -7.6617e-13
1.16371e-12 -2.23073e-11 -5.63785e-13
-7.6617e-13 -5.63785e-13 -2.21531e-11

-2.69846e-11 1.09866e-12 4.32235e-12
1.09866e-12 -2.8835e-11 6.21609e-13
4.32235e-12 6.21609e-13 -2.55968e-11

-2.40034e-11 2.31296e-12 -1.73472e-13
2.31296e-12 -1.98401e-11 -1.32995e-12
-1.73472e-13 -1.32995e-12 -2.24615e-11

-3.18161e-11 1.15648e-12 -4.00914e-12
1.15648e-12 -1.51628e-11 -1.64799e-12
-4.00914e-12 -1.64799e-12 -2.45688e-11

-2.08167e-11 -4.62593e-13 -1.68654e-12
-4.62593e-13 -2.59052e-11 8.14356e-13
-1.68654e-12 8.14356e-13 -2.54426e-11

-2.04569e-11 2.31296e-12 -4.24044e-13
2.31296e-12 -2.32324e-11 3.43572e-12
-4.24044e-13 3.43572e-12 -2.35408e-11

-2.63678e-11 -7.93275e-13 5.44029e-12
-7.93275e-13 -2.45174e-11 -8.33631e-13
5.44029e-12 -8.33631e-13 -2.40548e-11

-2.81668e-11 -5.20417e-13 1.92747e-14
-5.20417e-13 -2.81668e-11 -5.54148e-13
1.92747e-14 -5.54148e-13 -2.38492e-11

-2.5494e-11 -6.36065e-13 -4.55124e-12
-6.36065e-13 -2.36436e-11 3.22851e-13
-4.55124e-12 3.22851e-13 -2.33352e-11

-3.54141e-11 -3.3538e-12 -4.62593e-13
-3.3538e-12 -2.61622e-11 2.21659e-13
-4.62593e-13 2.21659e-13 -2.6008e-11

-2.8835e-11 -3.93204e-12 1.40705e-12
-3.93204e-12 -2.60594e-11 5.17044e-12
1.40705e-12 5.17044e-12 -2.6522e-11

-2.68304e-11 5.20417e-13 -9.48075e-13
5.20417e-13 -2.96059e-11 -3.85494e-13
-9.48075e-13 -3.85494e-13 -2.68304e-11

-2.77556e-11 7.51714e-13 3.95613e-12
7.51714e-13 -2.68304e-11 -4.09467e-12
3.95613e-12 -4.09467e-12 -2.59052e-11

-2.45688e-11 -6.50521e-13 -4.5398e-12
-6.50521e-13 -2.04055e-11 2.51535e-12
-4.5398e-12 2.51535e-12 -2.4723e-11

-2.35408e-11 1.2649e-12 -3.2767e-13
1.2649e-12 -2.40034e-11 3.3538e-12
-3.2767e-13 3.3538e-12 -2.43118e-11

-2.62136e-11 4.48137e-13 -3.86458e-12
4.48137e-13 -2.48258e-11 2.5539e-12
-3.86458e-12 2.5539e-12 -2.5751e-11

-2.82696e-11 -1.79255e-12 8.51942e-12
-1.79255e-12 -2.50314e-11 8.14356e-13
8.51942e-12 8.14356e-13 -2.4723e-11

-2.52884e-11 3.32489e-13 -1.8582e-12
3.32489e-13 -2.11251e-11 -2.69846e-12
-1.8582e-12 -2.69846e-12 -2.20503e-11

-3.42833e-11 -3.93204e-12 4.55847e-12
-3.93204e-12 -2.68818e-11 -2.59245e-12
4.55847e-12 -2.59245e-12 -2.79612e-11

-2.46202e-11 1.6769e-12 -4.51028e-12
1.6769e-12 -2.8321e-11 2.98758e-12
-4.51028e-12 2.98758e-12 -2.53912e-11

-2.00457e-11 -5.78241e-14 3.8453e-12
-5.78241e-14 -2.18961e-11 1.8311e-13
3.8453e-12 1.8311e-13 -2.28213e-11

-3.09423e-11 -8.67362e-13 4.99697e-12
-8.67362e-13 -2.72416e-11 1.06011e-13
4.99697e-12 1.06011e-13 -2.755e-11

-2.19475e-11 4.33681e-14 -3.28634e-12
4.33681e-14 -2.56482e-11 -4.39945e-12
-3.28634e-12 -4.39945e-12 -2.58024e-11

-2.70874e-11 2.89121e-13 2.09612e-12
2.89121e-13 -2.24615e-11 -4.8765e-12
2.09612e-12 -4.8765e-12 -2.41576e-11

-2.37464e-11 1.27213e-12 -2.6069e-12
1.27213e-12 -2.4209e-11 -5.87879e-12
-2.6069e-12 -5.87879e-12 -2.51342e-11

-2.41576e-11 6.59195e-12 -5.1849e-12
6.59195e-12 -3.34095e-11 4.7223e-13
-5.1849e-12 4.7223e-13 -2.63164e-11

-2.7036e-11 5.89806e-12 2.91771e-12
5.89806e-12 -2.56482e-11 -8.35558e-12
2.91771e-12 -8.35558e-12 -1.79383e-11

-1.85551e-11 5.78241e-13 -3.75857e-13
5.78241e-13 -2.22559e-11 -4.81868e-13
-3.75857e-13 -4.81868e-13 -2.05597e-11

-2.44146e-11 -6.77626e-13 2.67602e-12
-6.77626e-13 -2.76528e-11 2.09612e-12
2.67602e-12 2.09612e-12 -2.22559e-11

-2.72416e-11 4.62593e-13 5.24754e-12
4.62593e-13 -2.21531e-11 3.72966e-12
5.24754e-12 3.72966e-12 -2.5237e-11

-9.30326e-12 4.08383e-12 -9.36329e-13
4.08383e-12 -2.87322e-11 4.48498e-12
-9.36329e-13 4.48498e-12 -9.45746e-12

-8.84067e-12 -4.74158e-12 1.88049e-12
-4.74158e-12 -2.7807e-11 -2.76712e-12
1.88049e-12 -2.76712e-12 -8.06968e-12

-1.45974e-11 -1.14347e-11 -2.09733e-12
-1.14347e-11 -2.01485e-11 1.8823e-12
-2.09733e-12 1.8823e-12 -8.42947e-12

-1.63449e-11 1.12432e-11 4.63466e-12
1.12432e-11 -2.00457e-11 -4.14045e-12
4.63466e-12 -4.14045e-12 -8.94346e-12

-2.84752e-11 5.49329e-13 -3.65256e-12
5.49329e-13 -7.19589e-12 3.25261e-14
-3.65256e-12 3.25261e-14 -7.50429e-12

-2.26157e-11 7.08345e-12 -2.7611e-12
7.08345e-12 -1.1976e-11 9.81805e-13
-2.7611e-12 9.81805e-13 -9.50885e-12

-2.3438e-11 -7.69061e-12 1.49499e-12
-7.69061e-12 -1.37236e-11 -2.77797e-12
1.49499e-12 -2.77797e-12 -1.18732e-11

-3.50543e-11 -9.25186e-13 -2.35151e-12
-9.25186e-13 -2.81154e-11 -5.34873e-13
-2.35151e-12 -5.34873e-13 -2.7807e-11

-2.33352e-11 9.25186e-13 -1.25286e-13
9.25186e-13 -3.16619e-11 8.52906e-13
-1.25286e-13 8.52906e-13 -2.67276e-11

-3.91148e-11 -1.03361e-12 6.58231e-12
-1.03361e-12 -2.66248e-11 -1.82507e-12
6.58231e-12 -1.82507e-12 -3.01713e-11

-2.03541e-11 2.02384e-12 2.1684e-12
2.02384e-12 -1.98915e-11 1.30104e-13
2.1684e-12 1.30104e-13 -2.35922e-11

-2.4723e-11 -1.73472e-12 1.04806e-12
-1.73472e-12 -2.56482e-11 -4.71267e-12
1.04806e-12 -4.71267e-12 -2.30268e-11

-2.71388e-11 2.60209e-12 3.71038e-13
2.60209e-12 -2.66762e-11 -1.20467e-13
3.71038e-13 -1.20467e-13 -2.5751e-11

-2.3438e-11 1.56125e-12 2.7081e-12
1.56125e-12 -2.62136e-11 4.67412e-12
2.7081e-12 4.67412e-12 -2.43632e-11

-2.95545e-11 1.79255e-12 6.74133e-12
1.79255e-12 -3.00171e-11 -1.86001e-12
6.74133e-12 -1.86001e-12 -2.61622e-11

-2.48258e-11 2.25514e-12 -3.23454e-13
2.25514e-12 -2.25129e-11 4.49101e-12
-3.23454e-13 4.49101e-12 -2.39006e-11

-2.35408e-11 -1.73472e-12 1.61908e-12
-1.73472e-12 -2.16905e-11 -2.31296e-12
1.61908e-12 -2.31296e-12 -2.38492e-11

-2.4466e-11 -1.43115e-12 1.89103e-12
-1.43115e-12 -2.40034e-11 -4.33681e-13
1.89103e-12 -4.33681e-13 -2.33866e-11

-3.96288e-11 2.31296e-12 2.40934e-13
2.31296e-12 -2.99143e-11 3.73929e-12
2.40934e-13 3.73929e-12 -2.94518e-11

-2.56996e-11 -2.55872e-12 -3.72002e-12
-2.55872e-12 -2.43118e-11 1.97566e-12
-3.72002e-12 1.97566e-12 -2.3695e-11

-2.52884e-11 1.79255e-12 1.17576e-12
1.79255e-12 -2.94518e-11 -1.77327e-12
1.17576e-12 -1.77327e-12 -2.76014e-11

-2.70874e-11 1.85037e-12 -1.99493e-12
1.85037e-12 -2.2924e-11 4.38861e-12
-1.99493e-12 4.38861e-12 -2.3695e-11

-2.58024e-11 1.95518e-12 5.01142e-12
1.95518e-12 -2.67276e-11 -1.1083e-13
5.01142e-12 -1.1083e-13 -2.73444e-11

-1.95317e-11 1.37332e-13 7.4834e-12
1.37332e-13 -2.55454e-11 8.7218e-13
7.4834e-12 8.7218e-13 -2.49286e-11

-1.88121e-11 -4.04769e-12 -1.41669e-12
-4.04769e-12 -2.20503e-11 2.21659e-12
-1.41669e-12 2.21659e-12 -2.48258e-11

-2.6779e-11 1.73472e-12 2.31296e-12
1.73472e-12 -2.49286e-11 -3.85494e-13
2.31296e-12 -3.85494e-13 -2.56996e-11

-3.26899e-11 -2.37079e-12 4.96324e-12
-2.37079e-12 -2.62136e-11 -8.7218e-13
4.96324e-12 -8.7218e-13 -2.62136e-11

-2.43118e-11 -1.16732e-12 4.81386e-12
-1.16732e-12 -2.84752e-11 7.999e-13
4.81386e-12 7.999e-13 -2.3695e-11

-2.55454e-11 -1.50343e-12 2.38524e-12
-1.50343e-12 -1.72187e-11 2.26478e-12
2.38524e-12 2.26478e-12 -2.16905e-11

-1.85037e-11 -8.81818e-13 2.43825e-12
-8.81818e-13 -2.31296e-11 3.84952e-12
2.43825e-12 3.84952e-12 -2.22045e-11

-2.42604e-11 -3.75857e-13 -1.22394e-12
-3.75857e-13 -2.51856e-11 -6.96299e-13
-1.22394e-12 -6.96299e-13 -2.3952e-11

-2.23073e-11 3.3538e-12 5.47402e-12
3.3538e-12 -2.55454e-11 1.01674e-12
5.47402e-12 1.01674e-12 -2.21531e-11

-2.99657e-11 2.89121e-12 -4.33681e-13
2.89121e-12 -2.8578e-11 9.25186e-13
-4.33681e-13 9.25186e-13 -2.68818e-11

-2.55968e-11 8.09538e-13 6.45703e-12
8.09538e-13 -2.09709e-11 1.1083e-13
6.45703e-12 1.1083e-13 -2.37464e-11

-2.4209e-11 1.04083e-12 3.93686e-12
1.04083e-12 -2.05083e-11 5.21863e-12
3.93686e-12 5.21863e-12 -2.55968e-11

-2.04055e-11 1.09866e-12 1.39742e-13
1.09866e-12 -1.99429e-11 2.98758e-13
1.39742e-13 2.98758e-13 -2.10223e-11

-2.35922e-11 2.31296e-13 -3.31525e-12
2.31296e-13 -2.40548e-11 -7.85444e-13
-3.31525e-12 -7.85444e-13 -2.45174e-11

-2.43118e-11 4.57759e-12 4.63737e-12
4.57759e-12 -2.33866e-11 -5.48365e-12
4.63737e-12 -5.48365e-12 -2.32324e-11

-2.45174e-11 6.21609e-13 4.62563e-12
6.21609e-13 -2.82182e-11 1.73472e-13
4.62563e-12 1.73472e-13 -2.498e-11

-2.8835e-11 1.96602e-12 2.63582e-12
1.96602e-12 -2.79098e-11 -2.97794e-12
2.63582e-12 -2.97794e-12 -2.74472e-11

-2.74986e-11 3.26706e-12 -4.50305e-12
3.26706e-12 -3.07367e-11 -4.45246e-12
-4.50305e-12 -4.45246e-12 -2.6265e-11

-2.40034e-11 4.10551e-12 -3.98023e-12
4.10551e-12 -2.26157e-11 -4.86686e-13
-3.98023e-12 -4.86686e-13 -2.5237e-11

-3.41805e-11 -1.9082e-12 -1.57089e-12
-1.9082e-12 -2.77042e-11 -3.37307e-13
-1.57089e-12 -3.37307e-13 -2.66248e-11

-2.4723e-11 2.89121e-13 -8.10742e-13
2.89121e-13 -2.10223e-11 6.50521e-12
-8.10742e-13 6.50521e-12 -2.21017e-11

-2.49286e-11 2.05998e-12 3.61913e-12
2.05998e-12 -2.58538e-11 4.82831e-12
3.61913e-12 4.82831e-12 -2.38492e-11

-2.26157e-11 8.09538e-13 -6.61604e-12
8.09538e-13 -2.26157e-11 -6.74615e-14
-6.61604e-12 -6.74615e-14 -2.38492e-11

-2.8835e-11 -1.82146e-12 -2.17804e-12
-1.82146e-12 -2.51342e-11 -1.09083e-12
-2.17804e-12 -1.09083e-12 -2.46716e-11

-2.50828e-11 3.5851e-12 -3.66219e-13
3.5851e-12 -3.34095e-11 -4.81868e-14
-3.66219e-13 -4.81868e-14 -2.53912e-11

-2.71388e-11 -2.1937e-12 -3.57546e-12
-2.1937e-12 -2.11251e-11 2.66955e-12
-3.57546e-12 2.66955e-12 -2.5751e-11

-2.9092e-11 -5.31982e-12 -4.90541e-12
-5.31982e-12 -2.49286e-11 6.04262e-12
-4.90541e-12 6.04262e-12 -2.61622e-11

-2.08681e-11 -1.33989e-12 4.53618e-12
-1.33989e-12 -2.17933e-11 4.45246e-12
4.53618e-12 4.45246e-12 -1.87093e-11

-2.89892e-11 3.3538e-12 -9.54098e-13
3.3538e-12 -2.52884e-11 -5.87878e-13
-9.54098e-13 -5.87878e-13 -2.52884e-11

-2.71902e-11 -3.64292e-12 -4.62593e-12
-3.64292e-12 -2.16391e-11 2.41898e-12
-4.62593e-12 2.41898e-12 -2.5494e-11

-2.50828e-11 -3.03577e-13 -3.5598e-13
-3.03577e-13 -2.27699e-11 1.8311e-13
-3.5598e-13 1.8311e-13 -2.49286e-11

-2.68304e-11 3.29597e-12 -4.34645e-12
3.29597e-12 -2.86808e-11 -1.05529e-12
-4.34645e-12 -1.05529e-12 -2.77556e-11

-2.60594e-11 -9.25186e-13 1.27936e-12
-9.25186e-13 -2.46716e-11 -7.70988e-13
1.27936e-12 -7.70988e-13 -2.51342e-11

-2.17419e-11 -3.61401e-14 -4.38018e-12
-3.61401e-14 -2.498e-11 9.1073e-13
-4.38018e-12 9.1073e-13 -1.71159e-11

-2.24615e-11 -1.50343e-12 -6.45462e-12
-1.50343e-12 -2.24615e-11 -1.8311e-12
-6.45462e-12 -1.8311e-12 -2.32324e-11

-2.61108e-11 -2.42861e-12 4.9536e-12
-2.42861e-12 -2.74986e-11 2.69364e-12
4.9536e-12 2.69364e-12 -2.53398e-11

-2.68818e-11 -3.23815e-12 -1.38718e-12
-3.23815e-12 -3.24329e-11 -3.45499e-12
-1.38718e-12 -3.45499e-12 -2.14849e-11

-5.41748e-11 -1.31261e-11 -1.5227e-12
-1.31261e-11 -4.49229e-11 -1.85134e-11
-1.5227e-12 -1.85134e-11 -3.7213e-11

-7.25243e-11 2.89121e-12 7.86408e-12
2.89121e-12 -2.8578e-11 -1.30683e-11
7.86408e-12 -1.30683e-11 -3.42833e-11

-2.74986e-11 2.96349e-12 8.67362e-14
2.96349e-12 -2.79612e-11 5.04034e-12
8.67362e-14 5.04034e-12 -2.6265e-11

-2.3952e-11 -1.17817e-12 -5.21863e-12
-1.17817e-12 -2.6265e-11 -1.1083e-12
-5.21863e-12 -1.1083e-12 -2.41062e-11

-2.82696e-11 -2.25514e-12 3.57546e-12
-2.25514e-12 -2.91948e-11 5.47643e-12
3.57546e-12 5.47643e-12 -2.61108e-11

-1.75785e-11 5.78241e-13 -2.62136e-12
5.78241e-13 -2.08167e-11 -7.60146e-13
-2.62136e-12 -7.60146e-13 -1.98915e-11

1.26956e-11 -7.40149e-12 5.97516e-13
-7.40149e-12 -2.98629e-11 1.0418e-11
5.97516e-13 1.0418e-11 -1.76813e-11

-4.06054e-12 -1.06396e-11 -3.37307e-12
-1.06396e-11 -2.07139e-11 -1.06011e-13
-3.37307e-12 -1.06011e-13 -2.17933e-11

-2.04569e-11 -2.81667e-12 4.48137e-12
-2.81667e-12 -2.41576e-11 4.04996e-12
4.48137e-12 4.04996e-12 -2.26157e-11

-2.37464e-11 2.13949e-12 -4.65966e-12
2.13949e-12 -2.74472e-11 -1.94675e-12
-4.65966e-12 -1.94675e-12 -2.46716e-11

-2.45688e-11 -2.16524e-12 6.4751e-14
-2.16524e-12 -2.82696e-11 4.24044e-13
6.4751e-14 4.24044e-13 -2.51856e-11

-2.6779e-11 -5.78241e-12 -7.36053e-12
-5.78241e-12 -2.6779e-11 -1.04806e-12
-7.36053e-12 -1.04806e-12 -1.82981e-11

-2.61108e-11 -1.15648e-12 1.20467e-12
-1.15648e-12 -2.4723e-11 -5.46438e-12
1.20467e-12 -5.46438e-12 -2.53398e-11

-3.9012e-11 1.15648e-12 -6.37993e-12
1.15648e-12 -2.79098e-11 -6.26428e-13
-6.37993e-12 -6.26428e-13 -2.83724e-11

-1.92747e-11 6.14381e-13 -6.64977e-13
6.14381e-13 -2.3438e-11 -4.53739e-12
-6.64977e-13 -4.53739e-12 -2.5751e-11

-3.22787e-11 -2.31296e-13 -4.71267e-12
-2.31296e-13 -2.34894e-11 -2.60209e-13
-4.71267e-12 -2.60209e-13 -2.68818e-11

-3.94232e-11 -9.25186e-13 -5.20417e-13
-9.25186e-13 -3.20217e-11 1.0071e-12
-5.20417e-13 1.0071e-12 -3.18675e-11

-2.30782e-11 -4.91505e-12 -5.5981e-12
-4.91505e-12 -2.07653e-11 -1.103e-11
-5.5981e-12 -1.103e-11 -1.41348e-11

-2.4209e-11 -2.31296e-13 -1.92747e-12
-2.31296e-13 -2.79098e-11 2.62136e-12
-1.92747e-12 2.62136e-12 -2.6522e-11

-2.65734e-11 2.61654e-12 3.73447e-12
2.61654e-12 -3.30497e-11 6.44739e-12
3.73447e-12 6.44739e-12 -2.48772e-11

-2.33866e-11 3.96095e-12 4.51028e-12
3.96095e-12 -2.43118e-11 -2.5539e-13
4.51028e-12 -2.5539e-13 -2.32324e-11

-2.45174e-11 1.6769e-12 2.5539e-12
1.6769e-12 -2.86808e-11 1.92747e-14
2.5539e-12 1.92747e-14 -2.45174e-11

-2.51342e-11 2.04262e-28 5.93179e-12
2.04262e-28 -2.74472e-11 -8.67362e-13
5.93179e-12 -8.67362e-13 -2.60594e-11

-2.59566e-11 4.62593e-13 -2.12022e-12
4.62593e-13 -2.7807e-11 -2.31296e-13
-2.12022e-12 -2.31296e-13 -2.42604e-11

-2.7807e-11 2.77556e-12 5.21863e-12
2.77556e-12 -3.19703e-11 -4.48137e-12
5.21863e-12 -4.48137e-12 -2.65734e-11

-2.00971e-11 6.93889e-13 -3.37307e-12
6.93889e-13 -2.61108e-11 -5.41619e-12
-3.37307e-12 -5.41619e-12 -2.44146e-11

-2.3952e-11 -2.78279e-13 -5.23188e-12
-2.78279e-13 -2.8578e-11 -8.19175e-14
-5.23188e-12 -8.19175e-14 -1.90177e-11

-2.32838e-11 1.01192e-12 -1.78773e-12
1.01192e-12 -2.83724e-11 -8.67362e-13
-1.78773e-12 -8.67362e-13 -2.14335e-11

-2.58024e-11 7.73398e-13 8.73385e-14
7.73398e-13 -2.99657e-11 2.01421e-12
8.73385e-14 2.01421e-12 -2.68818e-11

-2.07139e-11 1.27213e-12 2.08167e-12
1.27213e-12 -2.3952e-11 1.87928e-13
2.08167e-12 1.87928e-13 -2.41062e-11

-2.03541e-11 1.73472e-13 6.02335e-13
1.73472e-13 -2.26671e-11 -1.39742e-13
6.02335e-13 -1.39742e-13 -2.35922e-11

-2.64192e-11 -1.38778e-12 4.98733e-13
-1.38778e-12 -3.38207e-11 4.54883e-12
4.98733e-13 4.54883e-12 -2.88864e-11

-2.58538e-11 3.5851e-12 -3.31284e-12
3.5851e-12 -1.89149e-11 -3.74893e-12
-3.31284e-12 -3.74893e-12 -2.43118e-11

-1.93261e-11 -4.91505e-13 4.56811e-12
-4.91505e-13 -2.34894e-11 5.78241e-14
4.56811e-12 5.78241e-14 -2.3181e-11

-3.08909e-11 6.36065e-13 -1.17817e-12
6.36065e-13 -2.99657e-11 -2.20695e-12
-1.17817e-12 -2.20695e-12 -2.45688e-11

-2.31296e-11 -9.25186e-13 3.73447e-12
-9.25186e-13 -2.63678e-11 1.91301e-12
3.73447e-12 1.91301e-12 -1.98915e-11

-2.53398e-11 1.18539e-12 4.71507e-12
1.18539e-12 -2.71902e-11 3.81639e-12
4.71507e-12 3.81639e-12 -2.45688e-11

-2.48258e-11 2.31296e-12 -1.19503e-12
2.31296e-12 -2.89892e-11 2.26478e-13
-1.19503e-12 2.26478e-13 -2.5751e-11

-2.25643e-11 2.31296e-13 4.00914e-12
2.31296e-13 -2.34894e-11 -2.30574e-12
4.00914e-12 -2.30574e-12 -2.27185e-11

-3.03769e-11 1.73472e-13 2.52499e-12
1.73472e-13 -2.94518e-11 2.28164e-12
2.52499e-12 2.28164e-12 -2.8064e-11

-2.77042e-11 2.60209e-12 -2.7611e-12
2.60209e-12 -2.49286e-11 -6.65821e-12
-2.7611e-12 -6.65821e-12 -1.92233e-11

-2.63164e-11 -6.93889e-13 -7.01117e-12
-6.93889e-13 -2.35408e-11 3.67183e-12
-7.01117e-12 3.67183e-12 -2.47744e-11

-2.38492e-11 2.65991e-12 -5.65713e-12
2.65991e-12 -2.10737e-11 2.3997e-12
-5.65713e-12 2.3997e-12 -2.32324e-11

-2.52884e-11 -1.61908e-12 4.14406e-12
-1.61908e-12 -2.99143e-11 5.49329e-13
4.14406e-12 5.49329e-13 -2.43632e-11

-2.8321e-11 1.76364e-12 -1.68353e-12
1.76364e-12 -3.52599e-11 3.5851e-12
-1.68353e-12 3.5851e-12 -2.58538e-11

-3.26385e-11 -3.9736e-12 3.46945e-13
-3.9736e-12 -2.66248e-11 -1.77448e-12
3.46945e-13 -1.77448e-12 -2.55454e-11

-3.59794e-11 2.2696e-12 -2.98758e-12
2.2696e-12 -3.18161e-11 7.51714e-13
-2.98758e-12 7.51714e-13 -2.87322e-11

-2.37978e-11 1.15648e-13 3.29597e-12
1.15648e-13 -2.98115e-11 3.65256e-12
3.29597e-12 3.65256e-12 -2.53398e-11

-2.22045e-11 2.31296e-12 1.00228e-12
2.31296e-12 -2.7293e-11 7.70988e-14
1.00228e-12 7.70988e-14 -2.26671e-11

-2.62136e-11 -2.89121e-12 -3.51522e-12
-2.89121e-12 -2.62136e-11 -3.81639e-12
-3.51522e-12 -3.81639e-12 -2.15877e-11

-2.11251e-11 -5.00179e-12 3.61401e-15
-5.00179e-12 1.07938e-12 -8.28812e-13
3.61401e-15 -8.28812e-13 -1.78869e-11

-2.61622e-11 -1.37286e-11 1.35032e-13
-1.37286e-11 -2.56996e-11 -3.75857e-12
1.35032e-13 -3.75857e-12 -2.46202e-11

-3.42319e-11 -2.31296e-13 2.04312e-12
-2.31296e-13 -5.08852e-11 -7.25693e-12
2.04312e-12 -7.25693e-12 -3.14563e-11

-2.33866e-11 1.21431e-12 1.92386e-12
1.21431e-12 -2.5237e-11 5.54148e-12
1.92386e-12 5.54148e-12 -1.95317e-11

-2.35922e-11 -3.70074e-12 -8.24957e-12
-3.70074e-12 -3.00685e-11 1.44078e-12
-8.24957e-12 1.44078e-12 -2.68304e-11

-2.19989e-11 5.60894e-12 -8.50376e-12
5.60894e-12 -2.70874e-11 -4.81868e-13
-8.50376e-12 -4.81868e-13 -2.46202e-11

-3.66476e-11 -9.25186e-13 4.04769e-13
-9.25186e-13 -3.06339e-11 5.78241e-13
4.04769e-13 5.78241e-13 -2.77042e-11

-2.56482e-11 5.05961e-13 3.2767e-13
5.05961e-13 -2.33352e-11 9.06875e-12
3.2767e-13 9.06875e-12 -2.44146e-11

-3.16105e-11 -4.16334e-12 3.93686e-12
-4.16334e-12 -4.59509e-11 2.12985e-12
3.93686e-12 2.12985e-12 -2.8835e-11

-2.72416e-11 -4.97287e-12 -3.29597e-12
-4.97287e-12 -2.35408e-11 -2.93939e-12
-3.29597e-12 -2.93939e-12 -2.38492e-11

-2.08167e-11 -1.38778e-12 6.98708e-13
-1.38778e-12 -2.91434e-11 5.78241e-13
6.98708e-13 5.78241e-13 -2.498e-11

-2.35922e-11 -2.02384e-12 2.52258e-12
-2.02384e-12 -1.85037e-11 7.90263e-13
2.52258e-12 7.90263e-13 -2.45174e-11

-3.73672e-11 1.96602e-12 -1.06975e-12
1.96602e-12 -2.76528e-11 2.26478e-13
-1.06975e-12 2.26478e-13 -2.87322e-11

-2.10737e-11 -1.17094e-12 -5.53606e-12
-1.17094e-12 -2.755e-11 -3.4839e-12
-5.53606e-12 -3.4839e-12 -1.95317e-11

-2.92976e-11 1.85037e-12 7.21838e-12
1.85037e-12 -2.6522e-11 2.20695e-12
7.21838e-12 2.20695e-12 -2.55968e-11

-2.87836e-11 -6.93889e-13 4.77049e-12
-6.93889e-13 -2.73958e-11 1.94675e-12
4.77049e-12 1.94675e-12 -2.77042e-11

-2.755e-11 3.70074e-12 -1.92747e-13
3.70074e-12 -1.59852e-11 -4.81868e-13
-1.92747e-13 -4.81868e-13 -2.46202e-11

-2.46716e-11 -1.90277e-12 -4.65002e-12
-1.90277e-12 -2.00457e-11 -4.6565e-12
-4.65002e-12 -4.6565e-12 -1.72701e-11

-2.42604e-11 7.17019e-12 1.27213e-12
7.17019e-12 -2.42604e-11 7.70988e-14
1.27213e-12 7.70988e-14 -2.48772e-11

-2.37978e-11 -3.75857e-12 -8.25921e-12
-3.75857e-12 -2.4723e-11 -4.68134e-12
-8.25921e-12 -4.68134e-12 -1.65505e-11

-2.12279e-11 1.50343e-12 1.01192e-13
1.50343e-12 -2.49286e-11 -4.0766e-12
1.01192e-13 -4.0766e-12 -2.56996e-11

-2.81668e-11 4.45246e-12 6.7076e-12
4.45246e-12 -2.95545e-11 -2.49126e-12
6.7076e-12 -2.49126e-12 -2.80126e-11

-2.24615e-11 8.09538e-13 5.68604e-13
8.09538e-13 -2.38492e-11 1.1107e-12
5.68604e-13 1.1107e-12 -2.18447e-11

-3.13535e-11 -6.93889e-13 -1.807e-12
-6.93889e-13 -3.55169e-11 2.69846e-13
-1.807e-12 2.69846e-13 -2.96573e-11

-2.15363e-11 -3.46945e-13 -1.57089e-12
-3.46945e-13 -2.33866e-11 1.17817e-12
-1.57089e-12 1.17817e-12 -2.32324e-11

-2.56482e-11 1.85037e-12 1.56968e-12
1.85037e-12 -2.9349e-11 3.66219e-13
1.56968e-12 3.66219e-13 -2.67276e-11

-2.83724e-11 -2.31296e-12 -2.77556e-12
-2.31296e-12 -2.74472e-11 4.60665e-12
-2.77556e-12 4.60665e-12 -2.55968e-11

-1.28498e-11 -3.23815e-12 4.31753e-12
-3.23815e-12 -2.11765e-11 -7.32439e-13
4.31753e-12 -7.32439e-13 -2.08681e-11

-3.49515e-11 -7.63278e-12 4.99215e-12
-7.63278e-12 -3.44889e-11 8.67362e-14
4.99215e-12 8.67362e-14 -2.92462e-11

-2.60594e-11 6.36065e-13 -1.37091e-12
6.36065e-13 -2.09709e-11 5.38728e-12
-1.37091e-12 5.38728e-12 -2.32838e-11

-3.01713e-11 3.00685e-12 9.30968e-12
3.00685e-12 -3.47973e-11 5.30054e-14
9.30968e-12 5.30054e-14 -2.72416e-11

-3.02741e-11 -2.54426e-12 -6.43775e-12
-2.54426e-12 -2.42604e-11 -8.86636e-13
-6.43775e-12 -8.86636e-13 -2.71902e-11

-3.45917e-11 -5.49329e-13 -1.71545e-12
-5.49329e-13 -2.34894e-11 -6.35583e-12
-1.71545e-12 -6.35583e-12 -2.45688e-11

-2.81154e-11 1.64799e-12 -4.83795e-12
1.64799e-12 -2.6265e-11 1.02879e-12
-4.83795e-12 1.02879e-12 -2.5494e-11

-2.00971e-11 -3.61401e-13 -2.75749e-12
-3.61401e-13 -3.21245e-11 -4.54401e-12
-2.75749e-12 -4.54401e-12 -1.56254e-11

-2.08167e-11 2.06721e-12 -5.52461e-12
2.06721e-12 -3.51571e-11 -4.09587e-14
-5.52461e-12 -4.09587e-14 -1.34152e-11

-2.14849e-11 -5.89806e-12 3.72122e-12
-5.89806e-12 -2.9349e-11 1.13239e-13
3.72122e-12 1.13239e-13 -1.1462e-11

-2.31296e-11 -1.85037e-12 -8.67362e-14
-1.85037e-12 -2.45174e-11 1.92747e-12
-8.67362e-14 1.92747e-12 -2.45174e-11

-2.04055e-11 2.19732e-12 4.64761e-12
2.19732e-12 -2.59566e-11 8.43268e-14
4.64761e-12 8.43268e-14 -1.50086e-11

-2.15877e-11 5.05961e-12 9.50183e-13
5.05961e-12 -3.22273e-11 1.82387e-12
9.50183e-13 1.82387e-12 -1.46488e-11

-2.63678e-11 -1.92446e-13 -4.61147e-12
-1.92446e-13 -2.82182e-11 1.41187e-12
-4.61147e-12 1.41187e-12 -2.59052e-11

-3.00171e-11 -5.66676e-12 6.52449e-12
-5.66676e-12 -2.40034e-11 -2.71352e-12
6.52449e-12 -2.71352e-12 -1.22844e-11

-2.68818e-11 2.47198e-12 -4.34163e-12
2.47198e-12 -2.08681e-11 3.00685e-12
-4.34163e-12 3.00685e-12 -2.4723e-11

-3.13535e-11 -2.31296e-13 2.06239e-12
-2.31296e-13 -2.58024e-11 -2.40934e-13
2.06239e-12 -2.40934e-13 -2.5494e-11

-2.67276e-11 8.29776e-12 -4.52715e-12
8.29776e-12 -2.58024e-11 -4.58015e-12
-4.52715e-12 -4.58015e-12 -1.62422e-11

-2.3952e-11 -1.05529e-12 1.7299e-12
-1.05529e-12 -1.84009e-11 -2.62136e-12
1.7299e-12 -2.62136e-12 -2.36436e-11

-2.24101e-11 -4.45246e-12 -2.69123e-12
-4.45246e-12 -2.4723e-11 -1.93952e-12
-2.69123e-12 -1.93952e-12 -1.51628e-11

-2.50314e-11 -4.33681e-12 6.04623e-12
-4.33681e-12 -3.75214e-11 -2.73821e-12
6.04623e-12 -2.73821e-12 -1.82467e-11

-2.28213e-11 -5.92697e-13 2.83338e-12
-5.92697e-13 -2.4209e-11 -2.5298e-13
2.83338e-12 -2.5298e-13 -1.77327e-11

-2.08167e-11 4.25007e-12 -3.70918e-12
4.25007e-12 -3.00685e-11 2.84784e-12
-3.70918e-12 2.84784e-12 -1.29526e-11

-2.28726e-11 2.21539e-12 3.703e-12
2.21539e-12 -2.84238e-11 -7.69543e-12
3.703e-12 -7.69543e-12 -1.93261e-11

-2.3952e-11 -4.78495e-12 1.90037e-12
-4.78495e-12 -2.71902e-11 3.39235e-12
1.90037e-12 3.39235e-12 -2.3181e-11

-2.40548e-11 1.61908e-12 2.8647e-12
1.61908e-12 -2.08167e-11 -4.68616e-12
2.8647e-12 -4.68616e-12 -1.89663e-11

-1.88635e-11 -3.28875e-12 3.75917e-12
-3.28875e-12 -2.21017e-11 -1.50584e-12
3.75917e-12 -1.50584e-12 -1.67047e-11

-3.32039e-11 -1.7806e-12 1.89374e-12
-1.7806e-12 -2.11765e-11 1.02519e-11
1.89374e-12 1.02519e-11 -1.43918e-11

-2.77556e-11 1.73472e-12 -7.26656e-12
1.73472e-12 -2.17419e-11 6.26428e-14
-7.26656e-12 6.26428e-14 -2.54426e-11

-2.6008e-11 -1.86121e-12 -7.57737e-13
-1.86121e-12 -2.64706e-11 -1.25286e-13
-7.57737e-13 -1.25286e-13 -2.30782e-11

-2.51342e-11 2.57317e-12 -1.26731e-12
2.57317e-12 -2.14335e-11 -5.42222e-12
-1.26731e-12 -5.42222e-12 -1.54198e-11

-3.48487e-11 2.94903e-12 -5.19453e-12
2.94903e-12 -2.8835e-11 4.35126e-12
-5.19453e-12 4.35126e-12 -2.8835e-11

-2.98115e-11 1.88651e-12 -5.43426e-12
1.88651e-12 -2.24101e-11 -7.51714e-13
-5.43426e-12 -7.51714e-13 -1.56254e-11

-2.37978e-11 -4.62593e-12 -3.66219e-12
-4.62593e-12 -1.63963e-11 2.89121e-12
-3.66219e-12 2.89121e-12 -2.21017e-11

-2.33866e-11 -2.74665e-12 2.21659e-13
-2.74665e-12 -2.43118e-11 2.33224e-12
2.21659e-13 2.33224e-12 -2.32324e-11

-2.69846e-11 -6.07153e-12 2.75146e-12
-6.07153e-12 -2.51342e-11 4.58136e-12
2.75146e-12 4.58136e-12 -1.26442e-11

-2.69332e-11 1.38778e-12 -1.02397e-14
1.38778e-12 -3.38721e-11 -1.00879e-11
-1.02397e-14 -1.00879e-11 -2.03027e-11

-2.85266e-11 7.14128e-12 1.88772e-12
7.14128e-12 -2.71388e-11 -3.62485e-12
1.88772e-12 -3.62485e-12 -1.5574e-11

-2.48258e-11 -4.10551e-12 -9.15548e-13
-4.10551e-12 -2.85266e-11 -9.18922e-12
-9.15548e-13 -9.18922e-12 -1.78869e-11

-2.7036e-11 1.24535e-27 3.86458e-12
1.24535e-27 -2.00971e-11 7.22801e-13
3.86458e-12 7.22801e-13 -2.34894e-11

-1.76813e-11 -5.05961e-12 1.73472e-13
-5.05961e-12 -1.72187e-11 4.52956e-12
1.73472e-13 4.52956e-12 -2.40034e-11

-2.95545e-11 5.29758e-12 -2.63566e-13
5.29758e-12 -2.30782e-11 -1.31068e-12
-2.63566e-13 -1.31068e-12 -2.755e-11

-3.13021e-11 -2.54426e-12 2.00457e-12
-2.54426e-12 -1.69617e-12 9.06875e-12
2.00457e-12 9.06875e-12 -2.14335e-11

-2.59052e-11 1.85037e-12 -9.92647e-13
1.85037e-12 -3.05311e-11 4.7223e-12
-9.92647e-13 4.7223e-12 -2.68304e-11

-1.63449e-11 -4.85723e-12 6.42089e-12
-4.85723e-12 1.37236e-11 3.85494e-14
6.42089e-12 3.85494e-14 -1.4803e-11

-4.21988e-11 5.08852e-12 -1.94675e-12
5.08852e-12 -3.38721e-11 9.89756e-12
-1.94675e-12 9.89756e-12 -3.27927e-11

-4.07082e-11 -4.62593e-13 -9.5988e-12
-4.62593e-13 -3.00685e-11 -9.12657e-12
-9.5988e-12 -9.12657e-12 -2.91434e-11

-2.40034e-11 3.42158e-12 -3.45233e-12
3.42158e-12 -2.07653e-11 -4.22116e-12
-3.45233e-12 -4.22116e-12 -2.43118e-11

-2.14335e-11 -3.46945e-12 -6.46425e-12
-3.46945e-12 -2.83724e-11 -1.69858e-12
-6.46425e-12 -1.69858e-12 -2.05083e-11

-2.82182e-11 2.08167e-12 -5.60894e-12
2.08167e-12 -1.61908e-11 6.49558e-12
-5.60894e-12 6.49558e-12 -2.498e-11

-2.59052e-11 2.31296e-13 5.16562e-12
2.31296e-13 -2.03541e-11 -4.19225e-12
5.16562e-12 -4.19225e-12 -2.59052e-11

-9.25186e-12 3.1225e-12 2.35151e-12
3.1225e-12 -1.80411e-11 -4.80904e-12
2.35151e-12 -4.80904e-12 -1.98915e-11

-1.1462e-11 -1.27213e-12 1.48415e-12
-1.27213e-12 -2.07139e-11 8.40136e-12
1.48415e-12 8.40136e-12 -1.99429e-11

-2.45174e-11 2.86229e-12 1.03361e-12
2.86229e-12 -1.29526e-11 -1.58053e-12
1.03361e-12 -1.58053e-12 -2.35922e-11

-5.13992e-11 2.31296e-12 -1.22973e-11
2.31296e-12 -2.82696e-11 9.3386e-12
-1.22973e-11 9.3386e-12 -2.88864e-11

-1.66533e-11 -1.85037e-12 8.28812e-13
-1.85037e-12 -1.85037e-11 -7.70988e-13
8.28812e-13 -7.70988e-13 -2.03541e-11

-2.76528e-11 -1.15648e-12 8.3604e-12
-1.15648e-12 -2.02513e-11 8.79408e-14
8.3604e-12 8.79408e-14 -1.80925e-11

-2.68818e-11 2.31296e-12 -5.56075e-12
2.31296e-12 -2.50314e-11 2.87193e-12
-5.56075e-12 2.87193e-12 -2.61108e-11

-2.48258e-11 5.14635e-12 3.73929e-12
5.14635e-12 -2.15877e-11 -1.74677e-12
3.73929e-12 -1.74677e-12 -1.64991e-11

-2.66762e-11 3.00685e-12 5.57762e-12
3.00685e-12 -2.62136e-11 -3.82603e-12
5.57762e-12 -3.82603e-12 -1.83495e-11

-2.59052e-11 3.3538e-12 6.57508e-12
3.3538e-12 -2.26671e-11 -6.44739e-12
6.57508e-12 -6.44739e-12 -1.80411e-11

-1.75271e-11 -4.29344e-12 6.26428e-14
-4.29344e-12 -5.49972e-12 -7.70988e-13
6.26428e-14 -7.70988e-13 -1.82981e-11

-3.12507e-11 1.4456e-12 2.47981e-12
1.4456e-12 -2.98629e-11 -5.20417e-13
2.47981e-12 -5.20417e-13 -2.92462e-11

-3.62364e-11 9.25186e-13 -4.04769e-13
9.25186e-13 -2.60594e-11 -3.21888e-12
-4.04769e-13 -3.21888e-12 -2.74472e-11

-4.42033e-11 1.38778e-12 2.19732e-12
1.38778e-12 -3.03255e-11 -1.4456e-13
2.19732e-12 -1.4456e-13 -2.97087e-11

-3.05311e-11 4.97287e-12 3.34416e-12
4.97287e-12 -2.35922e-11 -4.57774e-12
3.34416e-12 -4.57774e-12 -2.63678e-11

-2.26157e-11 1.75785e-11 7.8448e-12
1.75785e-11 -5.96231e-11 1.78387e-11
7.8448e-12 1.78387e-11 -3.12507e-11

-3.38207e-11 6.01371e-12 -4.66448e-12
6.01371e-12 -3.19703e-11 2.48644e-12
-4.66448e-12 2.48644e-12 -2.61108e-11

-3.93204e-11 -6.245e-12 6.16791e-13
-6.245e-12 -2.17419e-11 -4.33681e-13
6.16791e-13 -4.33681e-13 -2.498e-11

-3.96802e-11 -6.4763e-12 9.65663e-12
-6.4763e-12 -2.67276e-11 -1.41669e-11
9.65663e-12 -1.41669e-11 -2.73444e-11

-4.00914e-11 1.15648e-12 5.60894e-12
1.15648e-12 -2.71388e-11 -2.40934e-13
5.60894e-12 -2.40934e-13 -2.89892e-11

-1.81953e-11 9.25186e-13 -8.92419e-12
9.25186e-13 -2.28213e-11 -5.39692e-13
-8.92419e-12 -5.39692e-13 -2.37464e-11

-1.25414e-11 -2.31296e-12 -5.04997e-12
-2.31296e-12 -3.65962e-11 -9.68554e-12
-5.04997e-12 -9.68554e-12 -2.61108e-11

-4.71331e-11 2.498e-11 -3.93204e-12
2.498e-11 -2.86294e-11 -1.11215e-11
-3.93204e-12 -1.11215e-11 -2.94004e-11

-5.85951e-11 3.70074e-12 -1.8311e-12
3.70074e-12 -3.54655e-11 1.91783e-12
-1.8311e-12 1.91783e-12 -3.54655e-11

-1.5831e-11 -5.08852e-12 -1.34923e-13
-5.08852e-12 -2.69332e-11 -2.59245e-12
-1.34923e-13 -2.59245e-12 -2.4466e-11

FIELD solute_concentration_TPM 3
glc 1 563 float
3.96975
3.96975
3.96975
3.96975
3.96975
3.96975
3.96975
3.96975
3.96975
3.96975
3.96975
3.96975
3.96975
3.96975
3.96975
3.96975
3.96975
3.96975
3.96975
3.96975
3.96975
3.96975
3.96975
3.96975
3.96975
3.96975
3.96975
3.96975
3.96975
3.96975
3.96975
3.96975
3.96975
3.96975
3.96975
3.96975
3.96975
3.96975
3.96975
3.96975
3.96975
3.96975
3.96975
3.96975
3.96975
3.96975
3.96975
3.96975
3.96975
3.96975
3.96975
3.96975
3.96975
3.96975
3.96975
3.96975
3.96975
3.96975
3.96975
3.96975
3.96975
3.96975
3.96975
3.96975
3.96975
3.96975
3.96975
3.96975
3.96975
3.96975
3.96975
3.96975
3.96975
3.96975
3.96975
3.96975
3.96975
3.96975
3.96975
3.96975
3.96975
3.96975
3.96975
3.96975
3.96975
3.96975
3.96975
3.96975
3.96975
3.96975
3.96975
3.96975
3.96975
3.96975
3.96975
3.96975
3.96975
3.96975
3.96975
3.96975
3.96975
3.96975
3.96975
3.96975
3.96975
3.96975
3.96975
3.96975
3.96975
3.96975
3.96975
3.96975
3.96975
3.96975
3.96975
3.96975
3.96975
3.96975
3.96975
3.96975
3.96975
3.96975
3.96975
3.96975
3.96975
3.96975
3.96975
3.96975
3.96975
3.96975
3.96975
3.96975
3.96975
3.96975
3.96975
3.96975
3.96975
3.96975
3.96975
3.96975
3.96975
3.96975
3.96975
3.96975
3.96975
3.96975
3.96975
3.96975
3.96975
3.96975
3.96975
3.96975
3.96975
3.96975
3.96975
3.96975
3.96975
3.96975
3.96975
3.96975
3.96975
3.96975
3.96975
3.96975
3.96975
3.96975
3.96975
3.96975
3.96975
3.96975
3.96975
3.96975
3.96975
3.96975
3.96975
3.96975
3.96975
3.96975
3.96975
3.96975
3.96975
3.96975
3.96975
3.96975
3.96975
3.96975
3.96975
3.96975
3.96975
3.96975
3.96975
3.96975
3.96975
3.96975
3.96975
3.96975
3.96975
3.96975
3.96975
3.96975
3.96975
3.96975
3.96975
3.96975
3.96975
3.96975
3.96975
3.96975
3.96975
3.96975
3.96975
3.96975
3.96975
3.96975
3.96975
3.96975
3.96975
3.96975
3.96975
3.96975
3.96975
3.96975
3.96975
3.96975
3.96975
3.96975
3.96975
3.96975
3.96975
3.96975
3.96975
3.96975
3.96975
3.96975
3.96975
3.96975
3.96975
3.96975
3.96975
3.96975
3.96975
3.96975
3.96975
3.96975
3.96975
3.96975
3.96975
3.96975
3.96975
3.96975
3.96975
3.96975
3.96975
3.96975
3.96975
3.96975
3.96975
3.96975
3.96975
3.96975
3.96975
3.96975
3.96975
3.96975
3.96975
3.96975
3.96975
3.96975
3.96975
3.96975
3.96975
3.96975
3.96975
3.96975
3.96975
3.96975
3.96975
3.96975
3.96975
3.96975
3.96975
3.96975
3.96975
3.96975
3.96975
3.96975
3.96975
3.96975
3.96975
3.96975
3.96975
3.96975
3.96975
3.96975
3.96975
3.96975
3.96975
3.96975
3.96975
3.96975
3.96975
3.96975
3.96975
3.96975
3.96975
3.96975
3.96975
3.96975
3.96975
3.96975
3.96975
3.96975
3.96975
3.96975
3.96975
3.96975
3.96975
3.96975
3.96975
3.96975
3.96975
3.96975
3.96975
3.96975
3.96975
3.96975
3.96975
3.96975
3.96975
3.96975
3.96975
3.96975
3.96975
3.96975
3.96975
3.96975
3.96975
3.96975
3.96975
3.96975
3.96975
3.96975
3.96975
3.96975
3.96975
3.96975
3.96975
3.96975
3.96975
3.96975
3.96975
3.96975
3.96975
3.96975
3.96975
3.96975
3.96975
3.96975
3.96975
3.96975
3.96975
3.96975
3.96975
3.96975
3.96975
3.96975
3.96975
3.96975
3.96975
3.96975
3.96975
3.96975
3.96975
3.96975
3.96975
3.96975
3.96975
3.96975
3.96975
3.96975
3.96975
3.96975
3.96975
3.96975
3.96975
3.96975
3.96975
3.96975
3.96975
3.96975
3.96975
3.96975
3.96975
3.96975
3.96975
3.96975
3.96975
3.96975
3.96975
3.96975
3.96975
3.96975
3.96975
3.96975
3.96975
3.96975
3.96975
3.96975
3.96975
3.96975
3.96975
3.96975
3.96975
3.96975
3.96975
3.96975
3.96975
3.96975
3.96975
3.96975
3.96975
3.96975
3.96975
3.96975
3.96975
3.96975
3.96975
3.96975
3.96975
3.96975
3.96975
3.96975
3.96975
3.96975
3.96975
3.96975
3.96975
3.96975
3.96975
3.96975
3.96975
3.96975
3.96975
3.96975
3.96975
3.96975
3.96975
3.96975
3.96975
3.96975
3.96975
3.96975
3.96975
3.96975
3.96975
3.96975
3.96975
3.96975
3.96975
3.96975
3.96975
3.96975
3.96975
3.96975
3.96975
3.96975
3.96975
3.96975
3.96975
3.96975
3.96975
3.96975
3.96975
3.96975
3.96975
3.96975
3.96975
3.96975
3.96975
3.96975
3.96975
3.96975
3.96975
3.96975
3.96975
3.96975
3.96975
3.96975
3.96975
3.96975
3.96975
3.96975
3.96975
3.96975
3.96975
3.96975
3.96975
3.96975
3.96975
3.96975
3.96975
3.96975
3.96975
3.96975
3.96975
3.96975
3.96975
3.96975
3.96975
3.96975
3.96975
3.96975
3.96975
3.96975
3.96975
3.96975
3.96975
3.96975
3.96975
3.96975
3.96975
3.96975
3.96975
3.96975
3.96975
3.96975
3.96975
3.96975
3.96975
3.96975
3.96975
3.96975
3.96975
3.96975
3.96975
3.96975
3.96975
3.96975
3.96975
3.96975
3.96975
3.96975
3.96975
3.96975
3.96975
3.96975
3.96975
3.96975
3.96975
3.96975
3.96975
3.96975
3.96975
3.96975
3.96975
3.96975
3.96975
3.96975
3.96975
3.96975
3.96975
3.96975
3.96975
o2 1 563 float
9.38878e-06
9.38878e-06
9.38878e-06
9.38878e-06
9.38878e-06
9.38878e-06
9.38878e-06
9.38878e-06
9.38878e-06
9.38878e-06
9.38878e-06
9.38878e-06
9.38878e-06
9.38878e-06
9.38878e-06
9.38878e-06
9.38878e-06
9.38878e-06
9.38878e-06
9.38878e-06
9.38878e-06
9.38878e-06
9.38878e-06
9.38878e-06
9.38878e-06
9.38878e-06
9.38878e-06
9.38878e-06
9.38878e-06
9.38878e-06
9.38878e-06
9.38878e-06
9.38878e-06
9.38878e-06
9.38878e-06
9.38878e-06
9.38878e-06
9.38878e-06
9.38878e-06
9.38878e-06
9.38878e-06
9.38878e-06
9.38878e-06
9.38878e-06
9.38878e-06
9.38878e-06
9.38878e-06
9.38878e-06
9.38878e-06
9.38878e-06
9.38878e-06
9.38878e-06
9.38878e-06
9.38878e-06
9.38878e-06
9.38878e-06
9.38878e-06
9.38878e-06
9.38878e-06
9.38878e-06
9.38878e-06
9.38878e-06
9.38878e-06
9.38878e-06
9.38878e-06
9.38878e-06
9.38878e-06
9.38878e-06
9.38878e-06
9.38878e-06
9.38878e-06
9.38878e-06
9.38878e-06
9.38878e-06
9.38878e-06
9.38878e-06
9.38878e-06
9.38878e-06
9.38878e-06
9.38878e-06
9.38878e-06
9.38878e-06
9.38878e-06
9.38878e-06
9.38878e-06
9.38878e-06
9.38878e-06
9.38878e-06
9.38878e-06
9.38878e-06
9.38878e-06
9.38878e-06
9.38878e-06
9.38878e-06
9.38878e-06
9.38878e-06
9.38878e-06
9.38878e-06
9.38878e-06
9.38878e-06
9.38878e-06
9.38878e-06
9.38878e-06
9.38878e-06
9.38878e-06
9.38878e-06
9.38878e-06
9.38878e-06
9.38878e-06
9.38878e-06
9.38878e-06
9.38878e-06
9.38878e-06
9.38878e-06
9.38878e-06
9.38878e-06
9.38878e-06
9.38878e-06
9.38878e-06
9.38878e-06
9.38878e-06
9.38878e-06
9.38878e-06
9.38878e-06
9.38878e-06
9.38878e-06
9.38878e-06
9.38878e-06
9.38878e-06
9.38878e-06
9.38878e-06
9.38878e-06
9.38878e-06
9.38878e-06
9.38878e-06
9.38878e-06
9.38878e-06
9.38878e-06
9.38878e-06
9.38878e-06
9.38878e-06
9.38878e-06
9.38878e-06
9.38878e-06
9.38878e-06
9.38878e-06
9.38878e-06
9.38878e-06
9.38878e-06
9.38878e-06
9.38878e-06
9.38878e-06
9.38878e-06
9.38878e-06
9.38878e-06
9.38878e-06
9.38878e-06
9.38878e-06
9.38878e-06
9.38878e-06
9.38878e-06
9.38878e-06
9.38878e-06
9.38878e-06
9.38878e-06
9.38878e-06
9.38878e-06
9.38878e-06
9.38878e-06
9.38878e-06
9.38878e-06
9.38878e-06
9.38878e-06
9.38878e-06
9.38878e-06
9.38878e-06
9.38878e-06
9.38878e-06
9.38878e-06
9.38878e-06
9.38878e-06
9.38878e-06
9.38878e-06
9.38878e-06
9.38878e-06
9.38878e-06
9.38878e-06
9.38878e-06
9.38878e-06
9.38878e-06
9.38878e-06
9.38878e-06
9.38878e-06
9.38878e-06
9.38878e-06
9.38878e-06
9.38878e-06
9.38878e-06
9.38878e-06
9.38878e-06
9.38878e-06
9.38878e-06
9.38878e-06
9.38878e-06
9.38878e-06
9.38878e-06
9.38878e-06
9.38878e-06
9.38878e-06
9.38878e-06
9.38878e-06
9.38878e-06
9.38878e-06
9.38878e-06
9.38878e-06
9.38878e-06
9.38878e-06
9.38878e-06
9.38878e-06
9.38878e-06
9.38878e-06
9.38878e-06
9.38878e-06
9.38878e-06
9.38878e-06
9.38878e-06
9.38878e-06
9.38878e-06
9.38878e-06
9.38878e-06
9.38878e-06
9.38878e-06
9.38878e-06
9.38878e-06
9.38878e-06
9.38878e-06
9.38878e-06
9.38878e-06
9.38878e-06
9.38878e-06
9.38878e-06
9.38878e-06
9.38878e-06
9.38878e-06
9.38878e-06
9.38878e-06
9.38878e-06
9.38878e-06
9.38878e-06
9.38878e-06
9.38878e-06
9.38878e-06
9.38878e-06
9.38878e-06
9.38878e-06
9.38878e-06
9.38878e-06
9.38878e-06
9.38878e-06
9.38878e-06
9.38878e-06
9.38878e-06
9.38878e-06
9.38878e-06
9.38878e-06
9.38878e-06
9.38878e-06
9.38878e-06
9.38878e-06
9.38878e-06
9.38878e-06
9.38878e-06
9.38878e-06
9.38878e-06
9.38878e-06
9.38878e-06
9.38878e-06
9.38878e-06
9.38878e-06
9.38878e-06
9.38878e-06
9.38878e-06
9.38878e-06
9.38878e-06
9.38878e-06
9.38878e-06
9.38878e-06
9.38878e-06
9.38878e-06
9.38878e-06
9.38878e-06
9.38878e-06
9.38878e-06
9.38878e-06
9.38878e-06
9.38878e-06
9.38878e-06
9.38878e-06
9.38878e-06
9.38878e-06
9.38878e-06
9.38878e-06
9.38878e-06
9.38878e-06
9.38878e-06
9.38878e-06
9.38878e-06
9.38878e-06
9.38878e-06
9.38878e-06
9.38878e-06
9.38878e-06
9.38878e-06
9.38878e-06
9.38878e-06
9.38878e-06
9.38878e-06
9.38878e-06
9.38878e-06
9.38878e-06
9.38878e-06
9.38878e-06
9.38878e-06
9.38878e-06
9.38878e-06
9.38878e-06
9.38878e-06
9.38878e-06
9.38878e-06
9.38878e-06
9.38878e-06
9.38878e-06
9.38878e-06
9.38878e-06
9.38878e-06
9.38878e-06
9.38878e-06
9.38878e-06
9.38878e-06
9.38878e-06
9.38878e-06
9.38878e-06
9.38878e-06
9.38878e-06
9.38878e-06
9.38878e-06
9.38878e-06
9.38878e-06
9.38878e-06
9.38878e-06
9.38878e-06
9.38878e-06
9.38878e-06
9.38878e-06
9.38878e-06
9.38878e-06
9.38878e-06
9.38878e-06
9.38878e-06
9.38878e-06
9.38878e-06
9.38878e-06
9.38878e-06
9.38878e-06
9.38878e-06
9.38878e-06
9.38878e-06
9.38878e-06
9.38878e-06
9.38878e-06
9.38878e-06
9.38878e-06
9.38878e-06
9.38878e-06
9.38878e-06
9.38878e-06
9.38878e-06
9.38878e-06
9.38878e-06
9.38878e-06
9.38878e-06
9.38878e-06
9.38878e-06
9.38878e-06
9.38878e-06
9.38878e-06
9.38878e-06
9.38878e-06
9.38878e-06
9.38878e-06
9.38878e-06
9.38878e-06
9.38878e-06
9.38878e-06
9.38878e-06
9.38878e-06
9.38878e-06
9.38878e-06
9.38878e-06
9.38878e-06
9.38878e-06
9.38878e-06
9.38878e-06
9.38878e-06
9.38878e-06
9.38878e-06
9.38878e-06
9.38878e-06
9.38878e-06
9.38878e-06
9.38878e-06
9.38878e-06
9.38878e-06
9.38878e-06
9.38878e-06
9.38878e-06
9.38878e-06
9.38878e-06
9.38878e-06
9.38878e-06
9.38878e-06
9.38878e-06
9.38878e-06
9.38878e-06
9.38878e-06
9.38878e-06
9.38878e-06
9.38878e-06
9.38878e-06
9.38878e-06
9.38878e-06
9.38878e-06
9.38878e-06
9.38878e-06
9.38878e-06
9.38878e-06
9.38878e-06
9.38878e-06
9.38878e-06
9.38878e-06
9.38878e-06
9.38878e-06
9.38878e-06
9.38878e-06
9.38878e-06
9.38878e-06
9.38878e-06
9.38878e-06
9.38878e-06
9.38878e-06
9.38878e-06
9.38878e-06
9.38878e-06
9.38878e-06
9.38878e-06
9.38878e-06
9.38878e-06
9.38878e-06
9.38878e-06
9.38878e-06
9.38878e-06
9.38878e-06
9.38878e-06
9.38878e-06
9.38878e-06
9.38878e-06
9.38878e-06
9.38878e-06
9.38878e-06
9.38878e-06
9.38878e-06
9.38878e-06
9.38878e-06
9.38878e-06
9.38878e-06
9.38878e-06
9.38878e-06
9.38878e-06
9.38878e-06
9.38878e-06
9.38878e-06
9.38878e-06
9.38878e-06
9.38878e-06
9.38878e-06
9.38878e-06
9.38878e-06
9.38878e-06
9.38878e-06
9.38878e-06
9.38878e-06
9.38878e-06
9.38878e-06
9.38878e-06
9.38878e-06
9.38878e-06
9.38878e-06
9.38878e-06
9.38878e-06
9.38878e-06
9.38878e-06
9.38878e-06
9.38878e-06
9.38878e-06
9.38878e-06
9.38878e-06
9.38878e-06
9.38878e-06
9.38878e-06
9.38878e-06
9.38878e-06
9.38878e-06
9.38878e-06
9.38878e-06
9.38878e-06
9.38878e-06
9.38878e-06
9.38878e-06
9.38878e-06
9.38878e-06
9.38878e-06
9.38878e-06
9.38878e-06
9.38878e-06
9.38878e-06
9.38878e-06
9.38878e-06
9.38878e-06
9.38878e-06
9.38878e-06
9.38878e-06
9.38878e-06
9.38878e-06
9.38878e-06
9.38878e-06
9.38878e-06
9.38878e-06
9.38878e-06
9.38878e-06
9.38878e-06
9.38878e-06
9.38878e-06
9.38878e-06
9.38878e-06
9.38878e-06
9.38878e-06
9.38878e-06
9.38878e-06
9.38878e-06
9.38878e-06
9.38878e-06
9.38878e-06
9.38878e-06
9.38878e-06
9.38878e-06
9.38878e-06
9.38878e-06
9.38878e-06
9.38878e-06
9.38878e-06
9.38878e-06
9.38878e-06
9.38878e-06
lac 1 563 float
1.42404
1.42404
1.42404
1.42404
1.42404
1.42404
1.42404
1.42404
1.42404
1.42404
1.42404
1.42404
1.42404
1.42404
1.42404
1.42404
1.42404
1.42404
1.42404
1.42404
1.42404
1.42404
1.42404
1.42404
1.42404
1.42404
1.42404
1.42404
1.42404
1.42404
1.42404
1.42404
1.42404
1.42404
1.42404
1.42404
1.42404
1.42404
1.42404
1.42404
1.42404
1.42404
1.42404
1.42404
1.42404
1.42404
1.42404
1.42404
1.42404
1.42404
1.42404
1.42404
1.42404
1.42404
1.42404
1.42404
1.42404
1.42404
1.42404
1.42404
1.42404
1.42404
1.42404
1.42404
1.42404
1.42404
1.42404
1.42404
1.42404
1.42404
1.42404
1.42404
1.42404
1.42404
1.42404
1.42404
1.42404
1.42404
1.42404
1.42404
1.42404
1.42404
1.42404
1.42404
1.42404
1.42404
1.42404
1.42404
1.42404
1.42404
1.42404
1.42404
1.42404
1.42404
1.42404
1.42404
1.42404
1.42404
1.42404
1.42404
1.42404
1.42404
1.42404
1.42404
1.42404
1.42404
1.42404
1.42404
1.42404
1.42404
1.42404
1.42404
1.42404
1.42404
1.42404
1.42404
1.42404
1.42404
1.42404
1.42404
1.42404
1.42404
1.42404
1.42404
1.42404
1.42404
1.42404
1.42404
1.42404
1.42404
1.42404
1.42404
1.42404
1.42404
1.42404
1.42404
1.42404
1.42404
1.42404
1.42404
1.42404
1.42404
1.42404
1.42404
1.42404
1.42404
1.42404
1.42404
1.42404
1.42404
1.42404
1.42404
1.42404
1.42404
1.42404
1.42404
1.42404
1.42404
1.42404
1.42404
1.42404
1.42404
1.42404
1.42404
1.42404
1.42404
1.42404
1.42404
1.42404
1.42404
1.42404
1.42404
1.42404
1.42404
1.42404
1.42404
1.42404
1.42404
1.42404
1.42404
1.42404
1.42404
1.42404
1.42404
1.42404
1.42404
1.42404
1.42404
1.42404
1.42404
1.42404
1.42404
1.42404
1.42404
1.42404
1.42404
1.42404
1.42404
1.42404
1.42404
1.42404
1.42404
1.42404
1.42404
1.42404
1.42404
1.42404
1.42404
1.42404
1.42404
1.42404
1.42404
1.42404
1.42404
1.42404
1.42404
1.42404
1.42404
1.42404
1.42404
1.42404
1.42404
1.42404
1.42404
1.42404
1.42404
1.42404
1.42404
1.42404
1.42404
1.42404
1.42404
1.42404
1.42404
1.42404
1.42404
1.42404
1.42404
1.42404
1.42404
1.42404
1.42404
1.42404
1.42404
1.42404
1.42404
1.42404
1.42404
1.42404
1.42404
1.42404
1.42404
1.42404
1.42404
1.42404
1.42404
1.42404
1.42404
1.42404
1.42404
1.42404
1.42404
1.42404
1.42404
1.42404
1.42404
1.42404
1.42404
1.42404
1.42404
1.42404
1.42404
1.42404
1.42404
1.42404
1.42404
1.42404
1.42404
1.42404
1.42404
1.42404
1.42404
1.42404
1.42404
1.42404
1.42404
1.42404
1.42404
1.42404
1.42404
1.42404
1.42404
1.42404
1.42404
1.42404
1.42404
1.42404
1.42404
1.42404
1.42404
1.42404
1.42404
1.42404
1.42404
1.42404
1.42404
1.42404
1.42404
1.42404
1.42404
1.42404
1.42404
1.42404
1.42404
1.42404
1.42404
1.42404
1.42404
1.42404
1.42404
1.42404
1.42404
1.42404
1.42404
1.42404
1.42404
1.42404
1.42404
1.42404
1.42404
1.42404
1.42404
1.42404
1.42404
1.42404
1.42404
1.42404
1.42404
1.42404
1.42404
1.42404
1.42404
1.42404
1.42404
1.42404
1.42404
1.42404
1.42404
1.42404
1.42404
1.42404
1.42404
1.42404
1.42404
1.42404
1.42404
1.42404
1.42404
1.42404
1.42404
1.42404
1.42404
1.42404
1.42404
1.42404
1.42404
1.42404
1.42404
1.42404
1.42404
1.42404
1.42404
1.42404
1.42404
1.42404
1.42404
1.42404
1.42404
1.42404
1.42404
1.42404
1.42404
1.42404
1.42404
1.42404
1.42404
1.42404
1.42404
1.42404
1.42404
1.42404
1.42404
1.42404
1.42404
1.42404
1.42404
1.42404
1.42404
1.42404
1.42404
1.42404
1.42404
1.42404
1.42404
1.42404
1.42404
1.42404
1.42404
1.42404
1.42404
1.42404
1.42404
1.42404
1.42404
1.42404
1.42404
1.42404
1.42404
1.42404
1.42404
1.42404
1.42404
1.42404
1.42404
1.42404
1.42404
1.42404
1.42404
1.42404
1.42404
1.42404
1.42404
1.42404
1.42404
1.42404
1.42404
1.42404
1.42404
1.42404
1.42404
1.42404
1.42404
1.42404
1.42404
1.42404
1.42404
1.42404
1.42404
1.42404
1.42404
1.42404
1.42404
1.42404
1.42404
1.42404
1.42404
1.42404
1.42404
1.42404
1.42404
1.42404
1.42404
1.42404
1.42404
1.42404
1.42404
1.42404
1.42404
1.42404
1.42404
1.42404
1.42404
1.42404
1.42404
1.42404
1.42404
1.42404
1.42404
1.42404
1.42404
1.42404
1.42404
1.42404
1.42404
1.42404
1.42404
1.42404
1.42404
1.42404
1.42404
1.42404
1.42404
1.42404
1.42404
1.42404
1.42404
1.42404
1.42404
1.42404
1.42404
1.42404
1.42404
1.42404
1.42404
1.42404
1.42404
1.42404
1.42404
1.42404
1.42404
1.42404
1.42404
1.42404
1.42404
1.42404
1.42404
1.42404
1.42404
1.42404
1.42404
1.42404
1.42404
1.42404
1.42404
1.42404
1.42404
1.42404
1.42404
1.42404
1.42404
1.42404
1.42404
1.42404
1.42404
1.42404
1.42404
1.42404
1.42404
1.42404
1.42404
1.42404
1.42404
1.42404
1.42404
1.42404
1.42404
1.42404
1.42404
1.42404
1.42404
1.42404
1.42404
1.42404
1.42404
1.42404
1.42404
1.42404
1.42404
1.42404
1.42404
1.42404
1.42404
1.42404
FIELD solute_flux_TPM 3
glc 3 563 float
1.48756e-18 -7.36746e-19 -6.24583e-20
-1.99861e-18 2.33318e-19 -1.3985e-19
6.98648e-20 6.47405e-19 -1.04342e-19
-7.08301e-19 -6.79789e-19 -2.14506e-19
-7.51858e-19 9.38257e-19 -9.51853e-20
1.03971e-19 -4.80991e-19 1.66743e-19
1.30749e-18 -1.02595e-18 -1.26617e-19
4.98123e-19 7.91604e-19 -2.9002e-19
-7.48884e-19 6.48559e-19 -1.2437e-19
-1.56617e-18 2.94693e-19 -2.0393e-19
-1.1412e-18 5.00366e-19 1.05359e-19
1.10755e-18 7.62444e-19 1.08749e-19
1.11719e-19 2.71718e-18 -2.02114e-19
5.9313e-19 -1.40039e-19 -2.65105e-19
-3.13136e-19 3.19967e-20 -1.41467e-20
-9.64864e-19 4.90936e-21 -3.06754e-19
3.57626e-19 -1.8652e-18 -1.22965e-19
-2.00715e-19 -3.72112e-19 4.94444e-20
-8.89573e-19 -1.00653e-19 6.7798e-20
-5.53337e-19 7.38467e-19 -3.90733e-19
1.42844e-18 4.18083e-19 2.12072e-19
6.41179e-19 -1.38071e-18 7.47443e-20
-5.54729e-19 -1.18361e-18 -1.16677e-19
1.52121e-18 -2.18861e-19 -1.81177e-19
-8.64609e-19 -4.86853e-19 -1.99755e-19
6.55428e-20 -2.92768e-19 -1.63366e-20
-6.97065e-19 1.41882e-18 -1.32896e-20
1.59495e-18 -6.06847e-19 -1.40014e-19
4.00667e-19 -1.17145e-18 -1.64511e-19
-4.74811e-19 3.05559e-19 -3.10211e-19
1.40113e-18 -6.20815e-21 -1.90733e-20
-1.61552e-18 -1.1326e-18 -1.30195e-19
-6.39503e-19 7.91334e-19 1.7726e-19
-1.17857e-19 1.55832e-18 -8.02418e-20
-1.3965e-19 -3.97027e-19 -8.97757e-20
7.39151e-20 -1.13192e-18 -2.20807e-19
8.26701e-19 -2.3046e-18 -1.29717e-19
-8.09627e-19 -6.58731e-21 -7.58262e-20
-6.61803e-20 -6.51524e-19 -1.62555e-19
-4.10601e-18 -2.11459e-18 -8.30875e-20
9.10847e-19 1.60782e-18 7.32295e-20
3.16094e-19 1.59172e-20 5.60381e-20
2.11357e-18 -9.51252e-20 -1.861e-20
2.965e-19 -1.15697e-18 -4.30279e-19
3.94147e-19 6.76423e-20 2.16492e-19
-4.25474e-19 1.34797e-18 -1.92917e-19
-8.9211e-21 -1.00485e-18 1.83006e-19
-1.0711e-18 -3.04124e-19 -1.07139e-19
5.7917e-19 6.31272e-19 -3.2609e-19
-1.4676e-18 1.12496e-20 -3.03579e-19
-2.15407e-19 -1.29004e-18 -9.74685e-20
2.39287e-19 1.79946e-18 8.33749e-20
3.50462e-19 -3.07628e-20 3.01119e-20
2.46121e-19 -2.09871e-18 -2.55453e-19
1.43579e-19 4.54647e-20 -1.80911e-19
-3.61706e-18 -1.94431e-18 -1.25491e-19
-4.38771e-19 -7.40878e-20 -1.25029e-19
9.761e-20 1.10312e-18 -8.87892e-20
1.17576e-18 1.23105e-19 -2.24621e-19
-1.42388e-19 8.92099e-19 -2.38285e-19
-9.85939e-19 -1.37194e-18 4.51461e-20
-1.04223e-18 3.96178e-19 8.98771e-20
5.87603e-19 -1.93502e-18 1.34156e-20
1.60749e-19 -8.59257e-19 -2.39307e-19
6.71764e-19 -1.24006e-19 -1.49785e-19
2.28843e-19 -1.28869e-19 6.47167e-20
7.33642e-19 -4.93979e-19 -2.29741e-19
-1.36577e-19 7.29357e-19 -3.40604e-20
-5.00858e-19 1.26013e-18 1.34925e-19
5.2866e-19 9.76215e-19 -1.98926e-19
1.09552e-18 2.49816e-19 2.43174e-20
-3.27418e-19 -3.50931e-19 -3.39178e-19
-5.63755e-19 1.22629e-18 -1.66002e-19
-1.96771e-19 -3.61807e-19 -6.67307e-20
-6.865e-19 9.89095e-20 -6.19291e-20
2.33766e-19 7.79569e-19 9.30971e-21
1.62727e-18 4.7897e-19 2.53919e-20
4.44452e-19 -2.38576e-19 -2.05278e-19
-2.29284e-20 -9.78476e-19 -2.14675e-19
2.10185e-18 2.09889e-19 -2.94151e-20
-2.88741e-19 1.53807e-18 2.46457e-19
-5.99486e-19 -1.50152e-19 -2.69622e-19
-3.50713e-19 -1.38961e-19 -7.59001e-20
7.44793e-19 -1.21352e-18 -2.63548e-19
3.19661e-19 -8.5772e-20 7.93901e-20
-9.58678e-19 1.30118e-18 -1.92942e-19
1.2766e-18 1.40513e-19 -1.514e-20
7.76811e-19 -3.65073e-20 -1.62342e-19
9.16301e-20 1.37379e-18 2.09334e-22
-1.60516e-19 -1.98735e-18 -3.58156e-19
-1.21424e-18 -5.4926e-19 -1.03867e-19
1.7865e-18 -1.23794e-18 2.7167e-19
1.37086e-18 -6.75674e-19 -8.26675e-20
1.01482e-18 -7.18959e-19 -7.87579e-20
-4.3062e-19 -1.0017e-21 -2.02085e-19
1.20248e-18 1.27686e-19 -2.82906e-19
-1.3795e-18 -1.85246e-18 -1.2903e-19
-1.22636e-18 -4.11302e-20 -1.43661e-19
-1.75042e-19 1.856e-19 -1.34738e-19
5.21433e-19 3.69155e-19 -1.8365e-19
1.77313e-18 -9.07907e-19 -4.05133e-20
-1.36369e-18 5.32069e-19 -2.30698e-19
-1.31854e-18 -1.12678e-18 2.84923e-19
-7.30336e-19 -3.60399e-19 -9.45072e-21
-8.86575e-19 2.24777e-19 -1.9466e-19
-9.75057e-19 9.66863e-19 6.7535e-20
8.57323e-19 -2.47704e-19 7.20377e-20
-1.60595e-18 -6.35206e-19 -1.78669e-19
1.2893e-20 -1.72704e-19 -1.7705e-19
5.78835e-19 -9.64519e-19 -2.52765e-19
9.19187e-19 1.66424e-18 -2.24603e-19
-5.71471e-20 -1.28687e-18 -8.61984e-20
-5.75342e-19 -8.08431e-19 1.84114e-20
-1.33207e-18 -5.30035e-19 7.58846e-20
-2.18526e-19 -4.29832e-19 -1.40661e-19
-1.62425e-18 -9.77923e-19 -1.66415e-19
-1.30926e-19 -6.32871e-19 -2.05279e-19
-1.49737e-18 3.12619e-18 -6.64714e-20
1.05301e-18 -2.76689e-20 3.4699e-20
2.50804e-20 -3.01143e-19 -6.27852e-20
-8.97792e-19 1.49322e-20 -1.3189e-19
-2.19387e-20 3.10969e-19 -3.87008e-20
-8.74718e-19 1.38949e-19 -1.2678e-19
8.11084e-19 3.1186e-19 1.96385e-20
-4.6677e-19 2.29147e-19 -1.01605e-19
5.4683e-19 -7.83621e-19 -2.18759e-19
1.61473e-18 5.06607e-19 6.66514e-20
1.45709e-18 -2.63532e-19 -2.08178e-20
5.35277e-19 5.3232e-19 6.15797e-20
-1.77983e-18 3.85674e-19 -1.42313e-19
6.85247e-19 -2.66106e-19 8.76609e-21
-1.05408e-18 -1.37159e-19 -9.74154e-20
9.14312e-19 6.6248e-19 -1.58939e-19
-1.27559e-18 -4.24483e-19 -9.28396e-20
3.74616e-19 4.17185e-19 -2.19109e-19
-3.17446e-19 1.46312e-18 1.45252e-19
9.90142e-19 -1.43957e-18 -1.43405e-19
1.12428e-18 -5.77665e-20 -1.85306e-19
8.146e-19 5.39872e-19 -2.01915e-19
-1.46628e-18 -2.19667e-19 -2.27033e-19
3.49524e-19 1.89999e-19 -3.24913e-19
-4.43621e-20 -4.68892e-20 -1.7819e-19
4.00635e-19 -6.0965e-19 -2.13853e-21
6.59669e-20 -5.10955e-19 1.33123e-19
1.78885e-18 -8.94003e-19 -1.67136e-20
1.5554e-18 1.26299e-18 -2.42505e-19
-1.39115e-19 8.01096e-19 -2.19175e-19
-9.27639e-20 1.39536e-18 -7.40753e-20
-1.36542e-18 -2.11204e-18 2.16859e-20
-3.18711e-19 1.83011e-18 1.25416e-20
7.86011e-19 -2.85207e-19 8.94784e-20
1.72355e-18 5.83153e-20 -5.37589e-21
-5.8143e-19 1.63481e-18 -4.64666e-20
2.03991e-20 7.21732e-19 1.32482e-19
-2.73342e-19 -5.43707e-19 -2.68664e-19
-6.52624e-19 1.24072e-18 3.09096e-20
-1.40474e-18 2.16092e-19 -1.73676e-19
-4.95718e-19 -5.52921e-19 -1.04218e-19
-4.50302e-19 2.51829e-18 -5.73282e-21
-1.01789e-18 5.08454e-19 -9.90706e-20
-1.38246e-18 5.11822e-22 -2.27338e-19
-2.32173e-19 -2.33947e-19 6.35414e-20
1.88611e-18 -4.44862e-19 -2.41859e-19
8.85887e-19 7.78993e-19 1.49103e-20
-1.45759e-18 -8.94698e-20 2.46423e-20
4.74688e-19 -5.14839e-20 -2.78414e-19
-2.4326e-18 1.54265e-18 -1.34771e-19
-5.72255e-19 1.04721e-19 5.93148e-20
3.03071e-20 6.89681e-19 6.65516e-20
-1.00143e-18 -2.95473e-19 -8.12307e-20
1.76485e-19 -1.90962e-19 -3.56962e-20
-6.16822e-19 4.53102e-19 -1.69474e-19
9.17748e-21 -8.64394e-19 7.04546e-20
-3.14908e-19 1.9123e-18 -6.49444e-20
-1.50284e-18 -7.93798e-19 -2.73854e-19
2.56215e-20 3.35757e-19 3.17728e-20
-3.93511e-19 2.02219e-19 -1.95581e-19
4.02832e-19 6.64327e-19 -1.17229e-19
-1.30734e-19 -6.82109e-20 -1.30922e-19
-1.70778e-19 4.99419e-19 -5.55916e-20
1.44245e-19 1.28639e-18 -1.18013e-19
4.09842e-19 -7.79316e-19 -1.49434e-19
-3.70183e-19 -1.5219e-18 -2.7434e-19
9.75759e-19 1.1768e-18 -1.55918e-19
7.16338e-19 1.14793e-20 -2.07141e-19
7.33437e-20 -1.35483e-18 -3.10408e-20
-2.58714e-19 -1.321e-19 -1.07376e-19
9.12059e-19 1.59007e-19 2.76062e-20
-8.28566e-20 1.22941e-19 -2.27615e-19
-1.18444e-18 -1.17424e-18 -9.46197e-20
-1.62783e-19 6.52616e-20 7.86898e-20
3.693e-19 -1.82904e-18 -2.09002e-19
-1.24179e-18 3.74796e-19 -2.02765e-19
4.97616e-19 -1.78895e-18 -2.9325e-19
-1.86716e-20 2.79023e-20 -1.65542e-19
2.38046e-19 -4.57854e-19 -2.19809e-19
-1.3672e-20 -1.72307e-18 -9.1326e-20
5.20857e-20 1.89539e-19 -1.5737e-19
-1.10205e-18 -9.06026e-19 8.62946e-20
-1.28462e-18 -8.026e-19 -1.40911e-19
-5.80318e-19 -8.49671e-19 -1.04128e-19
-9.08027e-19 -4.89526e-19 -3.44491e-19
1.97411e-18 1.56915e-18 -1.64457e-19
1.1488e-18 -8.84014e-19 -2.27887e-19
-2.92007e-18 -9.57105e-19 -2.09825e-19
4.55044e-20 -2.82426e-20 -6.25541e-20
2.65868e-19 6.47454e-21 -2.43873e-19
-6.09706e-19 -2.66085e-18 2.23206e-20
1.29815e-19 2.22576e-20 -2.46596e-19
1.16727e-18 -1.01041e-18 8.89635e-20
1.10852e-18 -2.75267e-19 1.15096e-22
-1.98906e-18 9.7499e-19 -7.43257e-20
8.21157e-20 -7.14666e-19 -1.97276e-19
-1.96736e-18 2.25075e-19 -2.65291e-20
3.29238e-19 -2.44883e-19 -2.8883e-19
-2.47984e-18 -1.21516e-18 -1.05865e-19
1.55403e-18 3.25178e-19 -8.26267e-21
-8.99217e-19 -7.48307e-20 -1.94552e-19
-1.45903e-18 1.01671e-19 3.0729e-20
3.29498e-19 -1.42873e-20 -3.07709e-19
4.30677e-19 -2.27377e-19 -9.25994e-21
-5.94414e-19 -4.15048e-20 -2.99311e-19
3.25406e-19 -1.74414e-18 4.50628e-20
-4.03924e-19 -2.73418e-19 -6.83433e-20
-1.45966e-18 1.58118e-19 -1.99434e-19
-8.2132e-19 4.67226e-20 -2.60319e-19
-1.02617e-18 -5.33962e-19 -2.80351e-19
-9.17796e-20 2.07341e-19 -5.14734e-20
2.00319e-19 -6.49183e-19 -2.73173e-19
9.52057e-19 1.41569e-19 4.99132e-20
-1.50263e-18 -8.81061e-20 -3.15313e-19
-4.74689e-19 -1.24211e-18 -2.33029e-19
3.18519e-19 -2.3843e-18 5.12039e-20
1.58695e-18 -1.21403e-18 1.8561e-19
-4.68312e-19 2.19929e-19 -4.03865e-19
8.12596e-19 -7.55684e-19 1.39557e-19
3.50356e-19 -1.25989e-18 -2.46629e-19
5.4403e-19 1.19322e-19 1.06649e-19
6.48206e-19 -4.35256e-19 -3.2179e-20
-1.36089e-18 7.70752e-19 6.61503e-20
-4.56071e-19 -3.11191e-19 7.26275e-20
-4.17598e-19 -4.51715e-19 -1.93652e-19
-1.22408e-18 2.32323e-19 -2.50797e-19
-1.07294e-18 -5.7838e-19 -8.72696e-20
3.37362e-19 -1.79184e-18 -1.11864e-19
-1.33421e-19 -9.8536e-19 -1.51001e-19
3.66842e-19 -5.21725e-19 -1.1132e-20
2.41235e-19 -1.26914e-18 2.18371e-19
7.5803e-19 9.3767e-19 -5.64747e-20
-6.79018e-19 -1.44863e-18 1.89338e-19
-1.79769e-19 -4.33446e-19 -2.44444e-19
1.22215e-18 8.50679e-19 1.16196e-20
1.17323e-18 6.51101e-19 -6.09259e-20
9.52916e-19 -8.77684e-19 -1.79862e-19
9.97225e-19 -1.23859e-18 -1.51289e-19
3.3218e-19 -3.44078e-19 -4.42107e-20
4.26221e-20 1.07001e-18 7.09942e-20
1.50427e-19 -1.43317e-18 -1.24627e-19
5.90356e-20 6.14494e-19 -1.14193e-19
-1.46329e-18 2.25589e-19 -1.25825e-19
7.26471e-19 -6.20271e-19 7.25498e-21
-8.90662e-20 2.67759e-20 -1.35716e-19
-7.64765e-19 -1.59552e-20 -6.04801e-20
-1.63369e-19 6.80151e-19 -2.31732e-19
-2.02369e-19 -7.99503e-21 -1.18106e-19
2.52983e-18 1.07133e-20 -1.39017e-19
-4.40754e-20 -1.72737e-18 -2.07605e-19
-2.4706e-18 1.02003e-18 -9.28909e-20
6.8448e-19 5.19154e-19 -4.74072e-20
-1.25061e-19 -1.81317e-19 8.66522e-20
3.15984e-19 -1.46764e-19 8.13364e-20
4.21344e-19 -7.86879e-19 7.65792e-20
-8.94752e-19 -8.25611e-19 -1.89761e-19
-1.48905e-18 -1.08508e-19 1.01001e-19
-1.56707e-18 -4.41566e-19 1.73993e-19
1.03255e-18 -1.30622e-18 1.07893e-19
1.09756e-18 1.14801e-18 -1.18984e-19
2.31625e-19 -9.56023e-19 -3.26201e-19
7.19161e-19 -4.8871e-19 1.55999e-19
1.22728e-18 6.57147e-19 -1.46886e-19
1.49465e-18 2.4765e-19 -1.10821e-20
-9.63158e-19 1.83959e-19 1.03412e-19
-1.58806e-18 -8.77091e-19 8.95118e-20
-6.48915e-19 -5.93635e-19 -5.79569e-20
-4.5273e-19 -9.53166e-19 -1.05612e-19
1.86901e-18 -1.56173e-18 -1.00787e-19
5.51382e-19 -8.77015e-19 -7.01906e-20
-2.15718e-18 3.17337e-20 -1.53555e-19
-1.45099e-18 -1.44189e-18 -3.24342e-19
2.4102e-18 -9.1167e-19 1.15876e-19
-1.06517e-19 -8.62895e-19 1.29345e-19
-1.95372e-19 -8.57447e-19 -2.0014e-19
4.04651e-19 -5.36416e-20 1.08435e-19
2.578e-19 8.73145e-19 1.73074e-19
1.54508e-18 -2.62351e-19 -2.88387e-19
-2.40893e-18 8.11747e-20 2.02888e-19
-7.88763e-19 -7.94765e-19 -2.27842e-19
4.42059e-19 -2.04208e-18 5.42684e-20
8.91113e-19 -1.21301e-18 3.08588e-19
1.9408e-18 -1.17359e-18 -1.97385e-19
9.3956e-19 -7.64575e-19 -2.20089e-19
-4.67842e-20 -5.43863e-19 -2.73302e-19
-8.66895e-20 9.23772e-20 -6.11105e-20
1.31788e-18 -1.17577e-18 -2.28779e-19
5.35628e-20 -5.41699e-19 -6.71983e-20
5.6697e-19 -1.11292e-18 -9.29949e-20
1.83847e-19 4.21808e-18 -1.62105e-19
-6.64676e-19 1.08823e-18 -2.16244e-19
-8.72923e-19 -8.28944e-19 -1.41191e-19
8.99909e-19 -8.30688e-19 5.11367e-20
2.7316e-20 6.55126e-19 1.21625e-19
6.65096e-19 4.06567e-19 -7.23685e-21
-4.62955e-19 -2.30871e-18 -1.16215e-19
-2.0303e-19 -7.3774e-19 -2.96421e-19
-1.17533e-18 1.11674e-18 3.4238e-20
5.03138e-19 -1.84511e-18 -1.44936e-19
-2.04193e-18 1.88206e-18 -1.21511e-19
5.6766e-19 -3.05617e-19 1.45344e-19
2.35949e-18 -1.06022e-18 -1.94312e-19
3.53844e-19 -4.33722e-20 -2.66094e-19
-4.50328e-20 4.50424e-19 -3.2723e-19
3.67695e-19 -5.72727e-20 -2.05017e-20
-1.23337e-18 -6.0428e-19 -2.20585e-19
8.25305e-19 -8.65384e-19 -1.75079e-19
-2.0737e-20 1.02361e-18 6.31348e-20
7.11243e-19 9.4935e-19 -1.01451e-19
-3.91828e-19 -4.24076e-19 -1.92585e-19
-1.94694e-18 2.18909e-19 -1.95053e-19
-1.0885e-18 -1.33396e-19 -5.85343e-20
-1.5307e-18 -1.09149e-19 -5.90933e-20
9.59542e-19 1.05929e-19 -2.11584e-19
-1.16858e-18 -6.33167e-19 -6.42873e-20
-9.52667e-21 -4.13383e-20 -1.95659e-19
-1.95321e-18 -6.223e-19 -2.9456e-19
-3.06294e-19 -2.04967e-19 -6.69535e-20
-1.53885e-18 1.05075e-19 -2.82937e-19
6.41927e-19 -4.59985e-19 -1.7589e-19
-6.70523e-19 -1.01e-18 3.53976e-20
-1.60964e-19 -1.23742e-18 -3.13814e-19
1.91239e-18 8.66808e-19 -2.29553e-19
-4.75289e-19 2.30285e-19 -5.66164e-20
1.33224e-18 -2.35249e-19 -1.56022e-19
5.51554e-20 -5.15834e-19 -2.29131e-20
1.09945e-18 2.18608e-19 1.63663e-19
-5.89389e-20 -5.80662e-19 -1.89172e-19
5.88103e-19 -1.51175e-18 -1.9401e-19
-4.42772e-20 1.02194e-18 2.62465e-19
-1.78896e-18 -2.80861e-19 -1.28417e-19
2.95001e-19 -7.29457e-19 -3.04882e-19
1.68567e-19 -1.28348e-21 -2.79601e-19
1.27117e-18 -2.82292e-19 7.6428e-20
-1.8602e-19 2.44038e-19 -1.18058e-19
-7.65674e-19 3.13368e-20 4.80005e-20
1.34943e-18 -2.69547e-18 1.08976e-19
-1.66473e-18 -1.18255e-18 1.55548e-20
1.14334e-18 -1.67291e-18 -4.58513e-20
1.63288e-18 1.27004e-18 -2.63561e-19
6.61391e-19 2.57824e-19 -2.76415e-19
3.94224e-19 -1.82148e-18 -3.84876e-19
-1.58947e-18 7.60381e-20 -6.50869e-20
-5.24263e-19 -2.23634e-19 -5.48125e-22
-2.63537e-19 -1.77465e-18 -1.35621e-19
-1.1123e-18 -8.39355e-19 -3.50106e-19
1.64495e-19 -4.51604e-20 9.93451e-20
7.72984e-19 -2.67551e-19 -3.26136e-19
-1.09405e-19 -1.16303e-18 -1.17901e-19
-8.4641e-20 -1.78094e-18 1.98951e-20
1.78858e-18 2.97369e-19 -8.95746e-21
-4.34109e-19 1.53841e-19 -2.11692e-19
1.56681e-18 3.14974e-19 -4.52773e-20
4.92222e-19 -5.66714e-19 -1.46438e-19
-1.24209e-18 -4.18991e-19 -8.64786e-20
-9.31211e-19 -1.08671e-18 -1.58495e-19
1.60828e-18 1.51312e-18 -2.23999e-19
-3.40025e-19 -1.12083e-18 -8.30873e-20
-7.25617e-19 -5.38352e-19 -2.67874e-19
-6.14449e-19 1.61292e-19 -2.63839e-19
-1.47461e-18 -5.36128e-19 3.54929e-20
-3.20639e-19 7.6542e-20 1.64999e-19
1.48892e-18 -1.17911e-18 -3.9668e-19
3.82546e-20 -2.86473e-18 -4.22541e-21
-5.69791e-19 -1.00085e-19 -3.12329e-19
1.10764e-18 -3.85538e-19 -1.45494e-19
6.83916e-19 -2.11774e-19 -2.84506e-19
1.2047e-18 -9.45818e-19 -2.084e-19
3.13759e-19 -1.70221e-20 -2.04138e-19
-1.21385e-18 -6.92855e-19 2.48141e-20
-1.1654e-18 2.5479e-19 -1.90784e-19
1.21602e-20 2.87944e-19 -8.2862e-20
-1.36604e-18 -9.73465e-19 2.06227e-19
1.15804e-19 3.84747e-19 7.44512e-20
1.96765e-19 1.825e-19 -2.38048e-19
-5.93531e-19 -5.42073e-19 -2.37425e-19
-1.13176e-18 8.39651e-19 -2.45225e-19
-1.97992e-18 -4.46701e-19 -1.42147e-19
1.3547e-18 -8.5108e-19 -1.33063e-19
1.37159e-20 5.77908e-19 -1.40172e-19
6.2669e-19 -8.29175e-21 3.76819e-21
-4.92509e-19 2.37665e-19 -3.33615e-19
1.56897e-18 -3.74684e-19 1.0457e-19
2.6261e-18 3.4847e-19 -2.92427e-19
-4.9157e-19 7.05347e-20 -8.039e-20
2.42026e-19 -3.14464e-20 -2.69741e-20
-9.13583e-19 1.25224e-19 -2.08737e-19
-4.55258e-19 -6.85828e-19 -3.24709e-19
6.98172e-19 -3.55185e-21 3.71865e-20
2.28375e-18 2.32639e-18 -2.42941e-19
-1.14897e-18 7.83033e-19 -2.71101e-19
1.10653e-18 -1.28792e-19 -9.57553e-20
3.2386e-19 -5.1493e-19 -8.67716e-20
-8.87281e-19 2.34055e-18 -3.03651e-19
-8.58513e-19 -5.64896e-19 3.10671e-19
-6.8261e-19 2.17489e-18 -1.28999e-19
-1.1749e-18 -1.93514e-18 -9.15108e-20
1.31191e-18 -6.2249e-19 -1.25196e-19
-4.65525e-19 -8.89285e-19 -4.39787e-19
2.63245e-18 -5.36316e-20 2.67079e-19
-1.10826e-18 -3.32759e-18 -4.54813e-19
5.22362e-19 -1.40812e-18 -1.25381e-20
2.45442e-19 4.0704e-19 -1.55303e-19
-3.07969e-19 -2.32719e-19 -8.64144e-20
1.35104e-19 -7.79177e-19 -5.99401e-20
-1.18545e-18 2.15596e-18 3.62279e-20
1.64145e-18 6.65931e-19 -3.04721e-19
-2.81081e-19 -8.27577e-19 -3.20448e-19
-7.51469e-19 -9.42149e-20 -1.22967e-19
-3.11774e-20 8.81632e-19 -1.65784e-19
-2.67174e-18 -4.00146e-18 -1.53199e-19
7.30227e-19 -5.71428e-19 -4.80855e-20
8.77354e-20 9.32212e-20 -6.69969e-20
1.64914e-19 -3.65808e-19 -2.69498e-19
8.01391e-19 -3.85919e-19 4.94646e-20
-1.30142e-18 -4.32523e-19 1.52471e-19
9.46633e-19 -4.93135e-19 -2.34848e-19
-1.67252e-18 -1.12023e-18 9.5895e-20
2.3357e-19 9.05808e-19 -2.13926e-19
-2.40499e-18 -1.45093e-18 -1.52667e-19
2.12342e-19 3.94477e-19 7.54607e-21
-6.10791e-19 -7.2903e-19 -1.30343e-19
-1.99854e-18 -6.26632e-19 -1.5955e-19
3.32635e-19 5.03536e-19 -9.02887e-20
1.06107e-18 -8.98934e-19 -2.72221e-19
-5.35135e-19 -3.63227e-19 -1.49832e-19
-6.584e-19 -1.41016e-18 -2.45235e-19
3.06181e-18 2.71656e-19 1.06332e-19
-2.7408e-19 -1.98562e-19 -1.53435e-21
4.88778e-19 7.68063e-19 -3.86025e-20
-2.16015e-18 -2.20392e-18 -1.95169e-19
-1.35698e-18 -3.68315e-19 2.23452e-20
1.1375e-18 7.48774e-19 -2.61934e-19
5.24146e-19 -1.39542e-18 1.58436e-19
6.60273e-19 -3.68423e-19 1.8755e-19
1.01746e-19 1.62149e-18 -1.97283e-19
1.51002e-19 7.40848e-19 -2.62915e-20
-6.92223e-19 -9.56082e-19 1.42892e-19
5.69489e-19 1.85849e-18 -8.71789e-20
-7.62222e-19 9.99876e-19 -4.04526e-19
-7.68774e-19 5.07878e-20 1.41029e-19
4.03535e-19 4.15291e-19 -3.908e-20
2.28448e-19 1.03411e-18 -3.4708e-21
1.78316e-18 -3.10993e-18 -1.31825e-19
-4.60327e-20 -2.49153e-18 2.43153e-19
-3.15622e-19 -1.49087e-18 -2.43362e-19
-1.61489e-18 1.44439e-19 1.95317e-19
-6.12755e-19 -5.49955e-19 -1.19434e-19
-8.5521e-20 1.32747e-18 -3.47792e-20
9.86121e-19 -1.55833e-18 -1.07562e-20
1.00964e-18 1.30367e-18 -2.8715e-20
-5.20523e-19 3.02427e-19 -2.19257e-19
-1.30032e-18 -1.19054e-18 -1.25319e-19
-1.27293e-18 -9.11163e-19 -2.57862e-19
7.79228e-19 -7.20276e-19 -7.61843e-20
1.96948e-18 -1.56075e-18 9.65313e-20
1.04233e-19 -1.15836e-18 -1.17129e-19
1.17257e-19 3.70559e-19 7.84439e-20
-4.17331e-19 -1.06847e-18 -9.14754e-21
-2.46308e-18 -1.48584e-18 1.76932e-20
-7.89097e-19 -1.38168e-18 -1.79913e-19
-3.9818e-19 1.61171e-18 -6.98811e-21
-1.16271e-18 3.21844e-20 -7.64293e-21
6.36499e-20 -1.21022e-18 -2.77317e-19
8.54364e-20 6.90814e-20 -2.2524e-19
-9.0594e-19 -2.59931e-19 9.44321e-20
1.2802e-18 7.72158e-20 -4.59377e-20
-2.69476e-20 4.11299e-19 -9.1155e-20
2.11643e-18 6.61356e-19 4.41572e-20
2.10656e-19 7.23456e-19 8.91596e-20
9.4374e-19 8.17019e-19 3.89619e-20
-2.70965e-19 -9.56956e-20 -2.11119e-19
1.77363e-18 1.43999e-19 -9.71374e-20
-7.2735e-19 -7.30549e-19 -2.39264e-19
1.11425e-18 -1.27871e-18 9.92211e-20
-1.06786e-18 -2.1062e-18 -1.57213e-19
-1.94501e-19 -1.85567e-21 -2.66644e-19
-9.35485e-19 5.1695e-19 -2.9303e-20
6.08513e-19 -1.83559e-18 -4.91015e-20
1.41123e-19 -1.40409e-19 -1.08146e-19
5.99237e-19 1.57627e-19 -7.966e-20
-5.77792e-19 -3.04063e-18 1.28333e-20
-1.01104e-18 -4.70606e-19 -4.96087e-20
-6.46616e-19 -7.63923e-20 7.06387e-20
-4.17073e-19 2.29247e-18 9.88352e-21
5.36821e-19 -6.26377e-19 9.32772e-20
-1.07651e-18 -1.10578e-18 5.48655e-20
-9.05382e-19 -7.78285e-19 7.78585e-20
1.62713e-18 7.0178e-19 -1.57105e-19
1.20193e-18 1.41023e-18 -2.2221e-19
8.00393e-20 5.08055e-20 -1.2981e-19
1.01298e-19 -2.0485e-18 -9.34993e-20
9.6105e-19 4.76999e-19 7.18489e-20
4.51816e-19 -1.53198e-19 -4.56547e-20
-1.63132e-18 8.59536e-20 2.95775e-20
-1.69307e-19 4.00293e-19 -2.5393e-20
1.00907e-18 7.22488e-19 -1.23673e-19
5.73502e-19 3.05205e-19 -9.13077e-20
1.37406e-18 -4.05724e-19 1.76743e-21
1.38573e-18 -7.10442e-19 -8.16915e-21
-1.65994e-18 -1.11184e-18 -1.31299e-19
8.89572e-19 -1.89002e-19 -6.13378e-20
1.56146e-19 -1.58507e-18 1.18298e-20
-5.67208e-19 1.30241e-18 -1.79766e-19
-4.6315e-19 -4.71282e-19 4.09235e-20
1.83008e-18 4.01692e-20 -9.08941e-20
-5.59141e-19 -2.95339e-18 -5.78089e-20
7.99256e-19 -2.244e-18 5.85553e-20
-1.76882e-18 -1.90406e-18 -1.21798e-19
-5.24615e-20 -9.6761e-19 -3.39479e-20
-8.07221e-20 -1.53087e-18 -1.02975e-19
1.92221e-18 -3.46608e-18 -9.65064e-20
9.28802e-19 1.26434e-18 1.33312e-20
4.75752e-19 4.8614e-19 -2.09566e-19
1.12594e-18 8.61761e-20 -2.39493e-19
-1.03232e-18 4.57753e-18 -2.10834e-19
-6.34739e-19 -3.16024e-18 9.13642e-20
-7.37957e-19 4.65013e-19 -1.63689e-19
-1.77011e-18 -1.14037e-18 -9.33182e-20
-1.13686e-18 5.83606e-19 -8.55029e-20
6.01741e-19 1.99499e-18 -3.80578e-20
1.61561e-18 4.74137e-19 1.35999e-19
-9.75992e-19 -6.93074e-19 -3.03532e-19
-4.75901e-20 -3.28245e-18 2.74044e-20
2.46525e-19 1.97106e-18 -1.30099e-19
-1.60231e-18 1.03655e-18 -4.6866e-19
1.111e-18 -1.63007e-18 2.27985e-20
-1.61652e-18 2.42673e-18 -5.00457e-20
4.71854e-18 -5.18919e-19 -4.32062e-20
6.82526e-19 -7.23196e-19 -5.23491e-20
-3.45808e-18 -1.67267e-18 2.0127e-19
9.68577e-20 1.16906e-18 -2.31106e-19
3.2292e-19 -1.49842e-18 -1.50577e-19
-4.59471e-19 -6.11931e-21 -8.32999e-20
4.18836e-19 9.2845e-19 4.34998e-20
-1.52102e-18 -4.88128e-20 -1.90772e-19
-4.67842e-19 2.23132e-19 3.97682e-19
-9.09213e-19 9.61693e-19 3.21603e-19
-7.21679e-19 5.34819e-20 2.48255e-19
1.8371e-18 -4.53108e-19 3.07791e-19
-3.78191e-18 5.87004e-19 2.62663e-19
-9.6378e-19 -8.64789e-19 -4.6031e-19
-1.95092e-18 -4.81448e-20 -2.64614e-19
-1.10769e-18 -1.99775e-18 -4.24253e-19
2.78289e-18 -2.24498e-18 -3.9906e-19
-5.85961e-19 -1.0292e-18 -4.25864e-19
o2 3 563 float
2.8203e-22 2.10124e-22 -1.00294e-24
1.84545e-22 -1.42704e-22 3.52995e-25
5.41971e-22 5.7112e-22 -8.58847e-25
1.72792e-22 -1.48766e-22 -1.54761e-25
3.46588e-22 -3.11324e-22 1.53352e-24
-1.22364e-22 7.81129e-22 -1.871e-25
2.80743e-22 1.41247e-22 -1.00628e-24
3.42865e-22 5.26859e-22 -3.10302e-25
-7.06019e-22 1.83571e-22 1.65567e-24
-4.34525e-22 1.51058e-22 1.77521e-24
-5.56472e-22 6.54488e-24 6.46191e-25
-1.82701e-22 5.83597e-22 -2.70181e-25
-4.35698e-22 -4.92723e-22 3.83486e-25
1.8453e-22 -2.42247e-22 -5.76945e-26
3.35778e-22 -2.92228e-22 1.22086e-24
6.99192e-22 1.69714e-22 -1.77579e-25
2.71357e-22 5.11074e-23 5.21631e-25
-5.27695e-22 2.67984e-22 1.97998e-24
-4.83807e-22 -5.02996e-22 8.94831e-25
7.40364e-22 2.30697e-22 -3.7494e-25
1.0196e-22 7.43862e-22 -7.34303e-25
5.32589e-23 1.01173e-22 1.13135e-24
-5.98842e-22 1.69254e-22 1.7707e-24
-3.61503e-22 5.75179e-22 2.76214e-25
6.8155e-22 2.1514e-22 3.68103e-25
1.74113e-22 4.7404e-22 1.81456e-25
-5.6728e-22 2.93275e-23 1.38354e-25
-4.43685e-22 -4.74415e-22 7.43326e-25
5.18949e-22 5.44011e-22 -6.90508e-25
2.74127e-22 -2.90172e-22 2.01476e-24
6.11337e-22 8.34714e-23 6.35711e-25
-1.0685e-22 7.6084e-22 -3.90931e-25
-3.52581e-22 4.41776e-22 -5.26532e-25
-1.3328e-22 -2.59688e-22 1.68238e-25
-4.6515e-22 1.9198e-22 1.14596e-24
-3.06245e-22 1.84317e-23 1.79818e-24
2.45495e-22 9.31158e-23 9.77291e-25
-2.69285e-22 -1.48317e-22 -1.14775e-24
-2.4378e-22 5.81276e-22 3.52117e-25
-4.62622e-22 -2.43349e-22 1.77019e-25
-6.25663e-22 2.97873e-22 4.88872e-25
2.81118e-22 -1.02421e-22 1.09801e-24
4.34535e-23 -2.72094e-22 2.5208e-24
7.33825e-22 2.61e-22 -9.98373e-25
-3.95827e-22 4.89815e-22 -6.13566e-27
6.09674e-22 -1.82248e-24 -5.85391e-25
8.03024e-23 7.88516e-22 -7.74539e-25
-5.21508e-22 -4.5424e-22 4.26168e-25
7.07467e-22 2.36393e-22 -1.09362e-24
2.70954e-22 -3.55204e-22 -6.39182e-25
-6.4897e-22 -1.32192e-22 9.5211e-25
-6.44618e-22 3.25785e-22 -3.19887e-27
-4.80669e-22 2.17924e-22 1.48359e-24
5.76161e-22 5.43077e-22 -6.50288e-25
-1.99818e-22 -1.37965e-22 -1.13595e-24
5.04523e-22 -1.90828e-22 -3.7771e-25
-3.5497e-22 -2.4014e-22 9.36815e-25
-7.42235e-23 8.16944e-22 -3.91939e-25
-4.01251e-22 2.14223e-22 1.16032e-24
-5.07854e-22 -4.12513e-22 4.67723e-25
2.36905e-22 -1.16489e-22 1.56945e-24
2.27113e-22 -1.87707e-22 1.81485e-24
-5.69081e-22 -6.42205e-23 5.24318e-25
2.68939e-22 4.88281e-23 4.54407e-25
3.09226e-22 7.71359e-23 -3.1453e-26
-2.22231e-22 2.65628e-22 -9.30634e-25
2.49387e-22 1.2193e-22 9.26028e-26
4.85263e-22 7.73833e-23 6.13261e-25
2.67931e-22 -3.91071e-22 -7.48656e-25
-2.45059e-22 1.54357e-22 1.25253e-24
-2.89089e-22 -1.40078e-22 3.88282e-25
-3.09163e-22 2.08793e-22 1.18116e-24
7.00085e-24 -4.84034e-22 -3.4063e-25
3.15219e-22 2.06235e-22 -1.20505e-24
2.63861e-22 -3.98405e-22 -6.69663e-25
4.46487e-22 6.82305e-23 -2.55928e-25
1.60874e-22 8.04142e-25 -1.07216e-25
9.14428e-23 3.917e-22 7.45341e-25
-5.92907e-22 -2.47115e-22 1.24966e-24
-6.84033e-22 -4.26199e-23 1.46773e-24
-5.22454e-22 4.80913e-22 2.32309e-26
2.6042e-22 1.28731e-22 1.06604e-24
2.75671e-23 -2.88464e-22 8.09439e-25
4.85936e-22 -1.84938e-22 -5.51632e-25
-6.99554e-22 -4.09113e-23 1.33099e-24
1.77783e-23 -5.02615e-22 -5.04121e-25
3.36227e-23 5.78189e-22 -1.03398e-24
-1.75839e-22 -3.29725e-22 7.68492e-25
-4.92289e-22 -2.74633e-22 3.54321e-25
9.08437e-23 1.00855e-22 1.95041e-24
3.06443e-24 -4.9643e-22 -3.6304e-25
1.92642e-23 -2.29497e-22 3.18848e-24
-1.95115e-22 -1.4459e-22 -7.34642e-25
-2.39939e-22 -8.61658e-23 5.3773e-25
5.99432e-22 1.30774e-23 -6.33486e-25
-4.40971e-22 -4.3966e-22 -7.88343e-26
-1.21337e-22 7.87077e-22 -3.77696e-25
-5.50764e-22 -2.3927e-22 1.25622e-24
8.35752e-23 -9.77603e-23 1.35865e-24
-6.02883e-22 -2.92293e-22 6.16226e-25
-6.55136e-22 2.67434e-25 1.29727e-24
2.15422e-22 -4.61895e-22 -6.25699e-25
-5.96078e-22 2.99452e-22 8.35275e-25
1.54258e-22 -3.18263e-22 -3.27129e-25
-3.66397e-22 -3.9239e-22 4.22076e-25
2.72481e-22 4.87491e-22 -4.06616e-26
1.62457e-22 -4.53371e-25 -1.74226e-25
-5.18841e-22 2.71184e-22 1.14365e-24
2.0321e-23 -5.00998e-22 -3.56278e-25
4.08701e-23 -1.54122e-22 -9.84761e-25
-4.89687e-22 -4.84063e-22 1.70152e-25
-8.39221e-24 7.63782e-22 -6.79269e-25
-6.51253e-22 -1.32512e-22 6.88312e-25
-1.22262e-22 5.43561e-22 -1.83154e-25
4.83034e-22 8.49379e-23 5.98002e-25
6.50114e-22 4.39745e-22 -4.95881e-25
-1.00793e-23 2.89331e-22 1.45215e-24
6.32159e-22 4.13753e-22 -4.64923e-25
-3.25433e-23 -4.11389e-22 2.48255e-24
3.74944e-23 8.31318e-22 -3.82421e-25
-8.16968e-22 6.79497e-23 1.38886e-24
6.30834e-23 7.47422e-22 -1.36598e-24
-4.59877e-22 -4.32473e-23 1.57954e-24
-2.35413e-22 1.83991e-22 8.62738e-26
-1.14806e-22 -5.51076e-23 1.59674e-24
2.61416e-22 1.30001e-22 6.76143e-25
1.33718e-22 1.41689e-22 3.03855e-24
-3.8369e-23 5.43161e-22 2.1278e-25
6.75303e-23 8.0993e-22 -3.32693e-25
-5.92996e-22 4.51492e-22 -3.25685e-25
1.10673e-22 1.94578e-22 1.43268e-24
2.34751e-22 6.34145e-23 9.10313e-25
-1.69591e-22 7.15874e-23 -7.70009e-26
7.17527e-23 2.00888e-22 -1.10577e-25
3.70186e-22 -3.51465e-22 -1.03554e-24
1.02499e-22 -2.23043e-22 1.00088e-24
3.27593e-22 -4.40915e-22 -2.68318e-25
7.07057e-22 2.25756e-22 -1.22767e-24
-1.33701e-22 2.40077e-22 5.48291e-25
-1.5135e-22 -1.73663e-22 2.18675e-24
-3.94751e-22 -5.24501e-22 2.42715e-25
-2.23699e-22 -5.29588e-22 8.25336e-25
-6.766e-22 2.64843e-22 6.26295e-25
-1.12005e-22 4.5966e-22 2.43583e-25
5.30732e-22 5.58292e-22 -9.07325e-25
2.71986e-22 -2.03986e-22 1.96512e-26
-2.97834e-22 -2.97925e-22 7.06601e-25
-6.26561e-22 1.26572e-22 1.01834e-24
-2.90843e-22 6.49465e-22 -1.39458e-25
-7.1516e-22 3.15258e-22 6.53469e-25
-7.22005e-22 2.63423e-22 1.1641e-24
1.08722e-22 2.6492e-22 2.88708e-25
-5.88552e-22 -2.98747e-22 3.09611e-26
2.21587e-22 6.13765e-22 -2.45074e-25
2.68397e-22 3.95271e-22 -9.96491e-26
1.45427e-22 2.11891e-22 3.17513e-25
-6.8687e-22 -1.70434e-22 1.05904e-24
6.94945e-22 1.5237e-22 -1.0437e-25
1.90829e-22 8.23421e-22 -5.19144e-25
2.57623e-22 -3.77946e-22 -3.2822e-25
-5.03425e-22 -5.00365e-22 2.39564e-25
-5.06074e-22 4.59668e-22 -3.20507e-25
5.54766e-22 4.68178e-22 -1.31992e-24
-3.10509e-22 6.14803e-22 -6.3256e-25
-4.40803e-22 6.09071e-22 -2.45237e-25
4.88249e-22 2.22443e-22 -1.80981e-25
4.20142e-22 6.92522e-22 -7.89957e-25
7.14485e-22 3.15169e-22 1.85562e-25
6.37184e-23 7.99426e-22 -1.55759e-25
-2.47504e-22 7.56436e-22 -4.41977e-25
-3.04651e-22 -1.09761e-22 -4.12259e-25
-2.05065e-22 -5.06351e-22 -3.17399e-25
2.99308e-22 6.85471e-22 -1.49463e-25
2.90023e-22 3.07259e-22 1.05062e-25
4.89434e-22 -1.74287e-22 -1.12645e-24
8.44724e-23 -8.69446e-23 1.29383e-24
-2.77406e-22 2.6126e-22 1.43652e-24
-5.30913e-22 1.3509e-22 1.38455e-24
4.7848e-23 7.17719e-22 -2.09638e-24
-7.34362e-23 4.43051e-22 7.24577e-25
6.43056e-22 4.14557e-22 -3.46609e-25
2.23321e-22 4.80819e-22 -1.2495e-25
-3.90299e-22 -3.49547e-22 6.36081e-25
-5.13178e-22 -4.44976e-22 2.47079e-25
2.51311e-22 1.7256e-22 9.03173e-25
6.61167e-22 2.01759e-22 -8.72496e-26
-1.3088e-23 3.69233e-22 4.8346e-25
-1.62229e-22 1.8731e-22 -6.62482e-25
-1.37054e-22 2.04369e-22 5.44943e-25
1.82188e-22 -3.13084e-22 -9.80487e-25
2.45371e-23 2.88754e-22 -6.61563e-25
6.18103e-22 -5.11068e-24 -8.48978e-25
-5.66583e-22 -2.95542e-22 2.45698e-25
-1.99645e-22 -5.12694e-22 -1.2468e-25
1.98269e-22 2.22708e-22 -1.4544e-25
5.20217e-22 1.57068e-22 1.63172e-26
-4.84992e-22 -3.4575e-22 9.51126e-25
-8.93394e-23 2.34399e-22 4.19299e-25
-9.38283e-24 1.97458e-22 2.00323e-25
1.38849e-22 -5.42712e-23 1.6396e-24
-2.37091e-22 -1.16263e-22 6.08945e-25
7.34501e-22 1.78009e-22 -7.33848e-25
3.17313e-22 -2.6197e-22 -1.02618e-24
2.09004e-22 5.0545e-22 -1.29484e-24
4.74592e-22 -1.75964e-22 -6.83232e-25
-5.91167e-22 7.86712e-23 1.55914e-24
-3.73097e-22 -9.25495e-23 1.29002e-24
-7.03338e-22 1.16416e-22 1.01743e-24
4.62672e-24 2.60317e-22 -1.39988e-24
-2.08763e-22 3.34699e-22 1.28278e-24
1.97513e-23 1.8416e-22 2.04148e-24
4.80644e-22 4.29448e-22 -1.38525e-24
5.2802e-22 2.87625e-22 -4.04533e-25
1.72521e-22 2.90555e-22 1.65859e-24
-5.65212e-22 4.16419e-22 -2.63051e-25
3.90685e-22 8.35937e-23 -1.51812e-24
7.03365e-22 3.11291e-22 -3.29576e-26
4.04413e-23 2.86445e-22 1.0147e-24
1.55412e-22 2.62353e-22 8.54113e-25
-6.28842e-23 -1.22471e-22 4.20493e-25
2.98802e-22 5.30738e-23 7.16353e-25
2.14297e-22 1.20239e-22 1.12939e-25
1.18084e-22 3.599e-22 -1.70949e-25
1.89691e-22 -4.34344e-23 1.37272e-24
-4.83049e-22 3.69696e-23 1.87765e-24
-3.19748e-22 2.29678e-22 1.04403e-24
-2.50645e-22 -2.27711e-22 -1.36484e-24
-6.57625e-22 2.09224e-22 1.78741e-24
-2.92289e-22 -1.39341e-22 -1.18279e-25
-5.85862e-23 -3.4454e-22 2.50805e-24
-4.14954e-23 2.15905e-22 6.53204e-25
-1.92256e-22 -4.87686e-22 -8.87345e-26
-7.92096e-23 4.71398e-22 7.37783e-25
6.95146e-23 1.93543e-22 1.37983e-25
7.66906e-22 2.30503e-22 -5.00326e-25
-6.23654e-23 -3.48101e-22 2.77373e-24
-9.55981e-23 2.99429e-22 9.73697e-25
-1.75368e-22 2.77665e-22 1.67592e-24
-3.90767e-22 -5.16759e-22 6.77659e-25
6.61731e-23 2.07025e-22 -3.09406e-26
-1.64415e-22 4.58733e-22 1.57519e-25
6.39957e-22 4.35717e-22 -2.25337e-25
-1.32191e-22 1.03997e-22 1.31808e-24
4.41324e-22 -9.92251e-23 -9.31662e-25
-1.70598e-22 -1.70844e-22 2.07554e-24
7.4179e-23 -1.17097e-22 -4.81657e-26
3.22726e-23 8.20918e-22 -8.27886e-25
1.49358e-22 7.3896e-22 -5.41235e-25
-5.72683e-22 -2.76174e-22 2.4038e-25
-6.63404e-22 5.48444e-23 1.10557e-24
-2.143e-23 -2.36469e-22 -1.1093e-24
3.11145e-22 7.03888e-22 -7.11193e-25
-5.27441e-22 -4.13231e-22 8.66235e-25
7.08473e-22 1.52729e-22 8.77389e-26
-6.25667e-22 6.88951e-26 1.12792e-24
1.68942e-22 1.71021e-22 4.84028e-25
-8.32411e-23 7.01693e-23 4.07286e-25
-1.40697e-22 -2.56957e-22 4.13735e-25
-6.81622e-23 1.98016e-22 3.25641e-25
6.05733e-22 1.99501e-22 -4.04493e-25
-4.03451e-22 5.53325e-22 -3.46728e-25
-2.80392e-22 -3.91761e-23 1.30938e-24
-6.95253e-23 5.96435e-22 -1.14205e-24
1.66881e-22 -3.79665e-22 -6.31079e-25
-5.27595e-22 7.61962e-23 1.76774e-24
-6.14684e-22 4.05563e-22 3.52869e-25
-3.05132e-22 1.77277e-23 1.38418e-24
3.62826e-22 5.84498e-22 -6.35149e-25
-2.02554e-22 3.45338e-22 9.71153e-25
-5.43355e-23 -4.26217e-22 1.01027e-24
2.75091e-22 4.85595e-22 -1.15341e-25
2.86827e-22 2.86409e-22 2.82894e-24
-2.6664e-22 1.23318e-22 1.23019e-24
-1.88048e-22 1.48189e-22 1.46888e-24
-2.73962e-22 7.87635e-22 1.60398e-25
-6.32009e-22 6.14511e-23 7.88432e-25
5.54249e-22 9.13561e-23 -4.38199e-25
1.77394e-23 -8.97449e-23 6.50929e-25
2.00036e-22 7.84968e-22 -3.91099e-25
4.2969e-22 4.23221e-22 1.19195e-25
-7.33523e-22 6.29387e-23 1.25997e-24
-1.06658e-22 -8.09549e-23 -2.43817e-25
4.30745e-22 -4.04486e-23 9.2313e-25
-2.03065e-22 6.88506e-22 -4.364e-25
-1.63026e-22 -8.56097e-23 1.50886e-24
-4.03143e-22 -4.93583e-22 3.30934e-25
-4.09945e-22 1.15336e-22 9.07207e-25
3.59027e-22 -2.62192e-22 -1.47454e-24
-5.23586e-22 -4.65384e-22 -1.40781e-25
-1.49252e-22 1.13129e-22 -9.3792e-25
-5.43623e-22 1.06609e-22 1.65414e-24
3.7426e-22 -1.60508e-22 -9.10183e-26
4.92786e-23 -3.71121e-22 2.21005e-24
1.58892e-22 -3.50805e-22 -8.62171e-25
7.11876e-22 3.35485e-22 -5.31983e-25
-2.18241e-22 2.10171e-22 1.62224e-24
4.38371e-22 4.96723e-22 -1.02224e-24
-7.68038e-22 1.40588e-22 1.56755e-24
9.94449e-23 8.24413e-22 -4.49436e-25
2.5584e-22 -3.78166e-22 -8.1647e-25
4.37388e-23 1.86622e-22 -1.61974e-24
5.51254e-22 4.95761e-22 -1.71408e-25
-1.45835e-22 -3.37573e-22 2.22534e-24
7.48183e-22 2.34985e-22 -3.00872e-25
-2.08396e-22 6.48088e-22 -6.94281e-25
-5.02433e-22 5.4515e-22 -2.92049e-25
-4.35232e-22 -4.32242e-22 2.84849e-25
8.87189e-23 9.25461e-23 1.12228e-24
-5.47762e-23 7.77617e-22 -4.27418e-25
-2.1375e-23 3.15962e-22 -1.03696e-24
2.67195e-22 7.43336e-22 -3.96937e-25
2.00885e-23 1.87775e-22 1.58642e-24
-1.98829e-23 -4.56037e-22 -8.69323e-25
-3.39009e-22 -1.75924e-22 1.45039e-24
-4.9503e-22 -5.13639e-22 7.67666e-25
-6.39211e-22 2.54579e-22 1.71393e-24
-1.6987e-22 5.71515e-22 -9.17901e-25
1.81576e-22 6.66579e-22 -3.32456e-25
6.097e-22 1.16455e-23 -6.12586e-25
2.41927e-23 7.08954e-22 -1.95703e-24
-5.8564e-22 -3.30118e-22 1.35366e-25
-5.46088e-22 3.00936e-22 5.56453e-25
-3.9181e-22 -3.70306e-24 2.15708e-25
3.40579e-23 -1.52834e-22 -6.50524e-25
-3.44672e-22 6.75901e-22 -2.03247e-25
4.90488e-22 5.88798e-22 -5.95446e-25
-5.94556e-22 -1.55051e-22 3.16727e-25
-2.97425e-22 -9.08498e-23 1.63941e-24
-1.61162e-22 7.71474e-22 -1.10352e-25
-5.81356e-22 2.67165e-23 1.80838e-24
5.0766e-22 2.84086e-22 3.58154e-25
-7.12417e-23 -1.15429e-22 -5.32702e-25
6.93208e-22 1.73753e-22 -2.56497e-25
-2.14494e-22 -4.52149e-22 6.88378e-26
-5.66933e-22 9.78018e-23 1.38859e-24
6.25298e-22 4.08355e-22 -1.49756e-25
1.29244e-22 -4.50671e-22 -5.66082e-25
5.20129e-23 7.87498e-22 -1.04986e-24
-1.01121e-24 -8.51148e-23 8.50851e-25
1.7632e-22 -2.31026e-22 6.13722e-25
4.69575e-22 -9.80336e-23 -6.28171e-25
-5.86594e-22 -1.39618e-22 8.28297e-25
4.30383e-22 1.36465e-22 7.67908e-25
1.38154e-22 4.07085e-22 -6.53016e-25
-5.03293e-22 -4.65801e-22 2.88328e-25
-1.50234e-22 3.46017e-23 1.87497e-24
-3.53219e-22 3.63722e-22 -2.58358e-25
-5.35647e-22 3.04253e-22 6.584e-25
-2.09706e-22 -5.2799e-22 -2.96403e-25
-4.49554e-22 4.73386e-22 -1.30966e-25
-2.92973e-23 -4.02576e-23 -8.66464e-25
-4.11484e-23 2.34967e-22 -8.23373e-25
-2.61313e-22 3.00504e-23 -4.57794e-26
-7.79502e-23 2.12702e-22 -4.95187e-25
-2.0043e-22 1.82313e-22 1.60041e-25
2.11579e-22 1.59538e-22 -1.17327e-24
1.11633e-22 2.64325e-22 -1.34023e-24
-2.32269e-22 4.27872e-23 1.61641e-25
1.41264e-22 1.02859e-22 1.49105e-24
-4.39904e-22 2.79135e-22 1.37456e-24
-4.27159e-22 -1.51705e-22 1.10126e-24
-3.8252e-22 -4.47093e-22 4.15819e-25
5.67518e-22 4.96879e-22 -5.03768e-26
-2.58123e-22 3.32463e-22 9.93759e-25
-4.94796e-22 -3.26709e-22 2.16346e-25
-1.37578e-23 -4.46183e-22 -3.20352e-25
6.99345e-23 -2.43032e-22 2.48946e-24
-4.74351e-23 7.81954e-22 -7.99266e-25
1.16309e-22 -4.07111e-22 9.31396e-25
-6.51352e-22 -1.35505e-22 5.94277e-25
3.21123e-22 1.07807e-22 6.80758e-25
-4.17444e-22 9.88416e-23 1.19274e-24
4.17009e-22 -9.55321e-24 -1.41034e-24
5.67644e-22 8.89706e-23 -8.08986e-25
-2.74937e-23 -1.12652e-22 2.27021e-24
5.7611e-22 3.54263e-22 4.17864e-25
6.01769e-22 4.08666e-22 -2.32595e-26
6.11334e-23 6.90059e-22 -1.26722e-24
2.88758e-23 7.41602e-22 -1.37805e-24
7.62174e-22 2.35143e-22 -2.99711e-25
-6.99113e-22 1.16054e-22 1.08251e-24
-5.19624e-22 -3.6291e-22 3.82735e-25
4.57579e-22 -1.13556e-23 -9.65402e-25
3.37993e-22 5.66372e-22 -1.99554e-24
-4.55555e-22 4.72125e-22 -2.96446e-26
2.48132e-22 -3.7011e-22 -1.18375e-24
4.71883e-22 5.5265e-22 -9.31521e-25
-1.42196e-23 -4.43771e-22 -3.5355e-26
5.27874e-23 -3.25389e-22 8.00519e-25
-6.65137e-23 4.09487e-22 -6.61766e-25
-1.41169e-22 7.38772e-22 -2.44397e-25
3.22454e-22 3.40027e-22 5.99082e-25
-6.79646e-22 1.57993e-22 1.55429e-24
-1.69002e-22 -3.74089e-22 3.12127e-25
1.19488e-23 -2.63125e-22 9.78915e-25
8.5959e-23 -4.2102e-22 6.52022e-25
-8.16114e-22 1.86663e-22 1.17811e-24
1.74547e-23 -3.245e-22 -8.56369e-25
-4.26601e-22 -3.7856e-22 1.54221e-25
-2.05835e-22 1.91887e-22 -1.10636e-24
-2.68928e-22 -4.1901e-22 -4.39181e-26
1.14976e-22 -1.66349e-22 -5.93007e-25
-6.68792e-23 -1.16226e-22 1.75145e-24
-1.97493e-22 -3.3177e-22 6.08456e-25
7.05897e-22 2.33939e-22 -1.09832e-24
8.03096e-23 3.20655e-22 -3.9332e-25
-6.3404e-23 5.44075e-22 -7.72037e-25
-3.83893e-22 -2.96183e-22 3.08362e-25
3.11039e-22 -2.23228e-22 -1.49672e-24
-2.5418e-22 -3.79701e-22 -1.70009e-25
1.64875e-22 1.056e-22 2.2294e-24
1.24394e-22 -2.39645e-22 2.95373e-24
-3.62537e-22 3.32694e-22 3.24578e-25
3.32836e-22 -2.2417e-22 -1.35295e-24
6.7338e-22 2.97046e-22 3.96039e-25
6.90006e-22 3.32297e-22 -4.2598e-25
1.1297e-23 -1.03216e-22 3.526e-24
1.21305e-22 -5.1939e-23 2.53007e-24
-5.17695e-22 3.47749e-22 1.62544e-24
-4.46917e-22 -1.85837e-22 8.29998e-25
-1.08265e-22 -1.74916e-22 1.07509e-24
3.04885e-22 3.84837e-22 -1.27199e-24
-3.00889e-22 6.1269e-22 1.33475e-25
-3.76563e-22 2.34255e-22 3.6132e-25
7.50016e-22 2.14557e-22 4.15683e-26
2.51193e-22 -3.70315e-22 -1.2366e-24
6.12182e-22 9.2356e-23 -9.11517e-25
-4.67506e-22 -1.68702e-22 6.77927e-26
-8.78177e-23 -3.47494e-22 8.25755e-25
1.08871e-22 -4.18536e-22 -1.55102e-25
4.67031e-22 5.00786e-22 -2.61616e-26
-1.17666e-22 6.70783e-22 -8.67351e-25
1.73583e-22 7.67222e-22 -7.79263e-25
5.77533e-22 5.09211e-22 -4.62372e-25
-2.51302e-22 7.18189e-22 8.67809e-26
-3.82384e-22 6.05001e-22 -2.17524e-26
-1.31034e-23 5.85475e-22 -6.77588e-25
-3.37098e-22 6.51156e-22 -4.87738e-25
-6.22825e-23 7.97063e-22 -1.15888e-24
-3.48354e-22 -3.77537e-22 6.99215e-25
5.36759e-22 5.56882e-22 -6.57921e-25
2.30772e-22 -4.09395e-22 -2.92524e-25
9.49582e-23 -4.41931e-22 4.34747e-26
-4.53911e-22 -4.89182e-22 1.7334e-25
-1.17912e-22 7.84385e-22 -3.46748e-25
1.92232e-22 6.88897e-22 -1.24286e-24
-1.71055e-22 1.63571e-22 1.69208e-24
-5.16449e-22 -4.81781e-22 1.90299e-25
3.33532e-22 1.40652e-22 8.54826e-25
3.84968e-22 4.24507e-22 -1.82393e-24
-5.88895e-22 2.87276e-22 6.23319e-25
-1.74483e-22 7.54062e-22 -7.20704e-26
4.26844e-22 6.31817e-22 -7.0807e-25
2.23754e-22 1.72306e-22 3.06104e-24
1.40091e-22 -1.54457e-22 1.30469e-24
-7.21348e-23 -1.73679e-22 2.54854e-24
3.52348e-22 -2.39136e-22 1.05385e-24
2.15119e-22 6.5562e-22 -6.0216e-25
-4.29415e-22 -1.60121e-22 1.01726e-24
3.83252e-22 5.85269e-22 -1.26337e-24
1.29509e-22 1.28091e-22 1.06663e-24
4.41613e-23 -1.1149e-22 1.37035e-24
-9.24762e-23 -6.21639e-23 2.10075e-24
-2.21907e-22 4.66312e-22 -7.92794e-25
9.9366e-23 5.97993e-22 -1.83067e-24
-2.10948e-22 2.20486e-22 7.55354e-25
5.44132e-22 1.85801e-22 -9.06651e-25
1.2837e-22 1.35243e-22 1.76284e-24
2.20049e-22 -3.96747e-22 4.20661e-27
-4.7749e-22 3.76626e-22 1.33607e-24
-6.96968e-22 -4.35476e-23 1.27245e-24
-1.06559e-22 1.46764e-23 1.67321e-24
-3.26016e-22 -1.77022e-22 1.14347e-24
-1.12609e-22 -3.22501e-22 -3.52484e-25
2.18078e-22 -4.05829e-22 -9.06554e-25
-2.49886e-22 2.96742e-22 9.76539e-25
8.31374e-23 4.33155e-22 1.58292e-24
4.27889e-22 2.68075e-22 -7.0346e-25
-1.64087e-22 1.1489e-22 -1.23815e-24
2.80123e-22 4.49485e-22 -1.35457e-24
2.70698e-22 5.1325e-23 4.11042e-25
-4.79579e-22 2.25562e-22 6.05478e-25
-7.55503e-22 2.04591e-22 1.13138e-24
4.02661e-22 7.04776e-22 -1.48474e-25
-4.33634e-22 7.89553e-23 7.02091e-25
1.47119e-22 -2.51259e-22 4.82577e-25
1.69409e-22 -3.79291e-22 -7.9988e-25
-1.52573e-22 -2.14123e-22 2.44274e-24
2.23286e-22 -3.9912e-22 1.30775e-25
-4.57217e-22 -2.04932e-23 1.40859e-24
1.64216e-22 1.01851e-22 1.6254e-24
1.26052e-22 -2.38313e-22 2.35846e-24
5.71041e-22 2.4455e-22 -5.75989e-25
-3.89085e-22 2.2086e-22 6.03975e-25
-1.37014e-22 -1.37531e-22 -8.27264e-25
-7.35517e-23 2.60327e-22 -7.61317e-25
-2.21808e-22 -1.15223e-22 -5.58876e-25
1.13696e-22 -1.64428e-22 -1.20964e-24
1.55625e-22 -2.11652e-22 -5.54048e-25
-6.48322e-23 2.64414e-22 -1.04549e-24
3.98612e-22 6.5325e-22 -1.05539e-24
-2.88917e-22 3.74038e-23 2.51434e-25
2.94358e-22 -1.36733e-22 2.95652e-25
2.16164e-23 -2.93155e-22 2.39945e-24
-1.75798e-22 1.95141e-22 -6.40052e-25
2.22375e-22 -3.98018e-22 -2.72634e-25
4.0888e-22 3.44812e-22 -1.06887e-24
6.62826e-23 2.66492e-22 -9.82385e-25
1.17918e-22 5.62076e-22 -1.2365e-24
9.21682e-23 -8.09058e-23 -6.4672e-25
-2.9612e-23 -3.62576e-22 -4.9157e-25
9.91839e-23 1.86171e-22 1.48735e-24
3.66713e-22 -2.72509e-22 -3.7783e-25
1.60411e-22 4.66367e-22 -1.25588e-24
-2.87835e-22 3.45952e-23 7.07973e-26
2.9002e-22 -1.89698e-22 -1.16252e-24
-4.72982e-22 -5.50803e-23 1.28237e-24
4.12005e-22 -3.14052e-23 -9.33924e-25
4.04949e-22 8.2064e-23 -1.18181e-24
-1.89201e-22 1.61534e-22 -2.88955e-25
2.91039e-22 -1.95404e-22 -1.25649e-24
-2.06355e-22 6.63353e-22 -4.91016e-26
1.09121e-22 2.25135e-22 -1.12553e-24
1.14229e-22 -3.11725e-22 -4.65397e-25
2.17258e-22 3.77555e-23 -9.14184e-25
-3.22778e-22 -2.49317e-22 5.06688e-26
2.87967e-22 -1.89497e-22 -1.05876e-24
4.84593e-23 4.3784e-22 -1.47984e-24
-1.34355e-22 2.00722e-22 1.21892e-24
-1.36973e-22 7.43591e-23 -1.69023e-24
-4.07736e-22 -1.11907e-22 1.09657e-24
-1.12983e-22 -1.8392e-22 9.89318e-25
-2.43825e-22 2.04585e-23 1.83224e-24
-1.11519e-22 3.01947e-22 -1.14053e-24
-1.85232e-22 1.38109e-22 6.44989e-25
1.64147e-22 -4.12129e-22 -1.25544e-25
-7.84176e-23 4.64096e-22 -1.43307e-24
2.64831e-22 2.4105e-23 2.82318e-24
1.8822e-22 -4.57378e-26 2.78166e-24
-3.60803e-22 8.54657e-23 3.92329e-26
-1.28228e-22 -1.68102e-22 1.29692e-24
-2.28226e-22 5.78463e-23 1.9536e-24
2.52038e-22 -1.98037e-22 1.53017e-24
-4.42656e-22 1.86741e-22 -3.49374e-25
3.86787e-22 6.20045e-22 -7.61035e-25
3.26407e-22 -4.31162e-23 -1.11713e-24
2.88458e-22 -1.95267e-22 -9.7903e-25
-4.70661e-22 2.69815e-22 2.92824e-25
-3.61079e-22 -1.51319e-22 9.48785e-25
-4.68081e-22 1.52636e-22 9.4095e-25
-2.24289e-22 -1.74684e-22 -1.75779e-24
1.47682e-22 5.73381e-22 -1.41136e-24
-3.41858e-22 2.59237e-22 1.37704e-24
1.12829e-22 2.40043e-23 3.18467e-24
1.69383e-22 1.23352e-22 3.31287e-24
8.58172e-23 -5.12671e-23 3.0044e-24
3.22083e-23 -2.09517e-22 3.37662e-24
-6.06837e-23 -3.99236e-22 3.39482e-24
-2.4931e-23 2.82491e-22 1.37426e-24
5.33328e-23 1.16437e-22 1.81405e-24
1.7654e-22 -8.57527e-23 3.18172e-24
1.76579e-22 -8.2561e-23 3.01115e-24
2.63973e-22 -1.83177e-22 2.52014e-24
lac 3 563 float
5.60168e-19 -5.14648e-19 -1.32018e-21
-4.61751e-19 -1.19141e-19 1.41201e-19
4.20692e-19 3.93966e-19 -2.98422e-20
-5.53003e-19 -3.18381e-19 1.02536e-19
-4.7611e-19 -2.8174e-19 9.04479e-20
-3.14618e-19 -1.12328e-19 -7.14328e-21
4.79989e-19 -1.78315e-19 -1.20902e-20
6.18511e-20 6.94097e-20 -9.60272e-20
-5.40853e-20 -5.34824e-22 9.14272e-21
-2.75574e-19 -3.34362e-19 -5.53824e-21
-2.38292e-19 1.30253e-18 1.20694e-19
-2.3535e-19 9.90271e-20 -1.29541e-20
-7.7755e-22 -5.34422e-21 -1.88638e-20
2.35403e-20 -5.78768e-20 6.10928e-20
-2.94132e-19 -2.62706e-20 8.83987e-20
1.19055e-19 -2.83972e-19 5.95678e-21
2.70669e-19 -6.70039e-20 1.16618e-19
-2.94658e-19 -4.50811e-20 7.62092e-20
-3.63528e-19 1.43077e-19 4.56419e-20
4.82882e-19 -2.63574e-19 -8.1595e-21
1.79345e-19 1.33721e-19 3.16332e-20
4.07769e-20 -2.14067e-19 8.79715e-20
-4.69903e-19 -3.5719e-19 5.5085e-20
1.85865e-19 1.9815e-19 -1.64903e-20
2.87611e-19 1.64115e-19 -1.52703e-20
-3.62163e-20 3.08355e-19 -4.02032e-20
3.53923e-19 7.69871e-20 1.17733e-19
1.74568e-19 -5.04406e-20 3.76952e-20
-2.63832e-20 1.47176e-19 3.20735e-20
2.05965e-19 1.49965e-20 4.00756e-20
1.80539e-19 5.50608e-19 2.98905e-20
-3.04267e-19 -5.62035e-19 -6.32607e-21
-3.25908e-19 1.94979e-19 5.4923e-20
1.36906e-19 -1.77819e-19 -1.08578e-19
3.58441e-19 -1.57645e-19 3.44527e-20
-2.54682e-19 6.31795e-19 1.0387e-20
2.07666e-19 -4.39154e-19 9.22164e-20
-1.07308e-18 1.23303e-19 3.67093e-20
-7.70149e-20 1.69097e-19 -5.89063e-20
-5.60203e-19 -7.0063e-19 -1.77389e-20
-1.34813e-20 5.9841e-19 -1.9364e-20
3.17172e-19 9.36277e-20 -1.24438e-19
3.08037e-19 -4.65444e-20 -2.54893e-20
3.35228e-19 1.45473e-19 -1.60139e-20
-1.03976e-19 3.09998e-19 8.52412e-20
-1.6791e-19 1.0509e-19 5.01949e-20
-1.46067e-19 5.92323e-19 -9.97028e-21
-1.84238e-19 -6.17486e-19 -9.64251e-21
2.956e-19 2.66576e-19 -9.57968e-21
-4.28957e-19 -4.61338e-20 2.96727e-20
-4.09825e-19 -8.43095e-20 4.32803e-20
-2.08023e-19 8.97756e-19 -1.21112e-21
6.71857e-19 -1.64892e-19 1.07738e-19
9.44391e-21 3.79724e-20 3.39149e-20
3.65428e-19 3.6177e-19 3.74195e-20
-7.71851e-19 -2.4589e-19 7.39029e-20
-5.47768e-20 -4.00228e-19 -1.43039e-19
2.98768e-19 4.72021e-19 3.56891e-21
5.02021e-19 7.85608e-20 -1.84558e-20
2.31793e-19 1.25392e-19 -6.87274e-21
-8.08253e-20 1.36515e-20 1.39841e-20
-2.63598e-20 -2.47788e-19 2.49507e-21
-6.04857e-19 -1.26451e-19 9.27303e-20
-7.13504e-20 -1.92586e-19 6.24627e-20
2.27584e-19 -1.33833e-19 -1.10469e-19
5.19842e-20 1.07906e-21 3.50401e-21
2.13227e-19 -3.52798e-20 -9.76388e-20
-6.14142e-20 5.05787e-19 -7.85742e-21
-4.64916e-19 -1.24237e-19 1.73108e-19
5.29838e-19 -1.25257e-19 3.77691e-22
8.8597e-20 3.71999e-19 -1.07506e-19
5.14228e-19 1.7625e-19 -4.03752e-20
-7.75104e-20 7.55711e-19 8.69056e-20
-1.96009e-19 3.26056e-19 1.42822e-19
-8.45088e-20 -8.39749e-20 1.55534e-19
-2.30552e-19 -3.43917e-19 8.83311e-20
2.27502e-20 7.86341e-20 -1.80079e-20
7.72413e-20 -4.64009e-19 -2.62698e-20
-9.25583e-20 -2.64973e-19 3.41475e-20
-4.26267e-19 -2.13052e-20 6.23158e-20
-7.43844e-19 6.89261e-19 9.08532e-20
6.20972e-20 4.45697e-19 8.47966e-20
-3.74048e-20 -1.40248e-20 4.70751e-20
1.78284e-19 -2.97916e-19 1.10027e-20
-3.31616e-19 -4.31892e-20 1.23981e-19
-3.50569e-19 2.51722e-19 3.58512e-20
-3.53892e-19 -1.38216e-19 -4.58663e-20
-2.38114e-19 6.2401e-20 8.27238e-20
1.64746e-19 -9.3021e-20 -1.89604e-21
-7.60923e-19 2.85889e-19 2.15637e-20
-6.03741e-19 -4.94102e-19 9.14547e-20
-5.63528e-19 -1.97498e-19 -1.81807e-21
3.77056e-19 -2.11307e-19 1.32805e-19
8.01958e-20 3.08321e-19 8.49325e-20
-1.47777e-19 -3.08072e-19 6.32118e-20
-9.13971e-20 7.67484e-19 8.00082e-21
-7.09846e-19 -3.73466e-20 -5.90826e-21
-6.14666e-20 -4.47296e-19 6.32637e-20
5.04541e-20 -5.17794e-19 -4.19251e-21
6.71079e-20 -9.48524e-20 -1.60037e-20
6.55138e-20 6.49078e-19 1.77206e-20
-1.3271e-19 5.11828e-19 8.75302e-20
-1.00835e-18 7.4594e-20 1.0716e-19
-8.51599e-19 -4.76648e-19 1.67609e-19
-2.91735e-19 -3.99398e-19 3.18901e-20
-2.08798e-19 2.54597e-19 -6.45893e-20
1.36943e-19 -2.04722e-19 -4.17709e-20
-3.00833e-19 -2.68345e-19 2.99816e-20
4.85839e-20 1.76601e-19 4.44785e-20
-1.79403e-19 -2.05049e-19 1.10255e-19
-3.4974e-19 2.02408e-19 -3.75024e-20
-8.87257e-19 2.24541e-19 3.77155e-22
-6.11185e-20 -3.32989e-19 4.11264e-20
-1.4645e-19 4.60662e-19 -7.37787e-20
3.19157e-19 3.16898e-20 -5.49944e-20
-1.17468e-19 -1.02158e-21 9.41079e-21
-1.25325e-19 -1.74452e-19 6.93533e-20
-2.73118e-19 6.99935e-19 7.45366e-21
6.969e-19 -2.79889e-19 2.65422e-20
3.92206e-19 4.26177e-19 9.13376e-21
-6.20867e-19 -6.05819e-20 2.76486e-20
-9.57877e-20 1.26835e-19 9.64937e-20
1.34908e-19 -1.95278e-19 2.02231e-20
5.44183e-20 3.73977e-19 -7.56178e-20
1.00147e-19 3.64585e-19 4.81284e-20
-1.34232e-19 1.97207e-19 1.05729e-19
4.45421e-19 -8.92846e-21 -6.07851e-20
-2.26555e-19 2.67577e-19 -6.37902e-20
6.75078e-19 5.32582e-19 1.41447e-20
-6.83341e-19 3.21824e-19 -4.10664e-23
-3.70583e-19 5.36649e-21 1.14834e-19
-2.10388e-19 4.03294e-19 1.44513e-20
1.11754e-19 9.23768e-20 -6.80014e-20
-7.91252e-20 8.5481e-20 -1.04258e-19
4.1342e-19 2.54169e-19 4.18152e-20
-1.92606e-20 -3.72039e-19 -1.4613e-20
-1.3603e-19 -1.61236e-19 4.11974e-20
4.39595e-19 1.11276e-19 5.01777e-20
1.17206e-20 -3.47236e-19 1.02155e-19
-3.57765e-19 -1.03641e-19 4.78123e-20
4.02987e-19 -2.58673e-19 6.56207e-20
-2.41919e-19 -1.17996e-19 4.26958e-20
6.30127e-19 -9.71721e-19 3.41732e-20
-3.64325e-19 -5.78435e-19 2.06951e-20
7.49728e-20 -1.12353e-19 6.7051e-20
3.20451e-19 4.64143e-20 7.56498e-20
-1.78432e-19 5.37732e-19 7.81054e-20
-9.28224e-19 3.85843e-19 2.59292e-20
-6.18071e-19 1.3688e-19 -1.8561e-20
-2.83468e-19 3.54366e-19 8.799e-21
-9.26631e-20 -3.17082e-19 1.19681e-20
-1.87837e-19 1.52796e-19 -2.86265e-20
-6.33025e-20 1.5733e-19 -2.68213e-20
2.7585e-19 1.63801e-19 -1.23254e-20
4.36244e-20 4.4358e-20 -8.46637e-20
-1.76759e-19 2.17639e-19 -7.55169e-20
-1.66066e-19 -4.10338e-19 2.46645e-20
-5.66759e-19 5.68216e-20 6.60046e-20
-3.80842e-19 3.16079e-19 1.2457e-20
-1.03277e-19 -4.4475e-19 1.30863e-19
-7.32886e-19 1.2585e-19 -3.51386e-20
-7.17342e-19 -1.30743e-19 6.88419e-20
-8.89122e-20 4.81657e-19 -3.09105e-20
4.37703e-19 2.12532e-19 2.9657e-20
-1.19943e-18 2.35753e-19 2.1561e-20
-2.65889e-20 1.30697e-20 2.39469e-20
-3.65615e-19 1.84e-19 4.52496e-20
2.86881e-19 3.23299e-19 3.90751e-20
6.54729e-19 4.53806e-19 1.9452e-20
-3.39148e-19 -2.94158e-19 -3.88734e-20
2.95524e-19 -1.01714e-19 -1.00304e-19
-2.56613e-19 -7.35119e-20 6.09332e-20
-4.34866e-19 1.18063e-19 9.54513e-20
4.52777e-19 4.39304e-19 -6.3074e-20
-7.10132e-19 -3.28067e-19 1.632e-21
-6.57804e-21 -7.30784e-20 3.70797e-20
2.89598e-19 1.35131e-19 -1.10252e-20
-1.60476e-20 4.00097e-19 2.14996e-20
-2.21059e-19 -1.34366e-19 6.43097e-20
1.00722e-19 2.94774e-19 -8.89147e-21
2.83959e-19 3.55476e-19 1.43496e-20
2.09367e-19 2.29159e-20 -7.32526e-20
-5.10737e-19 -8.86391e-20 -1.40717e-20
7.09631e-20 8.85604e-19 7.86047e-21
5.07327e-19 -2.09466e-19 3.0579e-20
3.87309e-20 -1.65126e-19 4.38744e-20
-5.79202e-20 -2.79603e-19 -7.54872e-20
4.9726e-19 1.35398e-19 -7.06096e-20
1.60451e-19 4.83691e-19 5.84145e-20
-9.10323e-19 -4.08777e-19 1.44226e-19
-5.70132e-19 2.26542e-19 7.32166e-21
4.9943e-19 1.7532e-19 4.8367e-20
-4.45431e-19 2.37649e-19 -2.87133e-20
-5.13331e-20 -5.54736e-19 5.61336e-20
9.6989e-20 8.93499e-20 3.64221e-20
-1.0335e-19 -4.06425e-19 1.90528e-21
-3.67565e-19 -3.17855e-20 4.97838e-20
1.50561e-19 -2.32741e-20 -1.38637e-20
-2.52681e-19 -4.18168e-19 -2.41144e-20
-3.84052e-20 -2.21e-19 1.07851e-19
-1.556e-19 4.62595e-19 1.1446e-20
3.50315e-21 4.09255e-19 -1.91068e-20
8.64365e-19 1.43336e-19 8.80572e-20
1.49995e-19 3.18398e-19 4.7506e-20
-3.10642e-19 -3.23246e-19 2.884e-20
-2.76354e-20 -9.48831e-20 9.87478e-20
2.91915e-20 -2.61431e-19 3.00053e-20
-3.96927e-19 -5.93224e-19 -1.08673e-20
-6.94988e-21 2.96107e-19 8.91145e-20
3.671e-19 -1.4227e-20 6.34479e-20
7.15137e-19 -8.58376e-20 4.93874e-21
-3.43648e-19 2.82597e-19 4.68636e-20
1.89523e-19 2.43922e-19 5.88448e-20
3.63547e-20 3.96428e-20 -5.15044e-20
-2.73232e-19 3.36461e-19 -3.04385e-20
-6.35325e-19 -6.7007e-20 7.48507e-20
4.84804e-19 8.76371e-19 3.17974e-20
8.33781e-21 7.0633e-20 -5.85573e-20
-1.25811e-19 6.78866e-20 -1.17933e-20
-3.957e-19 6.35627e-19 -7.17324e-20
-1.57053e-19 1.1214e-19 1.41755e-19
-1.82636e-19 8.87982e-20 -9.40443e-20
1.17918e-19 5.13489e-19 1.2212e-19
6.34037e-21 3.41994e-19 -2.12895e-20
-1.1027e-19 2.15383e-19 1.88303e-20
1.8838e-20 6.07194e-20 -1.92555e-20
-1.56416e-19 -3.55065e-19 4.91736e-20
-4.45754e-19 4.60449e-19 4.46081e-20
1.1247e-19 3.08893e-21 -1.14532e-19
4.89629e-19 -3.09233e-20 5.67268e-20
-3.77017e-19 6.98131e-20 3.06006e-20
1.19286e-19 1.42646e-19 4.62588e-20
1.56302e-19 7.14852e-19 6.27814e-22
-4.62842e-19 -8.88189e-20 1.13907e-20
1.12015e-19 -2.86819e-19 -6.64455e-20
1.77522e-19 -2.98299e-19 5.2867e-20
-1.08695e-19 1.02343e-19 1.01287e-19
4.31665e-19 -4.50353e-21 6.99711e-20
-2.42435e-19 8.35435e-20 6.32955e-20
-1.3003e-19 -1.35885e-19 -5.48726e-20
-8.14095e-20 -2.60465e-19 -7.02285e-20
7.99149e-19 -5.28995e-19 1.02725e-20
-6.21367e-19 -1.93321e-19 1.16344e-20
-7.48007e-19 4.7689e-20 1.53731e-19
-4.57438e-20 -2.8061e-19 1.83477e-20
-8.22613e-20 -3.63245e-19 1.4192e-19
3.69801e-20 -7.49484e-20 -2.85413e-20
-3.3777e-19 -3.99136e-19 6.41146e-20
4.72113e-19 -1.45295e-19 -2.29454e-20
-4.9394e-19 -1.10377e-19 8.5356e-20
-3.07692e-19 -1.8319e-19 1.45432e-19
9.78449e-21 1.17094e-18 2.35791e-20
-6.82914e-19 4.4336e-20 4.45622e-20
6.78194e-19 3.49364e-20 2.28642e-20
-7.99721e-20 8.8003e-20 -2.89431e-20
3.55357e-20 -2.92568e-19 4.99609e-20
1.91125e-19 1.47386e-19 2.55853e-20
6.4896e-19 -7.95037e-19 -1.2641e-19
-8.68657e-21 9.09322e-20 -1.49202e-20
2.573e-19 -1.79968e-19 1.07708e-20
-3.44806e-19 1.06824e-20 -3.62801e-20
3.08975e-19 3.15846e-20 6.62525e-21
1.37699e-21 3.82354e-20 -3.39983e-20
4.44061e-19 -4.3835e-19 1.57637e-19
1.72405e-20 -9.07858e-20 4.39406e-20
6.75236e-19 -2.09741e-19 1.89995e-20
-1.91646e-19 2.90153e-19 5.68567e-21
-2.90056e-20 3.44205e-19 3.27378e-20
-1.46285e-19 -3.76647e-19 9.1639e-20
-2.77078e-19 -1.05653e-19 1.0813e-19
3.79966e-19 -5.34025e-21 -3.5509e-20
7.91412e-19 1.68012e-19 -3.85892e-20
-2.39719e-19 2.13682e-19 6.66167e-20
2.68609e-19 -9.5304e-20 1.16204e-19
-4.94259e-19 5.59767e-19 -4.5575e-20
3.35499e-19 -2.21991e-19 1.14734e-19
5.99635e-19 2.72273e-19 7.70135e-20
-1.11864e-19 -6.81228e-20 3.2787e-20
1.76258e-19 -9.31177e-20 4.90885e-20
7.95245e-19 2.88279e-19 5.00798e-21
-2.79018e-19 -1.00263e-19 1.97963e-20
-3.30196e-19 -3.62654e-20 1.3024e-20
1.34183e-19 2.32964e-19 2.36406e-21
-5.80618e-19 -1.87137e-19 -4.19328e-20
2.70029e-19 -4.41289e-19 9.35762e-20
2.92943e-19 -1.31116e-19 5.42743e-20
-5.18942e-19 2.32991e-19 1.37644e-20
-5.86004e-19 -7.65342e-20 1.06481e-19
-5.94057e-19 -2.75477e-19 -2.38843e-20
7.73758e-19 -2.48566e-19 1.38025e-19
1.04899e-19 -1.45153e-19 1.63043e-19
-1.32674e-19 3.2637e-20 -1.4633e-19
1.8863e-19 -1.3535e-19 2.71896e-20
7.95717e-20 1.42619e-19 1.95572e-19
1.91079e-19 4.7375e-19 -3.51768e-20
-9.48017e-20 4.98572e-19 1.58126e-19
4.15065e-20 3.84068e-19 4.3401e-20
2.62138e-20 1.43312e-20 1.39117e-20
-1.02268e-19 -2.73611e-19 3.1194e-20
5.06953e-19 -6.55099e-19 1.11425e-19
3.70469e-19 -1.63401e-19 9.07384e-20
-1.047e-19 -5.23677e-20 5.26573e-20
-9.05824e-20 2.46722e-19 8.20048e-20
6.87743e-19 -2.83662e-19 -7.60908e-20
-6.87037e-20 5.88354e-19 -9.71019e-21
-1.8509e-19 1.89465e-19 -1.59769e-20
4.54796e-21 6.88322e-19 1.46188e-22
-1.59103e-19 1.3854e-19 1.03884e-19
3.33367e-19 3.06615e-19 -6.93404e-20
-2.46758e-19 1.30154e-19 1.16057e-19
1.41676e-19 3.97451e-19 6.17243e-20
-6.34518e-19 -1.56143e-19 1.25149e-20
-9.48686e-20 -4.9558e-19 8.54725e-20
1.4267e-19 -2.81082e-20 -3.01744e-20
-5.08077e-19 2.76824e-19 6.87832e-20
1.03758e-20 -2.83533e-19 4.04692e-20
1.18072e-19 -2.30125e-19 -2.71616e-20
6.79215e-20 -6.80556e-20 4.05458e-21
2.46694e-19 -2.8474e-19 1.25667e-19
2.08153e-19 -2.62112e-19 4.7001e-20
-7.2534e-20 -1.79682e-19 -4.00312e-20
3.72863e-20 4.01189e-19 1.91647e-20
-6.39808e-20 1.37306e-19 9.25316e-20
-2.79731e-19 -3.81609e-19 1.39793e-19
-5.28735e-19 1.55498e-19 -1.96403e-20
1.93008e-19 1.66608e-19 6.58022e-20
-1.68261e-19 -2.14009e-19 4.4819e-20
4.59858e-19 -1.41123e-20 2.12473e-21
-3.4362e-19 5.8669e-19 -1.40682e-20
-8.48654e-19 7.40914e-20 3.67984e-20
1.48284e-19 4.93357e-19 1.79954e-20
-9.42572e-20 -8.32511e-19 -1.02676e-19
3.70233e-19 7.97212e-20 3.13528e-20
-8.42381e-20 -2.0984e-19 1.2481e-20
-5.96285e-19 3.31872e-20 7.83562e-20
5.14498e-19 -3.24823e-19 1.82033e-20
4.74424e-19 -3.02608e-19 1.04383e-19
-3.7789e-19 5.46516e-19 -4.21326e-20
-2.89957e-19 6.64451e-20 1.75801e-20
2.14135e-19 5.86387e-20 8.93146e-20
1.42481e-19 1.0124e-19 1.71953e-19
-5.4408e-20 4.05855e-19 4.61083e-20
-5.57115e-20 2.20397e-19 6.67983e-20
-4.47058e-19 5.93022e-20 5.91554e-22
-5.70629e-19 1.12809e-19 1.18795e-20
2.7307e-19 2.14118e-19 4.70552e-20
-2.8304e-20 -3.00458e-19 1.07764e-19
-3.30167e-19 3.83283e-19 4.14365e-20
-2.63534e-19 -8.48647e-20 4.56899e-20
6.18997e-20 -1.32337e-19 -4.4807e-20
1.09077e-19 -6.94834e-20 9.54441e-20
-5.84678e-19 5.17572e-19 -5.9848e-22
-2.21849e-19 -3.28009e-19 8.97862e-20
6.16565e-20 -5.71e-19 4.1897e-20
-1.22643e-18 3.05923e-19 7.64157e-20
3.58515e-19 -7.36254e-19 7.46966e-20
1.92176e-19 4.60345e-19 4.90559e-21
-2.8901e-20 2.27226e-19 1.83927e-20
-1.08728e-19 1.46189e-20 6.57932e-20
-3.16902e-19 -5.63307e-19 8.78655e-20
-3.09897e-19 -6.11052e-20 8.65871e-20
-1.80537e-19 -5.27628e-19 3.86734e-20
1.95896e-19 2.36942e-19 5.15071e-20
-9.27016e-20 1.25235e-19 3.2171e-20
7.22891e-20 -2.96654e-19 1.51308e-20
-5.11804e-19 -2.4612e-19 4.85538e-20
-8.67423e-20 -5.92655e-19 -1.72323e-20
8.93856e-19 4.45437e-19 -1.48004e-20
-5.88617e-19 2.62317e-19 6.2334e-20
-1.1359e-20 5.59382e-19 2.83751e-20
6.43864e-19 -2.18333e-19 7.91705e-20
-5.93186e-19 -1.27836e-19 7.03969e-20
-1.4768e-19 -1.22631e-19 1.25913e-19
4.33547e-19 3.12244e-19 1.05044e-19
-6.65397e-20 -2.9071e-19 4.99918e-20
4.26819e-19 -7.93873e-20 4.63622e-20
3.83316e-19 3.34033e-19 6.97891e-20
-6.54631e-20 1.45923e-19 -3.46324e-20
-1.63273e-19 2.75442e-19 -3.4467e-20
3.3435e-19 1.97259e-19 -8.15473e-20
-3.42728e-19 -4.42393e-20 1.00714e-20
-2.28752e-19 1.76149e-20 4.42133e-20
3.34717e-19 -3.0744e-19 1.14271e-19
-3.62049e-21 2.06902e-19 1.54904e-20
-1.56541e-19 -1.71254e-19 -2.79873e-20
8.38765e-20 -5.57267e-19 1.23935e-19
-1.32475e-19 -1.03273e-19 6.40289e-20
-7.1135e-20 -2.97548e-19 4.95862e-20
2.50915e-19 3.03969e-19 9.445e-20
-1.02012e-19 -4.33814e-20 5.40706e-21
-3.95186e-19 4.61013e-19 -1.81494e-20
2.9802e-19 6.21187e-20 9.51813e-21
-3.17302e-19 4.49442e-20 -2.04801e-20
1.27757e-19 3.44189e-19 3.41995e-21
3.88301e-19 -4.65915e-19 1.25864e-19
1.57674e-19 -3.98458e-19 1.24404e-19
-3.02792e-19 8.76457e-21 -2.26261e-20
-1.15172e-19 -2.44748e-19 1.43682e-19
-5.56049e-19 4.6366e-19 -1.97448e-20
-1.52021e-19 4.25123e-19 1.53022e-19
1.85127e-19 4.45374e-19 3.05072e-20
6.44918e-20 2.23117e-19 1.41864e-19
4.50912e-19 -2.30238e-19 5.23807e-20
1.20966e-19 3.5362e-20 4.29672e-20
9.47179e-20 1.85939e-19 2.44825e-20
-3.93421e-19 4.25894e-19 -4.91358e-20
3.70934e-19 -3.5146e-20 -3.79884e-20
-5.69339e-19 -4.3562e-20 -1.7031e-20
-3.50392e-19 -4.04082e-19 1.03981e-19
-3.67858e-19 -4.98154e-19 3.35593e-20
1.80213e-19 5.78515e-20 6.44082e-20
-1.43581e-19 -4.47031e-19 2.42965e-20
8.57966e-20 2.57211e-19 -5.5351e-20
-3.25878e-19 -6.57599e-19 8.01789e-20
5.09763e-19 2.09376e-19 3.90685e-20
-5.6611e-20 1.62652e-19 -6.3981e-20
1.87405e-19 -3.16597e-20 1.77385e-20
3.25004e-20 -5.11292e-19 -1.90803e-20
-1.30374e-19 -4.01801e-20 6.48463e-20
-2.32574e-19 -1.12015e-19 7.79618e-20
-1.5861e-20 -5.95098e-21 9.1802e-20
1.13502e-18 3.46447e-19 -2.38796e-21
-7.03313e-19 6.25523e-19 6.66385e-21
7.56505e-19 2.47471e-19 6.12769e-20
3.18697e-19 4.48541e-19 -6.35202e-20
-1.0853e-19 -5.39324e-19 7.18819e-20
3.23287e-19 4.03207e-19 1.17027e-19
-8.16923e-19 -1.45253e-18 -2.72994e-20
-3.62333e-19 1.24346e-20 8.13612e-20
5.15021e-19 -2.15982e-19 1.66677e-19
2.47415e-19 1.67956e-19 4.57798e-20
2.12682e-19 5.96929e-19 2.80756e-20
1.47174e-19 -8.1332e-22 1.56298e-20
8.50344e-19 5.29406e-20 2.98982e-20
-6.92156e-19 3.62678e-19 4.93891e-20
-3.90689e-19 2.70444e-19 -4.92015e-20
-5.83105e-19 -7.13489e-19 -4.69379e-20
2.20469e-19 1.53265e-19 5.70582e-20
-3.03188e-19 8.66858e-19 -6.60462e-20
-5.44865e-19 3.038e-20 7.2138e-20
5.5389e-19 2.29393e-20 3.56424e-20
4.21699e-19 -4.37603e-19 1.23344e-19
2.56238e-19 -3.21416e-19 1.33918e-19
-3.54667e-19 -3.45809e-20 -3.97663e-20
2.10493e-19 9.45089e-19 1.69977e-20
2.3807e-19 1.24181e-18 5.72076e-21
1.8106e-19 -6.52575e-21 8.08207e-20
-6.54438e-19 4.75416e-20 -2.18672e-20
2.30929e-19 1.03927e-19 3.42952e-20
4.15374e-20 3.49337e-19 2.86637e-20
-4.53216e-19 -8.44328e-19 7.80344e-20
3.27149e-19 3.67641e-19 -4.21898e-21
4.10149e-19 3.06407e-19 -1.77283e-20
-4.02036e-20 -4.04156e-19 -9.04806e-20
2.36204e-19 5.43879e-19 -7.29767e-20
2.66393e-19 -2.04165e-19 5.10926e-20
-4.03258e-19 1.84733e-19 7.28999e-20
-1.09958e-19 5.45726e-19 2.09627e-20
-2.34159e-19 3.84052e-19 1.26401e-19
6.43857e-19 -5.43188e-20 1.99581e-20
3.10886e-19 -7.60041e-19 8.45914e-20
-1.6513e-20 -7.71397e-19 -2.33951e-20
-3.90826e-19 1.87915e-18 3.07862e-20
3.36713e-19 1.52152e-19 8.21851e-20
-3.03893e-19 2.17952e-19 7.88229e-20
-1.74976e-19 2.29611e-19 6.92313e-20
4.813e-19 -1.45663e-19 1.14939e-19
1.55028e-20 1.99096e-19 5.84459e-20
5.41058e-20 -2.49881e-19 6.98338e-20
-3.07792e-19 3.42235e-19 3.53217e-20
-4.80132e-19 8.88648e-20 5.77776e-20
5.62856e-19 1.60203e-19 1.19601e-19
-1.84671e-19 -4.04076e-19 1.59575e-19
1.69268e-19 -9.05911e-20 6.33441e-20
-2.21934e-19 -6.53734e-20 1.40545e-19
-6.04578e-19 -6.15959e-19 2.75377e-20
-2.68083e-19 8.37404e-19 3.95728e-21
6.33661e-20 -1.51584e-19 -8.57086e-21
-6.35457e-19 -2.67915e-20 9.1743e-20
5.32831e-19 1.43422e-19 2.86749e-20
4.46653e-19 -4.32539e-20 9.22497e-20
-1.38977e-19 -2.643e-19 9.14594e-20
-5.45234e-19 2.21166e-19 6.27907e-21
6.14738e-19 -6.97774e-20 -4.09661e-20
-1.01619e-18 2.13898e-20 7.75591e-20
2.21359e-20 -3.35195e-19 -6.7241e-20
-4.58637e-19 1.20461e-19 1.63023e-19
-3.32201e-20 -3.43862e-19 5.33957e-20
-3.24637e-19 -6.87284e-20 1.25552e-19
-3.17518e-19 2.17933e-19 9.81688e-20
8.20397e-19 1.34538e-19 8.35021e-20
-1.95195e-19 -3.22017e-19 4.50873e-20
6.41931e-20 -6.43353e-20 -3.44131e-20
-9.46135e-20 -3.85931e-20 4.5251e-20
-3.99098e-20 -6.63171e-19 7.47195e-20
1.48515e-19 2.499e-19 -8.53447e-21
-1.05505e-18 -2.50402e-20 3.3179e-20
-1.06145e-19 1.52941e-19 1.44874e-19
-2.69371e-19 -5.59345e-19 6.28971e-20
5.11743e-19 6.57816e-19 -1.14638e-20
-5.79793e-19 1.71861e-19 1.18995e-20
-8.93993e-20 -2.2315e-19 5.10281e-20
-5.30386e-20 1.45864e-19 -9.6985e-20
-1.3362e-19 -3.88999e-19 4.21976e-20
-4.24147e-19 -4.10093e-19 5.15798e-20
-1.18737e-19 -4.08082e-21 1.39372e-19
1.28198e-19 1.14804e-18 1.20336e-20
-3.70267e-19 1.18027e-18 -2.24559e-21
-3.91591e-20 -1.16818e-18 -1.047e-21
4.44117e-19 -4.70128e-19 6.49534e-20
-8.03462e-21 3.01001e-20 7.61409e-20
-5.45498e-19 3.82505e-19 1.56821e-19
-9.51346e-20 5.02083e-21 6.92535e-20
-7.32245e-19 1.31103e-19 -3.42082e-20
-6.58653e-19 1.38429e-18 4.97904e-20
4.77112e-19 -8.51747e-19 1.53177e-19
-2.42595e-19 2.91062e-20 1.20944e-19
-6.59451e-19 -4.35131e-19 7.92853e-20
7.35747e-19 1.30259e-19 1.61241e-19
-4.02693e-19 -7.98278e-19 5.72211e-20
-3.58271e-19 6.03833e-19 7.96392e-20
-2.15826e-19 4.26667e-19 -1.34523e-20
5.44042e-20 1.68266e-19 -1.93445e-20
-4.10326e-19 -8.84619e-20 4.35303e-20
2.4178e-19 -7.01719e-19 6.27532e-20
-9.74684e-19 -4.98554e-19 8.27333e-21
-1.06737e-19 -3.72647e-19 1.1116e-19
-7.08839e-20 3.19545e-19 1.19847e-19
-1.41899e-19 -3.73901e-19 5.93337e-20
2.78692e-19 9.29428e-19 8.76237e-20
-3.93648e-19 -2.25075e-19 5.44359e-20
-2.9469e-19 3.82585e-19 -1.4432e-19
-5.85792e-19 -6.2479e-19 4.83074e-20
1.03566e-18 1.80648e-19 1.77551e-19
2.67625e-20 1.28576e-19 5.90663e-20
-3.06203e-19 -6.65163e-19 6.04774e-20
-3.12229e-19 8.93335e-19 1.35909e-19
2.55983e-19 6.82638e-19 -2.49997e-20
5.22661e-19 1.53829e-19 -2.06795e-20
-3.19031e-19 -1.6929e-19 7.26931e-20
-2.36866e-19 -1.31169e-18 -5.00763e-20
2.01193e-19 1.19153e-18 8.85554e-20
-1.01713e-19 3.13685e-20 1.48352e-20
-1.80594e-19 -2.87505e-19 7.7043e-20
-6.65855e-19 8.51839e-19 -3.34435e-23
2.5002e-19 -1.60334e-19 5.16949e-20
2.75403e-19 -5.29377e-19 3.80228e-20
1.12757e-19 -5.22584e-19 1.28877e-19
1.50853e-19 2.78985e-19 -9.26337e-20
3.1574e-19 -8.06658e-21 2.90082e-20
-2.58465e-19 -3.25677e-19 6.13237e-20
5.172e-19 6.89965e-19 8.85902e-20
-1.31798e-18 2.02382e-20 1.32766e-20
7.24746e-19 9.59221e-19 -1.93906e-20
-2.71665e-19 -5.66438e-20 -7.09292e-20
-5.31222e-19 -1.01099e-18 -9.79892e-21
5.06072e-19 -4.75977e-19 1.50208e-20
-3.32856e-19 6.86499e-20 2.42175e-20
-5.54993e-19 -2.71499e-19 4.86496e-20
2.95015e-19 -2.16553e-18 4.32316e-20
-2.57807e-19 7.93304e-19 3.67964e-20
4.64189e-20 -1.42453e-18 2.97071e-20
2.42785e-19 -2.17232e-19 5.60478e-20
SCALARS necrosis float
LOOKUP_TABLE default
0
0
0
0
0
0
0
0
0
0
0
0
0
0
0
0
0
0
0
0
0
0
0
0
0
0
0
0
0
0
0
0
0
0
0
0
0
0
0
0
0
0
0
0
0
0
0
0
0
0
0
0
0
0
0
0
0
0
0
0
0
0
0
0
0
0
0
0
0
0
0
0
0
0
0
0
0
0
0
0
0
0
0
0
0
0
0
0
0
0
0
0
0
0
0
0
0
0
0
0
0
0
0
0
0
0
0
0
0
0
0
0
0
0
0
0
0
0
0
0
0
0
0
0
0
0
0
0
0
0
0
0
0
0
0
0
0
0
0
0
0
0
0
0
0
0
0
0
0
0
0
0
0
0
0
0
0
0
0
0
0
0
0
0
0
0
0
0
0
0
0
0
0
0
0
0
0
0
0
0
0
0
0
0
0
0
0
0
0
0
0
0
0
0
0
0
0
0
0
0
0
0
0
0
0
0
0
0
0
0
0
0
0
0
0
0
0
0
0
0
0
0
0
0
0
0
0
0
0
0
0
0
0
0
0
0
0
0
0
0
0
0
0
0
0
0
0
0
0
0
0
0
0
0
0
0
0
0
0
0
0
0
0
0
0
0
0
0
0
0
0
0
0
0
0
0
0
0
0
0
0
0
0
0
0
0
0
0
0
0
0
0
0
0
0
0
0
0
0
0
0
0
0
0
0
0
0
0
0
0
0
0
0
0
0
0
0
0
0
0
0
0
0
0
0
0
0
0
0
0
0
0
0
0
0
0
0
0
0
0
0
0
0
0
0
0
0
0
0
0
0
0
0
0
0
0
0
0
0
0
0
0
0
0
0
0
0
0
0
0
0
0
0
0
0
0
0
0
0
0
0
0
0
0
0
0
0
0
0
0
0
0
0
0
0
0
0
0
0
0
0
0
0
0
0
0
0
0
0
0
0
0
0
0
0
0
0
0
0
0
0
0
0
0
0
0
0
0
0
0
0
0
0
0
0
0
0
0
0
0
0
0
0
0
0
0
0
0
0
0
0
0
0
0
0
0
0
0
0
0
0
0
0
0
0
0
0
0
0
0
0
0
0
0
0
0
0
0
0
0
0
0
0
0
0
0
0
0
0
0
0
0
0
0
0
0
0
0
0
0
0
0
0
0
0
0
0
0
0
0
0
0
0
0
0
0
0
0
0
0
0
0
0
0
0
0
0
0
0
0
0
0
0
0
0
0
0
0
0
0
0
0
0
0
0
0
0
0
0
0
0
0
0
0
0
0
0
0
0
0
0
0
0
SCALARS ATP float
LOOKUP_TABLE default
2.15716
2.15716
2.15716
2.15716
2.15716
2.15716
2.15716
2.15716
2.15716
2.15716
2.15716
2.15716
2.15716
2.15716
2.15716
2.15716
2.15716
2.15716
2.15716
2.15716
2.15716
2.15716
2.15716
2.15716
2.15716
2.15716
2.15716
2.15716
2.15716
2.15716
2.15716
2.15716
2.15716
2.15716
2.15716
2.15716
2.15716
2.15716
2.15716
2.15716
2.15716
2.15716
2.15716
2.15716
2.15716
2.15716
2.15716
2.15716
2.15716
2.15716
2.15716
2.15716
2.15716
2.15716
2.15716
2.15716
2.15716
2.15716
2.15716
2.15716
2.15716
2.15716
2.15716
2.15716
2.15716
2.15716
2.15716
2.15716
2.15716
2.15716
2.15716
2.15716
2.15716
2.15716
2.15716
2.15716
2.15716
2.15716
2.15716
2.15716
2.15716
2.15716
2.15716
2.15716
2.15716
2.15716
2.15716
2.15716
2.15716
2.15716
2.15716
2.15716
2.15716
2.15716
2.15716
2.15716
2.15716
2.15716
2.15716
2.15716
2.15716
2.15716
2.15716
2.15716
2.15716
2.15716
2.15716
2.15716
2.15716
2.15716
2.15716
2.15716
2.15716
2.15716
2.15716
2.15716
2.15716
2.15716
2.15716
2.15716
2.15716
2.15716
2.15716
2.15716
2.15716
2.15716
2.15716
2.15716
2.15716
2.15716
2.15716
2.15716
2.15716
2.15716
2.15716
2.15716
2.15716
2.15716
2.15716
2.15716
2.15716
2.15716
2.15716
2.15716
2.15716
2.15716
2.15716
2.15716
2.15716
2.15716
2.15716
2.15716
2.15716
2.15716
2.15716
2.15716
2.15716
2.15716
2.15716
2.15716
2.15716
2.15716
2.15716
2.15716
2.15716
2.15716
2.15716
2.15716
2.15716
2.15716
2.15716
2.15716
2.15716
2.15716
2.15716
2.15716
2.15716
2.15716
2.15716
2.15716
2.15716
2.15716
2.15716
2.15716
2.15716
2.15716
2.15716
2.15716
2.15716
2.15716
2.15716
2.15716
2.15716
2.15716
2.15716
2.15716
2.15716
2.15716
2.15716
2.15716
2.15716
2.15716
2.15716
2.15716
2.15716
2.15716
2.15716
2.15716
2.15716
2.15716
2.15716
2.15716
2.15716
2.15716
2.15716
2.15716
2.15716
2.15716
2.15716
2.15716
2.15716
2.15716
2.15716
2.15716
2.15716
2.15716
2.15716
2.15716
2.15716
2.15716
2.15716
2.15716
2.15716
2.15716
2.15716
2.15716
2.15716
2.15716
2.15716
2.15716
2.15716
2.15716
2.15716
2.15716
2.15716
2.15716
2.15716
2.15716
2.15716
2.15716
2.15716
2.15716
2.15716
2.15716
2.15716
2.15716
2.15716
2.15716
2.15716
2.15716
2.15716
2.15716
2.15716
2.15716
2.15716
2.15716
2.15716
2.15716
2.15716
2.15716
2.15716
2.15716
2.15716
2.15716
2.15716
2.15716
2.15716
2.15716
2.15716
2.15716
2.15716
2.15716
2.15716
2.15716
2.15716
2.15716
2.15716
2.15716
2.15716
2.15716
2.15716
2.15716
2.15716
2.15716
2.15716
2.15716
2.15716
2.15716
2.15716
2.15716
2.15716
2.15716
2.15716
2.15716
2.15716
2.15716
2.15716
2.15716
2.15716
2.15716
2.15716
2.15716
2.15716
2.15716
2.15716
2.15716
2.15716
2.15716
2.15716
2.15716
2.15716
2.15716
2.15716
2.15716
2.15716
2.15716
2.15716
2.15716
2.15716
2.15716
2.15716
2.15716
2.15716
2.15716
2.15716
2.15716
2.15716
2.15716
2.15716
2.15716
2.15716
2.15716
2.15716
2.15716
2.15716
2.15716
2.15716
2.15716
2.15716
2.15716
2.15716
2.15716
2.15716
2.15716
2.15716
2.15716
2.15716
2.15716
2.15716
2.15716
2.15716
2.15716
2.15716
2.15716
2.15716
2.15716
2.15716
2.15716
2.15716
2.15716
2.15716
2.15716
2.15716
2.15716
2.15716
2.15716
2.15716
2.15716
2.15716
2.15716
2.15716
2.15716
2.15716
2.15716
2.15716
2.15716
2.15716
2.15716
2.15716
2.15716
2.15716
2.15716
2.15716
2.15716
2.15716
2.15716
2.15716
2.15716
2.15716
2.15716
2.15716
2.15716
2.15716
2.15716
2.15716
2.15716
2.15716
2.15716
2.15716
2.15716
2.15716
2.15716
2.15716
2.15716
2.15716
2.15716
2.15716
2.15716
2.15716
2.15716
2.15716
2.15716
2.15716
2.15716
2.15716
2.15716
2.15716
2.15716
2.15716
2.15716
2.15716
2.15716
2.15716
2.15716
2.15716
2.15716
2.15716
2.15716
2.15716
2.15716
2.15716
2.15716
2.15716
2.15716
2.15716
2.15716
2.15716
2.15716
2.15716
2.15716
2.15716
2.15716
2.15716
2.15716
2.15716
2.15716
2.15716
2.15716
2.15716
2.15716
2.15716
2.15716
2.15716
2.15716
2.15716
2.15716
2.15716
2.15716
2.15716
2.15716
2.15716
2.15716
2.15716
2.15716
2.15716
2.15716
2.15716
2.15716
2.15716
2.15716
2.15716
2.15716
2.15716
2.15716
2.15716
2.15716
2.15716
2.15716
2.15716
2.15716
2.15716
2.15716
2.15716
2.15716
2.15716
2.15716
2.15716
2.15716
2.15716
2.15716
2.15716
2.15716
2.15716
2.15716
2.15716
2.15716
2.15716
2.15716
2.15716
2.15716
2.15716
2.15716
2.15716
2.15716
2.15716
2.15716
2.15716
2.15716
2.15716
2.15716
2.15716
2.15716
2.15716
2.15716
2.15716
2.15716
2.15716
2.15716
2.15716
2.15716
2.15716
2.15716
2.15716
2.15716
2.15716
2.15716
2.15716
2.15716
2.15716
2.15716
2.15716
2.15716
2.15716
2.15716
2.15716
2.15716
2.15716
2.15716
2.15716
2.15716
2.15716
2.15716
2.15716
2.15716
2.15716
2.15716
2.15716
2.15716
2.15716
2.15716
2.15716
2.15716
2.15716
SCALARS GLC float
LOOKUP_TABLE default
3.96961
3.96961
3.96961
3.96961
3.96961
3.96961
3.96961
3.96961
3.96961
3.96961
3.96961
3.96961
3.96961
3.96961
3.96961
3.96961
3.96961
3.96961
3.96961
3.96961
3.96961
3.96961
3.96961
3.96961
3.96961
3.96961
3.96961
3.96961
3.96961
3.96961
3.96961
3.96961
3.96961
3.96961
3.96961
3.96961
3.96961
3.96961
3.96961
3.96961
3.96961
3.96961
3.96961
3.96961
3.96961
3.96961
3.96961
3.96961
3.96961
3.96961
3.96961
3.96961
3.96961
3.96961
3.96961
3.96961
3.96961
3.96961
3.96961
3.96961
3.96961
3.96961
3.96961
3.96961
3.96961
3.96961
3.96961
3.96961
3.96961
3.96961
3.96961
3.96961
3.96961
3.96961
3.96961
3.96961
3.96961
3.96961
3.96961
3.96961
3.96961
3.96961
3.96961
3.96961
3.96961
3.96961
3.96961
3.96961
3.96961
3.96961
3.96961
3.96961
3.96961
3.96961
3.96961
3.96961
3.96961
3.96961
3.96961
3.96961
3.96961
3.96961
3.96961
3.96961
3.96961
3.96961
3.96961
3.96961
3.96961
3.96961
3.96961
3.96961
3.96961
3.96961
3.96961
3.96961
3.96961
3.96961
3.96961
3.96961
3.96961
3.96961
3.96961
3.96961
3.96961
3.96961
3.96961
3.96961
3.96961
3.96961
3.96961
3.96961
3.96961
3.96961
3.96961
3.96961
3.96961
3.96961
3.96961
3.96961
3.96961
3.96961
3.96961
3.96961
3.96961
3.96961
3.96961
3.96961
3.96961
3.96961
3.96961
3.96961
3.96961
3.96961
3.96961
3.96961
3.96961
3.96961
3.96961
3.96961
3.96961
3.96961
3.96961
3.96961
3.96961
3.96961
3.96961
3.96961
3.96961
3.96961
3.96961
3.96961
3.96961
3.96961
3.96961
3.96961
3.96961
3.96961
3.96961
3.96961
3.96961
3.96961
3.96961
3.96961
3.96961
3.96961
3.96961
3.96961
3.96961
3.96961
3.96961
3.96961
3.96961
3.96961
3.96961
3.96961
3.96961
3.96961
3.96961
3.96961
3.96961
3.96961
3.96961
3.96961
3.96961
3.96961
3.96961
3.96961
3.96961
3.96961
3.96961
3.96961
3.96961
3.96961
3.96961
3.96961
3.96961
3.96961
3.96961
3.96961
3.96961
3.96961
3.96961
3.96961
3.96961
3.96961
3.96961
3.96961
3.96961
3.96961
3.96961
3.96961
3.96961
3.96961
3.96961
3.96961
3.96961
3.96961
3.96961
3.96961
3.96961
3.96961
3.96961
3.96961
3.96961
3.96961
3.96961
3.96961
3.96961
3.96961
3.96961
3.96961
3.96961
3.96961
3.96961
3.96961
3.96961
3.96961
3.96961
3.96961
3.96961
3.96961
3.96961
3.96961
3.96961
3.96961
3.96961
3.96961
3.96961
3.96961
3.96961
3.96961
3.96961
3.96961
3.96961
3.96961
3.96961
3.96961
3.96961
3.96961
3.96961
3.96961
3.96961
3.96961
3.96961
3.96961
3.96961
3.96961
3.96961
3.96961
3.96961
3.96961
3.96961
3.96961
3.96961
3.96961
3.96961
3.96961
3.96961
3.96961
3.96961
3.96961
3.96961
3.96961
3.96961
3.96961
3.96961
3.96961
3.96961
3.96961
3.96961
3.96961
3.96961
3.96961
3.96961
3.96961
3.96961
3.96961
3.96961
3.96961
3.96961
3.96961
3.96961
3.96961
3.96961
3.96961
3.96961
3.96961
3.96961
3.96961
3.96961
3.96961
3.96961
3.96961
3.96961
3.96961
3.96961
3.96961
3.96961
3.96961
3.96961
3.96961
3.96961
3.96961
3.96961
3.96961
3.96961
3.96961
3.96961
3.96961
3.96961
3.96961
3.96961
3.96961
3.96961
3.96961
3.96961
3.96961
3.96961
3.96961
3.96961
3.96961
3.96961
3.96961
3.96961
3.96961
3.96961
3.96961
3.96961
3.96961
3.96961
3.96961
3.96961
3.96961
3.96961
3.96961
3.96961
3.96961
3.96961
3.96961
3.96961
3.96961
3.96961
3.96961
3.96961
3.96961
3.96961
3.96961
3.96961
3.96961
3.96961
3.96961
3.96961
3.96961
3.96961
3.96961
3.96961
3.96961
3.96961
3.96961
3.96961
3.96961
3.96961
3.96961
3.96961
3.96961
3.96961
3.96961
3.96961
3.96961
3.96961
3.96961
3.96961
3.96961
3.96961
3.96961
3.96961
3.96961
3.96961
3.96961
3.96961
3.96961
3.96961
3.96961
3.96961
3.96961
3.96961
3.96961
3.96961
3.96961
3.96961
3.96961
3.96961
3.96961
3.96961
3.96961
3.96961
3.96961
3.96961
3.96961
3.96961
3.96961
3.96961
3.96961
3.96961
3.96961
3.96961
3.96961
3.96961
3.96961
3.96961
3.96961
3.96961
3.96961
3.96961
3.96961
3.96961
3.96961
3.96961
3.96961
3.96961
3.96961
3.96961
3.96961
3.96961
3.96961
3.96961
3.96961
3.96961
3.96961
3.96961
3.96961
3.96961
3.96961
3.96961
3.96961
3.96961
3.96961
3.96961
3.96961
3.96961
3.96961
3.96961
3.96961
3.96961
3.96961
3.96961
3.96961
3.96961
3.96961
3.96961
3.96961
3.96961
3.96961
3.96961
3.96961
3.96961
3.96961
3.96961
3.96961
3.96961
3.96961
3.96961
3.96961
3.96961
3.96961
3.96961
3.96961
3.96961
3.96961
3.96961
3.96961
3.96961
3.96961
3.96961
3.96961
3.96961
3.96961
3.96961
3.96961
3.96961
3.96961
3.96961
3.96961
3.96961
3.96961
3.96961
3.96961
3.96961
3.96961
3.96961
3.96961
3.96961
3.96961
3.96961
3.96961
3.96961
3.96961
3.96961
3.96961
3.96961
3.96961
3.96961
3.96961
3.96961
3.96961
3.96961
3.96961
3.96961
3.96961
3.96961
3.96961
3.96961
3.96961
3.96961
3.96961
3.96961
3.96961
3.96961
3.96961
3.96961
3.96961
3.96961
SCALARS LAC float
LOOKUP_TABLE default
1.42344
1.42344
1.42344
1.42344
1.42344
1.42344
1.42344
1.42344
1.42344
1.42344
1.42344
1.42344
1.42344
1.42344
1.42344
1.42344
1.42344
1.42344
1.42344
1.42344
1.42344
1.42344
1.42344
1.42344
1.42344
1.42344
1.42344
1.42344
1.42344
1.42344
1.42344
1.42344
1.42344
1.42344
1.42344
1.42344
1.42344
1.42344
1.42344
1.42344
1.42344
1.42344
1.42344
1.42344
1.42344
1.42344
1.42344
1.42344
1.42344
1.42344
1.42344
1.42344
1.42344
1.42344
1.42344
1.42344
1.42344
1.42344
1.42344
1.42344
1.42344
1.42344
1.42344
1.42344
1.42344
1.42344
1.42344
1.42344
1.42344
1.42344
1.42344
1.42344
1.42344
1.42344
1.42344
1.42344
1.42344
1.42344
1.42344
1.42344
1.42344
1.42344
1.42344
1.42344
1.42344
1.42344
1.42344
1.42344
1.42344
1.42344
1.42344
1.42344
1.42344
1.42344
1.42344
1.42344
1.42344
1.42344
1.42344
1.42344
1.42344
1.42344
1.42344
1.42344
1.42344
1.42344
1.42344
1.42344
1.42344
1.42344
1.42344
1.42344
1.42344
1.42344
1.42344
1.42344
1.42344
1.42344
1.42344
1.42344
1.42344
1.42344
1.42344
1.42344
1.42344
1.42344
1.42344
1.42344
1.42344
1.42344
1.42344
1.42344
1.42344
1.42344
1.42344
1.42344
1.42344
1.42344
1.42344
1.42344
1.42344
1.42344
1.42344
1.42344
1.42344
1.42344
1.42344
1.42344
1.42344
1.42344
1.42344
1.42344
1.42344
1.42344
1.42344
1.42344
1.42344
1.42344
1.42344
1.42344
1.42344
1.42344
1.42344
1.42344
1.42344
1.42344
1.42344
1.42344
1.42344
1.42344
1.42344
1.42344
1.42344
1.42344
1.42344
1.42344
1.42344
1.42344
1.42344
1.42344
1.42344
1.42344
1.42344
1.42344
1.42344
1.42344
1.42344
1.42344
1.42344
1.42344
1.42344
1.42344
1.42344
1.42344
1.42344
1.42344
1.42344
1.42344
1.42344
1.42344
1.42344
1.42344
1.42344
1.42344
1.42344
1.42344
1.42344
1.42344
1.42344
1.42344
1.42344
1.42344
1.42344
1.42344
1.42344
1.42344
1.42344
1.42344
1.42344
1.42344
1.42344
1.42344
1.42344
1.42344
1.42344
1.42344
1.42344
1.42344
1.42344
1.42344
1.42344
1.42344
1.42344
1.42344
1.42344
1.42344
1.42344
1.42344
1.42344
1.42344
1.42344
1.42344
1.42344
1.42344
1.42344
1.42344
1.42344
1.42344
1.42344
1.42344
1.42344
1.42344
1.42344
1.42344
1.42344
1.42344
1.42344
1.42344
1.42344
1.42344
1.42344
1.42344
1.42344
1.42344
1.42344
1.42344
1.42344
1.42344
1.42344
1.42344
1.42344
1.42344
1.42344
1.42344
1.42344
1.42344
1.42344
1.42344
1.42344
1.42344
1.42344
1.42344
1.42344
1.42344
1.42344
1.42344
1.42344
1.42344
1.42344
1.42344
1.42344
1.42344
1.42344
1.42344
1.42344
1.42344
1.42344
1.42344
1.42344
1.42344
1.42344
1.42344
1.42344
1.42344
1.42344
1.42344
1.42344
1.42344
1.42344
1.42344
1.42344
1.42344
1.42344
1.42344
1.42344
1.42344
1.42344
1.42344
1.42344
1.42344
1.42344
1.42344
1.42344
1.42344
1.42344
1.42344
1.42344
1.42344
1.42344
1.42344
1.42344
1.42344
1.42344
1.42344
1.42344
1.42344
1.42344
1.42344
1.42344
1.42344
1.42344
1.42344
1.42344
1.42344
1.42344
1.42344
1.42344
1.42344
1.42344
1.42344
1.42344
1.42344
1.42344
1.42344
1.42344
1.42344
1.42344
1.42344
1.42344
1.42344
1.42344
1.42344
1.42344
1.42344
1.42344
1.42344
1.42344
1.42344
1.42344
1.42344
1.42344
1.42344
1.42344
1.42344
1.42344
1.42344
1.42344
1.42344
1.42344
1.42344
1.42344
1.42344
1.42344
1.42344
1.42344
1.42344
1.42344
1.42344
1.42344
1.42344
1.42344
1.42344
1.42344
1.42344
1.42344
1.42344
1.42344
1.42344
1.42344
1.42344
1.42344
1.42344
1.42344
1.42344
1.42344
1.42344
1.42344
1.42344
1.42344
1.42344
1.42344
1.42344
1.42344
1.42344
1.42344
1.42344
1.42344
1.42344
1.42344
1.42344
1.42344
1.42344
1.42344
1.42344
1.42344
1.42344
1.42344
1.42344
1.42344
1.42344
1.42344
1.42344
1.42344
1.42344
1.42344
1.42344
1.42344
1.42344
1.42344
1.42344
1.42344
1.42344
1.42344
1.42344
1.42344
1.42344
1.42344
1.42344
1.42344
1.42344
1.42344
1.42344
1.42344
1.42344
1.42344
1.42344
1.42344
1.42344
1.42344
1.42344
1.42344
1.42344
1.42344
1.42344
1.42344
1.42344
1.42344
1.42344
1.42344
1.42344
1.42344
1.42344
1.42344
1.42344
1.42344
1.42344
1.42344
1.42344
1.42344
1.42344
1.42344
1.42344
1.42344
1.42344
1.42344
1.42344
1.42344
1.42344
1.42344
1.42344
1.42344
1.42344
1.42344
1.42344
1.42344
1.42344
1.42344
1.42344
1.42344
1.42344
1.42344
1.42344
1.42344
1.42344
1.42344
1.42344
1.42344
1.42344
1.42344
1.42344
1.42344
1.42344
1.42344
1.42344
1.42344
1.42344
1.42344
1.42344
1.42344
1.42344
1.42344
1.42344
1.42344
1.42344
1.42344
1.42344
1.42344
1.42344
1.42344
1.42344
1.42344
1.42344
1.42344
1.42344
1.42344
1.42344
1.42344
1.42344
1.42344
1.42344
1.42344
1.42344
1.42344
1.42344
1.42344
1.42344
1.42344
1.42344
1.42344
1.42344
1.42344
1.42344
1.42344
1.42344
1.42344
1.42344
1.42344
1.42344
1.42344
1.42344
1.42344
1.42344
1.42344
SCALARS O2 float
LOOKUP_TABLE default
2.84923e-06
2.84923e-06
2.84923e-06
2.84923e-06
2.84923e-06
2.84923e-06
2.84923e-06
2.84923e-06
2.84923e-06
2.84923e-06
2.84923e-06
2.84923e-06
2.84923e-06
2.84923e-06
2.84923e-06
2.84923e-06
2.84923e-06
2.84923e-06
2.84923e-06
2.84923e-06
2.84923e-06
2.84923e-06
2.84923e-06
2.84923e-06
2.84923e-06
2.84923e-06
2.84923e-06
2.84923e-06
2.84923e-06
2.84923e-06
2.84923e-06
2.84923e-06
2.84923e-06
2.84923e-06
2.84923e-06
2.84923e-06
2.84923e-06
2.84923e-06
2.84923e-06
2.84923e-06
2.84923e-06
2.84923e-06
2.84923e-06
2.84923e-06
2.84923e-06
2.84923e-06
2.84923e-06
2.84923e-06
2.84923e-06
2.84923e-06
2.84923e-06
2.84923e-06
2.84923e-06
2.84923e-06
2.84923e-06
2.84923e-06
2.84923e-06
2.84923e-06
2.84923e-06
2.84923e-06
2.84923e-06
2.84923e-06
2.84923e-06
2.84923e-06
2.84923e-06
2.84923e-06
2.84923e-06
2.84923e-06
2.84923e-06
2.84923e-06
2.84923e-06
2.84923e-06
2.84923e-06
2.84923e-06
2.84923e-06
2.84923e-06
2.84923e-06
2.84923e-06
2.84923e-06
2.84923e-06
2.84923e-06
2.84923e-06
2.84923e-06
2.84923e-06
2.84923e-06
2.84923e-06
2.84923e-06
2.84923e-06
2.84923e-06
2.84923e-06
2.84923e-06
2.84923e-06
2.84923e-06
2.84923e-06
2.84923e-06
2.84923e-06
2.84923e-06
2.84923e-06
2.84923e-06
2.84923e-06
2.84923e-06
2.84923e-06
2.84923e-06
2.84923e-06
2.84923e-06
2.84923e-06
2.84923e-06
2.84923e-06
2.84923e-06
2.84923e-06
2.84923e-06
2.84923e-06
2.84923e-06
2.84923e-06
2.84923e-06
2.84923e-06
2.84923e-06
2.84923e-06
2.84923e-06
2.84923e-06
2.84923e-06
2.84923e-06
2.84923e-06
2.84923e-06
2.84923e-06
2.84923e-06
2.84923e-06
2.84923e-06
2.84923e-06
2.84923e-06
2.84923e-06
2.84923e-06
2.84923e-06
2.84923e-06
2.84923e-06
2.84923e-06
2.84923e-06
2.84923e-06
2.84923e-06
2.84923e-06
2.84923e-06
2.84923e-06
2.84923e-06
2.84923e-06
2.84923e-06
2.84923e-06
2.84923e-06
2.84923e-06
2.84923e-06
2.84923e-06
2.84923e-06
2.84923e-06
2.84923e-06
2.84923e-06
2.84923e-06
2.84923e-06
2.84923e-06
2.84923e-06
2.84923e-06
2.84923e-06
2.84923e-06
2.84923e-06
2.84923e-06
2.84923e-06
2.84923e-06
2.84923e-06
2.84923e-06
2.84923e-06
2.84923e-06
2.84923e-06
2.84923e-06
2.84923e-06
2.84923e-06
2.84923e-06
2.84923e-06
2.84923e-06
2.84923e-06
2.84923e-06
2.84923e-06
2.84923e-06
2.84923e-06
2.84923e-06
2.84923e-06
2.84923e-06
2.84923e-06
2.84923e-06
2.84923e-06
2.84923e-06
2.84923e-06
2.84923e-06
2.84923e-06
2.84923e-06
2.84923e-06
2.84923e-06
2.84923e-06
2.84923e-06
2.84923e-06
2.84923e-06
2.84923e-06
2.84923e-06
2.84923e-06
2.84923e-06
2.84923e-06
2.84923e-06
2.84923e-06
2.84923e-06
2.84923e-06
2.84923e-06
2.84923e-06
2.84923e-06
2.84923e-06
2.84923e-06
2.84923e-06
2.84923e-06
2.84923e-06
2.84923e-06
2.84923e-06
2.84923e-06
2.84923e-06
2.84923e-06
2.84923e-06
2.84923e-06
2.84923e-06
2.84923e-06
2.84923e-06
2.84923e-06
2.84923e-06
2.84923e-06
2.84923e-06
2.84923e-06
2.84923e-06
2.84923e-06
2.84923e-06
2.84923e-06
2.84923e-06
2.84923e-06
2.84923e-06
2.84923e-06
2.84923e-06
2.84923e-06
2.84923e-06
2.84923e-06
2.84923e-06
2.84923e-06
2.84923e-06
2.84923e-06
2.84923e-06
2.84923e-06
2.84923e-06
2.84923e-06
2.84923e-06
2.84923e-06
2.84923e-06
2.84923e-06
2.84923e-06
2.84923e-06
2.84923e-06
2.84923e-06
2.84923e-06
2.84923e-06
2.84923e-06
2.84923e-06
2.84923e-06
2.84923e-06
2.84923e-06
2.84923e-06
2.84923e-06
2.84923e-06
2.84923e-06
2.84923e-06
2.84923e-06
2.84923e-06
2.84923e-06
2.84923e-06
2.84923e-06
2.84923e-06
2.84923e-06
2.84923e-06
2.84923e-06
2.84923e-06
2.84923e-06
2.84923e-06
2.84923e-06
2.84923e-06
2.84923e-06
2.84923e-06
2.84923e-06
2.84923e-06
2.84923e-06
2.84923e-06
2.84923e-06
2.84923e-06
2.84923e-06
2.84923e-06
2.84923e-06
2.84923e-06
2.84923e-06
2.84923e-06
2.84923e-06
2.84923e-06
2.84923e-06
2.84923e-06
2.84923e-06
2.84923e-06
2.84923e-06
2.84923e-06
2.84923e-06
2.84923e-06
2.84923e-06
2.84923e-06
2.84923e-06
2.84923e-06
2.84923e-06
2.84923e-06
2.84923e-06
2.84923e-06
2.84923e-06
2.84923e-06
2.84923e-06
2.84923e-06
2.84923e-06
2.84923e-06
2.84923e-06
2.84923e-06
2.84923e-06
2.84923e-06
2.84923e-06
2.84923e-06
2.84923e-06
2.84923e-06
2.84923e-06
2.84923e-06
2.84923e-06
2.84923e-06
2.84923e-06
2.84923e-06
2.84923e-06
2.84923e-06
2.84923e-06
2.84923e-06
2.84923e-06
2.84923e-06
2.84923e-06
2.84923e-06
2.84923e-06
2.84923e-06
2.84923e-06
2.84923e-06
2.84923e-06
2.84923e-06
2.84923e-06
2.84923e-06
2.84923e-06
2.84923e-06
2.84923e-06
2.84923e-06
2.84923e-06
2.84923e-06
2.84923e-06
2.84923e-06
2.84923e-06
2.84923e-06
2.84923e-06
2.84923e-06
2.84923e-06
2.84923e-06
2.84923e-06
2.84923e-06
2.84923e-06
2.84923e-06
2.84923e-06
2.84923e-06
2.84923e-06
2.84923e-06
2.84923e-06
2.84923e-06
2.84923e-06
2.84923e-06
2.84923e-06
2.84923e-06
2.84923e-06
2.84923e-06
2.84923e-06
2.84923e-06
2.84923e-06
2.84923e-06
2.84923e-06
2.84923e-06
2.84923e-06
2.84923e-06
2.84923e-06
2.84923e-06
2.84923e-06
2.84923e-06
2.84923e-06
2.84923e-06
2.84923e-06
2.84923e-06
2.84923e-06
2.84923e-06
2.84923e-06
2.84923e-06
2.84923e-06
2.84923e-06
2.84923e-06
2.84923e-06
2.84923e-06
2.84923e-06
2.84923e-06
2.84923e-06
2.84923e-06
2.84923e-06
2.84923e-06
2.84923e-06
2.84923e-06
2.84923e-06
2.84923e-06
2.84923e-06
2.84923e-06
2.84923e-06
2.84923e-06
2.84923e-06
2.84923e-06
2.84923e-06
2.84923e-06
2.84923e-06
2.84923e-06
2.84923e-06
2.84923e-06
2.84923e-06
2.84923e-06
2.84923e-06
2.84923e-06
2.84923e-06
2.84923e-06
2.84923e-06
2.84923e-06
2.84923e-06
2.84923e-06
2.84923e-06
2.84923e-06
2.84923e-06
2.84923e-06
2.84923e-06
2.84923e-06
2.84923e-06
2.84923e-06
2.84923e-06
2.84923e-06
2.84923e-06
2.84923e-06
2.84923e-06
2.84923e-06
2.84923e-06
2.84923e-06
2.84923e-06
2.84923e-06
2.84923e-06
2.84923e-06
2.84923e-06
2.84923e-06
2.84923e-06
2.84923e-06
2.84923e-06
2.84923e-06
2.84923e-06
2.84923e-06
2.84923e-06
2.84923e-06
2.84923e-06
2.84923e-06
2.84923e-06
2.84923e-06
2.84923e-06
2.84923e-06
2.84923e-06
2.84923e-06
2.84923e-06
2.84923e-06
2.84923e-06
2.84923e-06
2.84923e-06
2.84923e-06
2.84923e-06
2.84923e-06
2.84923e-06
2.84923e-06
2.84923e-06
2.84923e-06
2.84923e-06
2.84923e-06
2.84923e-06
2.84923e-06
2.84923e-06
2.84923e-06
2.84923e-06
2.84923e-06
2.84923e-06
2.84923e-06
2.84923e-06
2.84923e-06
2.84923e-06
2.84923e-06
2.84923e-06
2.84923e-06
2.84923e-06
2.84923e-06
2.84923e-06
2.84923e-06
2.84923e-06
2.84923e-06
2.84923e-06
2.84923e-06
2.84923e-06
2.84923e-06
2.84923e-06
2.84923e-06
2.84923e-06
2.84923e-06
2.84923e-06
2.84923e-06
2.84923e-06
2.84923e-06
2.84923e-06
2.84923e-06
2.84923e-06
2.84923e-06
2.84923e-06
2.84923e-06
2.84923e-06
2.84923e-06
2.84923e-06
2.84923e-06
2.84923e-06
2.84923e-06
2.84923e-06
2.84923e-06
2.84923e-06
2.84923e-06
2.84923e-06
2.84923e-06
2.84923e-06
2.84923e-06
2.84923e-06
2.84923e-06
2.84923e-06
2.84923e-06
2.84923e-06
2.84923e-06
2.84923e-06
2.84923e-06
2.84923e-06
2.84923e-06
2.84923e-06
2.84923e-06
2.84923e-06
2.84923e-06
2.84923e-06
2.84923e-06
2.84923e-06
2.84923e-06
2.84923e-06
2.84923e-06
SCALARS PYR float
LOOKUP_TABLE default
0.951262
0.951262
0.951262
0.951262
0.951262
0.951262
0.951262
0.951262
0.951262
0.951262
0.951262
0.951262
0.951262
0.951262
0.951262
0.951262
0.951262
0.951262
0.951262
0.951262
0.951262
0.951262
0.951262
0.951262
0.951262
0.951262
0.951262
0.951262
0.951262
0.951262
0.951262
0.951262
0.951262
0.951262
0.951262
0.951262
0.951262
0.951262
0.951262
0.951262
0.951262
0.951262
0.951262
0.951262
0.951262
0.951262
0.951262
0.951262
0.951262
0.951262
0.951262
0.951262
0.951262
0.951262
0.951262
0.951262
0.951262
0.951262
0.951262
0.951262
0.951262
0.951262
0.951262
0.951262
0.951262
0.951262
0.951262
0.951262
0.951262
0.951262
0.951262
0.951262
0.951262
0.951262
0.951262
0.951262
0.951262
0.951262
0.951262
0.951262
0.951262
0.951262
0.951262
0.951262
0.951262
0.951262
0.951262
0.951262
0.951262
0.951262
0.951262
0.951262
0.951262
0.951262
0.951262
0.951262
0.951262
0.951262
0.951262
0.951262
0.951262
0.951262
0.951262
0.951262
0.951262
0.951262
0.951262
0.951262
0.951262
0.951262
0.951262
0.951262
0.951262
0.951262
0.951262
0.951262
0.951262
0.951262
0.951262
0.951262
0.951262
0.951262
0.951262
0.951262
0.951262
0.951262
0.951262
0.951262
0.951262
0.951262
0.951262
0.951262
0.951262
0.951262
0.951262
0.951262
0.951262
0.951262
0.951262
0.951262
0.951262
0.951262
0.951262
0.951262
0.951262
0.951262
0.951262
0.951262
0.951262
0.951262
0.951262
0.951262
0.951262
0.951262
0.951262
0.951262
0.951262
0.951262
0.951262
0.951262
0.951262
0.951262
0.951262
0.951262
0.951262
0.951262
0.951262
0.951262
0.951262
0.951262
0.951262
0.951262
0.951262
0.951262
0.951262
0.951262
0.951262
0.951262
0.951262
0.951262
0.951262
0.951262
0.951262
0.951262
0.951262
0.951262
0.951262
0.951262
0.951262
0.951262
0.951262
0.951262
0.951262
0.951262
0.951262
0.951262
0.951262
0.951262
0.951262
0.951262
0.951262
0.951262
0.951262
0.951262
0.951262
0.951262
0.951262
0.951262
0.951262
0.951262
0.951262
0.951262
0.951262
0.951262
0.951262
0.951262
0.951262
0.951262
0.951262
0.951262
0.951262
0.951262
0.951262
0.951262
0.951262
0.951262
0.951262
0.951262
0.951262
0.951262
0.951262
0.951262
0.951262
0.951262
0.951262
0.951262
0.951262
0.951262
0.951262
0.951262
0.951262
0.951262
0.951262
0.951262
0.951262
0.951262
0.951262
0.951262
0.951262
0.951262
0.951262
0.951262
0.951262
0.951262
0.951262
0.951262
0.951262
0.951262
0.951262
0.951262
0.951262
0.951262
0.951262
0.951262
0.951262
0.951262
0.951262
0.951262
0.951262
0.951262
0.951262
0.951262
0.951262
0.951262
0.951262
0.951262
0.951262
0.951262
0.951262
0.951262
0.951262
0.951262
0.951262
0.951262
0.951262
0.951262
0.951262
0.951262
0.951262
0.951262
0.951262
0.951262
0.951262
0.951262
0.951262
0.951262
0.951262
0.951262
0.951262
0.951262
0.951262
0.951262
0.951262
0.951262
0.951262
0.951262
0.951262
0.951262
0.951262
0.951262
0.951262
0.951262
0.951262
0.951262
0.951262
0.951262
0.951262
0.951262
0.951262
0.951262
0.951262
0.951262
0.951262
0.951262
0.951262
0.951262
0.951262
0.951262
0.951262
0.951262
0.951262
0.951262
0.951262
0.951262
0.951262
0.951262
0.951262
0.951262
0.951262
0.951262
0.951262
0.951262
0.951262
0.951262
0.951262
0.951262
0.951262
0.951262
0.951262
0.951262
0.951262
0.951262
0.951262
0.951262
0.951262
0.951262
0.951262
0.951262
0.951262
0.951262
0.951262
0.951262
0.951262
0.951262
0.951262
0.951262
0.951262
0.951262
0.951262
0.951262
0.951262
0.951262
0.951262
0.951262
0.951262
0.951262
0.951262
0.951262
0.951262
0.951262
0.951262
0.951262
0.951262
0.951262
0.951262
0.951262
0.951262
0.951262
0.951262
0.951262
0.951262
0.951262
0.951262
0.951262
0.951262
0.951262
0.951262
0.951262
0.951262
0.951262
0.951262
0.951262
0.951262
0.951262
0.951262
0.951262
0.951262
0.951262
0.951262
0.951262
0.951262
0.951262
0.951262
0.951262
0.951262
0.951262
0.951262
0.951262
0.951262
0.951262
0.951262
0.951262
0.951262
0.951262
0.951262
0.951262
0.951262
0.951262
0.951262
0.951262
0.951262
0.951262
0.951262
0.951262
0.951262
0.951262
0.951262
0.951262
0.951262
0.951262
0.951262
0.951262
0.951262
0.951262
0.951262
0.951262
0.951262
0.951262
0.951262
0.951262
0.951262
0.951262
0.951262
0.951262
0.951262
0.951262
0.951262
0.951262
0.951262
0.951262
0.951262
0.951262
0.951262
0.951262
0.951262
0.951262
0.951262
0.951262
0.951262
0.951262
0.951262
0.951262
0.951262
0.951262
0.951262
0.951262
0.951262
0.951262
0.951262
0.951262
0.951262
0.951262
0.951262
0.951262
0.951262
0.951262
0.951262
0.951262
0.951262
0.951262
0.951262
0.951262
0.951262
0.951262
0.951262
0.951262
0.951262
0.951262
0.951262
0.951262
0.951262
0.951262
0.951262
0.951262
0.951262
0.951262
0.951262
0.951262
0.951262
0.951262
0.951262
0.951262
0.951262
0.951262
0.951262
0.951262
0.951262
0.951262
0.951262
0.951262
0.951262
0.951262
0.951262
0.951262
0.951262
0.951262
0.951262
0.951262
0.951262
0.951262
0.951262
0.951262
0.951262
0.951262
0.951262
0.951262
0.951262
0.951262
0.951262
0.951262
0.951262
0.951262
0.951262
0.951262
0.951262
0.951262
0.951262
0.951262
0.951262
0.951262
0.951262
0.951262
0.951262
0.951262
0.951262
0.951262
0.951262
0.951262
0.951262
0.951262
0.951262
0.951262
0.951262
SCALARS ADP float
LOOKUP_TABLE default
1.84284
1.84284
1.84284
1.84284
1.84284
1.84284
1.84284
1.84284
1.84284
1.84284
1.84284
1.84284
1.84284
1.84284
1.84284
1.84284
1.84284
1.84284
1.84284
1.84284
1.84284
1.84284
1.84284
1.84284
1.84284
1.84284
1.84284
1.84284
1.84284
1.84284
1.84284
1.84284
1.84284
1.84284
1.84284
1.84284
1.84284
1.84284
1.84284
1.84284
1.84284
1.84284
1.84284
1.84284
1.84284
1.84284
1.84284
1.84284
1.84284
1.84284
1.84284
1.84284
1.84284
1.84284
1.84284
1.84284
1.84284
1.84284
1.84284
1.84284
1.84284
1.84284
1.84284
1.84284
1.84284
1.84284
1.84284
1.84284
1.84284
1.84284
1.84284
1.84284
1.84284
1.84284
1.84284
1.84284
1.84284
1.84284
1.84284
1.84284
1.84284
1.84284
1.84284
1.84284
1.84284
1.84284
1.84284
1.84284
1.84284
1.84284
1.84284
1.84284
1.84284
1.84284
1.84284
1.84284
1.84284
1.84284
1.84284
1.84284
1.84284
1.84284
1.84284
1.84284
1.84284
1.84284
1.84284
1.84284
1.84284
1.84284
1.84284
1.84284
1.84284
1.84284
1.84284
1.84284
1.84284
1.84284
1.84284
1.84284
1.84284
1.84284
1.84284
1.84284
1.84284
1.84284
1.84284
1.84284
1.84284
1.84284
1.84284
1.84284
1.84284
1.84284
1.84284
1.84284
1.84284
1.84284
1.84284
1.84284
1.84284
1.84284
1.84284
1.84284
1.84284
1.84284
1.84284
1.84284
1.84284
1.84284
1.84284
1.84284
1.84284
1.84284
1.84284
1.84284
1.84284
1.84284
1.84284
1.84284
1.84284
1.84284
1.84284
1.84284
1.84284
1.84284
1.84284
1.84284
1.84284
1.84284
1.84284
1.84284
1.84284
1.84284
1.84284
1.84284
1.84284
1.84284
1.84284
1.84284
1.84284
1.84284
1.84284
1.84284
1.84284
1.84284
1.84284
1.84284
1.84284
1.84284
1.84284
1.84284
1.84284
1.84284
1.84284
1.84284
1.84284
1.84284
1.84284
1.84284
1.84284
1.84284
1.84284
1.84284
1.84284
1.84284
1.84284
1.84284
1.84284
1.84284
1.84284
1.84284
1.84284
1.84284
1.84284
1.84284
1.84284
1.84284
1.84284
1.84284
1.84284
1.84284
1.84284
1.84284
1.84284
1.84284
1.84284
1.84284
1.84284
1.84284
1.84284
1.84284
1.84284
1.84284
1.84284
1.84284
1.84284
1.84284
1.84284
1.84284
1.84284
1.84284
1.84284
1.84284
1.84284
1.84284
1.84284
1.84284
1.84284
1.84284
1.84284
1.84284
1.84284
1.84284
1.84284
1.84284
1.84284
1.84284
1.84284
1.84284
1.84284
1.84284
1.84284
1.84284
1.84284
1.84284
1.84284
1.84284
1.84284
1.84284
1.84284
1.84284
1.84284
1.84284
1.84284
1.84284
1.84284
1.84284
1.84284
1.84284
1.84284
1.84284
1.84284
1.84284
1.84284
1.84284
1.84284
1.84284
1.84284
1.84284
1.84284
1.84284
1.84284
1.84284
1.84284
1.84284
1.84284
1.84284
1.84284
1.84284
1.84284
1.84284
1.84284
1.84284
1.84284
1.84284
1.84284
1.84284
1.84284
1.84284
1.84284
1.84284
1.84284
1.84284
1.84284
1.84284
1.84284
1.84284
1.84284
1.84284
1.84284
1.84284
1.84284
1.84284
1.84284
1.84284
1.84284
1.84284
1.84284
1.84284
1.84284
1.84284
1.84284
1.84284
1.84284
1.84284
1.84284
1.84284
1.84284
1.84284
1.84284
1.84284
1.84284
1.84284
1.84284
1.84284
1.84284
1.84284
1.84284
1.84284
1.84284
1.84284
1.84284
1.84284
1.84284
1.84284
1.84284
1.84284
1.84284
1.84284
1.84284
1.84284
1.84284
1.84284
1.84284
1.84284
1.84284
1.84284
1.84284
1.84284
1.84284
1.84284
1.84284
1.84284
1.84284
1.84284
1.84284
1.84284
1.84284
1.84284
1.84284
1.84284
1.84284
1.84284
1.84284
1.84284
1.84284
1.84284
1.84284
1.84284
1.84284
1.84284
1.84284
1.84284
1.84284
1.84284
1.84284
1.84284
1.84284
1.84284
1.84284
1.84284
1.84284
1.84284
1.84284
1.84284
1.84284
1.84284
1.84284
1.84284
1.84284
1.84284
1.84284
1.84284
1.84284
1.84284
1.84284
1.84284
1.84284
1.84284
1.84284
1.84284
1.84284
1.84284
1.84284
1.84284
1.84284
1.84284
1.84284
1.84284
1.84284
1.84284
1.84284
1.84284
1.84284
1.84284
1.84284
1.84284
1.84284
1.84284
1.84284
1.84284
1.84284
1.84284
1.84284
1.84284
1.84284
1.84284
1.84284
1.84284
1.84284
1.84284
1.84284
1.84284
1.84284
1.84284
1.84284
1.84284
1.84284
1.84284
1.84284
1.84284
1.84284
1.84284
1.84284
1.84284
1.84284
1.84284
1.84284
1.84284
1.84284
1.84284
1.84284
1.84284
1.84284
1.84284
1.84284
1.84284
1.84284
1.84284
1.84284
1.84284
1.84284
1.84284
1.84284
1.84284
1.84284
1.84284
1.84284
1.84284
1.84284
1.84284
1.84284
1.84284
1.84284
1.84284
1.84284
1.84284
1.84284
1.84284
1.84284
1.84284
1.84284
1.84284
1.84284
1.84284
1.84284
1.84284
1.84284
1.84284
1.84284
1.84284
1.84284
1.84284
1.84284
1.84284
1.84284
1.84284
1.84284
1.84284
1.84284
1.84284
1.84284
1.84284
1.84284
1.84284
1.84284
1.84284
1.84284
1.84284
1.84284
1.84284
1.84284
1.84284
1.84284
1.84284
1.84284
1.84284
1.84284
1.84284
1.84284
1.84284
1.84284
1.84284
1.84284
1.84284
1.84284
1.84284
1.84284
1.84284
1.84284
1.84284
1.84284
1.84284
1.84284
1.84284
1.84284
1.84284
1.84284
1.84284
1.84284
1.84284
1.84284
SCALARS NADH float
LOOKUP_TABLE default
4
4
4
4
4
4
4
4
4
4
4
4
4
4
4
4
4
4
4
4
4
4
4
4
4
4
4
4
4
4
4
4
4
4
4
4
4
4
4
4
4
4
4
4
4
4
4
4
4
4
4
4
4
4
4
4
4
4
4
4
4
4
4
4
4
4
4
4
4
4
4
4
4
4
4
4
4
4
4
4
4
4
4
4
4
4
4
4
4
4
4
4
4
4
4
4
4
4
4
4
4
4
4
4
4
4
4
4
4
4
4
4
4
4
4
4
4
4
4
4
4
4
4
4
4
4
4
4
4
4
4
4
4
4
4
4
4
4
4
4
4
4
4
4
4
4
4
4
4
4
4
4
4
4
4
4
4
4
4
4
4
4
4
4
4
4
4
4
4
4
4
4
4
4
4
4
4
4
4
4
4
4
4
4
4
4
4
4
4
4
4
4
4
4
4
4
4
4
4
4
4
4
4
4
4
4
4
4
4
4
4
4
4
4
4
4
4
4
4
4
4
4
4
4
4
4
4
4
4
4
4
4
4
4
4
4
4
4
4
4
4
4
4
4
4
4
4
4
4
4
4
4
4
4
4
4
4
4
4
4
4
4
4
4
4
4
4
4
4
4
4
4
4
4
4
4
4
4
4
4
4
4
4
4
4
4
4
4
4
4
4
4
4
4
4
4
4
4
4
4
4
4
4
4
4
4
4
4
4
4
4
4
4
4
4
4
4
4
4
4
4
4
4
4
4
4
4
4
4
4
4
4
4
4
4
4
4
4
4
4
4
4
4
4
4
4
4
4
4
4
4
4
4
4
4
4
4
4
4
4
4
4
4
4
4
4
4
4
4
4
4
4
4
4
4
4
4
4
4
4
4
4
4
4
4
4
4
4
4
4
4
4
4
4
4
4
4
4
4
4
4
4
4
4
4
4
4
4
4
4
4
4
4
4
4
4
4
4
4
4
4
4
4
4
4
4
4
4
4
4
4
4
4
4
4
4
4
4
4
4
4
4
4
4
4
4
4
4
4
4
4
4
4
4
4
4
4
4
4
4
4
4
4
4
4
4
4
4
4
4
4
4
4
4
4
4
4
4
4
4
4
4
4
4
4
4
4
4
4
4
4
4
4
4
4
4
4
4
4
4
4
4
4
4
4
4
4
4
4
4
4
4
4
4
4
4
4
4
4
4
4
4
4
4
4
4
4
4
4
4
4
4
4
4
4
4
4
4
4
4
4
4
4
4
4
4
4
4
4
4
4
4
4
4
4
4
4
4
4
4
4
4
4
SCALARS NAD float
LOOKUP_TABLE default
1.89611e-06
1.89611e-06
1.89611e-06
1.89611e-06
1.89611e-06
1.89611e-06
1.89611e-06
1.89611e-06
1.89611e-06
1.89611e-06
1.89611e-06
1.89611e-06
1.89611e-06
1.89611e-06
1.89611e-06
1.89611e-06
1.89611e-06
1.89611e-06
1.89611e-06
1.89611e-06
1.89611e-06
1.89611e-06
1.89611e-06
1.89611e-06
1.89611e-06
1.89611e-06
1.89611e-06
1.89611e-06
1.89611e-06
1.89611e-06
1.89611e-06
1.89611e-06
1.89611e-06
1.89611e-06
1.89611e-06
1.89611e-06
1.89611e-06
1.89611e-06
1.89611e-06
1.89611e-06
1.89611e-06
1.89611e-06
1.89611e-06
1.89611e-06
1.89611e-06
1.89611e-06
1.89611e-06
1.89611e-06
1.89611e-06
1.89611e-06
1.89611e-06
1.89611e-06
1.89611e-06
1.89611e-06
1.89611e-06
1.89611e-06
1.89611e-06
1.89611e-06
1.89611e-06
1.89611e-06
1.89611e-06
1.89611e-06
1.89611e-06
1.89611e-06
1.89611e-06
1.89611e-06
1.89611e-06
1.89611e-06
1.89611e-06
1.89611e-06
1.89611e-06
1.89611e-06
1.89611e-06
1.89611e-06
1.89611e-06
1.89611e-06
1.89611e-06
1.89611e-06
1.89611e-06
1.89611e-06
1.89611e-06
1.89611e-06
1.89611e-06
1.89611e-06
1.89611e-06
1.89611e-06
1.89611e-06
1.89611e-06
1.89611e-06
1.89611e-06
1.89611e-06
1.89611e-06
1.89611e-06
1.89611e-06
1.89611e-06
1.89611e-06
1.89611e-06
1.89611e-06
1.89611e-06
1.89611e-06
1.89611e-06
1.89611e-06
1.89611e-06
1.89611e-06
1.89611e-06
1.89611e-06
1.89611e-06
1.89611e-06
1.89611e-06
1.89611e-06
1.89611e-06
1.89611e-06
1.89611e-06
1.89611e-06
1.89611e-06
1.89611e-06
1.89611e-06
1.89611e-06
1.89611e-06
1.89611e-06
1.89611e-06
1.89611e-06
1.89611e-06
1.89611e-06
1.89611e-06
1.89611e-06
1.89611e-06
1.89611e-06
1.89611e-06
1.89611e-06
1.89611e-06
1.89611e-06
1.89611e-06
1.89611e-06
1.89611e-06
1.89611e-06
1.89611e-06
1.89611e-06
1.89611e-06
1.89611e-06
1.89611e-06
1.89611e-06
1.89611e-06
1.89611e-06
1.89611e-06
1.89611e-06
1.89611e-06
1.89611e-06
1.89611e-06
1.89611e-06
1.89611e-06
1.89611e-06
1.89611e-06
1.89611e-06
1.89611e-06
1.89611e-06
1.89611e-06
1.89611e-06
1.89611e-06
1.89611e-06
1.89611e-06
1.89611e-06
1.89611e-06
1.89611e-06
1.89611e-06
1.89611e-06
1.89611e-06
1.89611e-06
1.89611e-06
1.89611e-06
1.89611e-06
1.89611e-06
1.89611e-06
1.89611e-06
1.89611e-06
1.89611e-06
1.89611e-06
1.89611e-06
1.89611e-06
1.89611e-06
1.89611e-06
1.89611e-06
1.89611e-06
1.89611e-06
1.89611e-06
1.89611e-06
1.89611e-06
1.89611e-06
1.89611e-06
1.89611e-06
1.89611e-06
1.89611e-06
1.89611e-06
1.89611e-06
1.89611e-06
1.89611e-06
1.89611e-06
1.89611e-06
1.89611e-06
1.89611e-06
1.89611e-06
1.89611e-06
1.89611e-06
1.89611e-06
1.89611e-06
1.89611e-06
1.89611e-06
1.89611e-06
1.89611e-06
1.89611e-06
1.89611e-06
1.89611e-06
1.89611e-06
1.89611e-06
1.89611e-06
1.89611e-06
1.89611e-06
1.89611e-06
1.89611e-06
1.89611e-06
1.89611e-06
1.89611e-06
1.89611e-06
1.89611e-06
1.89611e-06
1.89611e-06
1.89611e-06
1.89611e-06
1.89611e-06
1.89611e-06
1.89611e-06
1.89611e-06
1.89611e-06
1.89611e-06
1.89611e-06
1.89611e-06
1.89611e-06
1.89611e-06
1.89611e-06
1.89611e-06
1.89611e-06
1.89611e-06
1.89611e-06
1.89611e-06
1.89611e-06
1.89611e-06
1.89611e-06
1.89611e-06
1.89611e-06
1.89611e-06
1.89611e-06
1.89611e-06
1.89611e-06
1.89611e-06
1.89611e-06
1.89611e-06
1.89611e-06
1.89611e-06
1.89611e-06
1.89611e-06
1.89611e-06
1.89611e-06
1.89611e-06
1.89611e-06
1.89611e-06
1.89611e-06
1.89611e-06
1.89611e-06
1.89611e-06
1.89611e-06
1.89611e-06
1.89611e-06
1.89611e-06
1.89611e-06
1.89611e-06
1.89611e-06
1.89611e-06
1.89611e-06
1.89611e-06
1.89611e-06
1.89611e-06
1.89611e-06
1.89611e-06
1.89611e-06
1.89611e-06
1.89611e-06
1.89611e-06
1.89611e-06
1.89611e-06
1.89611e-06
1.89611e-06
1.89611e-06
1.89611e-06
1.89611e-06
1.89611e-06
1.89611e-06
1.89611e-06
1.89611e-06
1.89611e-06
1.89611e-06
1.89611e-06
1.89611e-06
1.89611e-06
1.89611e-06
1.89611e-06
1.89611e-06
1.89611e-06
1.89611e-06
1.89611e-06
1.89611e-06
1.89611e-06
1.89611e-06
1.89611e-06
1.89611e-06
1.89611e-06
1.89611e-06
1.89611e-06
1.89611e-06
1.89611e-06
1.89611e-06
1.89611e-06
1.89611e-06
1.89611e-06
1.89611e-06
1.89611e-06
1.89611e-06
1.89611e-06
1.89611e-06
1.89611e-06
1.89611e-06
1.89611e-06
1.89611e-06
1.89611e-06
1.89611e-06
1.89611e-06
1.89611e-06
1.89611e-06
1.89611e-06
1.89611e-06
1.89611e-06
1.89611e-06
1.89611e-06
1.89611e-06
1.89611e-06
1.89611e-06
1.89611e-06
1.89611e-06
1.89611e-06
1.89611e-06
1.89611e-06
1.89611e-06
1.89611e-06
1.89611e-06
1.89611e-06
1.89611e-06
1.89611e-06
1.89611e-06
1.89611e-06
1.89611e-06
1.89611e-06
1.89611e-06
1.89611e-06
1.89611e-06
1.89611e-06
1.89611e-06
1.89611e-06
1.89611e-06
1.89611e-06
1.89611e-06
1.89611e-06
1.89611e-06
1.89611e-06
1.89611e-06
1.89611e-06
1.89611e-06
1.89611e-06
1.89611e-06
1.89611e-06
1.89611e-06
1.89611e-06
1.89611e-06
1.89611e-06
1.89611e-06
1.89611e-06
1.89611e-06
1.89611e-06
1.89611e-06
1.89611e-06
1.89611e-06
1.89611e-06
1.89611e-06
1.89611e-06
1.89611e-06
1.89611e-06
1.89611e-06
1.89611e-06
1.89611e-06
1.89611e-06
1.89611e-06
1.89611e-06
1.89611e-06
1.89611e-06
1.89611e-06
1.89611e-06
1.89611e-06
1.89611e-06
1.89611e-06
1.89611e-06
1.89611e-06
1.89611e-06
1.89611e-06
1.89611e-06
1.89611e-06
1.89611e-06
1.89611e-06
1.89611e-06
1.89611e-06
1.89611e-06
1.89611e-06
1.89611e-06
1.89611e-06
1.89611e-06
1.89611e-06
1.89611e-06
1.89611e-06
1.89611e-06
1.89611e-06
1.89611e-06
1.89611e-06
1.89611e-06
1.89611e-06
1.89611e-06
1.89611e-06
1.89611e-06
1.89611e-06
1.89611e-06
1.89611e-06
1.89611e-06
1.89611e-06
1.89611e-06
1.89611e-06
1.89611e-06
1.89611e-06
1.89611e-06
1.89611e-06
1.89611e-06
1.89611e-06
1.89611e-06
1.89611e-06
1.89611e-06
1.89611e-06
1.89611e-06
1.89611e-06
1.89611e-06
1.89611e-06
1.89611e-06
1.89611e-06
1.89611e-06
1.89611e-06
1.89611e-06
1.89611e-06
1.89611e-06
1.89611e-06
1.89611e-06
1.89611e-06
1.89611e-06
1.89611e-06
1.89611e-06
1.89611e-06
1.89611e-06
1.89611e-06
1.89611e-06
1.89611e-06
1.89611e-06
1.89611e-06
1.89611e-06
1.89611e-06
1.89611e-06
1.89611e-06
1.89611e-06
1.89611e-06
1.89611e-06
1.89611e-06
1.89611e-06
1.89611e-06
1.89611e-06
1.89611e-06
1.89611e-06
1.89611e-06
1.89611e-06
1.89611e-06
1.89611e-06
1.89611e-06
1.89611e-06
1.89611e-06
1.89611e-06
1.89611e-06
1.89611e-06
1.89611e-06
1.89611e-06
1.89611e-06
1.89611e-06
1.89611e-06
1.89611e-06
1.89611e-06
1.89611e-06
1.89611e-06
1.89611e-06
1.89611e-06
1.89611e-06
1.89611e-06
1.89611e-06
1.89611e-06
1.89611e-06
1.89611e-06
1.89611e-06
1.89611e-06
1.89611e-06
1.89611e-06
1.89611e-06
1.89611e-06
1.89611e-06
1.89611e-06
1.89611e-06
1.89611e-06
1.89611e-06
1.89611e-06
1.89611e-06
1.89611e-06
1.89611e-06
1.89611e-06
1.89611e-06
1.89611e-06
1.89611e-06
1.89611e-06
1.89611e-06
1.89611e-06
1.89611e-06
1.89611e-06
1.89611e-06
1.89611e-06
1.89611e-06
1.89611e-06
1.89611e-06
1.89611e-06
1.89611e-06
1.89611e-06
1.89611e-06
1.89611e-06
1.89611e-06
1.89611e-06
1.89611e-06
1.89611e-06
1.89611e-06
1.89611e-06
1.89611e-06
1.89611e-06
1.89611e-06
1.89611e-06
1.89611e-06
1.89611e-06
1.89611e-06
1.89611e-06
SCALARS ROS float
LOOKUP_TABLE default
0.160124
0.160124
0.160124
0.160124
0.160124
0.160124
0.160124
0.160124
0.160124
0.160124
0.160124
0.160124
0.160124
0.160124
0.160124
0.160124
0.160124
0.160124
0.160124
0.160124
0.160124
0.160124
0.160124
0.160124
0.160124
0.160124
0.160124
0.160124
0.160124
0.160124
0.160124
0.160124
0.160124
0.160124
0.160124
0.160124
0.160124
0.160124
0.160124
0.160124
0.160124
0.160124
0.160124
0.160124
0.160124
0.160124
0.160124
0.160124
0.160124
0.160124
0.160124
0.160124
0.160124
0.160124
0.160124
0.160124
0.160124
0.160124
0.160124
0.160124
0.160124
0.160124
0.160124
0.160124
0.160124
0.160124
0.160124
0.160124
0.160124
0.160124
0.160124
0.160124
0.160124
0.160124
0.160124
0.160124
0.160124
0.160124
0.160124
0.160124
0.160124
0.160124
0.160124
0.160124
0.160124
0.160124
0.160124
0.160124
0.160124
0.160124
0.160124
0.160124
0.160124
0.160124
0.160124
0.160124
0.160124
0.160124
0.160124
0.160124
0.160124
0.160124
0.160124
0.160124
0.160124
0.160124
0.160124
0.160124
0.160124
0.160124
0.160124
0.160124
0.160124
0.160124
0.160124
0.160124
0.160124
0.160124
0.160124
0.160124
0.160124
0.160124
0.160124
0.160124
0.160124
0.160124
0.160124
0.160124
0.160124
0.160124
0.160124
0.160124
0.160124
0.160124
0.160124
0.160124
0.160124
0.160124
0.160124
0.160124
0.160124
0.160124
0.160124
0.160124
0.160124
0.160124
0.160124
0.160124
0.160124
0.160124
0.160124
0.160124
0.160124
0.160124
0.160124
0.160124
0.160124
0.160124
0.160124
0.160124
0.160124
0.160124
0.160124
0.160124
0.160124
0.160124
0.160124
0.160124
0.160124
0.160124
0.160124
0.160124
0.160124
0.160124
0.160124
0.160124
0.160124
0.160124
0.160124
0.160124
0.160124
0.160124
0.160124
0.160124
0.160124
0.160124
0.160124
0.160124
0.160124
0.160124
0.160124
0.160124
0.160124
0.160124
0.160124
0.160124
0.160124
0.160124
0.160124
0.160124
0.160124
0.160124
0.160124
0.160124
0.160124
0.160124
0.160124
0.160124
0.160124
0.160124
0.160124
0.160124
0.160124
0.160124
0.160124
0.160124
0.160124
0.160124
0.160124
0.160124
0.160124
0.160124
0.160124
0.160124
0.160124
0.160124
0.160124
0.160124
0.160124
0.160124
0.160124
0.160124
0.160124
0.160124
0.160124
0.160124
0.160124
0.160124
0.160124
0.160124
0.160124
0.160124
0.160124
0.160124
0.160124
0.160124
0.160124
0.160124
0.160124
0.160124
0.160124
0.160124
0.160124
0.160124
0.160124
0.160124
0.160124
0.160124
0.160124
0.160124
0.160124
0.160124
0.160124
0.160124
0.160124
0.160124
0.160124
0.160124
0.160124
0.160124
0.160124
0.160124
0.160124
0.160124
0.160124
0.160124
0.160124
0.160124
0.160124
0.160124
0.160124
0.160124
0.160124
0.160124
0.160124
0.160124
0.160124
0.160124
0.160124
0.160124
0.160124
0.160124
0.160124
0.160124
0.160124
0.160124
0.160124
0.160124
0.160124
0.160124
0.160124
0.160124
0.160124
0.160124
0.160124
0.160124
0.160124
0.160124
0.160124
0.160124
0.160124
0.160124
0.160124
0.160124
0.160124
0.160124
0.160124
0.160124
0.160124
0.160124
0.160124
0.160124
0.160124
0.160124
0.160124
0.160124
0.160124
0.160124
0.160124
0.160124
0.160124
0.160124
0.160124
0.160124
0.160124
0.160124
0.160124
0.160124
0.160124
0.160124
0.160124
0.160124
0.160124
0.160124
0.160124
0.160124
0.160124
0.160124
0.160124
0.160124
0.160124
0.160124
0.160124
0.160124
0.160124
0.160124
0.160124
0.160124
0.160124
0.160124
0.160124
0.160124
0.160124
0.160124
0.160124
0.160124
0.160124
0.160124
0.160124
0.160124
0.160124
0.160124
0.160124
0.160124
0.160124
0.160124
0.160124
0.160124
0.160124
0.160124
0.160124
0.160124
0.160124
0.160124
0.160124
0.160124
0.160124
0.160124
0.160124
0.160124
0.160124
0.160124
0.160124
0.160124
0.160124
0.160124
0.160124
0.160124
0.160124
0.160124
0.160124
0.160124
0.160124
0.160124
0.160124
0.160124
0.160124
0.160124
0.160124
0.160124
0.160124
0.160124
0.160124
0.160124
0.160124
0.160124
0.160124
0.160124
0.160124
0.160124
0.160124
0.160124
0.160124
0.160124
0.160124
0.160124
0.160124
0.160124
0.160124
0.160124
0.160124
0.160124
0.160124
0.160124
0.160124
0.160124
0.160124
0.160124
0.160124
0.160124
0.160124
0.160124
0.160124
0.160124
0.160124
0.160124
0.160124
0.160124
0.160124
0.160124
0.160124
0.160124
0.160124
0.160124
0.160124
0.160124
0.160124
0.160124
0.160124
0.160124
0.160124
0.160124
0.160124
0.160124
0.160124
0.160124
0.160124
0.160124
0.160124
0.160124
0.160124
0.160124
0.160124
0.160124
0.160124
0.160124
0.160124
0.160124
0.160124
0.160124
0.160124
0.160124
0.160124
0.160124
0.160124
0.160124
0.160124
0.160124
0.160124
0.160124
0.160124
0.160124
0.160124
0.160124
0.160124
0.160124
0.160124
0.160124
0.160124
0.160124
0.160124
0.160124
0.160124
0.160124
0.160124
0.160124
0.160124
0.160124
0.160124
0.160124
0.160124
0.160124
0.160124
0.160124
0.160124
0.160124
0.160124
0.160124
0.160124
0.160124
0.160124
0.160124
0.160124
0.160124
0.160124
0.160124
0.160124
0.160124
0.160124
0.160124
0.160124
0.160124
0.160124
0.160124
0.160124
0.160124
0.160124
0.160124
0.160124
0.160124
0.160124
0.160124
0.160124
0.160124
0.160124
0.160124
0.160124
0.160124
0.160124
0.160124
0.160124
0.160124
0.160124
0.160124
0.160124
0.160124
0.160124
0.160124
0.160124
0.160124
0.160124
0.160124
0.160124
SCALARS ALT float
LOOKUP_TABLE default
1
1
1
1
1
1
1
1
1
1
1
1
1
1
1
1
1
1
1
1
1
1
1
1
1
1
1
1
1
1
1
1
1
1
1
1
1
1
1
1
1
1
1
1
1
1
1
1
1
1
1
1
1
1
1
1
1
1
1
1
1
1
1
1
1
1
1
1
1
1
1
1
1
1
1
1
1
1
1
1
1
1
1
1
1
1
1
1
1
1
1
1
1
1
1
1
1
1
1
1
1
1
1
1
1
1
1
1
1
1
1
1
1
1
1
1
1
1
1
1
1
1
1
1
1
1
1
1
1
1
1
1
1
1
1
1
1
1
1
1
1
1
1
1
1
1
1
1
1
1
1
1
1
1
1
1
1
1
1
1
1
1
1
1
1
1
1
1
1
1
1
1
1
1
1
1
1
1
1
1
1
1
1
1
1
1
1
1
1
1
1
1
1
1
1
1
1
1
1
1
1
1
1
1
1
1
1
1
1
1
1
1
1
1
1
1
1
1
1
1
1
1
1
1
1
1
1
1
1
1
1
1
1
1
1
1
1
1
1
1
1
1
1
1
1
1
1
1
1
1
1
1
1
1
1
1
1
1
1
1
1
1
1
1
1
1
1
1
1
1
1
1
1
1
1
1
1
1
1
1
1
1
1
1
1
1
1
1
1
1
1
1
1
1
1
1
1
1
1
1
1
1
1
1
1
1
1
1
1
1
1
1
1
1
1
1
1
1
1
1
1
1
1
1
1
1
1
1
1
1
1
1
1
1
1
1
1
1
1
1
1
1
1
1
1
1
1
1
1
1
1
1
1
1
1
1
1
1
1
1
1
1
1
1
1
1
1
1
1
1
1
1
1
1
1
1
1
1
1
1
1
1
1
1
1
1
1
1
1
1
1
1
1
1
1
1
1
1
1
1
1
1
1
1
1
1
1
1
1
1
1
1
1
1
1
1
1
1
1
1
1
1
1
1
1
1
1
1
1
1
1
1
1
1
1
1
1
1
1
1
1
1
1
1
1
1
1
1
1
1
1
1
1
1
1
1
1
1
1
1
1
1
1
1
1
1
1
1
1
1
1
1
1
1
1
1
1
1
1
1
1
1
1
1
1
1
1
1
1
1
1
1
1
1
1
1
1
1
1
1
1
1
1
1
1
1
1
1
1
1
1
1
1
1
1
1
1
1
1
1
1
1
1
1
1
1
1
1
1
1
1
1
1
1
1
1
1
1
1
1
1
1
1
1
1
1
1
1
1
1
1
1
1
1
1
1
1
1
1
1
1
1
1
SCALARS AST float
LOOKUP_TABLE default
0.7
0.7
0.7
0.7
0.7
0.7
0.7
0.7
0.7
0.7
0.7
0.7
0.7
0.7
0.7
0.7
0.7
0.7
0.7
0.7
0.7
0.7
0.7
0.7
0.7
0.7
0.7
0.7
0.7
0.7
0.7
0.7
0.7
0.7
0.7
0.7
0.7
0.7
0.7
0.7
0.7
0.7
0.7
0.7
0.7
0.7
0.7
0.7
0.7
0.7
0.7
0.7
0.7
0.7
0.7
0.7
0.7
0.7
0.7
0.7
0.7
0.7
0.7
0.7
0.7
0.7
0.7
0.7
0.7
0.7
0.7
0.7
0.7
0.7
0.7
0.7
0.7
0.7
0.7
0.7
0.7
0.7
0.7
0.7
0.7
0.7
0.7
0.7
0.7
0.7
0.7
0.7
0.7
0.7
0.7
0.7
0.7
0.7
0.7
0.7
0.7
0.7
0.7
0.7
0.7
0.7
0.7
0.7
0.7
0.7
0.7
0.7
0.7
0.7
0.7
0.7
0.7
0.7
0.7
0.7
0.7
0.7
0.7
0.7
0.7
0.7
0.7
0.7
0.7
0.7
0.7
0.7
0.7
0.7
0.7
0.7
0.7
0.7
0.7
0.7
0.7
0.7
0.7
0.7
0.7
0.7
0.7
0.7
0.7
0.7
0.7
0.7
0.7
0.7
0.7
0.7
0.7
0.7
0.7
0.7
0.7
0.7
0.7
0.7
0.7
0.7
0.7
0.7
0.7
0.7
0.7
0.7
0.7
0.7
0.7
0.7
0.7
0.7
0.7
0.7
0.7
0.7
0.7
0.7
0.7
0.7
0.7
0.7
0.7
0.7
0.7
0.7
0.7
0.7
0.7
0.7
0.7
0.7
0.7
0.7
0.7
0.7
0.7
0.7
0.7
0.7
0.7
0.7
0.7
0.7
0.7
0.7
0.7
0.7
0.7
0.7
0.7
0.7
0.7
0.7
0.7
0.7
0.7
0.7
0.7
0.7
0.7
0.7
0.7
0.7
0.7
0.7
0.7
0.7
0.7
0.7
0.7
0.7
0.7
0.7
0.7
0.7
0.7
0.7
0.7
0.7
0.7
0.7
0.7
0.7
0.7
0.7
0.7
0.7
0.7
0.7
0.7
0.7
0.7
0.7
0.7
0.7
0.7
0.7
0.7
0.7
0.7
0.7
0.7
0.7
0.7
0.7
0.7
0.7
0.7
0.7
0.7
0.7
0.7
0.7
0.7
0.7
0.7
0.7
0.7
0.7
0.7
0.7
0.7
0.7
0.7
0.7
0.7
0.7
0.7
0.7
0.7
0.7
0.7
0.7
0.7
0.7
0.7
0.7
0.7
0.7
0.7
0.7
0.7
0.7
0.7
0.7
0.7
0.7
0.7
0.7
0.7
0.7
0.7
0.7
0.7
0.7
0.7
0.7
0.7
0.7
0.7
0.7
0.7
0.7
0.7
0.7
0.7
0.7
0.7
0.7
0.7
0.7
0.7
0.7
0.7
0.7
0.7
0.7
0.7
0.7
0.7
0.7
0.7
0.7
0.7
0.7
0.7
0.7
0.7
0.7
0.7
0.7
0.7
0.7
0.7
0.7
0.7
0.7
0.7
0.7
0.7
0.7
0.7
0.7
0.7
0.7
0.7
0.7
0.7
0.7
0.7
0.7
0.7
0.7
0.7
0.7
0.7
0.7
0.7
0.7
0.7
0.7
0.7
0.7
0.7
0.7
0.7
0.7
0.7
0.7
0.7
0.7
0.7
0.7
0.7
0.7
0.7
0.7
0.7
0.7
0.7
0.7
0.7
0.7
0.7
0.7
0.7
0.7
0.7
0.7
0.7
0.7
0.7
0.7
0.7
0.7
0.7
0.7
0.7
0.7
0.7
0.7
0.7
0.7
0.7
0.7
0.7
0.7
0.7
0.7
0.7
0.7
0.7
0.7
0.7
0.7
0.7
0.7
0.7
0.7
0.7
0.7
0.7
0.7
0.7
0.7
0.7
0.7
0.7
0.7
0.7
0.7
0.7
0.7
0.7
0.7
0.7
0.7
0.7
0.7
0.7
0.7
0.7
0.7
0.7
0.7
0.7
0.7
0.7
0.7
0.7
0.7
0.7
0.7
0.7
0.7
0.7
0.7
0.7
0.7
0.7
0.7
0.7
0.7
0.7
0.7
0.7
0.7
0.7
0.7
0.7
0.7
0.7
0.7
0.7
0.7
0.7
0.7
0.7
0.7
0.7
0.7
0.7
0.7
0.7
0.7
0.7
0.7
0.7
0.7
0.7
0.7
0.7
0.7
0.7
0.7
0.7
0.7
0.7
0.7
0.7
0.7
0.7
0.7
0.7
0.7
0.7
0.7
0.7
0.7
0.7
0.7
0.7
0.7
0.7
0.7
0.7
0.7
0.7
0.7
0.7
0.7
0.7
0.7
0.7
0.7
0.7
0.7
0.7
0.7
0.7
0.7
0.7
0.7
0.7
0.7
0.7
SCALARS TSIM float
LOOKUP_TABLE default
69.75
69.75
69.75
69.75
69.75
69.75
69.75
69.75
69.75
69.75
69.75
69.75
69.75
69.75
69.75
69.75
69.75
69.75
69.75
69.75
69.75
69.75
69.75
69.75
69.75
69.75
69.75
69.75
69.75
69.75
69.75
69.75
69.75
69.75
69.75
69.75
69.75
69.75
69.75
69.75
69.75
69.75
69.75
69.75
69.75
69.75
69.75
69.75
69.75
69.75
69.75
69.75
69.75
69.75
69.75
69.75
69.75
69.75
69.75
69.75
69.75
69.75
69.75
69.75
69.75
69.75
69.75
69.75
69.75
69.75
69.75
69.75
69.75
69.75
69.75
69.75
69.75
69.75
69.75
69.75
69.75
69.75
69.75
69.75
69.75
69.75
69.75
69.75
69.75
69.75
69.75
69.75
69.75
69.75
69.75
69.75
69.75
69.75
69.75
69.75
69.75
69.75
69.75
69.75
69.75
69.75
69.75
69.75
69.75
69.75
69.75
69.75
69.75
69.75
69.75
69.75
69.75
69.75
69.75
69.75
69.75
69.75
69.75
69.75
69.75
69.75
69.75
69.75
69.75
69.75
69.75
69.75
69.75
69.75
69.75
69.75
69.75
69.75
69.75
69.75
69.75
69.75
69.75
69.75
69.75
69.75
69.75
69.75
69.75
69.75
69.75
69.75
69.75
69.75
69.75
69.75
69.75
69.75
69.75
69.75
69.75
69.75
69.75
69.75
69.75
69.75
69.75
69.75
69.75
69.75
69.75
69.75
69.75
69.75
69.75
69.75
69.75
69.75
69.75
69.75
69.75
69.75
69.75
69.75
69.75
69.75
69.75
69.75
69.75
69.75
69.75
69.75
69.75
69.75
69.75
69.75
69.75
69.75
69.75
69.75
69.75
69.75
69.75
69.75
69.75
69.75
69.75
69.75
69.75
69.75
69.75
69.75
69.75
69.75
69.75
69.75
69.75
69.75
69.75
69.75
69.75
69.75
69.75
69.75
69.75
69.75
69.75
69.75
69.75
69.75
69.75
69.75
69.75
69.75
69.75
69.75
69.75
69.75
69.75
69.75
69.75
69.75
69.75
69.75
69.75
69.75
69.75
69.75
69.75
69.75
69.75
69.75
69.75
69.75
69.75
69.75
69.75
69.75
69.75
69.75
69.75
69.75
69.75
69.75
69.75
69.75
69.75
69.75
69.75
69.75
69.75
69.75
69.75
69.75
69.75
69.75
69.75
69.75
69.75
69.75
69.75
69.75
69.75
69.75
69.75
69.75
69.75
69.75
69.75
69.75
69.75
69.75
69.75
69.75
69.75
69.75
69.75
69.75
69.75
69.75
69.75
69.75
69.75
69.75
69.75
69.75
69.75
69.75
69.75
69.75
69.75
69.75
69.75
69.75
69.75
69.75
69.75
69.75
69.75
69.75
69.75
69.75
69.75
69.75
69.75
69.75
69.75
69.75
69.75
69.75
69.75
69.75
69.75
69.75
69.75
69.75
69.75
69.75
69.75
69.75
69.75
69.75
69.75
69.75
69.75
69.75
69.75
69.75
69.75
69.75
69.75
69.75
69.75
69.75
69.75
69.75
69.75
69.75
69.75
69.75
69.75
69.75
69.75
69.75
69.75
69.75
69.75
69.75
69.75
69.75
69.75
69.75
69.75
69.75
69.75
69.75
69.75
69.75
69.75
69.75
69.75
69.75
69.75
69.75
69.75
69.75
69.75
69.75
69.75
69.75
69.75
69.75
69.75
69.75
69.75
69.75
69.75
69.75
69.75
69.75
69.75
69.75
69.75
69.75
69.75
69.75
69.75
69.75
69.75
69.75
69.75
69.75
69.75
69.75
69.75
69.75
69.75
69.75
69.75
69.75
69.75
69.75
69.75
69.75
69.75
69.75
69.75
69.75
69.75
69.75
69.75
69.75
69.75
69.75
69.75
69.75
69.75
69.75
69.75
69.75
69.75
69.75
69.75
69.75
69.75
69.75
69.75
69.75
69.75
69.75
69.75
69.75
69.75
69.75
69.75
69.75
69.75
69.75
69.75
69.75
69.75
69.75
69.75
69.75
69.75
69.75
69.75
69.75
69.75
69.75
69.75
69.75
69.75
69.75
69.75
69.75
69.75
69.75
69.75
69.75
69.75
69.75
69.75
69.75
69.75
69.75
69.75
69.75
69.75
69.75
69.75
69.75
69.75
69.75
69.75
69.75
69.75
69.75
69.75
69.75
69.75
69.75
69.75
69.75
69.75
69.75
69.75
69.75
69.75
69.75
69.75
69.75
69.75
69.75
69.75
69.75
69.75
69.75
69.75
69.75
69.75
69.75
69.75
69.75
69.75
69.75
69.75
69.75
69.75
69.75
69.75
69.75
69.75
69.75
69.75
69.75
69.75
69.75
69.75
69.75
69.75
69.75
69.75
69.75
69.75
69.75
69.75
69.75
69.75
69.75
69.75
69.75
69.75
69.75
69.75
69.75
69.75
69.75
69.75
69.75
69.75
69.75
69.75
SCALARS VEXT float
LOOKUP_TABLE default
1.54014e-10
3.36206e-10
2.69582e-10
3.51235e-10
1.81302e-10
2.86149e-10
1.52304e-10
3.49459e-10
3.02449e-10
3.77887e-10
1.39453e-10
3.50531e-10
3.08768e-10
3.25203e-10
3.78343e-10
3.2105e-10
2.74624e-10
3.11713e-10
2.81467e-10
2.73879e-10
3.08266e-10
5.2853e-11
3.15851e-10
2.90912e-10
2.63734e-10
3.02986e-10
1.28455e-10
2.66783e-10
2.13283e-10
2.41006e-10
2.72814e-10
2.20461e-10
1.42378e-10
1.81117e-10
1.77727e-10
1.81533e-10
2.34178e-10
1.78198e-10
2.72562e-10
1.60015e-10
1.79291e-10
2.06344e-10
2.06375e-10
2.99406e-10
1.77954e-10
1.94343e-10
2.64622e-10
2.67472e-10
2.49859e-10
2.44191e-10
2.50355e-10
1.93059e-10
2.9121e-10
2.48036e-10
2.68205e-10
1.28914e-10
1.8974e-10
2.49856e-10
1.89742e-10
2.98505e-10
3.50637e-10
3.42276e-10
1.25995e-10
2.41384e-10
3.27817e-10
3.10571e-10
3.3912e-10
2.94268e-10
2.72177e-10
3.85819e-10
3.15981e-10
3.12545e-10
2.21527e-10
2.5102e-10
2.67879e-10
1.47226e-10
2.7243e-10
3.07701e-10
2.96759e-10
2.1284e-10
1.93798e-10
2.04316e-10
3.90593e-10
1.94304e-10
2.60414e-10
9.77299e-11
3.08174e-10
2.55893e-10
1.88445e-10
2.60779e-11
2.14944e-10
2.83649e-11
2.31112e-10
2.23064e-10
2.03339e-10
1.86669e-10
1.77976e-10
3.31784e-10
2.72649e-10
2.65395e-10
2.277e-10
2.2002e-10
1.86454e-10
3.14634e-10
3.19582e-10
2.87752e-10
2.51802e-10
2.57368e-10
1.97938e-10
3.82999e-10
2.47486e-10
1.34047e-10
1.78808e-10
3.44437e-10
3.22351e-10
2.39495e-10
2.20037e-10
1.47916e-10
2.28258e-10
2.38512e-10
2.06181e-10
3.69004e-10
3.83189e-10
3.28158e-10
3.61762e-10
2.81852e-10
1.58186e-10
3.58232e-10
1.61192e-10
2.06197e-10
1.65063e-10
3.4197e-10
3.32687e-10
3.35715e-10
2.2882e-10
1.33687e-10
1.54652e-10
2.46479e-10
2.99468e-10
1.33648e-10
1.91018e-10
2.89918e-10
2.21934e-10
3.54029e-10
1.80066e-10
2.89125e-10
2.62336e-10
2.54449e-10
1.62659e-10
2.09915e-10
2.32526e-10
3.29902e-10
1.9783e-10
2.99339e-10
3.45991e-10
3.51554e-10
2.29696e-10
1.96666e-10
1.95525e-10
3.02247e-10
2.54948e-10
1.96123e-10
1.30925e-10
1.91827e-10
1.89956e-10
3.23041e-10
1.99322e-10
2.01533e-10
2.19019e-10
1.94226e-10
2.82155e-10
2.03168e-10
1.80933e-10
2.21857e-10
2.14616e-10
2.51676e-10
2.79097e-10
2.71392e-10
2.27574e-10
2.70482e-10
2.12565e-10
3.13345e-10
3.36321e-10
1.91037e-10
3.28342e-10
1.91802e-10
3.24276e-10
2.97616e-10
2.76624e-10
2.84192e-10
3.31201e-10
1.61536e-10
2.10007e-10
1.96182e-10
3.3513e-10
3.30554e-10
3.06395e-10
3.3188e-10
3.39186e-10
2.84274e-10
3.49284e-10
2.36554e-10
2.14968e-10
3.79972e-10
2.27658e-10
3.45011e-10
2.75333e-10
1.79669e-10
2.10493e-10
3.456e-10
2.85635e-10
2.61688e-10
3.3763e-10
3.2964e-10
2.17076e-10
2.12092e-10
2.09543e-10
2.92249e-10
3.23682e-10
3.71999e-10
3.57579e-10
3.8896e-10
3.52444e-10
3.85171e-10
3.23281e-10
3.35438e-10
3.38097e-10
3.18679e-10
3.34767e-10
3.07004e-10
3.02429e-10
2.20041e-10
2.91273e-10
3.41348e-10
2.38531e-10
3.44725e-10
3.16623e-10
3.70042e-10
2.25983e-10
3.52011e-10
3.36076e-10
2.21334e-10
2.99085e-10
2.19885e-10
3.36906e-10
3.09335e-10
2.30423e-10
2.17359e-10
1.89879e-10
2.18367e-10
3.37405e-10
1.59576e-10
2.61809e-10
2.166e-10
2.41527e-10
3.5236e-10
3.40295e-10
1.047e-10
3.41574e-10
1.91184e-10
2.05034e-10
3.50375e-10
2.84817e-10
2.07558e-10
3.90114e-10
2.24303e-10
1.04704e-10
2.09642e-10
3.03423e-10
3.78089e-10
2.87943e-10
3.35654e-10
3.15808e-10
1.6436e-10
1.63307e-10
1.43527e-10
1.65031e-10
2.24307e-10
1.74262e-10
2.79521e-10
1.77096e-10
2.98647e-10
2.14353e-10
2.09971e-10
2.41354e-10
2.27578e-10
2.98759e-10
2.18218e-10
2.25411e-10
9.56099e-11
2.2143e-10
3.20815e-10
3.2107e-10
2.92949e-10
2.17727e-10
1.3796e-10
4.05734e-10
2.75188e-10
2.30949e-10
2.13211e-10
2.07461e-10
2.1998e-10
2.62145e-10
2.15864e-10
1.57532e-10
2.12892e-10
1.48083e-10
2.59376e-10
2.17514e-10
8.91195e-11
2.04705e-10
2.38146e-10
2.17633e-10
3.29197e-10
2.25737e-10
2.88407e-10
1.13917e-10
2.31714e-10
2.23372e-10
1.90584e-10
2.09749e-10
2.45798e-10
2.29032e-10
2.40242e-10
2.06958e-10
2.10048e-10
2.26406e-10
2.98243e-10
2.13915e-10
2.99837e-10
2.71248e-10
2.1095e-10
2.21904e-10
2.23663e-10
2.46364e-10
2.23185e-10
2.09524e-10
2.37449e-10
2.45125e-10
2.9155e-10
2.23573e-10
2.22921e-10
3.18382e-10
3.13898e-10
2.14114e-10
2.11005e-10
9.93834e-11
2.58725e-10
1.83501e-10
2.43419e-10
1.13865e-10
1.18193e-10
1.05603e-10
1.07341e-10
1.13865e-10
1.19987e-10
1.23633e-10
2.7016e-10
1.98087e-10
2.03135e-10
2.33377e-10
2.27923e-10
2.25121e-10
2.35909e-10
2.20377e-10
2.25447e-10
2.23661e-10
2.24291e-10
2.70854e-10
2.05485e-10
2.78515e-10
2.19033e-10
2.12059e-10
2.24609e-10
2.3489e-10
2.48825e-10
2.32562e-10
2.65476e-10
2.48818e-10
2.31531e-10
1.6805e-10
2.32159e-10
2.26304e-10
2.41e-10
2.34639e-10
2.22646e-10
2.11472e-10
2.32491e-10
2.41714e-10
3.269e-10
2.17865e-10
3.17848e-10
3.32681e-10
2.28435e-10
3.17669e-10
2.44479e-10
1.96925e-10
2.64756e-10
2.34272e-10
1.65367e-10
1.51945e-10
2.60943e-10
2.776e-10
2.37398e-10
1.97767e-10
2.35966e-10
1.16846e-10
2.34726e-10
2.20742e-10
1.15694e-10
4.19247e-11
4.58556e-11
2.03225e-10
2.18008e-10
2.52246e-10
2.43279e-10
2.13858e-11
2.2346e-11
2.39024e-10
2.41499e-10
2.28658e-10
8.77127e-11
2.04138e-10
2.33979e-10
2.41223e-10
2.08161e-10
1.83675e-10
9.14044e-11
3.44889e-10
2.19425e-10
2.6647e-10
2.70634e-10
1.95261e-10
2.46912e-10
1.90915e-10
2.10586e-10
1.0757e-10
1.60858e-10
2.47216e-10
2.4795e-10
2.13662e-10
2.2476e-10
2.31643e-10
2.44112e-10
2.33549e-10
1.18057e-10
2.02093e-10
2.31765e-10
2.16587e-10
3.24624e-10
1.18065e-10
1.76948e-10
1.82334e-10
1.70128e-10
1.09316e-10
1.09326e-10
1.95301e-10
1.60822e-10
2.28506e-10
1.26429e-10
1.30677e-10
4.23237e-11
4.23244e-11
9.53003e-11
1.42601e-10
9.58794e-11
1.9478e-10
2.07975e-10
2.24342e-10
2.52191e-10
2.28037e-10
2.10873e-10
1.66983e-10
1.07554e-10
2.10054e-10
2.16587e-10
2.0924e-10
1.20363e-10
1.05332e-10
8.6291e-11
2.08983e-10
2.13896e-10
1.74181e-10
1.9467e-10
1.7947e-10
1.62198e-10
2.19832e-10
1.6219e-10
1.94565e-10
1.86198e-10
1.12524e-10
1.38877e-10
1.35781e-10
2.32083e-10
9.59361e-11
1.00989e-10
9.8958e-11
2.18702e-10
9.11943e-11
8.9616e-11
1.53807e-10
8.34804e-11
1.75163e-10
1.75433e-10
8.56396e-11
1.94586e-10
9.42491e-11
9.45302e-11
1.05634e-10
9.02032e-11
8.78315e-11
1.24344e-10
1.04164e-10
9.54546e-11
9.04461e-11
1.77373e-10
2.01012e-10
9.88381e-11
1.95759e-10
8.21484e-11
1.98294e-10
1.58443e-10
8.57531e-11
7.20794e-11
8.10555e-11
1.07308e-10
1.71046e-10
1.3816e-10
5.69631e-11
6.32717e-11
1.89699e-10
5.36285e-11
5.3629e-11
6.07842e-11
6.85021e-11
8.19778e-11
9.07258e-11
1.51257e-10
1.39315e-10
1.89939e-10
5.40548e-11
5.40555e-11
1.64383e-10
7.16661e-11
1.36183e-10
6.49036e-11
6.47353e-11
8.52748e-11
1.40108e-10
1.45099e-10
1.54631e-10
1.41698e-10
1.40109e-10
3.04018e-11
2.26236e-10
3.88765e-11
3.75349e-11
1.8268e-10
1.81402e-10
3.88883e-11
2.70396e-11
3.81929e-11
1.68653e-10
SCALARS VLI float
LOOKUP_TABLE default
3.7707e-10
8.23125e-10
6.60011e-10
8.59921e-10
4.43877e-10
7.00571e-10
3.72883e-10
8.55571e-10
7.40479e-10
9.25173e-10
3.4142e-10
8.58197e-10
7.55949e-10
7.96188e-10
9.26289e-10
7.86019e-10
6.72356e-10
7.6316e-10
6.8911e-10
6.70532e-10
7.5472e-10
1.29399e-10
7.73291e-10
7.12232e-10
6.45692e-10
7.41794e-10
3.14494e-10
6.5316e-10
5.22175e-10
5.9005e-10
6.67923e-10
5.3975e-10
3.4858e-10
4.43425e-10
4.35124e-10
4.44444e-10
5.73334e-10
4.36278e-10
6.67306e-10
3.9176e-10
4.38954e-10
5.05188e-10
5.05263e-10
7.33028e-10
4.3568e-10
4.75805e-10
6.47867e-10
6.54845e-10
6.11723e-10
5.97846e-10
6.12939e-10
4.72662e-10
7.12962e-10
6.07262e-10
6.56639e-10
3.15617e-10
4.64536e-10
6.11715e-10
4.64541e-10
7.30822e-10
8.58455e-10
8.37985e-10
3.08469e-10
5.90974e-10
8.02586e-10
7.60364e-10
8.30259e-10
7.2045e-10
6.66364e-10
9.44592e-10
7.73608e-10
7.65197e-10
5.42359e-10
6.14567e-10
6.55841e-10
3.60449e-10
6.66984e-10
7.53337e-10
7.26549e-10
5.21091e-10
4.7447e-10
5.00222e-10
9.56279e-10
4.75709e-10
6.37567e-10
2.3927e-10
7.54496e-10
6.26498e-10
4.61364e-10
6.38459e-11
5.26242e-10
6.9445e-11
5.65825e-10
5.46122e-10
4.9783e-10
4.57018e-10
4.35734e-10
8.12299e-10
6.6752e-10
6.49761e-10
5.57473e-10
5.3867e-10
4.56491e-10
7.7031e-10
7.82425e-10
7.04496e-10
6.1648e-10
6.30108e-10
4.84608e-10
9.37687e-10
6.05913e-10
3.28183e-10
4.37772e-10
8.43276e-10
7.89204e-10
5.8635e-10
5.3871e-10
3.6214e-10
5.5884e-10
5.83944e-10
5.04787e-10
9.03423e-10
9.38152e-10
8.03421e-10
8.85693e-10
6.90051e-10
3.87283e-10
8.77051e-10
3.94642e-10
5.04827e-10
4.0412e-10
8.37237e-10
8.1451e-10
8.21922e-10
5.60215e-10
3.27304e-10
3.78631e-10
6.03448e-10
7.33181e-10
3.27208e-10
4.67666e-10
7.09799e-10
5.43354e-10
8.66762e-10
4.40852e-10
7.07858e-10
6.42271e-10
6.22962e-10
3.98233e-10
5.13929e-10
5.69287e-10
8.07692e-10
4.84341e-10
7.32865e-10
8.47082e-10
8.60702e-10
5.62359e-10
4.81493e-10
4.78699e-10
7.39985e-10
6.24183e-10
4.80163e-10
3.2054e-10
4.69645e-10
4.65064e-10
7.90894e-10
4.87995e-10
4.93409e-10
5.36218e-10
4.75519e-10
6.90793e-10
4.97412e-10
4.42975e-10
5.43166e-10
5.25439e-10
6.16172e-10
6.83306e-10
6.64441e-10
5.57165e-10
6.62214e-10
5.20418e-10
7.67155e-10
8.23406e-10
4.67711e-10
8.03871e-10
4.69585e-10
7.93918e-10
7.28647e-10
6.77253e-10
6.9578e-10
8.10873e-10
3.95484e-10
5.14155e-10
4.80307e-10
8.2049e-10
8.09288e-10
7.5014e-10
8.12533e-10
8.30421e-10
6.9598e-10
8.55143e-10
5.79148e-10
5.26301e-10
9.30277e-10
5.57368e-10
8.44682e-10
6.74091e-10
4.3988e-10
5.15346e-10
8.46124e-10
6.99314e-10
6.40685e-10
8.26612e-10
8.07049e-10
5.31463e-10
5.19259e-10
5.1302e-10
7.15507e-10
7.92463e-10
9.10757e-10
8.75453e-10
9.52282e-10
8.6288e-10
9.43005e-10
7.91482e-10
8.21244e-10
8.27756e-10
7.80214e-10
8.19603e-10
7.5163e-10
7.40429e-10
5.3872e-10
7.13116e-10
8.35714e-10
5.83989e-10
8.43982e-10
7.75181e-10
9.05965e-10
5.53268e-10
8.61819e-10
8.22807e-10
5.41888e-10
7.32243e-10
5.38339e-10
8.24839e-10
7.57338e-10
5.64139e-10
5.32154e-10
4.64876e-10
5.34622e-10
8.26059e-10
3.90687e-10
6.40981e-10
5.30296e-10
5.91324e-10
8.62675e-10
8.33137e-10
2.56334e-10
8.36267e-10
4.6807e-10
5.01979e-10
8.57814e-10
6.97311e-10
5.08159e-10
9.55108e-10
5.49157e-10
2.56344e-10
5.13262e-10
7.42864e-10
9.25667e-10
7.04963e-10
8.21774e-10
7.73186e-10
4.024e-10
3.99821e-10
3.51393e-10
4.04041e-10
5.49166e-10
4.26642e-10
6.84345e-10
4.3358e-10
7.31169e-10
5.24796e-10
5.14067e-10
5.90902e-10
5.57175e-10
7.31445e-10
5.34257e-10
5.51868e-10
2.34079e-10
5.42122e-10
7.85444e-10
7.86068e-10
7.17219e-10
5.33056e-10
3.37765e-10
9.93348e-10
6.73736e-10
5.65426e-10
5.21999e-10
5.07923e-10
5.38571e-10
6.41804e-10
5.28495e-10
3.85681e-10
5.21217e-10
3.62548e-10
6.35025e-10
5.32535e-10
2.18189e-10
5.01175e-10
5.83047e-10
5.32825e-10
8.05964e-10
5.52666e-10
7.061e-10
2.789e-10
5.673e-10
5.46876e-10
4.66602e-10
5.13522e-10
6.01781e-10
5.60734e-10
5.88179e-10
5.0669e-10
5.14255e-10
5.54305e-10
7.30181e-10
5.23722e-10
7.34084e-10
6.64089e-10
5.16463e-10
5.43283e-10
5.4759e-10
6.03166e-10
5.46418e-10
5.12973e-10
5.8134e-10
6.00135e-10
7.13796e-10
5.47367e-10
5.45773e-10
7.79487e-10
7.68509e-10
5.24211e-10
5.16598e-10
2.43318e-10
6.33431e-10
4.49261e-10
5.95958e-10
2.78774e-10
2.89369e-10
2.58545e-10
2.62801e-10
2.78774e-10
2.93762e-10
3.02687e-10
6.61426e-10
4.84971e-10
4.9733e-10
5.71372e-10
5.58019e-10
5.51159e-10
5.77571e-10
5.39543e-10
5.51956e-10
5.47585e-10
5.49125e-10
6.63125e-10
5.03084e-10
6.81881e-10
5.36254e-10
5.1918e-10
5.49904e-10
5.75075e-10
6.09193e-10
5.69377e-10
6.49959e-10
6.09176e-10
5.66853e-10
4.11432e-10
5.6839e-10
5.54056e-10
5.90035e-10
5.74461e-10
5.45098e-10
5.17741e-10
5.69201e-10
5.91783e-10
8.00342e-10
5.33394e-10
7.7818e-10
8.14494e-10
5.59272e-10
7.77741e-10
5.98552e-10
4.82126e-10
6.48197e-10
5.73562e-10
4.04863e-10
3.72004e-10
6.3886e-10
6.7964e-10
5.81217e-10
4.84188e-10
5.77709e-10
2.86072e-10
5.74673e-10
5.40438e-10
2.83251e-10
1.02643e-10
1.12267e-10
4.97551e-10
5.33744e-10
6.17568e-10
5.95613e-10
5.23585e-11
5.47092e-11
5.85196e-10
5.91257e-10
5.59817e-10
2.14745e-10
4.99787e-10
5.72846e-10
5.90579e-10
5.09635e-10
4.49687e-10
2.23783e-10
8.44384e-10
5.37214e-10
6.52392e-10
6.62586e-10
4.78052e-10
6.0451e-10
4.67411e-10
5.15573e-10
2.63361e-10
3.93825e-10
6.05254e-10
6.07051e-10
5.23103e-10
5.50274e-10
5.67126e-10
5.97654e-10
5.71793e-10
2.89036e-10
4.9478e-10
5.67424e-10
5.30264e-10
7.94769e-10
2.89055e-10
4.33217e-10
4.46405e-10
4.1652e-10
2.67636e-10
2.67661e-10
4.78152e-10
3.93736e-10
5.59445e-10
3.09532e-10
3.19934e-10
1.0362e-10
1.03622e-10
2.33321e-10
3.49127e-10
2.34739e-10
4.76874e-10
5.0918e-10
5.49252e-10
6.17432e-10
5.58297e-10
5.16275e-10
4.08821e-10
2.63322e-10
5.1427e-10
5.30265e-10
5.12277e-10
2.94682e-10
2.57883e-10
2.11264e-10
5.11647e-10
5.23677e-10
4.26443e-10
4.76606e-10
4.39392e-10
3.97106e-10
5.38208e-10
3.97086e-10
4.76349e-10
4.55864e-10
2.75491e-10
3.4001e-10
3.32429e-10
5.68203e-10
2.34878e-10
2.4725e-10
2.42276e-10
5.35443e-10
2.23269e-10
2.19405e-10
3.76562e-10
2.04383e-10
4.28847e-10
4.29509e-10
2.09669e-10
4.76401e-10
2.30748e-10
2.31436e-10
2.58622e-10
2.20842e-10
2.15036e-10
3.04428e-10
2.55023e-10
2.33699e-10
2.21437e-10
4.34259e-10
4.92134e-10
2.41983e-10
4.79273e-10
2.01122e-10
4.85479e-10
3.87912e-10
2.09947e-10
1.7647e-10
1.98446e-10
2.62721e-10
4.18769e-10
3.38254e-10
1.39461e-10
1.54907e-10
4.64435e-10
1.31297e-10
1.31299e-10
1.48817e-10
1.67712e-10
2.00704e-10
2.22122e-10
3.70318e-10
3.41081e-10
4.65022e-10
1.32341e-10
1.32343e-10
4.02455e-10
1.75458e-10
3.33413e-10
1.58902e-10
1.5849e-10
2.08776e-10
3.43023e-10
3.55243e-10
3.78578e-10
3.46916e-10
3.43025e-10
7.44319e-11
5.53889e-10
9.51805e-11
9.18957e-11
4.47252e-10
4.44121e-10
9.52093e-11
6.62004e-11
9.35067e-11
4.12909e-10
TENSORS Lagrange_strain float
-2.22045e-16 2.22045e-16 -1.10675e-15
2.22045e-16 0 -4.62223e-33
-1.10675e-15 -4.62223e-33 -2.22045e-16

4.44089e-16 -2.22045e-16 -2.35922e-16
-2.22045e-16 4.44089e-16 2.498e-16
-2.35922e-16 2.498e-16 -5.55112e-16

-8.88178e-16 0 2.77556e-17
0 0 -1.38778e-16
2.77556e-17 -1.38778e-16 -6.66134e-16

-4.44089e-16 3.05311e-16 5.27356e-16
3.05311e-16 0 -2.77556e-17
5.27356e-16 -2.77556e-17 -8.88178e-16

-8.88178e-16 -3.33067e-16 -1.38778e-17
-3.33067e-16 0 1.38778e-17
-1.38778e-17 1.38778e-17 -6.66134e-16

0 2.77556e-16 1.11022e-16
2.77556e-16 0 -4.44089e-16
1.11022e-16 -4.44089e-16 -6.66134e-16

-2.22045e-16 -1.38778e-17 -1.34094e-15
-1.38778e-17 0 -4.43547e-16
-1.34094e-15 -4.43547e-16 -2.22045e-16

8.88178e-16 2.22045e-16 3.08149e-33
2.22045e-16 4.44089e-16 -2.08167e-16
3.08149e-33 -2.08167e-16 -6.66134e-16

4.44089e-16 -1.11022e-16 2.22045e-16
-1.11022e-16 0 2.22045e-16
2.22045e-16 2.22045e-16 -6.66134e-16

-2.22045e-16 -4.75965e-17 -2.35922e-16
-4.75965e-17 -1.11022e-16 6.36969e-19
-2.35922e-16 6.36969e-19 -8.88178e-16

2.22045e-16 1.38778e-16 4.44089e-16
1.38778e-16 -1.11022e-16 -2.72352e-16
4.44089e-16 -2.72352e-16 -1.11022e-16

0 -1.11022e-16 -1.38778e-17
-1.11022e-16 0 -1.249e-16
-1.38778e-17 -1.249e-16 -6.66134e-16

8.88178e-16 4.44089e-16 0
4.44089e-16 4.44089e-16 4.44089e-16
0 4.44089e-16 -6.66134e-16

2.22045e-16 -1.97215e-31 4.57967e-16
-1.97215e-31 0 -2.22045e-16
4.57967e-16 -2.22045e-16 -4.44089e-16

1.11022e-15 0 4.71845e-16
0 4.44089e-16 -4.16334e-17
4.71845e-16 -4.16334e-17 -6.66134e-16

0 4.44089e-16 2.08167e-16
4.44089e-16 -1.11022e-16 2.2031e-16
2.08167e-16 2.2031e-16 -6.66134e-16

4.44089e-16 -8.32667e-17 -2.35922e-16
-8.32667e-17 2.22045e-16 4.16334e-17
-2.35922e-16 4.16334e-17 -4.44089e-16

-8.88178e-16 -6.93889e-18 -1.38778e-17
-6.93889e-18 0 2.60209e-18
-1.38778e-17 2.60209e-18 -6.66134e-16

0 2.22045e-16 -6.93889e-18
2.22045e-16 2.22045e-16 -4.16334e-17
-6.93889e-18 -4.16334e-17 -6.66134e-16

-1.11022e-16 -4.51028e-17 2.34723e-34
-4.51028e-17 0 -2.60209e-18
2.34723e-34 -2.60209e-18 -7.77156e-16

-2.22045e-16 2.22045e-16 1.09288e-16
2.22045e-16 -8.88178e-16 -8.32667e-17
1.09288e-16 -8.32667e-17 -6.66134e-16

-1.55431e-15 -3.19189e-16 8.8124e-16
-3.19189e-16 2.22045e-16 -1.38778e-16
8.8124e-16 -1.38778e-16 -6.66134e-16

-2.22045e-16 -2.77556e-16 -2.22045e-16
-2.77556e-16 0 3.46945e-18
-2.22045e-16 3.46945e-18 -4.44089e-16

-2.22045e-16 4.44089e-16 -2.08167e-17
4.44089e-16 -2.22045e-16 -9.24446e-33
-2.08167e-17 -9.24446e-33 -6.66134e-16

0 -6.59195e-17 3.747e-16
-6.59195e-17 0 1.8735e-16
3.747e-16 1.8735e-16 -5.55112e-16

0 6.93889e-18 -1.73472e-17
6.93889e-18 0 5.55112e-17
-1.73472e-17 5.55112e-17 -7.77156e-16

-6.66134e-16 -8.30779e-17 4.44089e-16
-8.30779e-17 0 -2.18413e-16
4.44089e-16 -2.18413e-16 -4.44089e-16

0 -9.86076e-32 -2.35922e-16
-9.86076e-32 0 1.94289e-16
-2.35922e-16 1.94289e-16 -5.55112e-16

2.22045e-16 2.60209e-17 1.04083e-17
2.60209e-17 4.44089e-16 -3.81639e-16
1.04083e-17 -3.81639e-16 -6.66134e-16

2.22045e-16 8.32667e-17 -1.38778e-17
8.32667e-17 -8.88178e-16 -1.38778e-17
-1.38778e-17 -1.38778e-17 -7.77156e-16

0 -4.996e-16 -5.55112e-17
-4.996e-16 -2.22045e-16 4.3715e-16
-5.55112e-17 4.3715e-16 -6.66134e-16

2.22045e-16 1.11022e-16 -2.22045e-16
1.11022e-16 -2.22045e-16 4.23273e-16
-2.22045e-16 4.23273e-16 -5.55112e-16

0 -3.9443e-31 4.42354e-16
-3.9443e-31 0 -4.44089e-16
4.42354e-16 -4.44089e-16 -3.33067e-16

-2.22045e-16 -2.498e-16 -1.2326e-32
-2.498e-16 -4.44089e-16 2.77556e-17
-1.2326e-32 2.77556e-17 -8.88178e-16

0 -8.74301e-16 -4.47559e-16
-8.74301e-16 4.44089e-16 1.38778e-16
-4.47559e-16 1.38778e-16 -7.77156e-16

2.22045e-16 -3.60822e-16 -4.16334e-17
-3.60822e-16 0 1.38778e-17
-4.16334e-17 1.38778e-17 -7.77156e-16

0 0 0
0 -2.22045e-16 2.22045e-16
0 2.22045e-16 -6.66134e-16

-8.88178e-16 1.11022e-16 5.55112e-17
1.11022e-16 6.66134e-16 5.55112e-17
5.55112e-17 5.55112e-17 -6.66134e-16

0 4.44089e-16 -1.11022e-16
4.44089e-16 0 -2.08167e-16
-1.11022e-16 -2.08167e-16 -6.66134e-16

0 3.45127e-31 4.4062e-16
3.45127e-31 0 3.81639e-16
4.4062e-16 3.81639e-16 -4.44089e-16

4.44089e-16 -2.77556e-17 -6.93889e-18
-2.77556e-17 2.22045e-16 -8.67362e-18
-6.93889e-18 -8.67362e-18 -5.55112e-16

-2.22045e-16 4.16334e-17 -1.14492e-16
4.16334e-17 0 8.32667e-17
-1.14492e-16 8.32667e-17 -8.88178e-16

-1.77636e-15 2.22045e-16 8.32667e-17
2.22045e-16 0 4.16334e-17
8.32667e-17 4.16334e-17 -7.77156e-16

-4.44089e-16 5.55112e-17 -2.35922e-16
5.55112e-17 -2.22045e-16 -2.22045e-16
-2.35922e-16 -2.22045e-16 -6.66134e-16

-1.11022e-16 1.38778e-16 -2.22045e-16
1.38778e-16 0 -8.91648e-16
-2.22045e-16 -8.91648e-16 -2.22045e-16

-2.22045e-16 1.38778e-17 -2.15106e-16
1.38778e-17 0 -3.46945e-18
-2.15106e-16 -3.46945e-18 -6.66134e-16

0 3.33067e-16 -4.4062e-16
3.33067e-16 0 0
-4.4062e-16 0 -5.55112e-16

0 1.66533e-16 -1.14492e-16
1.66533e-16 0 -1.38778e-17
-1.14492e-16 -1.38778e-17 -4.44089e-16

-1.11022e-16 -8.67362e-18 1.73472e-16
-8.67362e-18 0 4.54498e-16
1.73472e-16 4.54498e-16 -6.66134e-16

-1.11022e-16 2.77556e-17 2.22045e-16
2.77556e-17 0 -6.93889e-18
2.22045e-16 -6.93889e-18 -5.55112e-16

0 -2.08167e-16 2.08167e-16
-2.08167e-16 0 -6.93889e-18
2.08167e-16 -6.93889e-18 -6.66134e-16

-4.44089e-16 2.35922e-16 2.15106e-16
2.35922e-16 0 -3.46945e-18
2.15106e-16 -3.46945e-18 -6.66134e-16

0 4.44089e-16 -2.25514e-16
4.44089e-16 8.88178e-16 -2.77556e-17
-2.25514e-16 -2.77556e-17 -5.55112e-16

2.22045e-16 1.66533e-16 -2.01228e-16
1.66533e-16 0 6.93889e-18
-2.01228e-16 6.93889e-18 -6.66134e-16

-8.88178e-16 0 -4.16334e-17
0 -4.44089e-16 4.44089e-16
-4.16334e-17 4.44089e-16 -6.66134e-16

0 5.55112e-17 -4.44089e-16
5.55112e-17 -4.44089e-16 2.2031e-16
-4.44089e-16 2.2031e-16 -4.44089e-16

0 -1.11022e-16 1.59595e-16
-1.11022e-16 0 5.55112e-17
1.59595e-16 5.55112e-17 -7.77156e-16

-1.11022e-16 -2.22045e-16 -3.46945e-18
-2.22045e-16 0 -4.85723e-17
-3.46945e-18 -4.85723e-17 -6.66134e-16

4.44089e-16 2.22045e-16 4.30211e-16
2.22045e-16 6.66134e-16 -1.38778e-17
4.30211e-16 -1.38778e-17 -7.77156e-16

0 -1.70003e-16 3.46945e-18
-1.70003e-16 0 1.04083e-16
3.46945e-18 1.04083e-16 -6.66134e-16

0 0 -5.55112e-17
0 0 -1.11022e-16
-5.55112e-17 -1.11022e-16 -7.77156e-16

0 -2.77556e-17 1.94289e-16
-2.77556e-17 4.44089e-16 2.77556e-17
1.94289e-16 2.77556e-17 -5.55112e-16

0 1.97215e-31 1.14492e-16
1.97215e-31 0 8.84709e-16
1.14492e-16 8.84709e-16 -2.22045e-16

0 -2.77556e-17 -1.04083e-17
-2.77556e-17 2.22045e-16 -2.77556e-17
-1.04083e-17 -2.77556e-17 -6.66134e-16

-3.33067e-16 -5.55112e-17 3.46945e-18
-5.55112e-17 0 -5.55112e-17
3.46945e-18 -5.55112e-17 -7.77156e-16

0 -2.35922e-16 1.73472e-18
-2.35922e-16 4.44089e-16 -1.38778e-17
1.73472e-18 -1.38778e-17 -6.66134e-16

0 -3.33067e-16 2.77556e-17
-3.33067e-16 2.22045e-16 -2.77556e-17
2.77556e-17 -2.77556e-17 -6.66134e-16

-2.22045e-16 0 4.02456e-16
0 0 3.46945e-18
4.02456e-16 3.46945e-18 -7.77156e-16

2.22045e-16 0 4.16334e-17
0 0 -4.44089e-16
4.16334e-17 -4.44089e-16 -6.66134e-16

-2.22045e-16 6.07153e-18 -2.35922e-16
6.07153e-18 -1.11022e-16 2.26124e-16
-2.35922e-16 2.26124e-16 -6.66134e-16

-1.11022e-16 5.55112e-16 -2.15106e-16
5.55112e-16 -8.88178e-16 2.77556e-17
-2.15106e-16 2.77556e-17 -6.66134e-16

-8.88178e-16 1.94289e-16 -4.57967e-16
1.94289e-16 0 1.11022e-16
-4.57967e-16 1.11022e-16 -8.88178e-16

2.22045e-16 1.11022e-16 -3.46945e-18
1.11022e-16 4.44089e-16 4.44089e-16
-3.46945e-18 4.44089e-16 -3.33067e-16

-2.22045e-16 2.77556e-16 -2.77556e-17
2.77556e-16 -6.66134e-16 6.93889e-18
-2.77556e-17 6.93889e-18 -6.66134e-16

0 -3.33067e-16 -8.32667e-17
-3.33067e-16 0 4.44089e-16
-8.32667e-17 4.44089e-16 -5.55112e-16

-4.44089e-16 -2.77556e-17 -8.84709e-16
-2.77556e-17 -2.22045e-16 2.22045e-16
-8.84709e-16 2.22045e-16 -4.44089e-16

0 0 3.46945e-18
0 6.66134e-16 8.32667e-17
3.46945e-18 8.32667e-17 -6.66134e-16

0 -3.88578e-16 -1.38778e-17
-3.88578e-16 -4.44089e-16 1.38778e-17
-1.38778e-17 1.38778e-17 -6.66134e-16

2.22045e-16 3.88578e-16 2.70617e-16
3.88578e-16 0 -4.16334e-17
2.70617e-16 -4.16334e-17 -6.66134e-16

0 1.94289e-16 4.81482e-35
1.94289e-16 2.22045e-16 2.55872e-16
4.81482e-35 2.55872e-16 -6.66134e-16

0 1.80411e-16 1.38778e-17
1.80411e-16 0 -3.85109e-16
1.38778e-17 -3.85109e-16 -4.44089e-16

0 -7.77156e-16 -4.47559e-16
-7.77156e-16 -6.66134e-16 -7.70372e-34
-4.47559e-16 -7.70372e-34 -7.77156e-16

0 4.02456e-16 4.44089e-16
4.02456e-16 8.88178e-16 4.85723e-17
4.44089e-16 4.85723e-17 -6.66134e-16

-4.44089e-16 0 0
0 -1.11022e-16 7.91034e-16
0 7.91034e-16 -6.66134e-16

-2.22045e-16 -2.34188e-17 2.28983e-16
-2.34188e-17 2.22045e-16 4.49944e-16
2.28983e-16 4.49944e-16 -3.33067e-16

-1.11022e-16 -5.55112e-17 -1.54074e-33
-5.55112e-17 -4.44089e-16 4.30211e-16
-1.54074e-33 4.30211e-16 -4.44089e-16

0 1.04083e-17 -1.73472e-18
1.04083e-17 8.88178e-16 -4.71845e-16
-1.73472e-18 -4.71845e-16 -6.66134e-16

8.88178e-16 1.66533e-16 -6.93889e-17
1.66533e-16 0 0
-6.93889e-17 0 -6.66134e-16

0 2.22045e-16 -6.93889e-18
2.22045e-16 4.44089e-16 4.30211e-16
-6.93889e-18 4.30211e-16 -4.44089e-16

0 -1.88738e-15 8.32667e-17
-1.88738e-15 -1.11022e-16 -6.245e-16
8.32667e-17 -6.245e-16 -6.66134e-16

0 1.17961e-16 4.44089e-16
1.17961e-16 0 -1.66533e-16
4.44089e-16 -1.66533e-16 -6.66134e-16

-6.66134e-16 -2.08167e-16 -1.63758e-15
-2.08167e-16 -1.77636e-15 8.88178e-16
-1.63758e-15 8.88178e-16 -6.66134e-16

0 2.77556e-17 -4.44089e-16
2.77556e-17 0 -8.32667e-17
-4.44089e-16 -8.32667e-17 -7.77156e-16

8.88178e-16 3.33067e-16 -1.38778e-17
3.33067e-16 0 -2.22045e-16
-1.38778e-17 -2.22045e-16 -5.55112e-16

0 -1.11022e-16 -2.35922e-16
-1.11022e-16 -5.55112e-16 5.20417e-18
-2.35922e-16 5.20417e-18 -6.66134e-16

0 -1.9082e-17 4.42354e-16
-1.9082e-17 0 9.71445e-17
4.42354e-16 9.71445e-17 -6.66134e-16

0 0 3.46945e-18
0 -2.22045e-16 -6.8695e-16
3.46945e-18 -6.8695e-16 -5.55112e-16

0 -3.88578e-16 -4.44089e-16
-3.88578e-16 -7.77156e-16 1.38778e-16
-4.44089e-16 1.38778e-16 -5.55112e-16

0 0 -2.77556e-17
0 0 -6.93889e-18
-2.77556e-17 -6.93889e-18 -6.66134e-16

0 -8.76035e-17 -6.93889e-18
-8.76035e-17 -4.44089e-16 5.20417e-17
-6.93889e-18 5.20417e-17 -4.44089e-16

0 -1.11022e-16 1.38778e-17
-1.11022e-16 2.22045e-16 4.4062e-16
1.38778e-17 4.4062e-16 -4.44089e-16

0 2.42861e-16 -4.47559e-16
2.42861e-16 -2.22045e-16 6.93889e-18
-4.47559e-16 6.93889e-18 -4.44089e-16

-1.11022e-16 -8.32667e-17 2.22045e-16
-8.32667e-17 -2.22045e-16 4.47559e-16
2.22045e-16 4.47559e-16 -5.55112e-16

-6.66134e-16 1.66533e-16 -2.77556e-17
1.66533e-16 0 -2.77556e-16
-2.77556e-17 -2.77556e-16 -6.66134e-16

-2.22045e-16 -2.08167e-16 6.93889e-18
-2.08167e-16 -2.22045e-16 -1.94289e-16
6.93889e-18 -1.94289e-16 -6.66134e-16

0 -2.22045e-16 -2.01228e-16
-2.22045e-16 8.88178e-16 4.57967e-16
-2.01228e-16 4.57967e-16 -5.55112e-16

-1.11022e-16 -1.11022e-16 -1.04083e-17
-1.11022e-16 -2.22045e-16 2.35922e-16
-1.04083e-17 2.35922e-16 -6.66134e-16

4.44089e-16 -2.77556e-17 2.77556e-17
-2.77556e-17 -1.11022e-16 -3.27863e-16
2.77556e-17 -3.27863e-16 -6.66134e-16

0 -2.46519e-31 -4.44089e-16
-2.46519e-31 0 2.77556e-16
-4.44089e-16 2.77556e-16 -4.44089e-16

0 0 0
0 6.66134e-16 8.32667e-17
0 8.32667e-17 -6.66134e-16

0 1.66533e-16 4.44089e-16
1.66533e-16 2.22045e-16 -6.93889e-17
4.44089e-16 -6.93889e-17 -6.66134e-16

-1.11022e-16 0 8.67362e-19
0 -1.11022e-16 -4.57967e-16
8.67362e-19 -4.57967e-16 -4.44089e-16

-2.22045e-16 -2.22045e-16 4.3715e-16
-2.22045e-16 0 -4.51028e-16
4.3715e-16 -4.51028e-16 -4.44089e-16

-2.22045e-16 2.22045e-16 6.16298e-33
2.22045e-16 0 -2.08167e-16
6.16298e-33 -2.08167e-16 -4.44089e-16

-8.88178e-16 4.44089e-16 -1.80411e-16
4.44089e-16 -2.22045e-16 6.93889e-18
-1.80411e-16 6.93889e-18 -7.77156e-16

-3.33067e-16 5.55112e-17 1.17961e-16
5.55112e-17 0 -4.51028e-16
1.17961e-16 -4.51028e-16 -6.66134e-16

0 3.33067e-16 2.498e-16
3.33067e-16 -4.44089e-16 2.63678e-16
2.498e-16 2.63678e-16 -4.44089e-16

0 1.11022e-16 -4.44089e-16
1.11022e-16 0 1.04083e-17
-4.44089e-16 1.04083e-17 -5.55112e-16

0 -2.22045e-16 2.77556e-17
-2.22045e-16 2.22045e-16 6.93889e-18
2.77556e-17 6.93889e-18 -7.77156e-16

0 4.16334e-17 -2.21177e-16
4.16334e-17 -1.11022e-16 2.08167e-16
-2.21177e-16 2.08167e-16 -6.66134e-16

-8.88178e-16 1.73472e-18 -3.88578e-16
1.73472e-18 0 0
-3.88578e-16 0 -6.66134e-16

-4.44089e-16 1.11022e-16 4.44089e-16
1.11022e-16 0 1.38778e-17
4.44089e-16 1.38778e-17 -6.66134e-16

2.22045e-16 2.22045e-16 2.22045e-16
2.22045e-16 0 8.32667e-17
2.22045e-16 8.32667e-17 -6.66134e-16

0 1.17961e-16 2.08167e-17
1.17961e-16 0 2.35922e-16
2.08167e-17 2.35922e-16 -6.66134e-16

0 5.55112e-17 1.11022e-16
5.55112e-17 0 0
1.11022e-16 0 -6.66134e-16

-2.22045e-16 1.11022e-16 9.02056e-17
1.11022e-16 0 2.77556e-17
9.02056e-17 2.77556e-17 -6.66134e-16

1.33227e-15 4.44089e-16 5.55112e-17
4.44089e-16 -1.11022e-15 4.02456e-16
5.55112e-17 4.02456e-16 -5.55112e-16

4.44089e-16 3.46945e-18 1.38778e-17
3.46945e-18 0 1.38778e-17
1.38778e-17 1.38778e-17 -6.66134e-16

-1.11022e-16 -2.1684e-16 2.2237e-16
-2.1684e-16 2.22045e-16 -4.3715e-16
2.2237e-16 -4.3715e-16 -6.66134e-16

0 -2.08167e-16 4.3715e-16
-2.08167e-16 0 -3.64292e-16
4.3715e-16 -3.64292e-16 -6.66134e-16

-1.11022e-16 -6.66134e-16 6.93889e-18
-6.66134e-16 1.33227e-15 -2.22045e-16
6.93889e-18 -2.22045e-16 -8.88178e-16

1.55431e-15 0 -8.32667e-17
0 0 -4.47559e-16
-8.32667e-17 -4.47559e-16 -6.66134e-16

0 -2.22045e-16 2.28983e-16
-2.22045e-16 8.88178e-16 -3.08149e-33
2.28983e-16 -3.08149e-33 -6.66134e-16

2.22045e-16 -1.76942e-16 4.44089e-16
-1.76942e-16 -1.11022e-16 4.16334e-17
4.44089e-16 4.16334e-17 -8.88178e-16

0 -8.67362e-17 4.51028e-16
-8.67362e-17 0 1.38778e-17
4.51028e-16 1.38778e-17 -5.55112e-16

0 -5.91646e-31 -8.86444e-16
-5.91646e-31 0 3.05311e-16
-8.86444e-16 3.05311e-16 -6.66134e-16

0 9.71445e-17 3.46945e-18
9.71445e-17 -2.22045e-16 5.44703e-16
3.46945e-18 5.44703e-16 -4.44089e-16

0 1.11022e-16 -4.16334e-17
1.11022e-16 0 -3.43475e-16
-4.16334e-17 -3.43475e-16 -6.66134e-16

2.22045e-16 1.11022e-16 1.94289e-16
1.11022e-16 0 2.08167e-16
1.94289e-16 2.08167e-16 -6.66134e-16

-1.33227e-15 0 3.88578e-16
0 0 -1.38778e-17
3.88578e-16 -1.38778e-17 -6.66134e-16

0 5.55112e-17 5.20417e-18
5.55112e-17 0 3.46945e-17
5.20417e-18 3.46945e-17 -5.55112e-16

-2.22045e-16 5.55112e-17 0
5.55112e-17 4.44089e-16 2.498e-16
0 2.498e-16 -6.66134e-16

0 8.32667e-17 2.35922e-16
8.32667e-17 -1.11022e-16 4.44089e-16
2.35922e-16 4.44089e-16 -4.44089e-16

-1.11022e-16 1.11022e-16 -4.51028e-16
1.11022e-16 6.66134e-16 2.77556e-17
-4.51028e-16 2.77556e-17 -6.66134e-16

0 2.77556e-17 -5.51642e-16
2.77556e-17 0 -6.93889e-18
-5.51642e-16 -6.93889e-18 -5.55112e-16

4.44089e-16 0 -1.249e-16
0 0 0
-1.249e-16 0 -6.66134e-16

-4.44089e-16 -2.77556e-17 4.16334e-17
-2.77556e-17 4.44089e-16 3.53884e-16
4.16334e-17 3.53884e-16 -6.66134e-16

2.22045e-16 0 2.35922e-16
0 2.22045e-16 -1.04083e-17
2.35922e-16 -1.04083e-17 -5.55112e-16

0 -5.55112e-17 6.93889e-17
-5.55112e-17 0 2.77556e-17
6.93889e-17 2.77556e-17 -6.66134e-16

0 3.33067e-16 5.55112e-17
3.33067e-16 0 3.92048e-16
5.55112e-17 3.92048e-16 -5.55112e-16

0 0 0
0 -1.11022e-16 -2.77556e-16
0 -2.77556e-16 -6.66134e-16

0 0 1.38778e-17
0 -8.88178e-16 0
1.38778e-17 0 -6.66134e-16

-1.11022e-16 1.11022e-16 4.3715e-16
1.11022e-16 -2.22045e-16 -2.08167e-17
4.3715e-16 -2.08167e-17 -8.88178e-16

0 -1.66533e-16 2.32453e-16
-1.66533e-16 0 -2.08167e-16
2.32453e-16 -2.08167e-16 -6.66134e-16

0 0 2.22045e-16
0 4.44089e-16 1.38778e-17
2.22045e-16 1.38778e-17 -4.44089e-16

0 1.73472e-17 1.38778e-17
1.73472e-17 -6.66134e-16 -1.249e-16
1.38778e-17 -1.249e-16 -7.77156e-16

0 0 -6.93889e-18
0 0 -1.38778e-17
-6.93889e-18 -1.38778e-17 -5.55112e-16

-1.11022e-16 2.25514e-16 -2.28983e-16
2.25514e-16 -1.11022e-16 4.4062e-16
-2.28983e-16 4.4062e-16 -6.66134e-16

0 -2.22045e-16 2.2031e-16
-2.22045e-16 0 1.38778e-17
2.2031e-16 1.38778e-17 -6.66134e-16

4.44089e-16 -3.88578e-16 -2.77556e-17
-3.88578e-16 8.88178e-16 -1.38778e-17
-2.77556e-17 -1.38778e-17 -4.44089e-16

-4.44089e-16 1.47911e-31 -1.54074e-32
1.47911e-31 2.22045e-16 -2.56739e-16
-1.54074e-32 -2.56739e-16 -6.66134e-16

0 -1.66533e-16 6.93889e-18
-1.66533e-16 -2.22045e-16 -4.44089e-16
6.93889e-18 -4.44089e-16 -6.66134e-16

0 0 -4.47559e-16
0 -3.33067e-16 -1.04083e-17
-4.47559e-16 -1.04083e-17 -4.44089e-16

-1.11022e-16 -1.11022e-16 2.15106e-16
-1.11022e-16 -4.44089e-16 6.93889e-18
2.15106e-16 6.93889e-18 -5.55112e-16

0 4.16334e-17 4.57967e-16
4.16334e-17 0 -2.84495e-16
4.57967e-16 -2.84495e-16 -6.66134e-16

-4.44089e-16 5.11743e-17 1.10967e-35
5.11743e-17 -2.22045e-16 4.44198e-16
1.10967e-35 4.44198e-16 -6.66134e-16

4.44089e-16 1.66533e-16 -2.25514e-16
1.66533e-16 -4.44089e-16 -4.30211e-16
-2.25514e-16 -4.30211e-16 -6.66134e-16

0 2.22045e-16 -2.35922e-16
2.22045e-16 2.22045e-16 3.46945e-18
-2.35922e-16 3.46945e-18 -2.22045e-16

0 1.11022e-16 -1.12757e-16
1.11022e-16 0 -4.3715e-16
-1.12757e-16 -4.3715e-16 -6.66134e-16

0 8.32667e-17 0
8.32667e-17 2.22045e-16 -2.63678e-16
0 -2.63678e-16 -4.44089e-16

0 2.1684e-17 -6.93889e-18
2.1684e-17 0 1.35308e-16
-6.93889e-18 1.35308e-16 -5.55112e-16

0 -4.85723e-17 4.33681e-19
-4.85723e-17 0 -1.38778e-17
4.33681e-19 -1.38778e-17 -6.66134e-16

2.22045e-16 -1.11022e-16 -2.15106e-16
-1.11022e-16 0 4.3715e-16
-2.15106e-16 4.3715e-16 -5.55112e-16

0 2.08167e-17 -1.38778e-17
2.08167e-17 0 -3.46945e-16
-1.38778e-17 -3.46945e-16 -7.77156e-16

4.44089e-16 2.08167e-16 -4.3715e-16
2.08167e-16 2.22045e-16 -3.19189e-16
-4.3715e-16 -3.19189e-16 -4.44089e-16

0 1.11022e-16 4.16334e-17
1.11022e-16 -1.11022e-16 3.46945e-17
4.16334e-17 3.46945e-17 -6.66134e-16

0 3.33067e-16 -4.16334e-16
3.33067e-16 0 2.77556e-17
-4.16334e-16 2.77556e-17 -6.66134e-16

0 -5.55112e-17 -1.38778e-17
-5.55112e-17 -1.11022e-16 2.22045e-16
-1.38778e-17 2.22045e-16 -5.55112e-16

0 -6.10623e-16 6.93889e-17
-6.10623e-16 -2.22045e-16 -2.08167e-17
6.93889e-17 -2.08167e-17 -6.66134e-16

-4.44089e-16 1.11022e-16 3.08149e-33
1.11022e-16 0 1.38778e-17
3.08149e-33 1.38778e-17 -6.66134e-16

-3.33067e-16 0 -1.38778e-17
0 -2.22045e-16 -6.245e-17
-1.38778e-17 -6.245e-17 -5.55112e-16

0 6.66134e-16 -1.94289e-16
6.66134e-16 0 1.2326e-32
-1.94289e-16 1.2326e-32 -6.66134e-16

-7.77156e-16 -3.33067e-16 -2.08167e-16
-3.33067e-16 0 -2.77556e-17
-2.08167e-16 -2.77556e-17 -6.66134e-16

-2.22045e-16 -2.22045e-16 -4.47559e-16
-2.22045e-16 0 -6.93889e-18
-4.47559e-16 -6.93889e-18 -6.66134e-16

4.44089e-16 5.55112e-17 -2.22045e-16
5.55112e-17 0 0
-2.22045e-16 0 -6.66134e-16

0 8.32667e-17 6.93889e-18
8.32667e-17 0 -1.39645e-16
6.93889e-18 -1.39645e-16 -6.66134e-16

0 -3.33067e-16 1.38778e-17
-3.33067e-16 4.44089e-16 4.16334e-17
1.38778e-17 4.16334e-17 -7.77156e-16

-2.22045e-16 0 -3.46945e-18
0 4.44089e-16 -3.88578e-16
-3.46945e-18 -3.88578e-16 -8.88178e-16

0 2.22045e-16 -6.16298e-33
2.22045e-16 -4.44089e-16 -1.38778e-17
-6.16298e-33 -1.38778e-17 -6.66134e-16

-8.88178e-16 -1.11022e-16 2.08167e-16
-1.11022e-16 0 1.38778e-17
2.08167e-16 1.38778e-17 -6.66134e-16

0 -6.93889e-18 1.73472e-18
-6.93889e-18 8.88178e-16 -8.32667e-17
1.73472e-18 -8.32667e-17 -6.66134e-16

0 4.16334e-17 -4.57967e-16
4.16334e-17 -1.11022e-16 6.07153e-18
-4.57967e-16 6.07153e-18 -5.55112e-16

-1.11022e-16 2.22045e-16 -6.93889e-18
2.22045e-16 0 -2.08167e-17
-6.93889e-18 -2.08167e-17 -6.66134e-16

0 5.55112e-17 5.20417e-18
5.55112e-17 0 1.38778e-17
5.20417e-18 1.38778e-17 -5.55112e-16

0 3.34043e-16 -2.77556e-17
3.34043e-16 2.22045e-16 1.41543e-16
-2.77556e-17 1.41543e-16 -6.66134e-16

0 4.82253e-16 -4.71845e-16
4.82253e-16 -1.11022e-16 -1.38236e-16
-4.71845e-16 -1.38236e-16 -6.66134e-16

0 2.22045e-16 2.08167e-16
2.22045e-16 -4.44089e-16 -5.55112e-17
2.08167e-16 -5.55112e-17 -6.66134e-16

0 0 2.08167e-16
0 0 5.55112e-17
2.08167e-16 5.55112e-17 -6.66134e-16

-1.11022e-16 2.22045e-16 -1.38778e-17
2.22045e-16 -8.88178e-16 2.35922e-16
-1.38778e-17 2.35922e-16 -7.77156e-16

2.22045e-16 -3.33067e-16 -3.35235e-16
-3.33067e-16 8.88178e-16 -1.38778e-17
-3.35235e-16 -1.38778e-17 -6.66134e-16

0 -4.44089e-16 2.08167e-16
-4.44089e-16 -8.88178e-16 5.55112e-17
2.08167e-16 5.55112e-17 -4.44089e-16

0 -1.97215e-31 -2.08167e-16
-1.97215e-31 0 4.47559e-16
-2.08167e-16 4.47559e-16 -6.66134e-16

-2.22045e-16 0 2.22045e-16
0 -2.22045e-16 -6.93889e-18
2.22045e-16 -6.93889e-18 -6.66134e-16

-8.88178e-16 2.77556e-17 2.77556e-16
2.77556e-17 -2.22045e-16 -2.39392e-16
2.77556e-16 -2.39392e-16 -6.66134e-16

0 -2.22045e-16 2.08167e-17
-2.22045e-16 -2.22045e-16 -4.57967e-16
2.08167e-17 -4.57967e-16 -6.66134e-16

4.44089e-16 4.47559e-16 6.93889e-18
4.47559e-16 0 -5.55112e-17
6.93889e-18 -5.55112e-17 -6.66134e-16

0 2.77556e-17 1.94289e-16
2.77556e-17 -4.44089e-16 -4.44089e-16
1.94289e-16 -4.44089e-16 -8.88178e-16

0 0 2.42861e-16
0 0 0
2.42861e-16 0 -5.55112e-16

0 -3.88578e-16 1.38778e-17
-3.88578e-16 0 2.35922e-16
1.38778e-17 2.35922e-16 -6.66134e-16

0 -4.996e-16 -3.60822e-16
-4.996e-16 0 -2.1684e-16
-3.60822e-16 -2.1684e-16 -5.55112e-16

-1.11022e-16 -3.88578e-16 -1.94289e-16
-3.88578e-16 8.88178e-16 0
-1.94289e-16 0 -6.66134e-16

0 -4.16334e-17 -5.55112e-17
-4.16334e-17 0 -2.35922e-16
-5.55112e-17 -2.35922e-16 -6.66134e-16

-8.88178e-16 2.22045e-16 -1.94289e-16
2.22045e-16 0 -6.93889e-18
-1.94289e-16 -6.93889e-18 -7.77156e-16

-4.44089e-16 -3.33067e-16 -2.08167e-16
-3.33067e-16 0 2.77556e-17
-2.08167e-16 2.77556e-17 -5.55112e-16

4.44089e-16 -3.60822e-16 2.56739e-16
-3.60822e-16 4.44089e-16 -1.38778e-17
2.56739e-16 -1.38778e-17 -6.66134e-16

0 0 2.08167e-16
0 2.22045e-16 -1.38778e-17
2.08167e-16 -1.38778e-17 -5.55112e-16

0 -5.55112e-17 -2.15106e-16
-5.55112e-17 0 6.93889e-18
-2.15106e-16 6.93889e-18 -6.66134e-16

-6.66134e-16 2.22045e-16 1.2326e-32
2.22045e-16 0 -4.16334e-16
1.2326e-32 -4.16334e-16 -6.66134e-16

6.66134e-16 -6.93889e-18 1.38778e-17
-6.93889e-18 -2.22045e-16 -5.55112e-17
1.38778e-17 -5.55112e-17 -6.66134e-16

-2.22045e-16 -3.33067e-16 -2.498e-16
-3.33067e-16 0 -1.94289e-16
-2.498e-16 -1.94289e-16 -6.66134e-16

-1.11022e-16 -2.15163e-17 -1.38778e-17
-2.15163e-17 2.22045e-16 6.20706e-17
-1.38778e-17 6.20706e-17 -6.66134e-16

4.44089e-16 0 6.93889e-18
0 0 -2.498e-16
6.93889e-18 -2.498e-16 -7.77156e-16

0 5.55112e-17 -2.77556e-17
5.55112e-17 -2.22045e-16 0
-2.77556e-17 0 -6.66134e-16

2.22045e-16 0 1.38778e-16
0 0 -6.93889e-18
1.38778e-16 -6.93889e-18 -6.66134e-16

0 -1.38778e-17 0
-1.38778e-17 0 2.42861e-16
0 2.42861e-16 -6.66134e-16

-2.22045e-16 4.44089e-16 -2.08167e-16
4.44089e-16 0 2.22045e-16
-2.08167e-16 2.22045e-16 -7.77156e-16

0 0 -4.16334e-17
0 0 -2.63678e-16
-4.16334e-17 -2.63678e-16 -5.55112e-16

-4.44089e-16 -3.33067e-16 -4.4062e-16
-3.33067e-16 0 0
-4.4062e-16 0 -5.55112e-16

0 2.42861e-17 -4.3715e-16
2.42861e-17 6.66134e-16 1.249e-16
-4.3715e-16 1.249e-16 -6.66134e-16

1.11022e-15 4.44089e-16 0
4.44089e-16 -6.66134e-16 -1.38778e-17
0 -1.38778e-17 -6.66134e-16

4.44089e-16 2.22045e-16 4.71845e-16
2.22045e-16 2.22045e-16 -6.245e-17
4.71845e-16 -6.245e-17 -5.55112e-16

0 -9.21572e-18 2.60209e-18
-9.21572e-18 0 -1.11022e-16
2.60209e-18 -1.11022e-16 -6.66134e-16

-2.22045e-16 5.55112e-17 1.52656e-16
5.55112e-17 4.44089e-16 -6.93889e-17
1.52656e-16 -6.93889e-17 -6.66134e-16

0 -1.73472e-16 4.16334e-16
-1.73472e-16 -2.22045e-16 -2.63678e-16
4.16334e-16 -2.63678e-16 -6.66134e-16

0 4.16334e-17 1.44445e-34
4.16334e-17 0 -1.0842e-16
1.44445e-34 -1.0842e-16 -6.66134e-16

6.66134e-16 0 1.94289e-16
0 4.44089e-16 -6.93889e-18
1.94289e-16 -6.93889e-18 -7.77156e-16

0 -1.11022e-16 2.22045e-16
-1.11022e-16 2.22045e-16 -2.08167e-17
2.22045e-16 -2.08167e-17 -4.44089e-16

2.22045e-16 2.77556e-17 -1.94289e-16
2.77556e-17 -1.11022e-16 0
-1.94289e-16 0 -6.66134e-16

0 -1.30104e-18 4.45824e-16
-1.30104e-18 -2.22045e-16 2.498e-16
4.45824e-16 2.498e-16 -6.66134e-16

-2.22045e-16 -6.66134e-16 4.57967e-16
-6.66134e-16 -8.88178e-16 5.55112e-17
4.57967e-16 5.55112e-17 -8.88178e-16

4.44089e-16 2.01228e-16 1.2326e-32
2.01228e-16 0 1.04083e-16
1.2326e-32 1.04083e-16 -6.66134e-16

0 -5.55112e-17 4.44089e-16
-5.55112e-17 0 2.08167e-17
4.44089e-16 2.08167e-17 -4.44089e-16

4.44089e-16 2.77556e-17 1.249e-16
2.77556e-17 -4.44089e-16 -4.78784e-16
1.249e-16 -4.78784e-16 -7.77156e-16

0 -8.32667e-17 -2.15106e-16
-8.32667e-17 0 -2.08167e-17
-2.15106e-16 -2.08167e-17 -6.66134e-16

4.44089e-16 -4.16334e-17 5.55112e-17
-4.16334e-17 0 2.77556e-16
5.55112e-17 2.77556e-16 -4.44089e-16

0 1.11022e-16 4.16334e-17
1.11022e-16 0 -1.80411e-16
4.16334e-17 -1.80411e-16 -8.88178e-16

0 2.1684e-18 -1.30104e-18
2.1684e-18 0 3.05311e-16
-1.30104e-18 3.05311e-16 -6.66134e-16

4.44089e-16 2.6773e-17 1.73472e-18
2.6773e-17 2.22045e-16 -1.79869e-16
1.73472e-18 -1.79869e-16 -6.66134e-16

-2.22045e-16 1.97215e-31 2.11636e-16
1.97215e-31 0 4.44089e-16
2.11636e-16 4.44089e-16 -5.55112e-16

0 1.47451e-17 3.46945e-17
1.47451e-17 -1.11022e-16 -1.95156e-18
3.46945e-17 -1.95156e-18 -5.55112e-16

0 2.22045e-16 1.38778e-17
2.22045e-16 0 0
1.38778e-17 0 -6.66134e-16

4.44089e-16 1.18329e-30 -6.67869e-16
1.18329e-30 2.22045e-16 -8.95117e-16
-6.67869e-16 -8.95117e-16 -5.55112e-16

-3.33067e-16 -3.33067e-16 -6.93889e-18
-3.33067e-16 8.88178e-16 -1.38778e-17
-6.93889e-18 -1.38778e-17 -6.66134e-16

0 2.42861e-17 4.44089e-16
2.42861e-17 0 -1.73472e-18
4.44089e-16 -1.73472e-18 -6.66134e-16

0 -1.97215e-31 2.35922e-16
-1.97215e-31 0 -4.3715e-16
2.35922e-16 -4.3715e-16 -6.66134e-16

-6.66134e-16 -2.77556e-17 -1.38778e-16
-2.77556e-17 -1.11022e-16 0
-1.38778e-16 0 -6.66134e-16

0 3.46945e-17 0
3.46945e-17 6.66134e-16 -9.71445e-17
0 -9.71445e-17 -5.55112e-16

2.22045e-16 6.66134e-16 2.22045e-16
6.66134e-16 0 5.55112e-17
2.22045e-16 5.55112e-17 -6.66134e-16

-4.44089e-16 -5.55112e-16 4.44089e-16
-5.55112e-16 0 -2.08167e-16
4.44089e-16 -2.08167e-16 -7.77156e-16

4.44089e-16 -2.77556e-17 -2.42861e-16
-2.77556e-17 0 -1.73472e-18
-2.42861e-16 -1.73472e-18 -5.55112e-16

0 1.97215e-31 2.22045e-16
1.97215e-31 0 4.3715e-16
2.22045e-16 4.3715e-16 -6.66134e-16

0 1.11022e-16 -2.498e-16
1.11022e-16 -8.88178e-16 2.77556e-17
-2.498e-16 2.77556e-17 -6.66134e-16

0 -4.44089e-16 -3.46945e-18
-4.44089e-16 6.66134e-16 2.77556e-17
-3.46945e-18 2.77556e-17 -6.66134e-16

0 0 3.46945e-18
0 2.22045e-16 -1.38778e-17
3.46945e-18 -1.38778e-17 -5.55112e-16

-6.66134e-16 1.11022e-16 0
1.11022e-16 -4.44089e-16 -5.55112e-17
0 -5.55112e-17 -7.77156e-16

4.44089e-16 -2.77556e-16 4.30211e-16
-2.77556e-16 0 -6.93889e-18
4.30211e-16 -6.93889e-18 -6.66134e-16

0 1.11022e-16 1.38778e-17
1.11022e-16 -1.55431e-15 -2.08167e-16
1.38778e-17 -2.08167e-16 -6.66134e-16

-1.11022e-16 6.93889e-18 2.08167e-17
6.93889e-18 2.22045e-16 -9.02056e-17
2.08167e-17 -9.02056e-17 -7.77156e-16

0 0 2.77556e-17
0 2.22045e-16 -6.93889e-18
2.77556e-17 -6.93889e-18 -5.55112e-16

-1.11022e-16 0 -2.35922e-16
0 0 -1.38778e-17
-2.35922e-16 -1.38778e-17 -6.66134e-16

0 4.44089e-16 -2.46519e-32
4.44089e-16 0 -5.55112e-17
-2.46519e-32 -5.55112e-17 -6.66134e-16

4.44089e-16 2.08167e-17 0
2.08167e-17 6.66134e-16 6.93889e-17
0 6.93889e-17 -6.66134e-16

1.11022e-15 -1.66533e-16 2.22045e-16
-1.66533e-16 2.22045e-16 2.15106e-16
2.22045e-16 2.15106e-16 -6.66134e-16

-1.11022e-16 6.66134e-16 3.46945e-18
6.66134e-16 0 4.71845e-16
3.46945e-18 4.71845e-16 -6.66134e-16

0 0 5.55112e-17
0 6.66134e-16 -4.16334e-17
5.55112e-17 -4.16334e-17 -4.44089e-16

-2.22045e-16 4.51028e-17 5.75928e-16
4.51028e-17 0 -4.44089e-16
5.75928e-16 -4.44089e-16 -4.44089e-16

4.44089e-16 6.93889e-18 -4.61436e-16
6.93889e-18 0 5.96311e-19
-4.61436e-16 5.96311e-19 -4.44089e-16

0 3.88578e-16 4.16334e-17
3.88578e-16 -1.11022e-16 9.02056e-17
4.16334e-17 9.02056e-17 -6.66134e-16

0 -3.33067e-16 6.93889e-18
-3.33067e-16 -1.33227e-15 1.38778e-17
6.93889e-18 1.38778e-17 -6.66134e-16

-2.22045e-16 2.22045e-16 2.22045e-16
2.22045e-16 0 1.38778e-17
2.22045e-16 1.38778e-17 -7.77156e-16

0 -3.46945e-17 -5.55112e-17
-3.46945e-17 -2.22045e-16 2.7761e-16
-5.55112e-17 2.7761e-16 -8.88178e-16

2.22045e-16 -1.38778e-17 0
-1.38778e-17 0 -9.71445e-17
0 -9.71445e-17 -8.88178e-16

-6.66134e-16 5.27356e-16 -8.32667e-17
5.27356e-16 0 -7.39557e-32
-8.32667e-17 -7.39557e-32 -5.55112e-16

0 1.66533e-16 -6.93889e-18
1.66533e-16 -8.88178e-16 -6.93889e-18
-6.93889e-18 -6.93889e-18 -5.55112e-16

0 2.08167e-16 8.67362e-19
2.08167e-16 0 2.77556e-17
8.67362e-19 2.77556e-17 -5.55112e-16

2.22045e-16 5.55112e-17 6.93889e-18
5.55112e-17 6.66134e-16 2.77556e-17
6.93889e-18 2.77556e-17 -4.44089e-16

0 0 -2.77556e-17
0 -2.22045e-16 1.38778e-17
-2.77556e-17 1.38778e-17 -6.66134e-16

0 0 -2.15106e-16
0 -2.22045e-16 -2.08167e-17
-2.15106e-16 -2.08167e-17 -6.66134e-16

0 2.7929e-16 1.04083e-17
2.7929e-16 2.22045e-16 2.35922e-16
1.04083e-17 2.35922e-16 -5.55112e-16

0 2.77556e-17 -2.77556e-17
2.77556e-17 0 9.71445e-17
-2.77556e-17 9.71445e-17 -8.88178e-16

-3.33067e-16 3.9443e-31 -4.38885e-16
3.9443e-31 8.88178e-16 -4.71845e-16
-4.38885e-16 -4.71845e-16 -6.66134e-16

0 0 -1.17961e-16
0 0 -5.55112e-17
-1.17961e-16 -5.55112e-17 -8.88178e-16

-4.44089e-16 0 -2.22045e-16
0 2.22045e-16 0
-2.22045e-16 0 -8.88178e-16

-2.22045e-16 -2.22045e-16 -2.35922e-16
-2.22045e-16 0 -1.38778e-17
-2.35922e-16 -1.38778e-17 -8.88178e-16

0 -3.53884e-16 -6.93889e-18
-3.53884e-16 0 5.20417e-17
-6.93889e-18 5.20417e-17 -6.66134e-16

0 -4.33681e-16 4.45824e-16
-4.33681e-16 -7.77156e-16 1.84889e-32
4.45824e-16 1.84889e-32 -4.44089e-16

-1.33227e-15 -4.85723e-17 -2.77556e-17
-4.85723e-17 0 5.89806e-17
-2.77556e-17 5.89806e-17 -6.66134e-16

4.44089e-16 2.22045e-16 -5.55112e-17
2.22045e-16 -1.11022e-16 -2.15106e-16
-5.55112e-17 -2.15106e-16 -6.66134e-16

0 5.55112e-17 2.27249e-16
5.55112e-17 -2.22045e-16 4.92661e-16
2.27249e-16 4.92661e-16 -6.66134e-16

0 5.55112e-17 -1.73472e-17
5.55112e-17 4.44089e-16 -2.08167e-17
-1.73472e-17 -2.08167e-17 -4.44089e-16

0 3.33067e-16 -4.16334e-17
3.33067e-16 4.44089e-16 -2.77556e-17
-4.16334e-17 -2.77556e-17 -6.66134e-16

0 -4.16334e-17 -6.93889e-18
-4.16334e-17 -6.66134e-16 3.40006e-16
-6.93889e-18 3.40006e-16 -7.77156e-16

0 3.88578e-16 -2.77556e-17
3.88578e-16 -6.66134e-16 -6.93889e-18
-2.77556e-17 -6.93889e-18 -7.77156e-16

0 8.32667e-17 -3.46945e-17
8.32667e-17 -2.22045e-16 -1.63931e-16
-3.46945e-17 -1.63931e-16 -6.66134e-16

0 0 0
0 4.44089e-16 -4.16334e-16
0 -4.16334e-16 -5.55112e-16

-6.66134e-16 5.55112e-17 -2.01228e-16
5.55112e-17 2.22045e-16 2.08167e-17
-2.01228e-16 2.08167e-17 -5.55112e-16

4.44089e-16 5.55112e-17 6.6093e-16
5.55112e-17 -3.33067e-16 0
6.6093e-16 0 -4.44089e-16

2.22045e-16 -5.37764e-17 -5.20417e-18
-5.37764e-17 8.88178e-16 1.66533e-16
-5.20417e-18 1.66533e-16 -6.66134e-16

0 -5.55112e-17 3.46945e-18
-5.55112e-17 -6.66134e-16 -2.77556e-17
3.46945e-18 -2.77556e-17 -6.66134e-16

1.33227e-15 0 2.77556e-17
0 4.44089e-16 8.60423e-16
2.77556e-17 8.60423e-16 -8.88178e-16

2.22045e-16 2.77556e-16 1.04083e-17
2.77556e-16 2.22045e-16 1.38778e-17
1.04083e-17 1.38778e-17 -6.66134e-16

8.88178e-16 -6.10623e-16 2.35922e-16
-6.10623e-16 2.22045e-16 4.44089e-16
2.35922e-16 4.44089e-16 -6.66134e-16

0 -1.66533e-16 2.18575e-16
-1.66533e-16 2.22045e-16 -4.16334e-17
2.18575e-16 -4.16334e-17 -6.66134e-16

-8.88178e-16 5.55112e-17 -5.55112e-17
5.55112e-17 2.22045e-16 -2.22045e-16
-5.55112e-17 -2.22045e-16 -6.66134e-16

0 -1.11022e-16 2.32453e-16
-1.11022e-16 -4.44089e-16 4.23273e-16
2.32453e-16 4.23273e-16 -6.66134e-16

0 -4.16334e-16 -9.71445e-17
-4.16334e-16 2.22045e-16 5.20417e-18
-9.71445e-17 5.20417e-18 -6.66134e-16

0 -7.88861e-31 4.44089e-16
-7.88861e-31 0 -8.88178e-16
4.44089e-16 -8.88178e-16 -2.22045e-16

-3.33067e-16 4.02456e-16 1.38778e-17
4.02456e-16 -2.22045e-16 -2.77556e-17
1.38778e-17 -2.77556e-17 -6.66134e-16

4.44089e-16 1.38778e-17 -2.35922e-16
1.38778e-17 -3.33067e-16 1.04083e-17
-2.35922e-16 1.04083e-17 -6.66134e-16

0 -3.33067e-16 -1.38778e-17
-3.33067e-16 -2.22045e-16 -1.38778e-17
-1.38778e-17 -1.38778e-17 -6.66134e-16

0 1.75207e-16 4.57967e-16
1.75207e-16 -1.11022e-16 -1.249e-16
4.57967e-16 -1.249e-16 -5.55112e-16

-2.22045e-16 1.38778e-17 -4.44089e-16
1.38778e-17 -4.44089e-16 -6.93889e-18
-4.44089e-16 -6.93889e-18 -6.66134e-16

0 -2.22045e-16 9.24446e-33
-2.22045e-16 0 -1.31839e-16
9.24446e-33 -1.31839e-16 -6.66134e-16

2.22045e-16 -4.44089e-16 -5.55112e-17
-4.44089e-16 0 4.16334e-17
-5.55112e-17 4.16334e-17 -6.66134e-16

0 5.55112e-17 -6.93889e-18
5.55112e-17 4.44089e-16 -4.44089e-16
-6.93889e-18 -4.44089e-16 -6.66134e-16

0 0 -4.09395e-16
0 4.44089e-16 -2.08167e-17
-4.09395e-16 -2.08167e-17 -6.66134e-16

0 -1.42247e-16 -4.16334e-17
-1.42247e-16 -1.11022e-16 -2.08167e-16
-4.16334e-17 -2.08167e-16 -6.66134e-16

0 3.9443e-31 3.60822e-16
3.9443e-31 -4.44089e-16 4.44089e-16
3.60822e-16 4.44089e-16 -6.66134e-16

4.44089e-16 -1.11022e-16 -6.93889e-18
-1.11022e-16 -2.22045e-16 0
-6.93889e-18 0 -6.66134e-16

-6.66134e-16 0 -1.38778e-17
0 0 -2.35922e-16
-1.38778e-17 -2.35922e-16 -6.66134e-16

-1.33227e-15 0 -6.93889e-17
0 0 -1.38778e-17
-6.93889e-17 -1.38778e-17 -6.66134e-16

-2.22045e-16 -3.33067e-16 4.42354e-16
-3.33067e-16 0 0
4.42354e-16 0 -6.66134e-16

0 -2.77556e-17 -3.46945e-17
-2.77556e-17 2.22045e-16 5.20417e-18
-3.46945e-17 5.20417e-18 -6.66134e-16

0 2.15106e-16 -2.1684e-19
2.15106e-16 0 4.30211e-16
-2.1684e-19 4.30211e-16 -5.55112e-16

8.88178e-16 8.84709e-17 0
8.84709e-17 2.22045e-16 -2.08167e-17
0 -2.08167e-17 -6.66134e-16

0 7.63278e-17 4.85723e-17
7.63278e-17 4.44089e-16 -5.20417e-16
4.85723e-17 -5.20417e-16 -6.66134e-16

4.44089e-16 -3.33067e-16 3.46945e-18
-3.33067e-16 0 4.16334e-16
3.46945e-18 4.16334e-16 -6.66134e-16

-1.11022e-16 -2.77556e-17 1.30104e-18
-2.77556e-17 0 -3.88578e-16
1.30104e-18 -3.88578e-16 -6.66134e-16

0 0 -1.38778e-17
0 -5.55112e-16 5.55112e-17
-1.38778e-17 5.55112e-17 -6.66134e-16

-4.44089e-16 0 2.25514e-16
0 0 1.38778e-17
2.25514e-16 1.38778e-17 -6.66134e-16

6.66134e-16 1.66533e-16 6.93889e-18
1.66533e-16 4.44089e-16 -6.93889e-18
6.93889e-18 -6.93889e-18 -6.66134e-16

0 1.38778e-16 -2.77556e-17
1.38778e-16 0 -1.38778e-17
-2.77556e-17 -1.38778e-17 -4.44089e-16

4.44089e-16 -2.35922e-16 -4.44089e-16
-2.35922e-16 -1.11022e-16 -7.63278e-17
-4.44089e-16 -7.63278e-17 -6.66134e-16

-1.11022e-16 5.55112e-17 0
5.55112e-17 -8.88178e-16 -2.498e-16
0 -2.498e-16 -6.66134e-16

0 -1.66533e-16 -2.77556e-17
-1.66533e-16 0 -2.77556e-17
-2.77556e-17 -2.77556e-17 -6.66134e-16

0 -6.93889e-16 0
-6.93889e-16 -6.66134e-16 2.22045e-16
0 2.22045e-16 -8.88178e-16

0 -1.66533e-16 4.4062e-16
-1.66533e-16 -3.33067e-16 -4.44089e-16
4.4062e-16 -4.44089e-16 -2.22045e-16

6.66134e-16 -5.55112e-17 1.66533e-16
-5.55112e-17 0 1.38778e-17
1.66533e-16 1.38778e-17 -6.66134e-16

-3.33067e-16 -1.97215e-31 -2.22966e-16
-1.97215e-31 -4.44089e-16 4.51028e-16
-2.22966e-16 4.51028e-16 -4.44089e-16

-3.33067e-16 0 -2.28983e-16
0 -4.44089e-16 1.38778e-17
-2.28983e-16 1.38778e-17 -6.66134e-16

-2.22045e-16 4.51028e-17 -4.42788e-16
4.51028e-17 -4.44089e-16 1.33053e-15
-4.42788e-16 1.33053e-15 -2.22045e-16

-2.22045e-16 2.77556e-17 -4.45824e-16
2.77556e-17 0 -1.3288e-15
-4.45824e-16 -1.3288e-15 0

0 1.38778e-17 8.89913e-16
1.38778e-17 0 8.91648e-16
8.89913e-16 8.91648e-16 0

0 9.19403e-17 8.9902e-16
9.19403e-17 0 -1.55952e-15
8.9902e-16 -1.55952e-15 0

0 6.93889e-17 1.10675e-15
6.93889e-17 0 3.46945e-18
1.10675e-15 3.46945e-18 -2.22045e-16

0 -7.88861e-31 -8.84709e-16
-7.88861e-31 0 4.47559e-16
-8.84709e-16 4.47559e-16 2.22045e-16

0 1.11022e-16 -1.30625e-15
1.11022e-16 0 -4.45824e-16
-1.30625e-15 -4.45824e-16 0

0 -2.22045e-16 -2.22045e-16
-2.22045e-16 0 2.08167e-16
-2.22045e-16 2.08167e-16 -6.66134e-16

-6.66134e-16 -1.22125e-15 4.16334e-17
-1.22125e-15 0 4.30211e-16
4.16334e-17 4.30211e-16 -6.66134e-16

8.88178e-16 9.02056e-17 4.71845e-16
9.02056e-17 0 2.60209e-18
4.71845e-16 2.60209e-18 -6.66134e-16

0 8.32667e-17 -2.88889e-33
8.32667e-17 -1.11022e-16 -1.73472e-17
-2.88889e-33 -1.73472e-17 -6.66134e-16

0 -2.46519e-32 3.46945e-18
-2.46519e-32 -2.22045e-16 -2.77556e-17
3.46945e-18 -2.77556e-17 -6.66134e-16

0 0 -2.22045e-16
0 -4.44089e-16 0
-2.22045e-16 0 -6.66134e-16

0 4.16334e-16 -1.11022e-16
4.16334e-16 6.66134e-16 2.08167e-17
-1.11022e-16 2.08167e-17 -5.55112e-16

0 -1.11022e-16 6.93889e-18
-1.11022e-16 -4.44089e-16 0
6.93889e-18 0 -6.66134e-16

0 1.73472e-17 6.50521e-19
1.73472e-17 0 -4.16334e-17
6.50521e-19 -4.16334e-17 -5.55112e-16

0 5.55112e-17 -5.55112e-17
5.55112e-17 0 -2.91434e-16
-5.55112e-17 -2.91434e-16 -6.66134e-16

2.22045e-16 6.245e-17 -4.33681e-19
6.245e-17 0 -4.44089e-16
-4.33681e-19 -4.44089e-16 -5.55112e-16

4.44089e-16 -2.22045e-16 4.71845e-16
-2.22045e-16 4.44089e-16 0
4.71845e-16 0 -6.66134e-16

2.22045e-16 1.80411e-16 4.57967e-16
1.80411e-16 2.22045e-16 2.98372e-16
4.57967e-16 2.98372e-16 -5.55112e-16

2.22045e-16 -4.44089e-16 -6.93889e-18
-4.44089e-16 -2.22045e-16 0
-6.93889e-18 0 -4.44089e-16

0 4.44089e-16 -1.38778e-17
4.44089e-16 2.22045e-16 4.47559e-16
-1.38778e-17 4.47559e-16 -6.66134e-16

0 -1.52656e-16 -9.24446e-33
-1.52656e-16 0 -2.01228e-16
-9.24446e-33 -2.01228e-16 -6.66134e-16

0 9.02056e-17 1.54074e-33
9.02056e-17 -1.11022e-16 -3.95517e-16
1.54074e-33 -3.95517e-16 -6.66134e-16

0 -4.44089e-16 2.77556e-16
-4.44089e-16 -2.22045e-16 4.51028e-16
2.77556e-16 4.51028e-16 -6.66134e-16

-4.44089e-16 5.55112e-17 2.08167e-16
5.55112e-17 -2.22045e-16 6.93889e-18
2.08167e-16 6.93889e-18 -6.66134e-16

-2.22045e-16 2.77556e-17 1.34815e-33
2.77556e-17 0 2.42861e-17
1.34815e-33 2.42861e-17 -6.66134e-16

2.22045e-16 -3.46945e-18 -4.4062e-16
-3.46945e-18 8.88178e-16 -9.71445e-17
-4.4062e-16 -9.71445e-17 -5.55112e-16

0 5.55112e-17 -3.46945e-18
5.55112e-17 0 2.77556e-17
-3.46945e-18 2.77556e-17 -6.66134e-16

2.22045e-16 -4.64906e-16 -2.08167e-16
-4.64906e-16 0 4.33681e-18
-2.08167e-16 4.33681e-18 -6.66134e-16

4.44089e-16 0 2.28983e-16
0 -2.22045e-16 1.73472e-18
2.28983e-16 1.73472e-18 -6.66134e-16

-4.44089e-16 2.22045e-16 -1.66533e-16
2.22045e-16 6.66134e-16 -1.38778e-17
-1.66533e-16 -1.38778e-17 -4.44089e-16

-2.22045e-16 -4.44089e-16 0
-4.44089e-16 0 6.93889e-18
0 6.93889e-18 -6.66134e-16

0 1.11022e-16 -2.08167e-16
1.11022e-16 -1.11022e-16 -2.28983e-16
-2.08167e-16 -2.28983e-16 -7.77156e-16

-2.22045e-16 2.08167e-16 -4.51028e-16
2.08167e-16 -4.44089e-16 9.71445e-17
-4.51028e-16 9.71445e-17 -8.88178e-16

2.22045e-16 -1.94289e-16 -2.08167e-17
-1.94289e-16 4.44089e-16 4.85723e-16
-2.08167e-17 4.85723e-16 -4.44089e-16

-2.22045e-16 1.11022e-16 -2.22045e-16
1.11022e-16 2.22045e-16 -2.77556e-17
-2.22045e-16 -2.77556e-17 -6.66134e-16

-1.11022e-16 1.7911e-16 1.30104e-18
1.7911e-16 -1.11022e-16 -1.11022e-16
1.30104e-18 -1.11022e-16 -6.66134e-16

0 0 -2.1684e-18
0 0 -1.38778e-17
-2.1684e-18 -1.38778e-17 -6.66134e-16

0 3.33067e-16 -2.22045e-16
3.33067e-16 8.88178e-16 1.38778e-17
-2.22045e-16 1.38778e-17 -5.55112e-16

0 1.8735e-16 4.51028e-16
1.8735e-16 -1.11022e-16 1.66533e-16
4.51028e-16 1.66533e-16 -6.66134e-16

-2.22045e-16 -3.33067e-16 -1.249e-16
-3.33067e-16 -2.22045e-16 6.93889e-18
-1.249e-16 6.93889e-18 -7.77156e-16

-4.44089e-16 0 -4.16334e-17
0 0 3.46945e-18
-4.16334e-17 3.46945e-18 -6.66134e-16

0 5.55112e-17 -2.23779e-16
5.55112e-17 0 -6.93889e-17
-2.23779e-16 -6.93889e-17 -6.66134e-16

0 1.76942e-16 9.1073e-18
1.76942e-16 8.88178e-16 3.60822e-16
9.1073e-18 3.60822e-16 -6.66134e-16

-1.11022e-16 2.22045e-16 2.22045e-16
2.22045e-16 0 1.38778e-17
2.22045e-16 1.38778e-17 -6.66134e-16

0 -2.77556e-17 2.77556e-17
-2.77556e-17 0 -2.19443e-16
2.77556e-17 -2.19443e-16 -6.66134e-16

0 2.22045e-16 1.38778e-17
2.22045e-16 0 -1.38778e-17
1.38778e-17 -1.38778e-17 -6.66134e-16

-2.22045e-16 8.62817e-32 4.54498e-16
8.62817e-32 4.44089e-16 6.93889e-17
4.54498e-16 6.93889e-17 -6.66134e-16

-4.44089e-16 0 1.38778e-17
0 -4.44089e-16 -4.57967e-16
1.38778e-17 -4.57967e-16 -8.88178e-16

0 2.34188e-16 2.1684e-18
2.34188e-16 4.44089e-16 4.3715e-16
2.1684e-18 4.3715e-16 -4.44089e-16

0 4.44089e-16 0
4.44089e-16 -8.88178e-16 -3.88578e-16
0 -3.88578e-16 -8.88178e-16

-8.88178e-16 3.88578e-16 -2.77556e-17
3.88578e-16 0 4.16334e-17
-2.77556e-17 4.16334e-17 -6.66134e-16

2.22045e-16 -2.32453e-16 -2.21177e-16
-2.32453e-16 -8.88178e-16 1.38778e-17
-2.21177e-16 1.38778e-17 -5.55112e-16

0 -4.71845e-16 -4.16334e-16
-4.71845e-16 0 4.54498e-16
-4.16334e-16 4.54498e-16 -6.66134e-16

0 -1.66533e-16 1.11022e-16
-1.66533e-16 -4.44089e-16 1.38778e-17
1.11022e-16 1.38778e-17 -7.77156e-16

0 -1.59595e-16 3.62557e-16
-1.59595e-16 0 -9.08995e-16
3.62557e-16 -9.08995e-16 -2.22045e-16

0 -3.33067e-16 1.04083e-17
-3.33067e-16 -8.88178e-16 -2.77556e-17
1.04083e-17 -2.77556e-17 -6.66134e-16

0 -1.97215e-31 2.28983e-16
-1.97215e-31 -2.22045e-16 -4.02456e-16
2.28983e-16 -4.02456e-16 -6.66134e-16

-2.22045e-16 8.32667e-17 2.22045e-16
8.32667e-17 -6.66134e-16 8.84709e-16
2.22045e-16 8.84709e-16 -5.55112e-16

2.22045e-15 1.66533e-16 -1.66533e-16
1.66533e-16 -1.77636e-15 -5.55112e-17
-1.66533e-16 -5.55112e-17 -7.77156e-16

8.88178e-16 -1.38778e-16 -2.77556e-17
-1.38778e-16 4.44089e-16 -7.35523e-16
-2.77556e-17 -7.35523e-16 -5.55112e-16

0 -4.23273e-16 2.08167e-17
-4.23273e-16 0 -1.76223e-32
2.08167e-17 -1.76223e-32 -5.55112e-16

0 -8.67362e-17 -6.93889e-18
-8.67362e-17 -1.11022e-16 -6.93889e-18
-6.93889e-18 -6.93889e-18 -6.66134e-16

0 -5.55112e-17 -1.38778e-17
-5.55112e-17 2.22045e-16 -2.11636e-16
-1.38778e-17 -2.11636e-16 -6.66134e-16

2.22045e-16 4.85723e-16 -4.02456e-16
4.85723e-16 0 -4.38885e-16
-4.02456e-16 -4.38885e-16 -6.66134e-16

0 0 -2.77556e-17
0 8.88178e-16 1.38778e-17
-2.77556e-17 1.38778e-17 -6.66134e-16

-8.88178e-16 0 1.11022e-16
0 8.88178e-16 8.88178e-16
1.11022e-16 8.88178e-16 -6.66134e-16

0 -4.49944e-16 -2.63678e-16
-4.49944e-16 -1.11022e-16 2.22709e-16
-2.63678e-16 2.22709e-16 -6.66134e-16

-2.22045e-16 0 3.46945e-18
0 0 4.85723e-16
3.46945e-18 4.85723e-16 -6.66134e-16

-2.22045e-16 4.6187e-17 1.30104e-18
4.6187e-17 2.22045e-16 2.91434e-16
1.30104e-18 2.91434e-16 -6.66134e-16

-2.22045e-16 0 -4.44089e-16
0 -1.11022e-16 3.46945e-18
-4.44089e-16 3.46945e-18 -3.33067e-16

-2.22045e-16 -6.93889e-18 -2.77556e-17
-6.93889e-18 -3.33067e-16 4.16334e-17
-2.77556e-17 4.16334e-17 -6.66134e-16

0 0 0
0 2.22045e-16 0
0 0 -6.66134e-16

4.44089e-16 1.04083e-17 -2.35922e-16
1.04083e-17 -1.11022e-16 5.20417e-18
-2.35922e-16 5.20417e-18 -6.66134e-16

0 4.44089e-16 2.77556e-17
4.44089e-16 0 -4.57967e-16
2.77556e-17 -4.57967e-16 -6.66134e-16

4.44089e-16 -5.55112e-17 1.94289e-16
-5.55112e-17 0 6.93889e-18
1.94289e-16 6.93889e-18 -6.66134e-16

0 1.11022e-16 4.26742e-16
1.11022e-16 0 4.3715e-16
4.26742e-16 4.3715e-16 -4.44089e-16

0 -5.55112e-16 -2.35922e-16
-5.55112e-16 -3.33067e-16 -1.94289e-16
-2.35922e-16 -1.94289e-16 -6.66134e-16

-1.11022e-16 1.11022e-16 3.46945e-18
1.11022e-16 0 2.08167e-16
3.46945e-18 2.08167e-16 -6.66134e-16

0 2.22045e-16 -1.38778e-17
2.22045e-16 0 -3.33067e-16
-1.38778e-17 -3.33067e-16 -6.66134e-16

0 0 -2.18575e-16
0 0 1.38778e-17
-2.18575e-16 1.38778e-17 -7.77156e-16

-1.11022e-16 2.22045e-16 -4.30211e-16
2.22045e-16 -6.66134e-16 -2.08167e-16
-4.30211e-16 -2.08167e-16 -6.66134e-16

4.44089e-16 5.55112e-17 -2.22045e-16
5.55112e-17 2.22045e-16 0
-2.22045e-16 0 -6.66134e-16

0 0 0
0 0 -2.77556e-17
0 -2.77556e-17 -4.44089e-16

-2.22045e-16 1.66533e-16 -6.93889e-18
1.66533e-16 2.22045e-16 3.46945e-17
-6.93889e-18 3.46945e-17 -9.99201e-16

2.22045e-16 -1.67401e-16 2.48933e-16
-1.67401e-16 4.44089e-16 -8.7777e-16
2.48933e-16 -8.7777e-16 -4.44089e-16

-2.22045e-16 2.60209e-17 -2.42861e-17
2.60209e-17 -3.33067e-16 -4.44089e-16
-2.42861e-17 -4.44089e-16 -4.44089e-16

4.44089e-16 3.08781e-16 -4.33681e-18
3.08781e-16 4.44089e-16 1.94289e-16
-4.33681e-18 1.94289e-16 -4.44089e-16

0 0 2.77556e-17
0 0 3.46945e-17
2.77556e-17 3.46945e-17 -6.66134e-16

0 1.66533e-16 2.77556e-17
1.66533e-16 2.22045e-16 1.38778e-17
2.77556e-17 1.38778e-17 -6.66134e-16

4.44089e-16 -1.11022e-16 -4.61436e-16
-1.11022e-16 0 -1.38778e-17
-4.61436e-16 -1.38778e-17 -6.66134e-16

2.22045e-16 2.22045e-16 -1.2326e-32
2.22045e-16 -2.22045e-16 -2.77556e-17
-1.2326e-32 -2.77556e-17 -6.66134e-16

0 1.94289e-16 4.30211e-16
1.94289e-16 0 6.245e-17
4.30211e-16 6.245e-17 -6.66134e-16

4.44089e-16 -4.996e-16 2.25514e-16
-4.996e-16 2.22045e-16 -4.57967e-16
2.25514e-16 -4.57967e-16 -6.66134e-16

0 -1.11022e-16 -1.73472e-18
-1.11022e-16 -4.44089e-16 0
-1.73472e-18 0 -4.44089e-16

0 -1.04083e-17 0
-1.04083e-17 -2.22045e-16 2.77556e-16
0 2.77556e-16 -6.66134e-16

-2.22045e-16 5.55112e-17 -2.77556e-17
5.55112e-17 0 6.93889e-18
-2.77556e-17 6.93889e-18 -5.55112e-16

4.44089e-16 -4.44089e-16 -4.30211e-16
-4.44089e-16 -7.77156e-16 2.08167e-16
-4.30211e-16 2.08167e-16 -6.66134e-16

0 -1.38778e-17 -1.52656e-16
-1.38778e-17 4.44089e-16 1.38778e-17
-1.52656e-16 1.38778e-17 -7.77156e-16

4.44089e-16 1.97215e-31 4.44089e-16
1.97215e-31 2.22045e-16 2.18575e-16
4.44089e-16 2.18575e-16 -4.44089e-16

0 1.11022e-16 -3.67761e-16
1.11022e-16 0 4.16334e-17
-3.67761e-16 4.16334e-17 -6.66134e-16

0 -2.22045e-16 0
-2.22045e-16 0 1.66533e-16
0 1.66533e-16 -6.66134e-16

2.22045e-16 5.55112e-17 1.38778e-17
5.55112e-17 0 3.88578e-16
1.38778e-17 3.88578e-16 -6.66134e-16

0 1.38778e-17 -2.19443e-16
1.38778e-17 0 -8.32667e-17
-2.19443e-16 -8.32667e-17 -5.55112e-16

0 -1.45717e-16 2.77556e-17
-1.45717e-16 0 4.11997e-16
2.77556e-17 4.11997e-16 -5.55112e-16

8.88178e-16 1.38778e-17 1.80411e-16
1.38778e-17 0 1.38778e-17
1.80411e-16 1.38778e-17 -5.55112e-16

0 -5.55112e-17 2.56739e-16
-5.55112e-17 4.44089e-16 -3.88578e-16
2.56739e-16 -3.88578e-16 -6.66134e-16

-8.88178e-16 -1.94289e-16 -4.16334e-17
-1.94289e-16 0 2.08167e-17
-4.16334e-17 2.08167e-17 -6.66134e-16

-2.22045e-16 5.55112e-17 -2.15106e-16
5.55112e-17 -2.22045e-16 -4.44089e-16
-2.15106e-16 -4.44089e-16 -6.66134e-16

-1.11022e-16 3.9443e-31 4.38885e-16
3.9443e-31 1.77636e-15 4.996e-16
4.38885e-16 4.996e-16 -6.66134e-16

-6.66134e-16 1.51374e-16 7.366e-19
1.51374e-16 0 -4.71845e-16
7.366e-19 -4.71845e-16 -7.77156e-16

0 0 -1.38778e-16
0 0 4.16334e-17
-1.38778e-16 4.16334e-17 -7.77156e-16

-2.22045e-16 -1.18329e-30 4.42354e-16
-1.18329e-30 4.44089e-16 -1.33227e-15
4.42354e-16 -1.33227e-15 -4.44089e-16

0 -2.22045e-16 2.77556e-17
-2.22045e-16 -6.66134e-16 -3.46945e-17
2.77556e-17 -3.46945e-17 -6.66134e-16

0 9.4369e-16 -4.44957e-16
9.4369e-16 0 -9.62965e-35
-4.44957e-16 -9.62965e-35 -8.88178e-16

-2.22045e-16 -4.44089e-16 -2.77556e-17
-4.44089e-16 2.22045e-16 2.08167e-17
-2.77556e-17 2.08167e-17 -6.66134e-16

-1.11022e-16 2.77556e-17 -2.23779e-16
2.77556e-17 0 -4.16334e-17
-2.23779e-16 -4.16334e-17 -7.77156e-16

-4.44089e-16 0 6.93889e-18
0 0 -5.55112e-17
6.93889e-18 -5.55112e-17 -8.88178e-16

0 -4.44089e-16 5.27356e-16
-4.44089e-16 0 3.46945e-18
5.27356e-16 3.46945e-18 -6.66134e-16

0 -1.66533e-16 -1.04083e-16
-1.66533e-16 0 1.38778e-16
-1.04083e-16 1.38778e-16 -6.66134e-16

-1.11022e-16 1.66533e-16 4.44089e-16
1.66533e-16 -4.44089e-16 0
4.44089e-16 0 -7.77156e-16

-4.44089e-16 0 -4.71845e-16
0 0 6.93889e-18
-4.71845e-16 6.93889e-18 -6.66134e-16

0 -1.249e-16 1.54074e-33
-1.249e-16 0 4.3715e-16
1.54074e-33 4.3715e-16 -4.44089e-16

0 -3.88578e-16 -3.747e-16
-3.88578e-16 0 -4.30211e-16
-3.747e-16 -4.30211e-16 -4.44089e-16

0 -2.22045e-16 0
-2.22045e-16 0 -2.498e-16
0 -2.498e-16 -6.66134e-16

4.44089e-16 1.11022e-16 4.57967e-16
1.11022e-16 0 9.71445e-17
4.57967e-16 9.71445e-17 -7.77156e-16

0 -8.37004e-17 -9.99201e-16
-8.37004e-17 0 4.46258e-16
-9.99201e-16 4.46258e-16 -3.33067e-16

0 2.22045e-16 -2.77556e-17
2.22045e-16 -8.88178e-16 1.38778e-17
-2.77556e-17 1.38778e-17 -6.66134e-16

0 -2.77556e-17 -4.47559e-16
-2.77556e-17 -2.22045e-16 -8.7777e-16
-4.47559e-16 -8.7777e-16 -4.44089e-16

0 0 -6.93889e-18
0 -8.88178e-16 -2.08167e-16
-6.93889e-18 -2.08167e-16 -6.66134e-16

-8.88178e-16 -2.77556e-17 -2.498e-16
-2.77556e-17 0 3.46945e-18
-2.498e-16 3.46945e-18 -6.66134e-16

4.44089e-16 -5.55112e-17 2.35922e-16
-5.55112e-17 2.22045e-16 0
2.35922e-16 0 -4.44089e-16

0 4.44089e-16 -2.01228e-16
4.44089e-16 8.88178e-16 5.55112e-17
-2.01228e-16 5.55112e-17 -6.66134e-16

8.88178e-16 0 2.91434e-16
0 -1.11022e-16 -1.04083e-17
2.91434e-16 -1.04083e-17 -6.66134e-16

-1.11022e-16 8.32667e-16 -2.1684e-16
8.32667e-16 0 2.77556e-17
-2.1684e-16 2.77556e-17 -7.77156e-16

0 0 1.38778e-17
0 0 -1.94289e-16
1.38778e-17 -1.94289e-16 -6.66134e-16

0 6.66134e-16 0
6.66134e-16 0 -2.22045e-16
0 -2.22045e-16 -6.66134e-16

-1.11022e-16 1.11022e-16 -2.28983e-16
1.11022e-16 0 -5.27356e-16
-2.28983e-16 -5.27356e-16 -6.66134e-16

0 2.77556e-17 0
2.77556e-17 0 1.38778e-17
0 1.38778e-17 -4.44089e-16

-1.77636e-15 -5.55112e-16 -8.32667e-16
-5.55112e-16 0 -2.08167e-17
-8.32667e-16 -2.08167e-17 -7.77156e-16

-4.44089e-16 -9.86076e-32 2.77556e-16
-9.86076e-32 2.22045e-16 -4.16334e-16
2.77556e-16 -4.16334e-16 -9.99201e-16

-1.11022e-16 1.38778e-16 -4.51028e-16
1.38778e-16 -1.11022e-16 1.73472e-18
-4.51028e-16 1.73472e-18 -4.44089e-16

0 -5.55112e-16 -3.88578e-16
-5.55112e-16 0 -4.47559e-16
-3.88578e-16 -4.47559e-16 -4.44089e-16

0 -9.71445e-17 -5.54244e-16
-9.71445e-17 0 8.96852e-16
-5.54244e-16 8.96852e-16 0

0 0 0
0 2.22045e-16 -2.88658e-15
0 -2.88658e-15 -2.22045e-16

0 2.77556e-17 4.47559e-16
2.77556e-17 4.44089e-16 1.21778e-15
4.47559e-16 1.21778e-15 0

-4.44089e-16 -1.11022e-16 0
-1.11022e-16 0 4.16334e-17
0 4.16334e-17 -6.66134e-16

2.22045e-16 -2.77556e-16 -6.62664e-16
-2.77556e-16 4.44089e-16 8.91648e-16
-6.62664e-16 8.91648e-16 -2.22045e-16

2.22045e-16 1.11022e-16 8.88612e-16
1.11022e-16 0 -1.33227e-15
8.88612e-16 -1.33227e-15 0

4.44089e-16 1.88217e-16 6.93889e-18
1.88217e-16 2.22045e-16 -3.64292e-16
6.93889e-18 -3.64292e-16 -6.66134e-16

0 1.38778e-17 1.3288e-15
1.38778e-17 0 1.34354e-15
1.3288e-15 1.34354e-15 -2.22045e-16

0 -8.95117e-16 1.73472e-18
-8.95117e-16 -8.88178e-16 -2.22045e-16
1.73472e-18 -2.22045e-16 -8.88178e-16

-2.22045e-16 5.55112e-17 -1.38778e-16
5.55112e-17 0 4.71845e-16
-1.38778e-16 4.71845e-16 -7.77156e-16

4.44089e-16 2.77556e-17 1.11196e-15
2.77556e-17 0 -8.88178e-16
1.11196e-15 -8.88178e-16 -2.22045e-16

2.22045e-16 -5.20417e-17 -4.02456e-16
-5.20417e-17 4.44089e-16 4.57967e-16
-4.02456e-16 4.57967e-16 -4.44089e-16

0 2.22045e-16 -4.33681e-16
2.22045e-16 2.22045e-16 -4.4062e-16
-4.33681e-16 -4.4062e-16 -4.44089e-16

-1.11022e-16 -1.249e-16 1.73472e-18
-1.249e-16 0 -1.77462e-15
1.73472e-18 -1.77462e-15 -2.22045e-16

2.22045e-16 2.22045e-16 -8.84709e-16
2.22045e-16 2.22045e-16 -5.41234e-16
-8.84709e-16 -5.41234e-16 -2.22045e-16

0 5.55112e-17 4.42354e-16
5.55112e-17 -3.33067e-16 8.91648e-16
4.42354e-16 8.91648e-16 -1.11022e-16

-1.11022e-16 -1.73472e-18 -4.40403e-16
-1.73472e-18 -2.22045e-16 6.80012e-16
-4.40403e-16 6.80012e-16 -4.44089e-16

2.22045e-16 3.46945e-17 4.33681e-19
3.46945e-17 0 -5.55112e-17
4.33681e-19 -5.55112e-17 -6.66134e-16

2.22045e-16 1.66533e-16 -4.44089e-16
1.66533e-16 -1.11022e-16 -3.46945e-18
-4.44089e-16 -3.46945e-18 -4.44089e-16

-2.22045e-16 -1.14492e-16 -4.43222e-16
-1.14492e-16 0 -7.80626e-16
-4.43222e-16 -7.80626e-16 -4.44089e-16

0 -1.24437e-17 1.3288e-15
-1.24437e-17 -1.11022e-16 2.76424e-18
1.3288e-15 2.76424e-18 0

0 0 -2.35922e-16
0 0 -2.08167e-17
-2.35922e-16 -2.08167e-17 -6.66134e-16

0 9.54098e-18 1.04083e-17
9.54098e-18 -4.44089e-16 -6.93889e-17
1.04083e-17 -6.93889e-17 -6.66134e-16

0 2.77556e-17 1.15556e-33
2.77556e-17 -2.22045e-16 4.51028e-16
1.15556e-33 4.51028e-16 -4.44089e-16

0 1.11022e-16 0
1.11022e-16 2.22045e-16 -2.70617e-16
0 -2.70617e-16 -4.44089e-16

4.44089e-16 2.498e-16 8.96852e-16
2.498e-16 0 8.41341e-16
8.96852e-16 8.41341e-16 0

4.44089e-16 4.44089e-16 4.16334e-17
4.44089e-16 0 -4.85723e-17
4.16334e-17 -4.85723e-17 -7.77156e-16

4.44089e-16 -1.38778e-17 6.93889e-18
-1.38778e-17 6.66134e-16 4.16334e-17
6.93889e-18 4.16334e-17 -6.66134e-16

-1.11022e-16 2.36658e-30 -1.32533e-15
2.36658e-30 0 -8.89913e-16
-1.32533e-15 -8.89913e-16 -2.22045e-16

0 5.55112e-17 -4.41487e-16
5.55112e-17 -6.66134e-16 8.7777e-16
-4.41487e-16 8.7777e-16 -4.44089e-16

-3.33067e-16 -2.36658e-30 -8.84709e-16
-2.36658e-30 0 1.32706e-15
-8.84709e-16 1.32706e-15 -2.22045e-16

0 -1.38778e-16 -2.2031e-16
-1.38778e-16 -4.44089e-16 4.47559e-16
-2.2031e-16 4.47559e-16 -3.33067e-16

-4.44089e-16 4.16334e-16 6.93889e-18
4.16334e-16 0 -5.55112e-17
6.93889e-18 -5.55112e-17 -4.44089e-16

-2.22045e-16 -2.77556e-17 -5.55112e-17
-2.77556e-17 0 -4.85723e-16
-5.55112e-17 -4.85723e-16 -7.77156e-16

1.11022e-15 -7.93617e-16 -7.05179e-18
-7.93617e-16 -6.66134e-16 -4.16334e-16
-7.05179e-18 -4.16334e-16 -8.88178e-16

-8.88178e-16 1.77636e-15 -2.77556e-17
1.77636e-15 0 -8.60423e-16
-2.77556e-17 -8.60423e-16 -6.66134e-16

-2.22045e-16 0 -1.38778e-17
0 4.44089e-16 -1.38778e-17
-1.38778e-17 -1.38778e-17 -8.88178e-16

6.66134e-16 2.77556e-17 0
2.77556e-17 -3.55271e-15 0
0 0 -6.66134e-16

8.88178e-16 4.44089e-16 1.2326e-32
4.44089e-16 0 1.38778e-17
1.2326e-32 1.38778e-17 -6.66134e-16

0 -8.88178e-16 9.15934e-16
-8.88178e-16 0 6.93889e-16
9.15934e-16 6.93889e-16 -6.66134e-16

4.44089e-16 -2.2953e-16 -7.70231e-18
-2.2953e-16 0 -2.77556e-17
-7.70231e-18 -2.77556e-17 -8.88178e-16

0 2.22045e-16 -4.44089e-16
2.22045e-16 6.66134e-16 8.84709e-16
-4.44089e-16 8.84709e-16 -4.44089e-16

0 -1.11022e-16 -8.60423e-16
-1.11022e-16 0 3.33067e-16
-8.60423e-16 3.33067e-16 -6.66134e-16

4.44089e-16 5.55112e-17 -2.77556e-17
5.55112e-17 -2.22045e-16 1.11022e-16
-2.77556e-17 1.11022e-16 -6.66134e-16

-2.22045e-16 0 0
0 4.44089e-16 4.30211e-16
0 4.30211e-16 -6.66134e-16

-1.55431e-15 0 -4.16334e-17
0 0 4.23273e-16
-4.16334e-17 4.23273e-16 -6.66134e-16

0 2.77556e-16 1.73472e-18
2.77556e-16 4.44089e-16 -4.71845e-16
1.73472e-18 -4.71845e-16 -6.66134e-16

0 -3.9443e-31 -4.44089e-16
-3.9443e-31 0 4.30211e-16
-4.44089e-16 4.30211e-16 -8.88178e-16

0 0 -2.77556e-17
0 2.22045e-16 2.91434e-16
-2.77556e-17 2.91434e-16 -6.66134e-16

-1.11022e-16 1.38778e-16 9.02056e-16
1.38778e-16 2.22045e-16 6.93889e-18
9.02056e-16 6.93889e-18 -4.44089e-16

0 -1.11022e-16 -4.30211e-16
-1.11022e-16 -2.22045e-16 4.16334e-17
-4.30211e-16 4.16334e-17 -7.77156e-16

-4.44089e-16 -5.55112e-17 -6.66134e-16
-5.55112e-17 -1.11022e-16 8.89913e-16
-6.66134e-16 8.89913e-16 -4.44089e-16

0 -2.34193e-30 -8.91648e-16
-2.34193e-30 2.22045e-16 1.33574e-15
-8.91648e-16 1.33574e-15 -2.22045e-16

0 2.22045e-16 2.18575e-16
2.22045e-16 0 -4.44089e-16
2.18575e-16 -4.44089e-16 -2.22045e-16

0 -6.93889e-18 3.46945e-18
-6.93889e-18 8.88178e-16 -1.38778e-16
3.46945e-18 -1.38778e-16 -7.77156e-16

2.22045e-16 -2.46519e-32 -5.72459e-17
-2.46519e-32 0 3.85186e-34
-5.72459e-17 3.85186e-34 -8.88178e-16

0 0 0
0 8.88178e-16 2.77556e-17
0 2.77556e-17 -6.66134e-16

-2.22045e-15 4.44089e-16 -2.77556e-17
4.44089e-16 0 1.38778e-17
-2.77556e-17 1.38778e-17 -6.66134e-16

-1.55431e-15 4.44089e-16 3.33067e-16
4.44089e-16 0 0
3.33067e-16 0 -6.66134e-16

0 0 0
0 0 -1.84575e-15
0 -1.84575e-15 -6.66134e-16

4.44089e-16 -1.97215e-31 4.71845e-16
-1.97215e-31 -6.66134e-16 -1.249e-16
4.71845e-16 -1.249e-16 -7.77156e-16

-1.33227e-15 -8.88178e-16 -5.27356e-16
-8.88178e-16 0 1.47911e-31
-5.27356e-16 1.47911e-31 -7.77156e-16

-3.55271e-15 2.22045e-15 -8.32667e-16
2.22045e-15 -3.55271e-15 8.74301e-16
-8.32667e-16 8.74301e-16 -5.55112e-16

4.44089e-16 -5.55112e-17 -1.66533e-16
-5.55112e-17 2.22045e-16 -2.77556e-17
-1.66533e-16 -2.77556e-17 -6.66134e-16

0 0 -3.60822e-16
0 0 0
-3.60822e-16 0 -6.66134e-16

-8.88178e-16 0 0
0 0 4.16334e-17
0 4.16334e-17 -5.55112e-16

5.32907e-15 1.77636e-15 0
1.77636e-15 0 1.80411e-15
0 1.80411e-15 -6.66134e-16

0 -6.66134e-16 1.11022e-16
-6.66134e-16 -1.33227e-15 -4.44089e-16
1.11022e-16 -4.44089e-16 -6.66134e-16

0 -8.88178e-16 -1.11022e-16
-8.88178e-16 -1.77636e-15 -4.85723e-16
-1.11022e-16 -4.85723e-16 -8.88178e-16

SCALARS pressure float
LOOKUP_TABLE default
-3.31415e-12
-6.33813e-12
-1.55513e-12
-4.05827e-12
-4.35029e-12
3.09074e-12
-2.50351e-12
2.89035e-12
3.69339e-12
-4.96676e-12
-4.51059e-12
-2.73485e-12
-1.44311e-12
-4.09642e-12
-4.49504e-13
-6.18286e-13
-3.48637e-12
-9.42203e-14
-1.19765e-12
-4.59902e-12
5.73205e-12
2.69143e-13
-3.11669e-12
-2.45269e-12
1.67188e-12
7.75257e-13
-3.84572e-13
-5.08757e-13
-4.42664e-12
-8.88138e-12
1.13598e-12
-2.13448e-12
-1.34048e-12
7.88359e-14
-4.07979e-12
4.62132e-12
-6.8643e-12
1.67211e-12
1.08119e-12
5.00394e-13
-1.61904e-12
5.10609e-12
5.89198e-12
1.74516e-12
2.39628e-12
4.01121e-14
-1.92858e-12
-6.72144e-13
-1.85178e-12
-1.07839e-13
-1.35559e-13
-3.62441e-13
-1.37687e-12
-3.96029e-13
-2.42854e-12
-3.5218e-12
-5.66883e-12
-1.06775e-12
-2.38256e-12
6.45896e-12
9.46627e-13
-4.18807e-13
-1.70957e-12
9.71289e-13
2.3099e-12
2.53169e-12
6.67418e-13
-1.20415e-12
1.6747e-12
-1.38338e-12
-2.77321e-12
-2.07805e-12
-5.21793e-13
-1.5354e-12
-2.23836e-12
-2.77223e-12
-3.93153e-12
1.43229e-12
-2.15759e-12
-1.16531e-12
-3.49436e-12
-2.26225e-12
4.57534e-12
-4.61294e-12
-1.13731e-13
-3.67723e-12
2.86505e-12
-7.50336e-12
-4.29753e-12
4.7259e-12
-2.64562e-12
-4.05307e-12
-4.60116e-12
-2.90382e-12
1.77218e-12
-3.75034e-12
-2.30846e-12
-1.88033e-12
1.8777e-12
2.433e-12
-1.52064e-12
4.4056e-13
-7.71646e-13
5.23014e-13
-1.07154e-12
-2.54455e-12
-4.24452e-12
-3.0842e-13
-8.69446e-13
-3.60881e-12
3.83203e-12
-3.79583e-12
-2.6796e-12
-2.85807e-12
-1.2103e-13
1.44558e-12
1.34968e-12
-1.78474e-12
2.12225e-12
3.31599e-13
6.54236e-13
-5.89016e-12
-1.67317e-13
9.7646e-13
1.53465e-12
-3.06726e-12
6.67916e-12
2.60192e-12
-3.69036e-12
1.55346e-12
4.02814e-12
-9.32283e-13
-4.89311e-12
8.94004e-13
-3.04755e-12
1.30541e-12
-3.16613e-12
-9.97505e-13
-2.13965e-12
1.0338e-12
5.183e-14
1.31308e-12
-3.04551e-12
-5.67976e-13
-1.26927e-12
5.80353e-13
-3.95171e-12
-2.76396e-12
1.33439e-12
-4.50855e-12
-2.87698e-12
3.27086e-13
-8.41433e-14
-2.81199e-12
-3.58981e-12
-9.185e-13
-2.07542e-12
9.40011e-13
5.56674e-13
2.11914e-12
-2.89804e-12
-2.73425e-12
-2.5149e-12
-4.60518e-13
-1.01832e-12
1.43594e-12
-3.57946e-12
-2.54907e-12
1.79862e-12
-3.84116e-12
-7.06743e-13
2.32112e-13
1.54879e-12
-4.54999e-13
1.69141e-12
6.53171e-12
-1.97159e-12
4.71983e-12
-2.4328e-12
-1.36029e-13
-1.35139e-12
-4.63283e-12
-8.81476e-13
1.06293e-13
1.83468e-12
-1.60447e-12
-5.25269e-12
-3.45316e-12
5.31741e-12
2.31711e-13
1.28304e-12
-1.04402e-12
-3.19757e-12
1.55253e-12
1.73535e-12
6.48523e-13
-3.3704e-13
4.3718e-14
-1.09111e-12
1.19721e-12
-2.77418e-12
-6.46963e-13
2.47131e-12
-1.46291e-12
-2.06761e-12
-3.13871e-12
4.00571e-12
-4.45277e-12
-9.17746e-13
-1.54964e-12
-4.55285e-13
-1.8101e-12
2.70977e-12
-5.95265e-12
-1.2889e-12
1.04171e-12
-2.68767e-12
5.65301e-12
2.32303e-12
1.78238e-12
-3.01388e-13
-3.26097e-12
-1.29028e-12
-1.07444e-12
-3.08832e-12
-1.39007e-12
-3.21409e-12
-1.4143e-12
3.29832e-13
7.56166e-13
-1.22743e-12
-5.30625e-13
-4.97804e-12
-3.16711e-12
-4.7176e-14
-3.52109e-12
-3.27548e-12
2.00541e-12
1.15449e-13
-3.72396e-12
-4.80447e-12
5.67885e-13
-2.25844e-12
-2.74648e-13
-2.44435e-12
8.00427e-13
-3.26027e-13
3.02494e-13
-3.31095e-13
-3.66049e-12
-3.32349e-13
-6.42233e-13
1.93054e-14
-1.55613e-12
-5.33206e-13
1.57586e-12
-3.44377e-12
-5.16258e-12
-1.91563e-12
2.27193e-12
1.44541e-13
-2.74063e-15
-1.37348e-12
-3.50303e-12
3.2584e-13
-1.63897e-12
-2.58351e-12
1.65534e-13
-1.67953e-12
-2.43284e-12
-2.85856e-12
-2.09096e-12
4.23171e-13
4.18763e-12
3.71533e-12
-8.47837e-13
-2.53843e-12
-1.16291e-12
1.7761e-12
-5.26082e-13
-1.98344e-12
3.16748e-13
2.06163e-12
-3.04963e-13
3.26702e-12
2.08699e-12
2.01806e-12
4.05516e-12
6.78527e-13
1.13449e-12
4.2404e-12
4.81566e-14
-9.40455e-13
2.2657e-12
4.1086e-12
-3.02145e-12
2.93936e-12
-3.03092e-12
1.6722e-13
-5.21446e-12
6.16947e-12
-3.74167e-12
1.71143e-13
-4.23921e-12
-1.17681e-12
5.20572e-13
-8.1412e-13
3.74307e-12
-2.84678e-12
3.59641e-12
1.03047e-12
-7.97474e-13
-1.3704e-12
-3.27835e-12
-1.05852e-12
1.23958e-12
-1.31671e-12
-1.70121e-12
-4.82555e-12
1.14841e-12
-2.84375e-12
1.87749e-12
-2.86548e-12
-1.26759e-12
-1.41537e-12
-3.20491e-12
-1.67095e-13
1.74179e-12
-1.3025e-12
4.18791e-12
1.68954e-12
2.35864e-12
1.43168e-12
-2.13843e-12
-1.12404e-12
-5.7315e-15
6.13381e-13
-2.60561e-12
4.77588e-12
7.85898e-13
-3.69457e-12
3.39195e-12
-1.00687e-12
-8.14614e-13
-9.05668e-13
2.46158e-12
-2.03982e-12
-4.76155e-12
-7.47668e-13
-4.23613e-13
-9.82409e-12
-1.08253e-11
-1.11723e-11
-1.05273e-11
-1.11627e-11
-1.10234e-11
-9.40005e-12
5.39825e-12
2.35512e-12
7.04762e-12
-3.82015e-12
-8.23026e-13
9.18675e-13
-5.95564e-13
3.39858e-12
-1.64244e-12
-2.12506e-12
-1.46545e-12
8.08783e-12
-6.94879e-13
2.11442e-12
-4.62673e-13
1.39953e-12
-1.95274e-12
-3.22638e-12
2.58095e-13
2.81422e-12
1.48555e-13
-3.90919e-12
-4.14676e-12
-7.98964e-13
-1.8019e-12
3.29108e-12
-1.72097e-12
-1.925e-12
-4.86999e-12
-1.51576e-12
-1.71241e-12
5.74702e-13
2.71778e-12
2.732e-12
-1.56599e-12
4.46566e-12
-2.70535e-12
-4.51033e-13
-2.30975e-12
1.04812e-12
2.80928e-12
-6.15218e-13
1.53848e-12
-5.06887e-12
1.35286e-12
-4.06749e-13
-1.05304e-12
2.51207e-12
-1.14829e-13
-4.44465e-12
-2.53712e-12
1.07061e-12
1.38262e-12
2.05559e-11
1.9984e-11
1.93995e-12
-5.16076e-13
2.35018e-12
-6.07812e-12
-1.35365e-11
-9.36587e-12
-2.43997e-12
1.47704e-14
7.10626e-13
-1.80039e-12
-5.08855e-14
6.87673e-12
-2.6049e-12
2.25369e-12
9.2111e-12
-6.17936e-12
1.27899e-12
2.79905e-12
-1.89756e-12
5.65366e-13
7.2592e-13
4.52192e-13
3.34644e-12
-1.86173e-12
-1.88578e-12
-1.22013e-12
2.17091e-12
-2.1589e-12
-3.34139e-12
4.37263e-12
-2.33864e-12
-3.15498e-12
3.07651e-12
-2.60019e-12
3.67724e-13
1.31082e-12
-2.50939e-12
4.16423e-12
-1.51231e-12
-5.20256e-13
-2.7741e-12
1.31457e-12
4.39269e-12
2.78552e-12
7.27417e-12
7.74136e-13
-1.02267e-12
-1.07113e-12
-1.27001e-11
7.15805e-14
1.33657e-11
-2.93802e-12
1.65768e-12
-7.37272e-13
6.48246e-12
-8.92574e-13
1.0213e-11
5.58913e-14
-2.10544e-13
-3.10386e-12
6.20439e-12
-2.87361e-12
1.90465e-12
2.67605e-12
-2.57594e-12
-5.07882e-12
-7.11169e-13
-4.06185e-12
-1.30513e-12
3.65267e-12
-2.52254e-12
6.71195e-12
-2.30523e-12
1.8041e-12
1.9246e-12
-7.16685e-12
7.58054e-12
-1.84155e-12
5.86143e-12
2.12455e-12
1.81917e-12
1.74649e-12
-2.99096e-12
-2.58918e-12
-4.80527e-12
-1.13837e-12
-5.20121e-12
-2.85676e-12
1.28995e-12
-3.43386e-12
-1.28463e-12
2.10544e-12
-2.67286e-12
-3.31338e-12
-4.98963e-12
1.18292e-12
-4.1622e-12
-4.40435e-12
-2.06639e-12
-5.8426e-13
-4.3362e-12
-6.53134e-12
-2.60835e-12
-2.28911e-13
-6.47534e-14
-5.0182e-12
5.65322e-12
-2.94601e-12
-4.44339e-12
-1.77041e-12
-4.1602e-12
1.40429e-12
-1.95991e-12
-1.79772e-12
-1.68639e-12
-5.55771e-12
1.42154e-12
-7.0363e-12
2.4971e-12
-1.96192e-11
1.07739e-11
8.12105e-12
-2.29253e-12
-2.15973e-12
-2.05589e-12
-1.16412e-12
-9.47172e-12
-7.60189e-12
-5.07036e-12
1.06799e-11
-6.39754e-12
-3.52667e-12
5.06918e-13
-4.72047e-12
-1.91701e-12
-3.32243e-12
-1.16386e-11
4.85723e-12
4.7526e-12
9.5726e-12
1.31371e-12
1.26506e-11
5.45734e-12
3.51027e-12
6.14111e-12
7.04624e-12
-3.2795e-12
2.05196e-13
1.01551e-11
1.8286e-11
-2.49264e-12
