# vtk DataFile Version 3.0
vtk output at time 18576
ASCII
DATASET UNSTRUCTURED_GRID
POINTS 626 float
-3.68058e-05 0.000978749 0 3.68058e-05 0.000978749 0 -0.000829194 0.00052125 0 
-0.0008235 0.0005 0 -0.000866 0.0004575 0 -0.000866 -0.0004575 0 
-0.0008235 -0.0005 0 -0.000829194 -0.00052125 0 -3.68058e-05 -0.000978749 0 
3.68058e-05 -0.000978749 0 0.000829194 -0.00052125 0 0.000866 -0.0004575 0 
0.000866 0.0004575 0 0.000829194 0.00052125 0 8.5e-05 0 0 
-3.68058e-05 0.000978749 -0.001 3.68058e-05 0.000978749 -0.001 -0.000829194 0.00052125 -0.001 
-0.0008235 0.0005 -0.001 -0.000866 0.0004575 -0.001 -0.000866 -0.0004575 -0.001 
-0.0008235 -0.0005 -0.001 -0.000829194 -0.00052125 -0.001 -3.68058e-05 -0.000978749 -0.001 
3.68058e-05 -0.000978749 -0.001 0.000829194 -0.00052125 -0.001 0.000866 -0.0004575 -0.001 
0.000866 0.0004575 -0.001 0.000829194 0.00052125 -0.001 8.5e-05 0 -0.001 
8.46223e-17 0.0009575 0 -0.000715996 0.000586607 0 -0.000602797 0.000651965 0 
-0.000489599 0.000717321 0 -0.000376401 0.000782678 0 -0.000263202 0.000848036 0 
-0.000150004 0.000913393 0 -0.000835948 0.000469948 0 -0.000866 -0.000326786 0 
-0.000866 -0.000196071 0 -0.000866 -6.53571e-05 0 -0.000866 6.53571e-05 0 
-0.000866 0.000196071 0 -0.000866 0.000326786 0 -0.000835948 -0.000469948 0 
-0.000150004 -0.000913393 0 -0.000263202 -0.000848036 0 -0.000376401 -0.000782678 0 
-0.000489599 -0.000717321 0 -0.000602797 -0.000651965 0 -0.000715996 -0.000586607 0 
8.47648e-17 -0.0009575 0 0.000715996 -0.000586607 0 0.000602797 -0.000651965 0 
0.000489599 -0.000717321 0 0.000376401 -0.000782678 0 0.000263202 -0.000848036 0 
0.000150004 -0.000913393 0 0.000829194 -0.00047875 0 0.000866 0.000326786 0 
0.000866 0.000196071 0 0.000866 6.53571e-05 0 0.000866 -6.53571e-05 0 
0.000866 -0.000196071 0 0.000866 -0.000326786 0 0.000829194 0.00047875 0 
0.000150004 0.000913393 0 0.000263202 0.000848036 0 0.000376401 0.000782678 0 
0.000489599 0.000717321 0 0.000602797 0.000651965 0 0.000715996 0.000586607 0 
5.29966e-05 6.64557e-05 0 -1.89143e-05 8.28689e-05 0 -7.65824e-05 3.68801e-05 0 
-7.65824e-05 -3.68801e-05 0 -1.89143e-05 -8.28689e-05 0 5.29966e-05 -6.64557e-05 0 
8.46223e-17 0.0009575 -0.001 -0.000715996 0.000586607 -0.001 -0.000602797 0.000651965 -0.001 
-0.000489599 0.000717321 -0.001 -0.000376401 0.000782678 -0.001 -0.000263202 0.000848036 -0.001 
-0.000150004 0.000913393 -0.001 -0.000835948 0.000469948 -0.001 -0.000866 -0.000326786 -0.001 
-0.000866 -0.000196071 -0.001 -0.000866 -6.53571e-05 -0.001 -0.000866 6.53571e-05 -0.001 
-0.000866 0.000196071 -0.001 -0.000866 0.000326786 -0.001 -0.000835948 -0.000469948 -0.001 
-0.000150004 -0.000913393 -0.001 -0.000263202 -0.000848036 -0.001 -0.000376401 -0.000782678 -0.001 
-0.000489599 -0.000717321 -0.001 -0.000602797 -0.000651965 -0.001 -0.000715996 -0.000586607 -0.001 
8.47648e-17 -0.0009575 -0.001 0.000715996 -0.000586607 -0.001 0.000602797 -0.000651965 -0.001 
0.000489599 -0.000717321 -0.001 0.000376401 -0.000782678 -0.001 0.000263202 -0.000848036 -0.001 
0.000150004 -0.000913393 -0.001 0.000829194 -0.00047875 -0.001 0.000866 0.000326786 -0.001 
0.000866 0.000196071 -0.001 0.000866 6.53571e-05 -0.001 0.000866 -6.53571e-05 -0.001 
0.000866 -0.000196071 -0.001 0.000866 -0.000326786 -0.001 0.000829194 0.00047875 -0.001 
0.000150004 0.000913393 -0.001 0.000263202 0.000848036 -0.001 0.000376401 0.000782678 -0.001 
0.000489599 0.000717321 -0.001 0.000602797 0.000651965 -0.001 0.000715996 0.000586607 -0.001 
5.29966e-05 6.64557e-05 -0.001 -1.89143e-05 8.28689e-05 -0.001 -7.65824e-05 3.68801e-05 -0.001 
-7.65824e-05 -3.68801e-05 -0.001 -1.89143e-05 -8.28689e-05 -0.001 5.29966e-05 -6.64557e-05 -0.001 
0.000131234 6.38474e-05 0 0.00012964 -6.2443e-05 0 3.13827e-05 0.0001394 0 
3.12554e-05 -0.000136939 0 -0.000140461 8.25467e-19 0 -8.90565e-05 -0.000102707 0 
-9.04142e-05 0.000102872 0 -0.000765769 -0.00025965 0 -0.000756873 0.000262774 0 
-0.00015609 0.000787505 0 -0.000155807 -0.00079355 0 0.000605069 0.000528035 0 
0.000608694 -0.00052497 0 0.000744069 0.000116929 0 -0.000494418 0.000596218 0 
-0.000483866 -0.000584648 0 0.000269496 0.000702219 0 0.000263201 -0.000717324 0 
0.000754429 -0.000127825 0 -0.000748858 5.84659e-07 0 -0.000747838 0.000373886 0 
-0.0006542 0.000324842 0 -0.000645137 0.000210123 0 -0.000550884 0.000274171 0 
-0.000538857 0.000163195 0 -0.00045062 0.000224461 0 -0.000438393 0.000123907 0 
-0.000354088 0.000181668 0 -0.000363908 0.000282171 0 -0.000270361 0.000239477 0 
-0.000279138 0.000337653 0 -0.000188888 0.000294791 0 -0.000196448 0.000393271 0 
-0.000104767 0.000348259 0 -0.000113332 0.000449012 0 -2.01066e-05 0.000403223 0 
-2.89189e-05 0.000507105 0 6.9524e-05 0.000461596 0 -0.000213644 0.000490203 0 
7.33757e-05 0.000357726 0 0.000163331 0.00041299 0 0.000163359 0.000313022 0 
0.000248077 0.000366368 0 0.000250914 0.000265758 0 0.000335709 0.000322266 0 
0.000340555 0.000218148 0 0.000427299 0.000276717 0 0.000431508 0.000173093 0 
0.000328731 0.000425633 0 0.00034586 0.000114823 0 0.000435362 7.05241e-05 0 
0.000350892 1.5455e-05 0 0.000441547 -3.11896e-05 0 0.000353547 -8.47783e-05 0 
0.000445767 -0.000132964 0 0.000356135 -0.000186358 0 0.000449094 -0.000234674 0 
0.000359978 -0.000287876 0 0.00026856 -0.000240545 0 0.000271895 -0.000341045 0 
0.000181792 -0.00029305 0 0.00018533 -0.000392851 0 9.75701e-05 -0.00034483 0 
9.98764e-05 -0.000444884 0 8.75116e-06 -0.000396343 0 1.20916e-05 -0.000500496 0 
-7.83929e-05 -0.000449843 0 -8.1471e-05 -0.000347249 0 -0.000171566 -0.000403733 0 
-0.000169889 -0.000298891 0 -0.000259867 -0.000354132 0 -0.000257696 -0.000249137 0 
-0.00034313 -0.000299896 0 -0.000344514 -0.000199127 0 -0.000434309 -0.000250039 0 
-0.000169832 -0.000505815 0 -0.000435227 -0.000146227 0 0.000280331 -0.000442424 0 
-0.000340889 8.76793e-05 0 -0.000515252 4.06198e-05 0 6.50491e-05 0.000568253 0 
0.00053278 1.74743e-05 0 0.000522071 0.000229831 0 -0.00037162 0.000391659 0 
-0.000255272 -0.000150439 0 -0.000442893 -0.000350705 0 0.000450067 -0.000332559 0 
0.000545175 -0.000276306 0 -0.000527797 -0.000197598 0 0.000105306 -0.000551033 0 
1.45836e-05 -0.000609147 0 0.00017145 0.000214453 0 0.000515525 0.000341711 0 
0.000636086 0.000290368 0 -0.000558657 0.000404468 0 -4.01232e-05 0.000616718 0 
6.60192e-05 0.000696422 0 -0.000101806 0.0002546 0 0.000271142 -3.88908e-05 0 
0.000179455 -0.00018534 0 -8.79553e-05 -0.000254307 0 -0.000749267 -0.000373451 0 
-0.000655941 -0.000323397 0 0.000709746 0.000466718 0 0.000698426 -0.000473086 0 
-5.25801e-05 -0.00084886 0 -4.93005e-05 0.000848038 0 0.000617396 -0.000413362 0 
0.000702056 -0.000369817 0 0.000131459 -0.000679171 0 2.48171e-05 -0.000715924 0 
-0.000664217 -0.00042729 0 -0.000528828 -8.80444e-05 0 -0.000611101 -0.000136672 0 
-0.000426972 -4.45841e-05 0 0.000800669 0.000378216 0 0.000821144 -0.000415062 0 
7.2799e-05 0.00088254 0 6.81831e-05 -0.00087503 0 0.000104963 -0.000788946 0 
-7.40696e-05 -0.000660054 0 0.000126061 0.000809943 0 0.000764361 0.000295682 0 
0.000166862 0.000630623 0 0.000516462 -0.00046707 0 -0.000563585 -0.000389606 0 
-0.000622598 -1.40238e-05 0 0.000629891 0.000171529 0 2.5614e-06 -0.000299794 0 
8.6901e-05 -0.00024329 0 0.000272045 -0.000136982 0 -0.00075148 0.000138321 0 
0.000209366 -0.000599589 0 0.000324913 -0.000630055 0 0.000614044 0.00041245 0 
0.00049651 -0.000573327 0 0.000394822 -0.000507321 0 -0.000173714 -0.000206698 0 
0.000264897 5.63722e-05 0 0.000247997 0.000152811 0 -4.63327e-05 -0.000920208 0 
9.18688e-05 0.000258626 0 -5.54111e-06 0.000290558 0 -0.000184219 0.000201484 0 
-0.000263559 0.000142267 0 -0.000256427 5.13624e-05 0 -0.000336894 -2.06179e-06 0 
-0.000228499 -4.2388e-05 0 -0.00017589 0.000106626 0 -0.000769947 -0.000133367 0 
0.000767591 -0.000500293 0 -5.05874e-05 0.000737978 0 0.000754456 -3.51771e-06 0 
0.00064691 -6.15298e-05 0 0.000630483 -0.00018134 0 0.000749187 -0.000265543 0 
-0.000760805 -0.000462521 0 0.000638155 6.09315e-05 0 -4.46661e-05 0.000922995 0 
-2.37945e-05 0.000207237 0 0.000776979 0.000500181 0 -0.000605691 0.000527596 0 
-0.000377914 -0.000653727 0 -0.000372325 -0.000526022 0 -0.000275829 -0.000589621 0 
-0.000254285 -0.000710579 0 -0.000379307 0.000656222 0 -0.000379818 0.00052718 0 
-0.000266817 0.000721555 0 -0.000150544 0.000668174 0 0.000381963 0.00065079 0 
0.000493113 0.000590432 0 0.000505439 0.000463708 0 -0.000269094 0.000596608 0 
0.000385815 0.000532045 0 0.000283599 0.0005899 0 -0.000176405 -0.000108505 0 
-0.000278769 -0.000475415 0 0.000185395 2.33014e-06 0 0.000186773 0.000517571 0 
0.000540032 -8.68444e-05 0 -0.000600694 -0.000514877 0 -0.00063703 8.98033e-05 0 
-0.000459677 0.000335729 0 -0.000338836 -0.000100751 0 -0.000457327 0.000432721 0 
-8.72007e-06 -0.000210238 0 0.000156073 0.000129496 0 -7.70692e-05 -0.000555049 0 
0.00036091 -0.000389728 0 0.000531628 0.000120564 0 -0.000285451 0.000435562 0 
0.000192719 -0.000494604 0 0.00041642 0.00039368 0 -0.000135943 0.000554637 0 
-0.000170665 -0.000610079 0 -0.000666304 0.000434981 0 -0.000758736 0.000479231 0 
-0.000470189 -0.000458901 0 0.000203433 -8.59809e-05 0 0.000101846 0.000170114 0 
-0.00035513 -0.00040726 0 0.000100184 -0.000165831 0 2.96286e-05 0.00081537 0 
0.000720946 0.000381836 0 -0.000539809 -0.000292001 0 0.00052211 -0.000182426 0 
-6.41339e-05 -0.000753908 0 0.000638039 -0.000299861 0 -0.000605136 -0.000230182 0 
-3.41638e-05 -0.000145561 0 -0.000104037 0.000172396 0 -0.000808575 -0.00042774 0 
-0.000807207 -0.000465052 0 -0.00080817 0.000429771 0 -0.000806589 0.000469738 0 
-9.50634e-05 -0.000178909 0 0.000247777 0.000445058 0 1.48293e-05 -0.000814201 0 
-4.11555e-05 0.000140955 0 0.000276104 -0.000536845 0 0.000765969 -0.000436638 0 
0.000780871 -0.000362769 0 0.000424176 -0.000642018 0 0.00053413 -0.000368009 0 
-0.000416333 4.17911e-05 0 -0.000133891 -6.23822e-05 0 4.2574e-05 0.000206312 0 
0.000141163 -0.000121542 0 0.000707423 0.000212137 0 0.000172327 0.000723882 0 
7.72652e-06 -0.00090254 0 -0.000134435 5.66935e-05 0 -0.000188826 3.70894e-05 0 
0.000197119 8.09714e-05 0 1.27801e-05 0.000917296 0 0.000800767 0.00044758 0 
-0.000686682 0.000507104 0 9.35831e-05 0.000110457 0 -0.000696793 -0.000509595 0 
-0.00068446 -8.52012e-05 0 -0.000691033 -0.000201242 0 5.24052e-05 -0.000189075 0 
-0.000151818 -0.000701092 0 -0.000296988 0.000518087 0 9.31023e-05 -0.000108117 0 
0.00044261 -0.000416726 0 0.000197044 -0.000784423 0 -0.000516861 0.000504567 0 
0.000298997 0.000502377 0 0.000131234 6.38474e-05 -0.001 0.00012964 -6.2443e-05 -0.001 
3.13827e-05 0.0001394 -0.001 3.12554e-05 -0.000136939 -0.001 -0.000140461 8.25467e-19 -0.001 
-8.90565e-05 -0.000102707 -0.001 -9.04142e-05 0.000102872 -0.001 -0.000765769 -0.00025965 -0.001 
-0.000756873 0.000262774 -0.001 -0.00015609 0.000787505 -0.001 -0.000155807 -0.00079355 -0.001 
0.000605069 0.000528035 -0.001 0.000608694 -0.00052497 -0.001 0.000744069 0.000116929 -0.001 
-0.000494418 0.000596218 -0.001 -0.000483866 -0.000584648 -0.001 0.000269496 0.000702219 -0.001 
0.000263201 -0.000717324 -0.001 0.000754429 -0.000127825 -0.001 -0.000748858 5.84659e-07 -0.001 
-0.000747838 0.000373886 -0.001 -0.0006542 0.000324842 -0.001 -0.000645137 0.000210123 -0.001 
-0.000550884 0.000274171 -0.001 -0.000538857 0.000163195 -0.001 -0.00045062 0.000224461 -0.001 
-0.000438393 0.000123907 -0.001 -0.000354088 0.000181668 -0.001 -0.000363908 0.000282171 -0.001 
-0.000270361 0.000239477 -0.001 -0.000279138 0.000337653 -0.001 -0.000188888 0.000294791 -0.001 
-0.000196448 0.000393271 -0.001 -0.000104767 0.000348259 -0.001 -0.000113332 0.000449012 -0.001 
-2.01066e-05 0.000403223 -0.001 -2.89189e-05 0.000507105 -0.001 6.9524e-05 0.000461596 -0.001 
-0.000213644 0.000490203 -0.001 7.33757e-05 0.000357726 -0.001 0.000163331 0.00041299 -0.001 
0.000163359 0.000313022 -0.001 0.000248077 0.000366368 -0.001 0.000250914 0.000265758 -0.001 
0.000335709 0.000322266 -0.001 0.000340555 0.000218148 -0.001 0.000427299 0.000276717 -0.001 
0.000431508 0.000173093 -0.001 0.000328731 0.000425633 -0.001 0.00034586 0.000114823 -0.001 
0.000435362 7.05241e-05 -0.001 0.000350892 1.5455e-05 -0.001 0.000441547 -3.11896e-05 -0.001 
0.000353547 -8.47783e-05 -0.001 0.000445767 -0.000132964 -0.001 0.000356135 -0.000186358 -0.001 
0.000449094 -0.000234674 -0.001 0.000359978 -0.000287876 -0.001 0.00026856 -0.000240545 -0.001 
0.000271895 -0.000341045 -0.001 0.000181792 -0.00029305 -0.001 0.00018533 -0.000392851 -0.001 
9.75701e-05 -0.00034483 -0.001 9.98764e-05 -0.000444884 -0.001 8.75116e-06 -0.000396343 -0.001 
1.20916e-05 -0.000500496 -0.001 -7.83929e-05 -0.000449843 -0.001 -8.1471e-05 -0.000347249 -0.001 
-0.000171566 -0.000403733 -0.001 -0.000169889 -0.000298891 -0.001 -0.000259867 -0.000354132 -0.001 
-0.000257696 -0.000249137 -0.001 -0.00034313 -0.000299896 -0.001 -0.000344514 -0.000199127 -0.001 
-0.000434309 -0.000250039 -0.001 -0.000169832 -0.000505815 -0.001 -0.000435227 -0.000146227 -0.001 
0.000280331 -0.000442424 -0.001 -0.000340889 8.76793e-05 -0.001 -0.000515252 4.06198e-05 -0.001 
6.50491e-05 0.000568253 -0.001 0.00053278 1.74743e-05 -0.001 0.000522071 0.000229831 -0.001 
-0.00037162 0.000391659 -0.001 -0.000255272 -0.000150439 -0.001 -0.000442893 -0.000350705 -0.001 
0.000450067 -0.000332559 -0.001 0.000545175 -0.000276306 -0.001 -0.000527797 -0.000197598 -0.001 
0.000105306 -0.000551033 -0.001 1.45836e-05 -0.000609147 -0.001 0.00017145 0.000214453 -0.001 
0.000515525 0.000341711 -0.001 0.000636086 0.000290368 -0.001 -0.000558657 0.000404468 -0.001 
-4.01232e-05 0.000616718 -0.001 6.60192e-05 0.000696422 -0.001 -0.000101806 0.0002546 -0.001 
0.000271142 -3.88908e-05 -0.001 0.000179455 -0.00018534 -0.001 -8.79553e-05 -0.000254307 -0.001 
-0.000749267 -0.000373451 -0.001 -0.000655941 -0.000323397 -0.001 0.000709746 0.000466718 -0.001 
0.000698426 -0.000473086 -0.001 -5.25801e-05 -0.00084886 -0.001 -4.93005e-05 0.000848038 -0.001 
0.000617396 -0.000413362 -0.001 0.000702056 -0.000369817 -0.001 0.000131459 -0.000679171 -0.001 
2.48171e-05 -0.000715924 -0.001 -0.000664217 -0.00042729 -0.001 -0.000528828 -8.80444e-05 -0.001 
-0.000611101 -0.000136672 -0.001 -0.000426972 -4.45841e-05 -0.001 0.000800669 0.000378216 -0.001 
0.000821144 -0.000415062 -0.001 7.2799e-05 0.00088254 -0.001 6.81831e-05 -0.00087503 -0.001 
0.000104963 -0.000788946 -0.001 -7.40696e-05 -0.000660054 -0.001 0.000126061 0.000809943 -0.001 
0.000764361 0.000295682 -0.001 0.000166862 0.000630623 -0.001 0.000516462 -0.00046707 -0.001 
-0.000563585 -0.000389606 -0.001 -0.000622598 -1.40238e-05 -0.001 0.000629891 0.000171529 -0.001 
2.5614e-06 -0.000299794 -0.001 8.6901e-05 -0.00024329 -0.001 0.000272045 -0.000136982 -0.001 
-0.00075148 0.000138321 -0.001 0.000209366 -0.000599589 -0.001 0.000324913 -0.000630055 -0.001 
0.000614044 0.00041245 -0.001 0.00049651 -0.000573327 -0.001 0.000394822 -0.000507321 -0.001 
-0.000173714 -0.000206698 -0.001 0.000264897 5.63722e-05 -0.001 0.000247997 0.000152811 -0.001 
-4.63327e-05 -0.000920208 -0.001 9.18688e-05 0.000258626 -0.001 -5.54111e-06 0.000290558 -0.001 
-0.000184219 0.000201484 -0.001 -0.000263559 0.000142267 -0.001 -0.000256427 5.13624e-05 -0.001 
-0.000336894 -2.06179e-06 -0.001 -0.000228499 -4.2388e-05 -0.001 -0.00017589 0.000106626 -0.001 
-0.000769947 -0.000133367 -0.001 0.000767591 -0.000500293 -0.001 -5.05874e-05 0.000737978 -0.001 
0.000754456 -3.51771e-06 -0.001 0.00064691 -6.15298e-05 -0.001 0.000630483 -0.00018134 -0.001 
0.000749187 -0.000265543 -0.001 -0.000760805 -0.000462521 -0.001 0.000638155 6.09315e-05 -0.001 
-4.46661e-05 0.000922995 -0.001 -2.37945e-05 0.000207237 -0.001 0.000776979 0.000500181 -0.001 
-0.000605691 0.000527596 -0.001 -0.000377914 -0.000653727 -0.001 -0.000372325 -0.000526022 -0.001 
-0.000275829 -0.000589621 -0.001 -0.000254285 -0.000710579 -0.001 -0.000379307 0.000656222 -0.001 
-0.000379818 0.00052718 -0.001 -0.000266817 0.000721555 -0.001 -0.000150544 0.000668174 -0.001 
0.000381963 0.00065079 -0.001 0.000493113 0.000590432 -0.001 0.000505439 0.000463708 -0.001 
-0.000269094 0.000596608 -0.001 0.000385815 0.000532045 -0.001 0.000283599 0.0005899 -0.001 
-0.000176405 -0.000108505 -0.001 -0.000278769 -0.000475415 -0.001 0.000185395 2.33014e-06 -0.001 
0.000186773 0.000517571 -0.001 0.000540032 -8.68444e-05 -0.001 -0.000600694 -0.000514877 -0.001 
-0.00063703 8.98033e-05 -0.001 -0.000459677 0.000335729 -0.001 -0.000338836 -0.000100751 -0.001 
-0.000457327 0.000432721 -0.001 -8.72007e-06 -0.000210238 -0.001 0.000156073 0.000129496 -0.001 
-7.70692e-05 -0.000555049 -0.001 0.00036091 -0.000389728 -0.001 0.000531628 0.000120564 -0.001 
-0.000285451 0.000435562 -0.001 0.000192719 -0.000494604 -0.001 0.00041642 0.00039368 -0.001 
-0.000135943 0.000554637 -0.001 -0.000170665 -0.000610079 -0.001 -0.000666304 0.000434981 -0.001 
-0.000758736 0.000479231 -0.001 -0.000470189 -0.000458901 -0.001 0.000203433 -8.59809e-05 -0.001 
0.000101846 0.000170114 -0.001 -0.00035513 -0.00040726 -0.001 0.000100184 -0.000165831 -0.001 
2.96286e-05 0.00081537 -0.001 0.000720946 0.000381836 -0.001 -0.000539809 -0.000292001 -0.001 
0.00052211 -0.000182426 -0.001 -6.41339e-05 -0.000753908 -0.001 0.000638039 -0.000299861 -0.001 
-0.000605136 -0.000230182 -0.001 -3.41638e-05 -0.000145561 -0.001 -0.000104037 0.000172396 -0.001 
-0.000808575 -0.00042774 -0.001 -0.000807207 -0.000465052 -0.001 -0.00080817 0.000429771 -0.001 
-0.000806589 0.000469738 -0.001 -9.50634e-05 -0.000178909 -0.001 0.000247777 0.000445058 -0.001 
1.48293e-05 -0.000814201 -0.001 -4.11555e-05 0.000140955 -0.001 0.000276104 -0.000536845 -0.001 
0.000765969 -0.000436638 -0.001 0.000780871 -0.000362769 -0.001 0.000424176 -0.000642018 -0.001 
0.00053413 -0.000368009 -0.001 -0.000416333 4.17911e-05 -0.001 -0.000133891 -6.23822e-05 -0.001 
4.2574e-05 0.000206312 -0.001 0.000141163 -0.000121542 -0.001 0.000707423 0.000212137 -0.001 
0.000172327 0.000723882 -0.001 7.72652e-06 -0.00090254 -0.001 -0.000134435 5.66935e-05 -0.001 
-0.000188826 3.70894e-05 -0.001 0.000197119 8.09714e-05 -0.001 1.27801e-05 0.000917296 -0.001 
0.000800767 0.00044758 -0.001 -0.000686682 0.000507104 -0.001 9.35831e-05 0.000110457 -0.001 
-0.000696793 -0.000509595 -0.001 -0.00068446 -8.52012e-05 -0.001 -0.000691033 -0.000201242 -0.001 
5.24052e-05 -0.000189075 -0.001 -0.000151818 -0.000701092 -0.001 -0.000296988 0.000518087 -0.001 
9.31023e-05 -0.000108117 -0.001 0.00044261 -0.000416726 -0.001 0.000197044 -0.000784423 -0.001 
-0.000516861 0.000504567 -0.001 0.000298997 0.000502377 -0.001 
CELLS 563 3941
6 14 304 127 29 554 377 
6 143 259 55 393 509 103 
6 300 319 174 550 569 424 
6 259 349 55 509 599 103 
6 50 365 307 98 615 557 
6 299 320 164 549 570 414 
6 126 304 14 376 554 29 
6 298 319 300 548 569 550 
6 205 240 238 455 490 488 
6 257 308 145 507 558 395 
6 130 352 273 380 602 523 
6 295 320 299 545 570 549 
6 324 327 289 574 577 539 
6 235 258 143 485 508 393 
6 50 307 49 98 557 97 
6 207 283 279 457 533 529 
6 143 373 235 393 623 485 
6 145 308 252 395 558 502 
6 194 303 196 444 553 446 
6 279 306 207 529 556 457 
6 206 305 163 456 555 413 
6 51 357 9 99 607 24 
6 238 252 205 488 502 455 
6 293 317 209 543 567 459 
6 207 316 283 457 566 533 
6 142 301 249 392 551 499 
6 273 359 130 523 609 380 
6 211 327 324 461 577 574 
6 169 265 217 419 515 467 
6 7 365 50 22 615 98 
6 283 316 253 533 566 503 
6 159 268 223 409 518 473 
6 274 337 132 524 587 382 
6 232 361 329 482 611 579 
6 231 266 45 481 516 93 
6 229 362 330 479 612 580 
6 9 244 57 24 494 105 
6 230 276 52 480 526 100 
6 209 311 293 459 561 543 
6 131 342 302 381 592 552 
6 270 271 204 520 521 454 
6 66 243 1 114 493 16 
6 59 241 12 107 491 27 
6 280 306 279 530 556 529 
6 269 337 274 519 587 524 
6 179 256 224 429 506 474 
6 163 305 166 413 555 416 
6 201 303 194 451 553 444 
6 280 332 306 530 582 556 
6 186 255 225 436 505 475 
6 210 310 273 460 560 523 
6 153 270 204 403 520 454 
6 136 231 45 386 481 93 
6 171 265 169 421 515 419 
6 138 230 52 388 480 100 
6 225 354 325 475 604 575 
6 36 284 232 84 534 482 
6 161 268 159 411 518 409 
6 71 286 229 119 536 479 
6 290 303 201 540 553 451 
6 139 355 60 389 605 108 
6 60 355 248 108 605 498 
6 273 352 302 523 602 552 
6 235 373 245 485 623 495 
6 67 356 247 115 606 497 
6 221 295 277 471 545 527 
6 142 356 67 392 606 115 
6 139 283 253 389 533 503 
6 203 315 262 453 565 512 
6 41 257 145 89 507 395 
6 36 232 135 84 482 385 
6 71 229 137 119 479 387 
6 254 255 188 504 505 438 
6 233 350 334 483 600 584 
6 262 346 203 512 596 453 
6 304 325 127 554 575 377 
6 222 329 247 472 579 497 
6 218 298 260 468 548 510 
6 290 321 291 540 571 541 
6 272 310 240 522 560 490 
6 269 274 270 519 524 520 
6 244 245 57 494 495 105 
6 49 307 141 97 557 391 
6 225 325 256 475 575 506 
6 273 310 272 523 560 522 
6 312 368 255 562 618 505 
6 249 305 206 499 555 456 
6 228 331 251 478 581 501 
6 302 342 263 552 592 513 
6 338 339 44 588 589 92 
6 190 254 188 440 504 438 
6 37 341 340 85 591 590 
6 138 233 230 388 483 480 
6 228 335 331 478 585 581 
6 181 256 179 431 506 429 
6 195 263 226 445 513 476 
6 268 285 223 518 535 473 
6 290 291 288 540 541 538 
6 219 330 248 469 580 498 
6 201 321 290 451 571 540 
6 240 310 202 490 560 452 
6 188 255 186 438 505 436 
6 270 274 271 520 524 521 
6 262 349 259 512 599 509 
6 141 324 289 391 574 539 
6 296 301 142 546 551 392 
6 247 356 222 497 606 472 
6 239 252 238 489 502 488 
6 254 312 255 504 562 505 
6 54 261 53 102 511 101 
6 289 327 303 539 577 553 
6 268 353 285 518 603 535 
6 273 302 210 523 552 460 
6 292 299 293 542 549 543 
6 278 283 139 528 533 389 
6 175 265 171 425 515 421 
6 227 338 38 477 588 86 
6 264 360 265 514 610 515 
6 43 340 146 91 590 396 
6 165 268 161 415 518 411 
6 205 351 240 455 601 490 
6 64 281 63 112 531 111 
6 288 291 47 538 541 95 
6 135 295 294 385 545 544 
6 42 257 41 90 507 89 
6 245 373 57 495 623 105 
6 31 363 323 79 613 573 
6 292 293 140 542 543 390 
6 267 353 268 517 603 518 
6 155 270 153 405 520 403 
6 244 344 245 494 594 495 
6 61 278 139 109 528 389 
6 135 294 35 385 544 83 
6 69 297 296 117 547 546 
6 186 225 184 436 475 434 
6 329 361 243 579 611 493 
6 255 328 225 505 578 475 
6 213 332 280 463 582 530 
6 39 275 133 87 525 383 
6 330 362 241 580 612 491 
6 195 226 193 445 476 443 
6 211 324 251 461 574 501 
6 151 153 152 401 403 402 
6 295 299 294 545 549 544 
6 265 313 217 515 563 467 
6 258 259 143 508 509 393 
6 251 331 211 501 581 461 
6 149 151 150 399 401 400 
6 293 370 317 543 620 567 
6 153 204 152 403 454 402 
6 151 152 150 401 402 400 
6 33 292 140 81 542 390 
6 210 263 197 460 513 447 
6 301 305 249 551 555 499 
6 298 300 297 548 550 547 
6 68 296 142 116 546 392 
6 321 369 291 571 619 541 
6 179 224 177 429 474 427 
6 167 267 165 417 517 415 
6 259 346 262 509 596 512 
6 303 327 196 553 577 446 
6 269 270 155 519 520 405 
6 265 360 313 515 610 563 
6 223 269 157 473 519 407 
6 157 269 155 407 519 405 
6 144 279 278 394 529 528 
6 169 217 167 419 467 417 
6 177 264 175 427 514 425 
6 267 268 165 517 518 415 
6 159 223 157 409 473 407 
6 232 277 135 482 527 385 
6 193 254 190 443 504 440 
6 217 267 167 467 517 417 
6 249 356 142 499 606 392 
6 184 256 181 434 506 431 
6 248 355 219 498 605 469 
6 229 260 137 479 510 387 
6 149 150 148 399 400 398 
6 64 348 281 112 598 531 
6 311 374 293 561 624 543 
6 264 265 175 514 515 425 
6 297 300 296 547 550 546 
6 141 289 288 391 539 538 
6 197 263 195 447 513 445 
6 218 260 219 468 510 469 
6 224 264 177 474 514 427 
6 137 298 297 387 548 547 
6 277 295 135 527 545 385 
6 133 228 227 383 478 477 
6 261 349 262 511 599 512 
6 221 277 222 471 527 472 
6 256 325 224 506 575 474 
6 199 210 197 449 460 447 
6 226 254 193 476 504 443 
6 144 278 62 394 528 110 
6 279 283 278 529 533 528 
6 289 290 288 539 540 538 
6 137 297 70 387 547 118 
6 34 294 292 82 544 542 
6 235 236 216 485 486 466 
6 141 288 48 391 538 96 
6 178 306 180 428 556 430 
6 185 186 184 435 436 434 
6 63 281 144 111 531 394 
6 225 256 184 475 506 434 
6 46 291 136 94 541 386 
6 147 149 148 397 399 398 
6 271 272 204 521 522 454 
6 233 334 234 483 584 484 
6 145 275 40 395 525 88 
6 220 322 287 470 572 537 
6 280 334 213 530 584 463 
6 144 280 279 394 530 529 
6 140 287 32 390 537 80 
6 154 155 153 404 405 403 
6 334 350 213 584 600 463 
6 176 177 175 426 427 425 
6 260 298 137 510 548 387 
6 33 140 32 81 390 80 
6 49 141 48 97 391 96 
6 56 143 55 104 393 103 
6 68 142 67 116 392 115 
6 63 144 62 111 394 110 
6 61 139 60 109 389 108 
6 148 308 257 398 558 507 
6 71 137 70 119 387 118 
6 53 138 52 101 388 100 
6 46 136 45 94 386 93 
6 36 135 35 84 385 83 
6 43 146 134 91 396 384 
6 133 227 38 383 477 86 
6 192 193 190 442 443 440 
6 293 374 140 543 624 390 
6 34 292 33 82 542 81 
6 207 306 178 457 556 428 
6 43 134 42 91 384 90 
6 39 133 38 87 383 86 
6 41 145 40 89 395 88 
6 194 195 193 444 445 443 
6 69 296 68 117 546 116 
6 294 299 292 544 549 542 
6 173 175 171 423 425 421 
6 260 330 219 510 580 469 
6 183 184 181 433 434 431 
6 134 257 42 384 507 90 
6 55 349 54 103 599 102 
6 163 165 161 413 415 411 
6 166 167 165 416 417 415 
6 210 302 263 460 552 513 
6 271 273 272 521 523 522 
6 53 261 138 101 511 388 
6 217 326 267 467 576 517 
6 289 303 290 539 553 540 
6 178 179 177 428 429 427 
6 238 240 202 488 490 452 
6 62 278 61 110 528 109 
6 35 294 34 83 544 82 
6 284 361 232 534 611 482 
6 70 297 69 118 547 117 
6 224 304 264 474 554 514 
6 156 157 155 406 407 405 
6 48 288 47 96 538 95 
6 221 320 295 471 570 545 
6 187 188 186 437 438 436 
6 47 291 46 95 541 94 
6 151 154 153 401 404 403 
6 286 362 229 536 612 479 
6 168 169 167 418 419 417 
6 40 275 39 88 525 87 
6 307 324 141 557 574 391 
6 300 301 296 550 551 546 
6 32 287 31 80 537 79 
6 147 220 149 397 470 399 
6 333 344 231 583 594 481 
6 299 370 293 549 620 543 
6 271 359 273 521 609 523 
6 224 325 304 474 575 554 
6 228 237 227 478 487 477 
6 305 375 343 555 625 593 
6 218 319 298 468 569 548 
6 240 351 272 490 601 522 
6 277 329 222 527 579 472 
6 253 355 139 503 605 389 
6 158 159 157 408 409 407 
6 236 246 216 486 496 466 
6 192 194 193 442 444 443 
6 220 309 149 470 559 399 
6 183 185 184 433 435 434 
6 196 197 195 446 447 445 
6 276 347 58 526 597 106 
6 136 333 231 386 583 481 
6 67 247 66 115 497 114 
6 60 248 59 108 498 107 
6 261 262 250 511 512 500 
6 173 176 175 423 426 425 
6 344 357 231 594 607 481 
6 144 281 280 394 531 530 
6 152 205 150 402 455 400 
6 163 166 165 413 416 415 
6 185 187 186 435 437 436 
6 233 234 230 483 484 480 
6 170 171 169 420 421 419 
6 146 147 134 396 397 384 
6 176 178 177 426 428 427 
6 285 337 223 535 587 473 
6 154 156 155 404 406 405 
6 263 342 226 513 592 476 
6 235 245 236 485 495 486 
6 160 161 159 410 411 409 
6 58 347 242 106 597 492 
6 166 168 167 416 418 417 
6 287 374 220 537 624 470 
6 189 190 188 439 440 438 
6 148 257 134 398 507 384 
6 194 196 195 444 446 445 
6 252 308 205 502 558 455 
6 285 345 337 535 595 587 
6 301 375 305 551 625 555 
6 180 181 179 430 431 429 
6 281 348 234 531 598 484 
6 198 199 197 448 449 447 
6 151 309 154 401 559 404 
6 228 367 335 478 617 585 
6 54 349 261 102 599 511 
6 156 158 157 406 408 407 
6 168 170 169 418 420 419 
6 200 202 199 450 452 449 
6 147 148 134 397 398 384 
6 158 160 159 408 410 409 
6 150 308 148 400 558 398 
6 253 316 208 503 566 458 
6 232 329 277 482 579 527 
6 178 180 179 428 430 429 
6 191 192 190 441 442 440 
6 214 238 202 464 488 452 
6 172 173 171 422 423 421 
6 187 189 188 437 439 438 
6 162 163 161 412 413 411 
6 228 251 237 478 501 487 
6 215 258 235 465 508 485 
6 182 183 181 432 433 431 
6 202 310 199 452 560 449 
6 219 253 208 469 503 458 
6 222 249 206 472 499 456 
6 196 198 197 446 448 447 
6 229 330 260 479 580 510 
6 132 358 274 382 608 524 
6 149 309 151 399 559 401 
6 226 312 254 476 562 504 
6 154 309 209 404 559 459 
6 77 129 76 125 379 124 
6 73 128 72 121 378 120 
6 76 131 75 124 381 123 
6 74 132 73 122 382 121 
6 75 130 74 123 380 122 
6 14 127 77 29 377 125 
6 72 126 14 120 376 29 
6 133 367 228 383 617 478 
6 237 282 227 487 532 477 
6 239 366 252 489 616 502 
6 200 214 202 450 464 452 
6 192 201 194 442 451 444 
6 170 172 171 420 422 421 
6 220 311 309 470 561 559 
6 198 200 199 448 450 449 
6 189 191 190 439 441 440 
6 146 323 322 396 573 572 
6 160 162 161 410 412 411 
6 251 307 237 501 557 487 
6 199 310 210 449 560 460 
6 57 373 56 105 623 104 
6 214 239 238 464 489 488 
6 182 212 183 432 462 433 
6 180 182 181 430 432 431 
6 146 322 147 396 572 397 
6 172 218 208 422 468 458 
6 172 208 173 422 458 423 
6 162 221 206 412 471 456 
6 162 206 163 412 456 413 
6 176 207 178 426 457 428 
6 272 351 204 522 601 454 
6 198 211 200 448 461 450 
6 182 213 212 432 463 462 
6 234 334 281 484 584 531 
6 154 209 156 404 459 406 
6 185 203 187 435 453 437 
6 168 174 170 418 424 420 
6 189 215 191 439 465 441 
6 215 216 191 465 466 441 
6 221 222 206 471 472 456 
6 158 164 160 408 414 410 
6 218 219 208 468 469 458 
6 205 308 150 455 558 400 
6 191 314 192 441 564 442 
6 215 235 216 465 485 466 
6 215 318 258 465 568 508 
6 152 351 205 402 601 455 
6 138 261 250 388 511 500 
6 192 314 201 442 564 451 
6 234 347 230 484 597 480 
6 226 342 312 476 592 562 
6 138 250 233 388 500 483 
6 147 322 220 397 572 470 
6 216 314 191 466 564 441 
6 306 332 180 556 582 430 
6 222 356 249 472 606 499 
6 128 345 285 378 595 535 
6 314 321 201 564 571 451 
6 212 315 183 462 565 433 
6 312 342 336 562 592 586 
6 282 339 338 532 589 588 
6 340 341 323 590 591 573 
6 309 311 209 559 561 459 
6 183 315 185 433 565 435 
6 208 316 173 458 566 423 
6 173 316 176 423 566 426 
6 3 341 37 18 591 85 
6 44 339 6 92 589 21 
6 252 366 145 502 616 395 
6 246 321 314 496 571 564 
6 246 314 216 496 564 466 
6 126 364 313 376 614 563 
6 156 317 158 406 567 408 
6 275 367 133 525 617 383 
6 176 316 207 426 566 457 
6 185 315 203 435 565 453 
6 180 332 182 430 582 432 
6 302 352 131 552 602 381 
6 251 324 307 501 574 557 
6 187 318 189 437 568 439 
6 172 319 218 422 569 468 
6 162 320 221 412 570 471 
6 305 343 166 555 593 416 
6 170 319 172 420 569 422 
6 158 317 164 408 567 414 
6 209 317 156 459 567 406 
6 285 353 128 535 603 378 
6 223 337 269 473 587 519 
6 160 320 162 410 570 412 
6 211 331 200 461 581 450 
6 174 319 170 424 569 420 
6 203 318 187 453 568 437 
6 189 318 215 439 568 465 
6 198 327 211 448 577 461 
6 164 320 160 414 570 410 
6 326 353 267 576 603 517 
6 236 344 333 486 594 583 
6 196 327 198 446 577 448 
6 219 355 253 469 605 503 
6 281 334 280 531 584 530 
6 274 359 271 524 609 521 
6 164 370 299 414 620 549 
6 174 375 300 424 625 550 
6 287 363 31 537 613 79 
6 243 361 1 493 611 16 
6 241 362 12 491 612 27 
6 307 365 237 557 615 487 
6 166 343 168 416 593 418 
6 200 331 214 450 581 464 
6 313 326 217 563 576 467 
6 9 357 244 24 607 494 
6 1 361 30 16 611 78 
6 12 362 65 27 612 113 
6 337 345 132 587 595 382 
6 242 348 64 492 598 112 
6 231 357 266 481 607 516 
6 182 332 213 432 582 463 
6 245 344 236 495 594 486 
6 258 346 259 508 596 509 
6 145 366 275 395 616 525 
6 291 369 136 541 619 386 
6 236 333 246 486 583 496 
6 331 335 214 581 585 464 
6 312 336 129 562 586 379 
6 315 372 262 565 622 512 
6 220 374 311 470 624 561 
6 140 374 287 390 624 537 
6 126 360 304 376 610 554 
6 230 347 276 480 597 526 
6 313 364 326 563 614 576 
6 56 373 143 104 623 393 
6 239 367 366 489 617 616 
6 204 351 152 454 601 402 
6 300 375 301 550 625 551 
6 214 335 239 464 585 489 
6 247 329 243 497 579 493 
6 262 372 250 512 622 500 
6 248 330 241 498 580 491 
6 318 346 258 568 596 508 
6 333 369 246 583 619 496 
6 282 338 227 532 588 477 
6 146 340 323 396 590 573 
6 304 360 264 554 610 514 
6 366 367 275 616 617 525 
6 129 336 76 379 586 124 
6 73 345 128 121 595 378 
6 76 336 131 124 586 381 
6 250 350 233 500 600 483 
6 129 371 328 379 621 578 
6 132 345 73 382 595 121 
6 168 343 174 418 593 424 
6 131 352 75 381 602 123 
6 66 247 243 114 497 493 
6 59 248 241 107 498 491 
6 74 358 132 122 608 382 
6 203 346 318 453 596 568 
6 313 360 126 563 610 376 
6 128 364 72 378 614 120 
6 128 353 326 378 603 576 
6 77 371 129 125 621 379 
6 129 368 312 379 618 562 
6 244 357 344 494 607 594 
6 328 354 225 578 604 475 
6 326 364 128 576 614 378 
6 75 352 130 123 602 380 
6 350 372 212 600 622 462 
6 136 369 333 386 619 583 
6 325 354 127 575 604 377 
6 213 350 212 463 600 462 
6 130 358 74 380 608 122 
6 250 372 350 500 622 600 
6 317 370 164 567 620 414 
6 72 364 126 120 614 376 
6 328 368 129 578 618 379 
6 127 371 77 377 621 125 
6 336 342 131 586 592 381 
6 212 372 315 462 622 565 
6 234 348 347 484 598 597 
6 8 266 51 23 516 99 
6 10 276 58 25 526 106 
6 246 369 321 496 619 571 
6 30 284 0 78 534 15 
6 65 286 13 113 536 28 
6 58 242 11 106 492 26 
6 266 357 51 516 607 99 
6 255 368 328 505 618 578 
6 347 348 242 597 598 492 
6 322 363 287 572 613 537 
6 323 363 322 573 613 572 
6 335 367 239 585 617 489 
6 30 361 284 78 611 534 
6 65 362 286 113 612 536 
6 237 365 282 487 615 532 
6 130 359 358 380 609 608 
6 343 375 174 593 625 424 
6 354 371 127 604 621 377 
6 328 371 354 578 621 604 
6 358 359 274 608 609 524 
6 0 284 36 15 534 84 
6 45 266 8 93 516 23 
6 52 276 10 100 526 25 
6 11 242 64 26 492 112 
6 13 286 71 28 536 119 
6 2 323 3 17 573 18 
6 31 323 2 79 573 17 
6 323 341 3 573 591 18 
6 37 340 4 85 590 19 
6 4 340 43 19 590 91 
6 38 338 5 86 588 20 
6 5 338 44 20 588 92 
6 6 282 7 21 532 22 
6 6 339 282 21 589 532 
6 282 365 7 532 615 22 

CELL_TYPES 563
13
13
13
13
13
13
13
13
13
13
13
13
13
13
13
13
13
13
13
13
13
13
13
13
13
13
13
13
13
13
13
13
13
13
13
13
13
13
13
13
13
13
13
13
13
13
13
13
13
13
13
13
13
13
13
13
13
13
13
13
13
13
13
13
13
13
13
13
13
13
13
13
13
13
13
13
13
13
13
13
13
13
13
13
13
13
13
13
13
13
13
13
13
13
13
13
13
13
13
13
13
13
13
13
13
13
13
13
13
13
13
13
13
13
13
13
13
13
13
13
13
13
13
13
13
13
13
13
13
13
13
13
13
13
13
13
13
13
13
13
13
13
13
13
13
13
13
13
13
13
13
13
13
13
13
13
13
13
13
13
13
13
13
13
13
13
13
13
13
13
13
13
13
13
13
13
13
13
13
13
13
13
13
13
13
13
13
13
13
13
13
13
13
13
13
13
13
13
13
13
13
13
13
13
13
13
13
13
13
13
13
13
13
13
13
13
13
13
13
13
13
13
13
13
13
13
13
13
13
13
13
13
13
13
13
13
13
13
13
13
13
13
13
13
13
13
13
13
13
13
13
13
13
13
13
13
13
13
13
13
13
13
13
13
13
13
13
13
13
13
13
13
13
13
13
13
13
13
13
13
13
13
13
13
13
13
13
13
13
13
13
13
13
13
13
13
13
13
13
13
13
13
13
13
13
13
13
13
13
13
13
13
13
13
13
13
13
13
13
13
13
13
13
13
13
13
13
13
13
13
13
13
13
13
13
13
13
13
13
13
13
13
13
13
13
13
13
13
13
13
13
13
13
13
13
13
13
13
13
13
13
13
13
13
13
13
13
13
13
13
13
13
13
13
13
13
13
13
13
13
13
13
13
13
13
13
13
13
13
13
13
13
13
13
13
13
13
13
13
13
13
13
13
13
13
13
13
13
13
13
13
13
13
13
13
13
13
13
13
13
13
13
13
13
13
13
13
13
13
13
13
13
13
13
13
13
13
13
13
13
13
13
13
13
13
13
13
13
13
13
13
13
13
13
13
13
13
13
13
13
13
13
13
13
13
13
13
13
13
13
13
13
13
13
13
13
13
13
13
13
13
13
13
13
13
13
13
13
13
13
13
13
13
13
13
13
13
13
13
13
13
13
13
13
13
13
13
13
13
13
13
13
13
13
13
13
13
13
13
13
13
13
13
13
13
13
13
13
13
13
13
13
13
13
13
13
13
13
13
13
13
13
13
13
13
13
13
13
13
13
13
13
13
13
13
13
13
13
13
13
13
13
13

POINT_DATA 626
VECTORS displacement float
4.83383e-21 -1.68053e-18 -8.58556e-19
-1.15746e-19 -1.59961e-18 -8.66647e-19
1.2502e-18 -9.79017e-19 -8.19791e-19
1.36074e-18 -9.58092e-19 -7.72045e-19
1.4588e-18 -8.98334e-19 -7.8297e-19
1.36836e-18 6.44323e-19 -8.26877e-19
1.45002e-18 8.19578e-19 -8.33337e-19
1.3215e-18 7.64102e-19 -7.90279e-19
1.03408e-19 1.59021e-18 -8.41599e-19
1.37252e-20 1.58447e-18 -8.87801e-19
-1.37908e-18 8.38179e-19 -8.14139e-19
-1.39441e-18 8.09467e-19 -8.44223e-19
-1.45306e-18 -6.80134e-19 -8.90025e-19
-1.42487e-18 -6.78562e-19 -8.84809e-19
0 0 0
-7.28782e-21 -1.40178e-18 6.87109e-19
-1.38366e-19 -1.42975e-18 7.2062e-19
1.28637e-18 -8.13927e-19 1.03851e-18
1.05749e-18 -6.22114e-19 8.32874e-19
1.28514e-18 -7.06988e-19 1.04785e-18
1.33076e-18 8.37943e-19 8.71793e-19
1.2834e-18 6.47236e-19 8.36834e-19
1.50769e-18 8.67469e-19 7.736e-19
1.13441e-19 1.56376e-18 8.03693e-19
-8.12027e-20 1.80204e-18 8.49986e-19
-1.11826e-18 9.23335e-19 7.92655e-19
-1.60035e-18 8.08466e-19 7.95236e-19
-1.53408e-18 -8.32845e-19 6.81502e-19
-1.33926e-18 -8.41689e-19 6.33439e-19
0 0 0
-3.30386e-20 -1.42355e-18 -8.55883e-19
1.16974e-18 -9.40324e-19 -7.62051e-19
9.92055e-19 -1.00311e-18 -8.00887e-19
8.00732e-19 -1.16302e-18 -8.15297e-19
6.83341e-19 -1.22949e-18 -8.52204e-19
4.55058e-19 -1.41377e-18 -8.51291e-19
2.7053e-19 -1.63081e-18 -8.23754e-19
1.44337e-18 -8.77392e-19 -7.68598e-19
1.45471e-18 4.59384e-19 -8.31258e-19
1.35433e-18 3.08711e-19 -8.31831e-19
1.37441e-18 9.14712e-20 -8.04583e-19
1.50139e-18 -1.03554e-19 -7.79901e-19
1.58333e-18 -3.32191e-19 -7.70002e-19
1.46648e-18 -5.97511e-19 -7.71359e-19
1.34687e-18 6.8342e-19 -8.14336e-19
2.64879e-19 1.47666e-18 -8.37723e-19
4.86132e-19 1.35403e-18 -8.20282e-19
6.52916e-19 1.30676e-18 -8.17558e-19
9.14462e-19 1.08864e-18 -8.19687e-19
9.9295e-19 9.71746e-19 -8.21234e-19
1.1247e-18 9.15483e-19 -8.24655e-19
3.85543e-20 1.52533e-18 -8.49016e-19
-1.15569e-18 1.03985e-18 -8.13704e-19
-9.44882e-19 1.06858e-18 -8.36599e-19
-8.01094e-19 1.08626e-18 -8.38932e-19
-5.83104e-19 1.24796e-18 -8.674e-19
-3.4621e-19 1.39429e-18 -8.85779e-19
-1.00358e-19 1.57933e-18 -8.88514e-19
-1.21675e-18 7.4257e-19 -8.1006e-19
-1.39026e-18 -3.90564e-19 -8.77446e-19
-1.55313e-18 -2.92107e-19 -8.76728e-19
-1.50257e-18 -2.76623e-20 -8.72864e-19
-1.37657e-18 1.48055e-19 -8.64543e-19
-1.39157e-18 3.86441e-19 -8.5458e-19
-1.41228e-18 5.59532e-19 -8.27895e-19
-1.35455e-18 -6.64327e-19 -8.92841e-19
-2.38079e-19 -1.49993e-18 -8.723e-19
-4.02455e-19 -1.3453e-18 -8.75887e-19
-5.2714e-19 -1.22439e-18 -8.85305e-19
-7.67799e-19 -1.14892e-18 -9.10923e-19
-9.21804e-19 -1.00295e-18 -9.02564e-19
-1.25448e-18 -8.40038e-19 -9.16932e-19
0 0 0
0 0 0
0 0 0
0 0 0
0 0 0
0 0 0
-3.21127e-20 -1.41482e-18 6.90515e-19
9.96772e-19 -9.70699e-19 7.73048e-19
9.00307e-19 -9.91629e-19 7.04116e-19
8.31765e-19 -1.0883e-18 7.2402e-19
5.44554e-19 -1.29675e-18 7.76834e-19
3.77986e-19 -1.4459e-18 8.39833e-19
1.91105e-19 -1.31767e-18 6.94671e-19
1.17921e-18 -6.85114e-19 9.20476e-19
1.35539e-18 5.44954e-19 8.369e-19
1.47514e-18 3.07937e-19 8.68694e-19
1.4469e-18 6.8084e-20 9.21871e-19
1.29794e-18 -8.69819e-20 9.69905e-19
1.19639e-18 -3.37296e-19 8.12872e-19
1.29395e-18 -4.56627e-19 9.32054e-19
1.32062e-18 7.43567e-19 8.26507e-19
2.73414e-19 1.49434e-18 7.89204e-19
4.22628e-19 1.44013e-18 6.47189e-19
6.1399e-19 1.18895e-18 8.53429e-19
8.3973e-19 1.06688e-18 8.16558e-19
9.69586e-19 1.00924e-18 8.55257e-19
1.23252e-18 9.74876e-19 9.21725e-19
3.67924e-20 1.58392e-18 7.10839e-19
-1.04889e-18 9.42503e-19 7.72126e-19
-8.8272e-19 9.13168e-19 7.52508e-19
-7.84022e-19 1.11698e-18 7.2107e-19
-6.47466e-19 1.2559e-18 8.68508e-19
-4.40787e-19 1.34746e-18 8.39725e-19
-2.90684e-19 1.54912e-18 9.19958e-19
-1.30775e-18 8.26517e-19 7.84502e-19
-1.49443e-18 -4.94702e-19 7.21666e-19
-1.4354e-18 -2.75355e-19 8.25428e-19
-1.36759e-18 -6.78391e-20 6.17562e-19
-1.50551e-18 1.30317e-19 5.89897e-19
-1.49278e-18 3.33519e-19 7.48015e-19
-1.49048e-18 5.69174e-19 7.44374e-19
-1.42117e-18 -7.94385e-19 6.7763e-19
-3.25611e-19 -1.47246e-18 8.14972e-19
-4.20352e-19 -1.28321e-18 7.59628e-19
-6.85826e-19 -1.31004e-18 6.11068e-19
-9.08364e-19 -1.13897e-18 6.60694e-19
-1.02687e-18 -1.10375e-18 6.63829e-19
-1.12246e-18 -9.73349e-19 7.03854e-19
0 0 0
0 0 0
0 0 0
0 0 0
0 0 0
0 0 0
-1.22403e-19 -6.42616e-20 -3.79082e-19
-1.55446e-19 8.40166e-20 -3.57756e-19
-2.60297e-20 -1.7898e-19 -3.64473e-19
-3.37818e-20 1.58365e-19 -3.38311e-19
1.56928e-19 2.67217e-21 -3.44325e-19
1.04556e-19 1.30636e-19 -3.34638e-19
1.20656e-19 -1.26968e-19 -3.07037e-19
1.17782e-18 3.89204e-19 -8.18927e-19
1.33753e-18 -4.03004e-19 -8.01371e-19
3.06134e-19 -1.33742e-18 -8.3365e-19
3.19368e-19 1.2172e-18 -8.43336e-19
-1.01796e-18 -8.40908e-19 -9.09975e-19
-8.96326e-19 8.65067e-19 -8.56699e-19
-1.27841e-18 -1.49066e-19 -8.75536e-19
8.27463e-19 -9.80073e-19 -8.01175e-19
8.12079e-19 8.77188e-19 -8.05731e-19
-4.02126e-19 -1.07827e-18 -8.71418e-19
-3.44704e-19 1.20908e-18 -8.58805e-19
-1.13412e-18 2.5687e-19 -8.64383e-19
1.24224e-18 -5.30671e-20 -8.21585e-19
1.37987e-18 -6.66279e-19 -7.83273e-19
1.07875e-18 -5.82712e-19 -7.84397e-19
1.14979e-18 -3.34913e-19 -7.99058e-19
9.41727e-19 -4.38242e-19 -8.03314e-19
9.03045e-19 -2.5959e-19 -8.15954e-19
7.63576e-19 -3.03093e-19 -7.92111e-19
7.22946e-19 -2.01204e-19 -7.83363e-19
5.52336e-19 -2.78907e-19 -7.54019e-19
5.98821e-19 -4.19383e-19 -7.76804e-19
4.087e-19 -3.55861e-19 -7.46312e-19
4.35594e-19 -5.39598e-19 -7.95744e-19
3.08066e-19 -4.80367e-19 -7.15276e-19
3.44353e-19 -6.14427e-19 -7.86099e-19
1.94796e-19 -5.79458e-19 -7.43653e-19
2.20599e-19 -7.25411e-19 -8.02906e-19
4.52716e-20 -6.79481e-19 -7.50663e-19
9.64373e-20 -7.97874e-19 -8.05937e-19
-7.80742e-20 -7.87812e-19 -8.08837e-19
3.72325e-19 -7.43753e-19 -8.07129e-19
-1.1768e-19 -5.82626e-19 -7.60577e-19
-2.63798e-19 -7.04938e-19 -8.1142e-19
-2.27333e-19 -4.82204e-19 -7.50635e-19
-3.84809e-19 -6.25196e-19 -7.88145e-19
-3.73587e-19 -4.2966e-19 -7.35395e-19
-4.9774e-19 -5.90095e-19 -8.1128e-19
-4.96389e-19 -3.19291e-19 -7.94823e-19
-6.44915e-19 -4.69696e-19 -8.23449e-19
-6.92523e-19 -2.46297e-19 -8.09744e-19
-5.1351e-19 -6.72268e-19 -8.64334e-19
-5.39336e-19 -1.50567e-19 -7.49689e-19
-6.66469e-19 -8.91891e-20 -7.74269e-19
-5.16871e-19 3.65768e-21 -7.48252e-19
-6.9496e-19 8.14136e-20 -8.11617e-19
-5.06867e-19 1.51255e-19 -7.8501e-19
-7.59327e-19 2.4806e-19 -7.92619e-19
-5.66523e-19 3.20756e-19 -7.69512e-19
-7.1643e-19 4.4872e-19 -8.21193e-19
-5.95107e-19 4.94853e-19 -7.90194e-19
-4.64784e-19 4.06458e-19 -7.44527e-19
-4.03264e-19 5.6536e-19 -7.6269e-19
-3.16364e-19 5.0903e-19 -7.41217e-19
-2.72106e-19 6.96006e-19 -7.51601e-19
-1.57589e-19 5.54482e-19 -7.40191e-19
-1.21589e-19 7.37429e-19 -7.83705e-19
2.55432e-20 6.34392e-19 -7.56359e-19
2.42387e-20 7.7617e-19 -7.88557e-19
1.5714e-19 6.70043e-19 -7.75999e-19
1.56078e-19 5.11638e-19 -7.31658e-19
2.88036e-19 5.82995e-19 -7.72973e-19
2.72266e-19 5.14672e-19 -7.31058e-19
4.52985e-19 5.59306e-19 -7.81297e-19
4.06925e-19 3.52633e-19 -7.34861e-19
5.71525e-19 4.39165e-19 -7.5814e-19
5.65948e-19 2.76066e-19 -7.69947e-19
7.1947e-19 3.27102e-19 -7.94726e-19
3.15248e-19 8.16756e-19 -8.26694e-19
7.1817e-19 1.81549e-19 -7.73565e-19
-4.44802e-19 7.3328e-19 -8.06148e-19
5.04056e-19 -1.15594e-19 -7.03834e-19
8.95437e-19 -6.21939e-20 -7.91331e-19
-5.22016e-20 -9.11211e-19 -8.31698e-19
-8.67585e-19 -4.08824e-20 -8.45933e-19
-8.62363e-19 -3.55022e-19 -8.46191e-19
5.77303e-19 -6.19011e-19 -8.0996e-19
3.78663e-19 2.29298e-19 -6.85866e-19
7.38687e-19 5.59327e-19 -7.93101e-19
-7.61e-19 5.93693e-19 -8.20852e-19
-8.09602e-19 4.71998e-19 -8.41972e-19
7.73449e-19 3.02846e-19 -7.75627e-19
-1.72569e-19 8.72192e-19 -8.06322e-19
2.99647e-20 1.00218e-18 -8.21105e-19
-2.35008e-19 -3.44498e-19 -6.8534e-19
-8.69062e-19 -5.19325e-19 -8.64705e-19
-1.05885e-18 -4.41669e-19 -8.70658e-19
9.97205e-19 -6.5835e-19 -7.7215e-19
1.36516e-19 -1.02631e-18 -8.21648e-19
-8.85961e-20 -1.11504e-18 -8.47054e-19
1.41479e-19 -3.54256e-19 -6.68801e-19
-3.93205e-19 7.34637e-20 -6.71127e-19
-2.66463e-19 3.13637e-19 -6.45218e-19
1.36008e-19 3.88243e-19 -6.51814e-19
1.26189e-18 5.58821e-19 -7.97761e-19
1.00469e-18 5.19941e-19 -8.22492e-19
-1.23695e-18 -6.73946e-19 -8.62442e-19
-1.10189e-18 7.80365e-19 -8.01984e-19
1.44429e-19 1.23657e-18 -8.49432e-19
1.13729e-19 -1.34889e-18 -8.43378e-19
-9.5579e-19 6.66335e-19 -8.29049e-19
-1.15047e-18 6.4124e-19 -8.27343e-19
-2.02749e-19 1.16462e-18 -8.42765e-19
5.88413e-22 1.08005e-18 -8.18177e-19
1.06536e-18 6.84525e-19 -8.31778e-19
8.51639e-19 1.40436e-19 -7.85817e-19
1.00513e-18 1.99731e-19 -8.00959e-19
6.9448e-19 4.17385e-20 -7.34172e-19
-1.35663e-18 -4.98637e-19 -8.67753e-19
-1.15337e-18 6.85393e-19 -8.42451e-19
-8.7815e-20 -1.40615e-18 -8.80551e-19
-2.46119e-20 1.4389e-18 -8.77452e-19
-1.32419e-19 1.2995e-18 -8.57214e-19
1.31321e-19 9.86539e-19 -8.14382e-19
-1.96079e-19 -1.34229e-18 -8.69827e-19
-1.27439e-18 -3.9978e-19 -8.62583e-19
-2.3587e-19 -9.91768e-19 -8.69372e-19
-8.02065e-19 7.78469e-19 -8.23403e-19
8.19267e-19 6.00702e-19 -8.21001e-19
9.23783e-19 1.21919e-20 -7.99921e-19
-1.04314e-18 -2.62164e-19 -8.7088e-19
-1.51525e-21 4.30307e-19 -6.74717e-19
-1.39531e-19 4.21918e-19 -6.37282e-19
-4.06086e-19 2.37896e-19 -7.02043e-19
1.3136e-18 -2.59118e-19 -7.99235e-19
-3.21466e-19 1.02939e-18 -8.42559e-19
-4.82976e-19 9.76418e-19 -8.6064e-19
-1.0301e-18 -6.29318e-19 -8.71431e-19
-7.93423e-19 9.8427e-19 -8.43247e-19
-6.19576e-19 8.06408e-19 -8.39362e-19
2.52429e-19 3.25046e-19 -6.48028e-19
-3.94827e-19 -7.14799e-20 -6.69379e-19
-3.48536e-19 -2.61953e-19 -7.03814e-19
9.35693e-20 1.39579e-18 -8.5368e-19
-1.36284e-19 -4.18502e-19 -6.72254e-19
3.4963e-20 -5.21226e-19 -7.00421e-19
2.70041e-19 -3.1466e-19 -6.59543e-19
4.11259e-19 -2.33234e-19 -6.64582e-19
3.50647e-19 -9.05834e-20 -6.1854e-19
5.71838e-19 1.5491e-20 -7.02786e-19
3.5572e-19 4.94041e-20 -5.71979e-19
2.66583e-19 -1.53213e-19 -5.06206e-19
1.15564e-18 2.26439e-19 -7.85735e-19
-1.23277e-18 8.15077e-19 -8.30707e-19
1.35037e-19 -1.13545e-18 -8.32343e-19
-1.26655e-18 1.66664e-20 -8.50771e-19
-9.72157e-19 1.29879e-19 -8.59384e-19
-1.00151e-18 3.3345e-19 -8.32115e-19
-1.16278e-18 4.47033e-19 -8.28273e-19
1.28848e-18 7.22032e-19 -8.30726e-19
-1.03708e-18 -6.11465e-20 -8.55638e-19
8.4941e-20 -1.5566e-18 -8.53935e-19
3.81608e-20 -3.20941e-19 -5.61679e-19
-1.17481e-18 -6.36407e-19 -8.91356e-19
9.96773e-19 -8.438e-19 -8.08763e-19
6.58261e-19 9.9554e-19 -7.9922e-19
6.29292e-19 8.50868e-19 -8.16671e-19
4.43214e-19 9.84826e-19 -8.10833e-19
4.66415e-19 1.21197e-18 -8.15175e-19
7.03867e-19 -1.06946e-18 -8.21937e-19
6.8148e-19 -8.79647e-19 -8.19437e-19
4.84321e-19 -1.20172e-18 -8.48946e-19
2.84063e-19 -1.0825e-18 -8.33668e-19
-5.54112e-19 -1.03728e-18 -8.67363e-19
-8.36116e-19 -9.66876e-19 -8.95676e-19
-7.7919e-19 -7.46203e-19 -8.76928e-19
4.83144e-19 -9.0775e-19 -8.54719e-19
-6.54791e-19 -9.00275e-19 -8.64312e-19
-4.59779e-19 -9.51193e-19 -8.66026e-19
2.45529e-19 1.40154e-19 -5.12316e-19
4.64143e-19 8.14307e-19 -8.06992e-19
-2.47334e-19 2.63695e-22 -5.40512e-19
-2.99836e-19 -9.11889e-19 -8.50966e-19
-7.89825e-19 1.19556e-19 -8.27233e-19
9.48361e-19 8.30563e-19 -7.95246e-19
1.14611e-18 -1.30772e-19 -8.02064e-19
8.06309e-19 -5.45389e-19 -7.86964e-19
5.35772e-19 1.52374e-19 -7.23585e-19
7.89182e-19 -6.39429e-19 -8.01843e-19
1.10455e-20 3.51035e-19 -5.77602e-19
-2.00272e-19 -1.90447e-19 -5.68055e-19
1.71641e-19 8.63779e-19 -8.19268e-19
-5.39947e-19 6.40661e-19 -7.8836e-19
-9.52139e-19 -1.9272e-19 -8.36593e-19
5.08943e-19 -6.4857e-19 -8.35308e-19
-2.67902e-19 8.18359e-19 -7.97477e-19
-7.43458e-19 -6.501e-19 -8.5026e-19
2.8648e-19 -8.8503e-19 -8.30962e-19
2.81756e-19 8.93441e-19 -8.20637e-19
1.05167e-18 -7.60601e-19 -7.89102e-19
1.20431e-18 -8.24049e-19 -7.92883e-19
8.21853e-19 7.37714e-19 -7.93898e-19
-2.99764e-19 1.47946e-19 -5.60411e-19
-1.21884e-19 -2.21457e-19 -5.2939e-19
6.27191e-19 6.85004e-19 -7.88184e-19
-1.24222e-19 2.36985e-19 -5.08829e-19
-3.2618e-20 -1.28398e-18 -8.46008e-19
-1.16432e-18 -6.12317e-19 -8.89925e-19
9.21937e-19 4.52856e-19 -7.97378e-19
-7.28493e-19 3.21357e-19 -8.27832e-19
1.33378e-19 1.25502e-18 -8.3227e-19
-1.02207e-18 5.4105e-19 -8.20414e-19
9.79951e-19 3.71533e-19 -8.11597e-19
3.43669e-20 1.72897e-19 -3.83439e-19
1.46118e-19 -2.28578e-19 -5.2517e-19
1.28292e-18 6.00148e-19 -8.40114e-19
1.37689e-18 7.65685e-19 -8.49795e-19
1.33159e-18 -7.66879e-19 -7.95076e-19
1.34693e-18 -8.88554e-19 -7.89099e-19
1.30418e-19 2.75841e-19 -5.39847e-19
-4.11427e-19 -7.54451e-19 -8.50234e-19
5.67436e-20 1.25194e-18 -8.59069e-19
4.67141e-20 -1.77214e-19 -3.58306e-19
-4.07108e-19 8.38555e-19 -8.23188e-19
-1.257e-18 7.47405e-19 -8.15057e-19
-1.15854e-18 6.01823e-19 -8.33483e-19
-6.30355e-19 1.0817e-18 -8.29768e-19
-7.6053e-19 6.15594e-19 -8.15477e-19
6.73393e-19 -7.64428e-20 -7.60696e-19
1.70977e-19 6.5638e-20 -3.69926e-19
-6.39202e-20 -3.34909e-19 -5.70635e-19
-2.17603e-19 1.90667e-19 -4.99458e-19
-1.12978e-18 -3.25393e-19 -8.48501e-19
-2.06398e-19 -1.11086e-18 -8.7151e-19
4.42594e-20 1.45704e-18 -8.58182e-19
1.73385e-19 -6.43844e-20 -3.36141e-19
2.95695e-19 -4.52424e-20 -4.88714e-19
-2.62714e-19 -1.28911e-19 -5.97101e-19
3.058e-20 -1.38281e-18 -8.51896e-19
-1.38902e-18 -6.8331e-19 -8.65266e-19
1.1794e-18 -8.19071e-19 -7.98223e-19
-9.197e-20 -1.24307e-19 -3.74332e-19
1.14328e-18 7.52666e-19 -8.28308e-19
1.14485e-18 9.26764e-20 -8.20137e-19
1.05826e-18 2.83563e-19 -8.14244e-19
-7.95897e-20 2.83419e-19 -5.21095e-19
2.64119e-19 1.04636e-18 -8.26769e-19
5.11278e-19 -7.83528e-19 -8.23535e-19
-1.01538e-19 1.12004e-19 -3.34116e-19
-6.54446e-19 7.32985e-19 -8.10104e-19
-2.55851e-19 1.27309e-18 -8.68664e-19
7.97942e-19 -7.46343e-19 -7.95318e-19
-4.63134e-19 -7.90325e-19 -8.63564e-19
-1.66931e-19 -8.08143e-20 3.29232e-19
-1.6264e-19 4.82435e-20 3.39047e-19
-6.53174e-20 -1.638e-19 2.22131e-19
-3.22955e-20 1.57075e-19 3.85476e-19
1.95541e-19 -2.1384e-20 2.38722e-19
1.02861e-19 1.26191e-19 2.67538e-19
9.07117e-20 -1.24451e-19 2.34547e-19
1.24234e-18 4.31989e-19 8.09552e-19
1.01939e-18 -4.3454e-19 7.75693e-19
1.82728e-19 -1.23311e-18 6.17495e-19
2.39284e-19 1.33731e-18 7.06041e-19
-9.55256e-19 -8.35856e-19 7.01304e-19
-9.4376e-19 9.18391e-19 7.09915e-19
-1.28937e-18 -1.59943e-19 7.92909e-19
7.38944e-19 -9.6333e-19 7.67505e-19
7.91213e-19 9.07324e-19 8.6235e-19
-4.44637e-19 -1.22713e-18 6.51931e-19
-4.03189e-19 1.22263e-18 7.45281e-19
-1.31034e-18 2.72293e-19 7.35694e-19
1.22168e-18 4.03634e-20 8.89041e-19
1.12822e-18 -5.92526e-19 9.72644e-19
9.03913e-19 -4.127e-19 8.74021e-19
9.95442e-19 -3.1314e-19 9.24656e-19
8.78503e-19 -4.35306e-19 7.17631e-19
8.07457e-19 -2.292e-19 7.78438e-19
7.24321e-19 -3.63842e-19 7.5937e-19
6.93038e-19 -1.81204e-19 6.76936e-19
5.66724e-19 -3.01545e-19 6.28386e-19
6.08808e-19 -4.60917e-19 8.55349e-19
4.26249e-19 -4.02073e-19 6.26762e-19
3.85332e-19 -5.2101e-19 8.11574e-19
2.57685e-19 -4.23046e-19 7.73998e-19
2.63669e-19 -5.92469e-19 8.64864e-19
1.40201e-19 -4.96887e-19 6.48401e-19
1.56434e-19 -7.48295e-19 6.86759e-19
7.9249e-22 -6.60559e-19 7.25812e-19
2.95649e-20 -8.76891e-19 7.27846e-19
-1.43339e-19 -7.92147e-19 8.32164e-19
3.07275e-19 -7.4569e-19 8.36902e-19
-1.32028e-19 -5.71507e-19 6.27422e-19
-2.88505e-19 -6.7855e-19 8.30989e-19
-2.67835e-19 -5.30056e-19 6.64894e-19
-4.38062e-19 -5.93265e-19 7.37759e-19
-4.1783e-19 -4.03815e-19 5.11177e-19
-5.54289e-19 -5.42446e-19 6.93737e-19
-5.25121e-19 -3.61747e-19 7.93685e-19
-6.50689e-19 -4.251e-19 7.3506e-19
-7.09376e-19 -2.86426e-19 6.88427e-19
-5.24256e-19 -6.78673e-19 6.91761e-19
-5.84445e-19 -2.04842e-19 5.73002e-19
-6.78259e-19 -1.20014e-19 6.00628e-19
-5.39218e-19 -4.76799e-20 8.08826e-19
-7.51685e-19 5.88765e-20 6.47703e-19
-6.05319e-19 1.32813e-19 6.95851e-19
-8.10747e-19 2.28818e-19 7.02281e-19
-5.8604e-19 2.66446e-19 7.48237e-19
-7.50048e-19 3.44489e-19 9.2788e-19
-5.91131e-19 4.53673e-19 6.25568e-19
-4.13231e-19 3.82089e-19 7.03954e-19
-4.06958e-19 5.8053e-19 5.60589e-19
-2.78331e-19 4.95508e-19 5.54101e-19
-3.03841e-19 6.26018e-19 5.66744e-19
-1.57857e-19 5.48182e-19 6.82378e-19
-1.69646e-19 7.8658e-19 8.0127e-19
-2.30583e-20 6.69639e-19 7.24192e-19
-3.92258e-20 8.26782e-19 7.59251e-19
1.25701e-19 7.63524e-19 7.08758e-19
1.53283e-19 5.46748e-19 6.32847e-19
3.03531e-19 6.5192e-19 7.50357e-19
3.05465e-19 4.61249e-19 7.74e-19
3.89928e-19 5.01096e-19 7.40396e-19
4.21605e-19 4.30713e-19 7.20284e-19
5.44742e-19 4.37571e-19 6.32548e-19
5.56081e-19 3.34292e-19 8.97044e-19
7.28987e-19 4.25052e-19 7.70686e-19
2.56532e-19 8.66969e-19 6.86548e-19
7.09071e-19 2.68323e-19 7.21625e-19
-4.34413e-19 7.91116e-19 7.82361e-19
5.26497e-19 -1.4402e-19 7.51035e-19
8.60535e-19 -4.70137e-20 7.58205e-19
-9.26627e-20 -8.86502e-19 8.47037e-19
-8.64493e-19 -2.20331e-20 6.77207e-19
-8.31285e-19 -3.87909e-19 6.52501e-19
5.73332e-19 -6.22416e-19 8.4031e-19
4.02193e-19 2.39028e-19 7.34071e-19
7.73028e-19 5.7211e-19 8.03794e-19
-7.33946e-19 5.74703e-19 8.34683e-19
-8.86066e-19 4.64434e-19 9.27375e-19
9.1216e-19 3.30988e-19 6.85569e-19
-1.62683e-19 9.98709e-19 6.85194e-19
-3.46191e-20 1.00646e-18 7.26452e-19
-2.74164e-19 -3.26068e-19 6.03917e-19
-7.85372e-19 -5.4306e-19 6.00296e-19
-1.08477e-18 -4.05913e-19 7.83384e-19
9.04089e-19 -6.97689e-19 7.53374e-19
3.86224e-20 -9.98544e-19 7.94298e-19
-1.57995e-19 -1.11222e-18 8.19364e-19
1.17815e-19 -3.82844e-19 6.48342e-19
-4.23224e-19 5.52961e-20 7.1141e-19
-2.63393e-19 2.70512e-19 5.35728e-19
1.62478e-19 4.07615e-19 6.13326e-19
1.26629e-18 5.91429e-19 7.98084e-19
1.027e-18 5.40312e-19 8.97103e-19
-1.06755e-18 -7.60183e-19 6.68372e-19
-1.07923e-18 7.66671e-19 7.33311e-19
7.08051e-20 1.42229e-18 7.33262e-19
4.81489e-21 -1.42106e-18 6.71591e-19
-9.50788e-19 7.0137e-19 8.12886e-19
-1.20346e-18 6.68046e-19 7.7621e-19
-1.70887e-19 1.13945e-18 8.70586e-19
-3.12894e-20 1.12975e-18 8.37507e-19
1.21799e-18 7.55307e-19 8.48271e-19
9.08376e-19 1.87122e-19 8.38839e-19
1.07959e-18 2.47561e-19 8.18562e-19
6.6449e-19 8.46429e-20 6.54341e-19
-1.40625e-18 -5.91729e-19 5.38337e-19
-1.24923e-18 7.06797e-19 8.19643e-19
-1.46657e-19 -1.40421e-18 7.78184e-19
-1.5346e-19 1.57232e-18 7.36781e-19
-1.46091e-19 1.30483e-18 8.74835e-19
1.43031e-19 1.0007e-18 6.12491e-19
-2.22084e-19 -1.41716e-18 6.41693e-19
-1.25502e-18 -5.73079e-19 6.59774e-19
-2.82445e-19 -1.02039e-18 7.27239e-19
-7.093e-19 8.36773e-19 8.07714e-19
9.81305e-19 6.62534e-19 8.82614e-19
9.61896e-19 5.53629e-21 8.0174e-19
-1.00898e-18 -2.89411e-19 8.68575e-19
2.986e-20 4.62765e-19 6.01184e-19
-1.06534e-19 3.60413e-19 5.78129e-19
-3.96724e-19 1.8919e-19 5.54174e-19
1.18458e-18 -1.99991e-19 7.88345e-19
-3.21668e-19 9.89053e-19 8.40381e-19
-5.03081e-19 1.12131e-18 7.94461e-19
-1.09031e-18 -6.20847e-19 7.03597e-19
-7.83397e-19 9.83609e-19 7.86573e-19
-6.20408e-19 8.68285e-19 8.76116e-19
2.88366e-19 3.01171e-19 5.17912e-19
-3.89153e-19 -7.87739e-20 6.52131e-19
-3.94177e-19 -2.46771e-19 7.12039e-19
1.16493e-19 1.5928e-18 8.03994e-19
-1.64705e-19 -3.88568e-19 5.95344e-19
-2.13672e-20 -4.52566e-19 5.50793e-19
2.54617e-19 -3.09624e-19 6.77563e-19
3.75594e-19 -2.17844e-19 5.5816e-19
4.03972e-19 -9.45626e-20 5.92676e-19
5.76034e-19 -1.61433e-20 7.10605e-19
3.46434e-19 6.12742e-20 6.44103e-19
2.34237e-19 -1.52512e-19 5.11745e-19
1.29069e-18 2.33299e-19 7.81152e-19
-1.31389e-18 8.63554e-19 6.98224e-19
2.36497e-20 -1.29602e-18 7.07617e-19
-1.28234e-18 7.47427e-20 7.73078e-19
-1.06292e-18 1.04537e-19 8.051e-19
-1.10857e-18 3.02068e-19 7.56916e-19
-1.28919e-18 4.52842e-19 6.53412e-19
1.26637e-18 7.47767e-19 8.83522e-19
-1.04911e-18 -9.12465e-20 8.07706e-19
5.66531e-20 -1.59372e-18 6.93556e-19
6.88792e-21 -2.8534e-19 5.50825e-19
-1.3212e-18 -7.9448e-19 7.9681e-19
9.85895e-19 -7.97873e-19 7.4216e-19
6.05929e-19 9.91738e-19 7.75683e-19
6.17373e-19 7.99421e-19 7.16954e-19
4.01836e-19 9.27845e-19 6.78587e-19
3.94783e-19 1.10889e-18 7.98935e-19
5.45073e-19 -1.12707e-18 8.03591e-19
5.77169e-19 -8.27061e-19 7.69038e-19
3.94373e-19 -1.05583e-18 6.88751e-19
2.12787e-19 -1.07374e-18 7.9317e-19
-6.15662e-19 -1.10081e-18 6.232e-19
-8.2838e-19 -1.01737e-18 7.51292e-19
-8.73538e-19 -7.8973e-19 7.39219e-19
3.77037e-19 -1.02188e-18 7.43659e-19
-6.17197e-19 -8.31317e-19 7.14524e-19
-4.5915e-19 -9.45646e-19 7.97364e-19
2.74849e-19 1.30721e-19 5.21024e-19
5.02381e-19 8.0486e-19 6.86486e-19
-2.80779e-19 -4.81371e-21 5.94604e-19
-3.16059e-19 -8.63491e-19 7.96359e-19
-8.87802e-19 1.41221e-19 8.03247e-19
1.06394e-18 8.1179e-19 7.55448e-19
9.94303e-19 -1.38291e-19 7.12759e-19
7.20094e-19 -5.61618e-19 7.1269e-19
5.43275e-19 1.63932e-19 7.12656e-19
7.33785e-19 -7.29818e-19 8.31409e-19
2.4095e-20 2.74901e-19 4.78949e-19
-2.55041e-19 -1.71644e-19 4.29059e-19
1.36503e-19 9.24681e-19 7.61259e-19
-5.2103e-19 6.85865e-19 8.16897e-19
-8.68604e-19 -1.9936e-19 7.31347e-19
4.29651e-19 -6.86106e-19 8.79056e-19
-2.91265e-19 8.58811e-19 7.48025e-19
-6.83086e-19 -6.2373e-19 5.91998e-19
1.87719e-19 -9.46788e-19 8.67384e-19
2.83192e-19 1.04934e-18 8.36259e-19
9.93333e-19 -6.90366e-19 8.63509e-19
1.12882e-18 -6.6612e-19 8.22093e-19
8.4897e-19 7.23335e-19 8.24691e-19
-3.04592e-19 9.92836e-20 4.56261e-19
-1.67429e-19 -2.26206e-19 4.51337e-19
5.58969e-19 6.8492e-19 8.42303e-19
-1.22322e-19 2.1354e-19 3.31902e-19
-9.04776e-20 -1.36686e-18 8.14165e-19
-1.18777e-18 -6.59104e-19 6.91086e-19
8.50286e-19 5.30638e-19 8.59026e-19
-8.68104e-19 2.9466e-19 8.61431e-19
8.50253e-20 1.27394e-18 7.2957e-19
-1.09347e-18 4.26464e-19 8.04891e-19
1.13821e-18 3.62663e-19 8.46968e-19
4.24097e-20 1.69301e-19 3.44688e-19
1.46451e-19 -2.24006e-19 5.06806e-19
1.22764e-18 6.96147e-19 8.09667e-19
1.39074e-18 7.22535e-19 9.52123e-19
1.18973e-18 -5.85104e-19 9.66773e-19
1.1575e-18 -5.84818e-19 9.35951e-19
1.68447e-19 2.29847e-19 5.41381e-19
-3.76028e-19 -6.99388e-19 7.5223e-19
-5.34915e-20 1.33002e-18 7.34173e-19
5.47527e-20 -1.71708e-19 2.6259e-19
-4.38556e-19 9.06022e-19 7.52398e-19
-1.22915e-18 7.77327e-19 6.49602e-19
-1.21582e-18 6.13015e-19 7.13311e-19
-6.41441e-19 1.12179e-18 6.75134e-19
-8.64761e-19 6.23498e-19 8.25211e-19
7.07362e-19 -6.6316e-20 8.16173e-19
1.64164e-19 5.70231e-20 4.53603e-19
-7.57988e-20 -2.85411e-19 5.08709e-19
-1.94378e-19 1.29473e-19 4.1117e-19
-1.14363e-18 -3.52451e-19 6.303e-19
-3.18166e-19 -1.24057e-18 8.24185e-19
-8.31717e-21 1.54072e-18 7.27954e-19
1.49205e-19 -7.31891e-20 3.48625e-19
2.79242e-19 -6.21455e-20 5.13439e-19
-2.87521e-19 -1.20013e-19 5.79443e-19
-7.13053e-20 -1.47191e-18 7.58318e-19
-1.24673e-18 -7.39206e-19 6.28095e-19
1.08831e-18 -7.51063e-19 8.44775e-19
-1.1166e-19 -1.0562e-19 2.97558e-19
1.26585e-18 9.36076e-19 8.59468e-19
1.13339e-18 1.52118e-19 9.72033e-19
1.09988e-18 3.59849e-19 8.46848e-19
-6.45277e-20 2.50011e-19 6.11705e-19
2.07266e-19 1.11715e-18 7.8207e-19
4.69621e-19 -9.04897e-19 7.89581e-19
-1.14558e-19 1.00924e-19 3.25943e-19
-6.59594e-19 7.11122e-19 8.22497e-19
-2.89996e-19 1.31895e-18 8.9852e-19
7.59387e-19 -7.88069e-19 8.39024e-19
-5.4947e-19 -8.15158e-19 8.21204e-19
SCALARS effective_fluid_pressure_TPM float
LOOKUP_TABLE default
-2.69212e-11
-2.69212e-11
-2.69236e-11
-2.69233e-11
-2.69221e-11
-2.69241e-11
-2.69226e-11
-2.69226e-11
-2.69133e-11
-2.69157e-11
-2.69173e-11
-2.69179e-11
-2.69185e-11
-2.69184e-11
-2.69195e-11
-2.69261e-11
-2.69262e-11
-2.69197e-11
-2.692e-11
-2.69203e-11
-2.69259e-11
-2.69266e-11
-2.69267e-11
-2.69182e-11
-2.69164e-11
-2.69203e-11
-2.69169e-11
-2.69166e-11
-2.69166e-11
-2.69206e-11
-2.69213e-11
-2.69229e-11
-2.69212e-11
-2.69201e-11
-2.69202e-11
-2.69209e-11
-2.6922e-11
-2.69222e-11
-2.69226e-11
-2.69202e-11
-2.69199e-11
-2.69206e-11
-2.69202e-11
-2.69202e-11
-2.69231e-11
-2.69138e-11
-2.69157e-11
-2.69162e-11
-2.69186e-11
-2.69208e-11
-2.6921e-11
-2.69146e-11
-2.69179e-11
-2.69195e-11
-2.69203e-11
-2.69192e-11
-2.69181e-11
-2.6916e-11
-2.69179e-11
-2.69181e-11
-2.69181e-11
-2.69189e-11
-2.69189e-11
-2.69187e-11
-2.69186e-11
-2.69187e-11
-2.69211e-11
-2.6923e-11
-2.69242e-11
-2.69228e-11
-2.69214e-11
-2.69197e-11
-2.69198e-11
-2.69199e-11
-2.69201e-11
-2.69202e-11
-2.69199e-11
-2.69197e-11
-2.69259e-11
-2.69206e-11
-2.69222e-11
-2.69222e-11
-2.69219e-11
-2.69218e-11
-2.69237e-11
-2.69202e-11
-2.69241e-11
-2.69229e-11
-2.69244e-11
-2.69257e-11
-2.69247e-11
-2.69231e-11
-2.69261e-11
-2.69193e-11
-2.69198e-11
-2.69211e-11
-2.69236e-11
-2.6925e-11
-2.69258e-11
-2.69174e-11
-2.69228e-11
-2.69235e-11
-2.6923e-11
-2.69233e-11
-2.69215e-11
-2.69183e-11
-2.69187e-11
-2.69184e-11
-2.69196e-11
-2.692e-11
-2.69195e-11
-2.69195e-11
-2.69177e-11
-2.69167e-11
-2.69247e-11
-2.69225e-11
-2.6918e-11
-2.69154e-11
-2.69143e-11
-2.69145e-11
-2.69207e-11
-2.69209e-11
-2.69211e-11
-2.6921e-11
-2.69209e-11
-2.69206e-11
-2.69194e-11
-2.69194e-11
-2.69199e-11
-2.69197e-11
-2.69201e-11
-2.692e-11
-2.692e-11
-2.6921e-11
-2.69201e-11
-2.6921e-11
-2.69162e-11
-2.692e-11
-2.69192e-11
-2.69182e-11
-2.69202e-11
-2.69196e-11
-2.69235e-11
-2.69192e-11
-2.69189e-11
-2.69199e-11
-2.69206e-11
-2.69211e-11
-2.69204e-11
-2.69213e-11
-2.69205e-11
-2.69209e-11
-2.69206e-11
-2.69207e-11
-2.69205e-11
-2.69204e-11
-2.69204e-11
-2.69199e-11
-2.69202e-11
-2.69201e-11
-2.69204e-11
-2.69205e-11
-2.69205e-11
-2.69206e-11
-2.69199e-11
-2.692e-11
-2.69199e-11
-2.69195e-11
-2.69196e-11
-2.69192e-11
-2.6919e-11
-2.69183e-11
-2.69183e-11
-2.6918e-11
-2.692e-11
-2.69184e-11
-2.69181e-11
-2.69185e-11
-2.69184e-11
-2.69186e-11
-2.69188e-11
-2.69191e-11
-2.69191e-11
-2.69196e-11
-2.69196e-11
-2.69199e-11
-2.69197e-11
-2.69196e-11
-2.69196e-11
-2.69193e-11
-2.69192e-11
-2.69191e-11
-2.69192e-11
-2.69195e-11
-2.69193e-11
-2.69195e-11
-2.69192e-11
-2.69193e-11
-2.69193e-11
-2.69195e-11
-2.69199e-11
-2.69192e-11
-2.69206e-11
-2.69198e-11
-2.69206e-11
-2.69205e-11
-2.6921e-11
-2.69182e-11
-2.69184e-11
-2.69205e-11
-2.69195e-11
-2.69193e-11
-2.69194e-11
-2.69187e-11
-2.69204e-11
-2.69187e-11
-2.69185e-11
-2.69194e-11
-2.69189e-11
-2.69184e-11
-2.69222e-11
-2.69201e-11
-2.69214e-11
-2.69197e-11
-2.69188e-11
-2.69195e-11
-2.69198e-11
-2.69216e-11
-2.69203e-11
-2.69193e-11
-2.69183e-11
-2.69153e-11
-2.69217e-11
-2.69192e-11
-2.6919e-11
-2.69183e-11
-2.69175e-11
-2.69199e-11
-2.69209e-11
-2.69203e-11
-2.69208e-11
-2.69183e-11
-2.69183e-11
-2.6921e-11
-2.69159e-11
-2.69168e-11
-2.6918e-11
-2.69216e-11
-2.69183e-11
-2.69222e-11
-2.69203e-11
-2.69192e-11
-2.69199e-11
-2.69181e-11
-2.69197e-11
-2.69197e-11
-2.69192e-11
-2.69206e-11
-2.6919e-11
-2.69195e-11
-2.6919e-11
-2.69203e-11
-2.69201e-11
-2.69195e-11
-2.69187e-11
-2.69189e-11
-2.69138e-11
-2.69196e-11
-2.69199e-11
-2.69199e-11
-2.69204e-11
-2.69203e-11
-2.69204e-11
-2.692e-11
-2.692e-11
-2.69198e-11
-2.69178e-11
-2.69207e-11
-2.69186e-11
-2.69183e-11
-2.69184e-11
-2.69194e-11
-2.69219e-11
-2.69182e-11
-2.69216e-11
-2.69199e-11
-2.69189e-11
-2.69219e-11
-2.6918e-11
-2.69189e-11
-2.69187e-11
-2.69173e-11
-2.69199e-11
-2.69201e-11
-2.69197e-11
-2.69196e-11
-2.6923e-11
-2.69215e-11
-2.69198e-11
-2.69195e-11
-2.69211e-11
-2.69223e-11
-2.69198e-11
-2.6919e-11
-2.69191e-11
-2.6921e-11
-2.69182e-11
-2.69199e-11
-2.692e-11
-2.69211e-11
-2.692e-11
-2.69209e-11
-2.69198e-11
-2.69194e-11
-2.69191e-11
-2.69199e-11
-2.69181e-11
-2.69201e-11
-2.69192e-11
-2.69194e-11
-2.69199e-11
-2.69186e-11
-2.69222e-11
-2.69225e-11
-2.6919e-11
-2.69193e-11
-2.69196e-11
-2.69189e-11
-2.69196e-11
-2.69211e-11
-2.69187e-11
-2.69198e-11
-2.69185e-11
-2.69172e-11
-2.6919e-11
-2.69202e-11
-2.69198e-11
-2.69199e-11
-2.69231e-11
-2.69227e-11
-2.69215e-11
-2.69224e-11
-2.69197e-11
-2.69203e-11
-2.69163e-11
-2.69199e-11
-2.69195e-11
-2.69186e-11
-2.69189e-11
-2.692e-11
-2.69196e-11
-2.69206e-11
-2.69201e-11
-2.69197e-11
-2.69195e-11
-2.69182e-11
-2.69226e-11
-2.69151e-11
-2.692e-11
-2.69201e-11
-2.6919e-11
-2.69213e-11
-2.69188e-11
-2.69225e-11
-2.69197e-11
-2.69207e-11
-2.69197e-11
-2.69204e-11
-2.69196e-11
-2.69175e-11
-2.69198e-11
-2.69196e-11
-2.69199e-11
-2.69179e-11
-2.69208e-11
-2.6921e-11
-2.69206e-11
-2.69207e-11
-2.69208e-11
-2.69208e-11
-2.69212e-11
-2.69211e-11
-2.69211e-11
-2.69236e-11
-2.69237e-11
-2.69223e-11
-2.69196e-11
-2.69155e-11
-2.69225e-11
-2.69197e-11
-2.69216e-11
-2.69239e-11
-2.69193e-11
-2.69217e-11
-2.692e-11
-2.69245e-11
-2.69226e-11
-2.69228e-11
-2.69232e-11
-2.69227e-11
-2.69229e-11
-2.69225e-11
-2.69225e-11
-2.69217e-11
-2.69217e-11
-2.69211e-11
-2.69209e-11
-2.69208e-11
-2.69204e-11
-2.69205e-11
-2.69202e-11
-2.69201e-11
-2.69207e-11
-2.69201e-11
-2.69202e-11
-2.69202e-11
-2.69196e-11
-2.69199e-11
-2.69196e-11
-2.69199e-11
-2.69194e-11
-2.69195e-11
-2.69186e-11
-2.69189e-11
-2.69189e-11
-2.69199e-11
-2.69195e-11
-2.69202e-11
-2.69199e-11
-2.69203e-11
-2.69201e-11
-2.69204e-11
-2.69202e-11
-2.69203e-11
-2.69202e-11
-2.69204e-11
-2.69204e-11
-2.69202e-11
-2.69203e-11
-2.69197e-11
-2.69199e-11
-2.69198e-11
-2.69197e-11
-2.69204e-11
-2.69205e-11
-2.69212e-11
-2.69215e-11
-2.69216e-11
-2.69219e-11
-2.69219e-11
-2.69227e-11
-2.69201e-11
-2.69222e-11
-2.69207e-11
-2.69217e-11
-2.69229e-11
-2.69205e-11
-2.69192e-11
-2.69184e-11
-2.69213e-11
-2.69216e-11
-2.69231e-11
-2.69204e-11
-2.69203e-11
-2.69228e-11
-2.69202e-11
-2.69202e-11
-2.69202e-11
-2.69179e-11
-2.6919e-11
-2.69227e-11
-2.69217e-11
-2.69211e-11
-2.69209e-11
-2.69203e-11
-2.69205e-11
-2.69208e-11
-2.69249e-11
-2.69243e-11
-2.69164e-11
-2.69212e-11
-2.69189e-11
-2.69234e-11
-2.69209e-11
-2.69199e-11
-2.69201e-11
-2.69194e-11
-2.69253e-11
-2.69225e-11
-2.69232e-11
-2.69222e-11
-2.6918e-11
-2.69177e-11
-2.69248e-11
-2.69179e-11
-2.69192e-11
-2.69201e-11
-2.69233e-11
-2.69193e-11
-2.69195e-11
-2.69214e-11
-2.69246e-11
-2.69233e-11
-2.69191e-11
-2.69205e-11
-2.69206e-11
-2.69203e-11
-2.69247e-11
-2.69204e-11
-2.69218e-11
-2.69173e-11
-2.69225e-11
-2.69214e-11
-2.69213e-11
-2.69202e-11
-2.69201e-11
-2.69184e-11
-2.69202e-11
-2.69206e-11
-2.6921e-11
-2.69212e-11
-2.69214e-11
-2.69218e-11
-2.69214e-11
-2.69212e-11
-2.69232e-11
-2.69207e-11
-2.69221e-11
-2.69198e-11
-2.692e-11
-2.69206e-11
-2.69197e-11
-2.69259e-11
-2.69194e-11
-2.69251e-11
-2.69209e-11
-2.69162e-11
-2.69217e-11
-2.69221e-11
-2.69225e-11
-2.69214e-11
-2.69208e-11
-2.69217e-11
-2.69207e-11
-2.69222e-11
-2.69222e-11
-2.69165e-11
-2.69157e-11
-2.69172e-11
-2.69215e-11
-2.69172e-11
-2.69178e-11
-2.69213e-11
-2.69215e-11
-2.69206e-11
-2.6919e-11
-2.69197e-11
-2.69251e-11
-2.69236e-11
-2.69224e-11
-2.69218e-11
-2.69221e-11
-2.69208e-11
-2.69204e-11
-2.69201e-11
-2.69207e-11
-2.69187e-11
-2.69205e-11
-2.69202e-11
-2.69184e-11
-2.69214e-11
-2.69206e-11
-2.69222e-11
-2.69207e-11
-2.69237e-11
-2.69207e-11
-2.69205e-11
-2.69222e-11
-2.69208e-11
-2.69232e-11
-2.69182e-11
-2.69235e-11
-2.69202e-11
-2.69193e-11
-2.69204e-11
-2.69234e-11
-2.6921e-11
-2.6921e-11
-2.69256e-11
-2.69262e-11
-2.69211e-11
-2.69204e-11
-2.6921e-11
-2.69191e-11
-2.69187e-11
-2.6921e-11
-2.69208e-11
-2.69194e-11
-2.69186e-11
-2.69226e-11
-2.69206e-11
-2.69224e-11
-2.69212e-11
-2.69206e-11
-2.69207e-11
-2.69196e-11
-2.69212e-11
-2.69178e-11
-2.69212e-11
-2.69213e-11
-2.69204e-11
-2.69252e-11
-2.69169e-11
-2.69212e-11
-2.69206e-11
-2.69257e-11
-2.69233e-11
-2.69235e-11
-2.69208e-11
-2.69203e-11
-2.69205e-11
-2.69207e-11
-2.6921e-11
-2.69206e-11
-2.69219e-11
-2.69182e-11

CELL_DATA 563
TENSORS stress float
-6.59231e-12 3.50378e-12 2.72255e-13
3.50378e-12 4.04733e-12 -8.93864e-13
2.72255e-13 -8.93864e-13 9.90684e-12

1.06697e-12 -4.62593e-13 6.84252e-13
-4.62593e-13 6.04374e-13 3.1996e-12
6.84252e-13 3.1996e-12 1.68376e-12

-7.00432e-12 -3.00685e-12 -9.63735e-15
-3.00685e-12 1.78495e-12 -1.25286e-13
-9.63735e-15 -1.25286e-13 -9.90608e-13

-2.69128e-13 -2.77556e-12 -2.12985e-12
-2.77556e-12 -5.35765e-12 -2.73701e-12
-2.12985e-12 -2.73701e-12 -1.8111e-12

-6.64064e-12 1.73472e-12 -3.89349e-12
1.73472e-12 2.14862e-12 -3.26706e-12
-3.89349e-12 -3.26706e-12 4.52449e-13

3.4701e-13 -3.46945e-13 2.4768e-12
-3.46945e-13 -2.89114e-12 -6.07153e-13
2.4768e-12 -6.07153e-13 -1.19497e-12

-7.72312e-12 -3.11347e-12 2.02746e-12
-3.11347e-12 2.91652e-12 5.57333e-12
2.02746e-12 5.57333e-12 8.15924e-12

8.08032e-13 9.25186e-13 4.14406e-13
9.25186e-13 -3.3553e-12 1.15648e-13
4.14406e-13 1.15648e-13 -1.19654e-12

-6.28226e-12 -6.36065e-13 -1.16612e-12
-6.36065e-13 -1.19374e-12 -4.30428e-12
-1.16612e-12 -4.30428e-12 3.98414e-14

5.59151e-12 2.20093e-12 -2.81411e-12
2.20093e-12 1.42818e-12 2.18073e-13
-2.81411e-12 2.18073e-13 1.27398e-12

-1.60591e-12 4.62593e-13 -1.82628e-12
4.62593e-13 5.79558e-12 -7.46774e-12
-1.82628e-12 -7.46774e-12 8.10854e-12

2.86584e-12 -2.35633e-12 4.96324e-12
-2.35633e-12 4.25362e-12 -9.63735e-13
4.96324e-12 -9.63735e-13 1.47806e-12

1.22127e-12 1.61908e-12 -1.79255e-12
1.61908e-12 6.30979e-12 5.30054e-12
-1.79255e-12 5.30054e-12 2.30065e-12

3.46397e-13 -3.46945e-13 -2.28405e-12
-3.46945e-13 -1.50397e-12 4.37536e-12
-2.28405e-12 4.37536e-12 1.92199e-13

4.2045e-12 9.25186e-13 -2.83338e-12
9.25186e-13 2.81672e-12 -2.39006e-12
-2.83338e-12 -2.39006e-12 4.0503e-12

5.51082e-13 -2.48644e-12 4.86686e-12
-2.48644e-12 3.32664e-12 6.14381e-14
4.86686e-12 6.14381e-14 1.93886e-12

1.88821e-12 1.4456e-12 -2.166e-12
1.4456e-12 7.43933e-12 2.60209e-13
-2.166e-12 2.60209e-13 1.73402e-12

-1.14211e-12 1.09866e-12 1.04083e-12
1.09866e-12 -2.16928e-13 -4.29284e-12
1.04083e-12 -4.29284e-12 -2.16928e-13

2.19713e-12 1.15648e-13 4.33681e-14
1.15648e-13 -2.8914e-12 1.84073e-12
4.33681e-14 1.84073e-12 -2.70035e-13

5.17707e-12 -5.45715e-13 -4.43318e-13
-5.45715e-13 2.8641e-12 -5.10659e-12
-4.43318e-13 -5.10659e-12 3.32669e-12

-3.91916e-12 -6.93889e-13 6.74615e-13
-6.93889e-13 -6.81011e-13 9.73373e-13
6.74615e-13 9.73373e-13 -2.53138e-12

-7.82971e-12 1.59739e-12 9.46027e-12
1.59739e-12 -1.01427e-11 -2.81411e-12
9.46027e-12 -2.81411e-12 -4.28316e-12

3.58643e-12 2.89121e-13 -6.26428e-13
2.89121e-13 3.48283e-13 -4.25308e-12
-6.26428e-13 -4.25308e-12 3.43224e-12

-1.76022e-12 -1.38778e-12 2.60209e-13
-1.38778e-12 -3.72444e-13 -1.77327e-12
2.60209e-13 -1.77327e-12 -3.72444e-13

-6.31356e-13 -8.45678e-13 1.34923e-13
-8.45678e-13 2.9383e-13 -2.06721e-12
1.34923e-13 -2.06721e-12 1.83581e-12

2.86591e-12 -2.47198e-12 2.41898e-12
-2.47198e-12 9.03524e-14 -3.28634e-12
2.41898e-12 -3.28634e-12 9.03524e-14

-3.76466e-12 -7.99691e-13 -5.61376e-12
-7.99691e-13 8.61274e-13 -2.73766e-12
-5.61376e-12 -2.73766e-12 5.02461e-12

-4.17549e-12 2.08167e-12 -2.60209e-12
2.08167e-12 -4.74748e-13 -5.01142e-13
-2.60209e-12 -5.01142e-13 -1.24574e-12

8.10751e-12 -2.41777e-12 -1.56848e-12
-2.41777e-12 7.18232e-12 -5.87879e-12
-1.56848e-12 -5.87879e-12 8.10751e-12

4.0177e-13 1.15648e-11 -1.89856e-12
1.15648e-11 -5.61194e-12 -4.24044e-13
-1.89856e-12 -4.24044e-13 -9.86009e-13

4.14874e-12 2.77556e-12 3.79712e-12
2.77556e-12 -2.32756e-12 -3.66219e-13
3.79712e-12 -3.66219e-13 6.02197e-13

3.32805e-12 -1.15648e-13 -1.72268e-12
-1.15648e-13 8.98949e-14 -1.26731e-12
-1.72268e-12 -1.26731e-12 5.17842e-12

-2.58262e-12 2.31296e-12 -4.55004e-12
2.31296e-12 -2.69656e-13 -2.75869e-12
-4.55004e-12 -2.75869e-12 6.51504e-12

-4.73143e-13 -5.20417e-12 5.91252e-12
-5.20417e-12 -4.17389e-12 -4.33681e-12
5.91252e-12 -4.33681e-12 -1.24413e-12

-1.096e-12 -2.89121e-14 -8.60134e-13
-2.89121e-14 -1.70817e-13 -4.7223e-12
-8.60134e-13 -4.7223e-12 -1.66194e-14

9.28812e-12 6.36065e-13 -1.4456e-13
6.36065e-13 6.51257e-12 1.25286e-12
-1.4456e-13 1.25286e-12 3.58281e-12

-7.87489e-13 3.00685e-12 1.47211e-12
3.00685e-12 -1.09645e-11 -5.57039e-12
1.47211e-12 -5.57039e-12 -1.55848e-12

1.47382e-11 -1.15648e-13 -1.92747e-12
-1.15648e-13 8.60368e-13 -4.50064e-12
-1.92747e-12 -4.50064e-12 3.17333e-12

-7.46513e-12 2.31296e-12 7.51714e-13
2.31296e-12 -6.36447e-14 -1.26249e-12
7.51714e-13 -1.26249e-12 -1.45142e-12

7.58284e-13 -1.28659e-12 -5.63062e-12
-1.28659e-12 2.60866e-12 -5.8306e-13
-5.63062e-12 -5.8306e-13 9.23915e-12

-1.45144e-12 1.79255e-12 -2.79001e-12
1.79255e-12 3.17449e-12 1.64558e-12
-2.79001e-12 1.64558e-12 3.17449e-12

-5.30415e-12 -1.4456e-13 2.09371e-12
-1.4456e-13 -5.76674e-12 -4.20189e-12
2.09371e-12 -4.20189e-12 -4.37896e-12

5.38173e-12 2.31296e-13 5.1078e-12
2.31296e-13 -3.87013e-12 5.30054e-13
5.1078e-12 5.30054e-13 -1.51869e-14

-9.57423e-12 1.73472e-12 -2.75628e-12
1.73472e-12 -3.09793e-12 1.9347e-12
-2.75628e-12 1.9347e-12 -3.40633e-12

-8.86462e-13 1.15648e-12 -3.60437e-12
1.15648e-12 -3.19943e-12 1.85278e-12
-3.60437e-12 1.85278e-12 1.27231e-12

1.78539e-12 2.1684e-13 -3.44535e-12
2.1684e-13 -5.27573e-13 -1.75821e-12
-3.44535e-12 -1.75821e-12 8.60206e-13

1.42604e-12 4.62593e-13 7.32439e-13
4.62593e-13 5.58937e-12 5.78241e-14
7.32439e-13 5.78241e-14 1.27184e-12

-3.40562e-12 1.15648e-13 -1.70099e-12
1.15648e-13 -8.49415e-12 8.57724e-13
-1.70099e-12 8.57724e-13 -4.75869e-13

-1.19611e-12 1.26987e-12 -2.36356e-12
1.26987e-12 1.57944e-12 1.92747e-14
-2.36356e-12 1.92747e-14 5.00061e-13

-1.40088e-12 2.02384e-12 -1.99011e-12
2.02384e-12 -2.32607e-12 -2.99963e-12
-1.99011e-12 -2.99963e-12 3.37925e-12

-3.97021e-12 2.89121e-13 2.39488e-12
2.89121e-13 -1.19465e-12 1.76424e-12
2.39488e-12 1.76424e-12 5.01526e-13

5.38478e-12 3.75857e-13 3.18033e-13
3.75857e-13 1.68404e-12 -8.86636e-13
3.18033e-13 -8.86636e-13 5.53898e-12

-1.6094e-12 -2.65991e-12 -2.5298e-13
-2.65991e-12 -3.45977e-12 -2.81411e-12
-2.5298e-13 -2.81411e-12 -2.07199e-12

1.3739e-12 -2.19732e-12 7.73879e-12
-2.19732e-12 1.83649e-12 -6.54858e-12
7.73879e-12 -6.54858e-12 1.99069e-12

-6.42923e-14 3.46945e-12 4.81868e-14
3.46945e-12 -5.15281e-12 -2.18768e-12
4.81868e-14 -2.18768e-12 -9.89478e-13

5.00858e-13 1.4456e-12 -2.83338e-12
1.4456e-12 5.00858e-13 2.11901e-12
-2.83338e-12 2.11901e-12 7.28555e-12

1.6345e-12 -3.06468e-12 3.73447e-14
-3.06468e-12 1.1719e-12 -5.78241e-14
3.73447e-14 -5.78241e-14 1.1719e-12

2.45425e-12 -3.61401e-13 1.1348e-12
-3.61401e-13 3.84203e-12 -1.87446e-12
1.1348e-12 -1.87446e-12 5.38401e-12

-1.40347e-12 2.77556e-12 4.45246e-12
2.77556e-12 -1.56896e-14 8.48087e-13
4.45246e-12 8.48087e-13 1.06369e-12

-3.61117e-12 3.61401e-12 1.20467e-13
3.61401e-12 -4.53635e-12 -9.49279e-13
1.20467e-13 -9.49279e-13 8.95755e-14

1.32209e-12 2.54426e-12 2.33224e-12
2.54426e-12 2.24727e-12 -9.92647e-13
2.33224e-12 -9.92647e-13 1.32209e-12

2.42656e-13 -1.76364e-12 1.56125e-12
-1.76364e-12 -2.07031e-12 -3.45981e-12
1.56125e-12 -3.45981e-12 2.42656e-13

-4.68988e-12 -1.24322e-12 2.2961e-12
-1.24322e-12 3.98639e-13 6.52931e-12
2.2961e-12 6.52931e-12 6.41235e-12

-1.09375e-12 -1.73472e-12 1.15648e-13
-1.73472e-12 2.1444e-12 -1.3685e-12
1.15648e-13 -1.3685e-12 -2.32733e-12

1.83953e-12 3.46945e-13 4.85e-12
3.46945e-13 -1.08415e-14 -2.19732e-12
4.85e-12 -2.19732e-12 6.05949e-13

-2.1709e-12 2.86229e-12 1.32514e-13
2.86229e-12 -4.48387e-12 -5.73422e-12
1.32514e-13 -5.73422e-12 -1.09152e-12

1.11958e-12 -6.93889e-13 -5.26199e-12
-6.93889e-13 6.56991e-13 4.68375e-12
-5.26199e-12 4.68375e-12 -8.84985e-13

2.40135e-12 3.98986e-12 -2.14913e-12
3.98986e-12 -1.76199e-12 -3.71038e-13
-2.14913e-12 -3.71038e-13 -3.74209e-13

2.19739e-12 -3.93204e-12 2.59245e-12
-3.93204e-12 4.04776e-12 2.84302e-12
2.59245e-12 2.84302e-12 1.11801e-12

3.536e-12 1.42686e-12 1.3685e-12
1.42686e-12 2.14823e-12 1.84408e-13
1.3685e-12 1.84408e-13 1.37724e-12

2.45631e-12 -4.62593e-13 3.42126e-13
-4.62593e-13 3.84409e-12 1.3685e-12
3.42126e-13 1.3685e-12 2.61051e-12

-6.69753e-12 6.07153e-13 9.63735e-15
6.07153e-13 -3.92197e-12 -7.90263e-13
9.63735e-15 -7.90263e-13 7.03961e-13

-4.24306e-13 1.15648e-12 -1.46729e-12
1.15648e-12 1.88866e-12 2.3467e-12
-1.46729e-12 2.3467e-12 4.04743e-12

3.81664e-14 -2.54426e-12 1.95638e-12
-2.54426e-12 4.6641e-12 -4.91505e-13
1.95638e-12 -4.91505e-13 8.09155e-13

3.01973e-12 -4.56811e-12 3.8694e-12
-4.56811e-12 3.48232e-12 4.385e-12
3.8694e-12 4.385e-12 2.44172e-13

1.92361e-13 1.4456e-12 -3.65015e-12
1.4456e-12 5.28088e-12 7.04611e-12
-3.65015e-12 7.04611e-12 9.29002e-12

1.53073e-12 8.67362e-14 -4.42354e-12
8.67362e-14 -4.02038e-12 2.89121e-13
-4.42354e-12 2.89121e-13 2.97153e-13

-8.39294e-12 1.87928e-12 -1.54198e-13
1.87928e-12 -4.6922e-12 9.8301e-13
-1.54198e-13 9.8301e-13 -1.45405e-12

6.54547e-13 1.15648e-13 5.71495e-12
1.15648e-13 3.4301e-12 -4.91505e-12
5.71495e-12 -4.91505e-12 -4.24836e-13

2.09534e-12 3.26706e-12 -2.62136e-12
3.26706e-12 1.17015e-12 1.64799e-12
-2.62136e-12 1.64799e-12 3.48312e-12

2.55741e-12 1.51788e-12 1.99975e-12
1.51788e-12 1.16963e-12 5.34873e-13
1.99975e-12 5.34873e-13 3.02e-12

8.69556e-14 -3.23815e-12 8.84709e-12
-3.23815e-12 -7.31453e-12 3.48872e-12
8.84709e-12 3.48872e-12 -8.3823e-13

1.68539e-12 -1.82869e-12 4.81868e-14
-1.82869e-12 5.38613e-12 -2.48162e-12
4.81868e-14 -2.48162e-12 -1.07882e-14

6.82284e-12 8.09538e-13 7.44004e-12
8.09538e-13 4.04729e-12 1.14203e-12
7.44004e-12 1.14203e-12 7.59383e-12

-3.66164e-12 2.0898e-12 2.22141e-12
2.0898e-12 5.01697e-13 -9.97617e-15
2.22141e-12 -9.97617e-15 3.475e-13

-1.24655e-12 9.25186e-13 6.40884e-12
9.25186e-13 -1.14236e-11 4.02841e-12
6.40884e-12 4.02841e-12 2.1458e-12

-2.12003e-12 6.14381e-13 -2.58161e-12
6.14381e-13 -2.12003e-12 -3.49836e-12
-2.58161e-12 -3.49836e-12 -4.23851e-13

9.03503e-12 -1.09866e-12 2.03348e-12
-1.09866e-12 2.45766e-13 -2.21659e-13
2.03348e-12 -2.21659e-13 3.02132e-12

3.32821e-12 -1.61908e-12 1.29381e-12
-1.61908e-12 3.32821e-12 1.04083e-12
1.29381e-12 1.04083e-12 1.02671e-11

3.00598e-11 -5.66676e-12 -9.03984e-12
-5.66676e-12 1.75698e-11 5.09816e-12
-9.03984e-12 5.09816e-12 8.00956e-12

-1.04129e-12 5.78241e-14 -8.98683e-13
5.78241e-14 -5.78696e-13 3.62846e-12
-8.98683e-13 3.62846e-12 3.43044e-12

-3.89211e-11 -1.66244e-13 -4.7994e-12
-1.66244e-13 -1.11655e-11 -9.8301e-13
-4.7994e-12 -9.8301e-13 -8.85253e-12

-1.65775e-12 1.6769e-12 7.999e-13
1.6769e-12 1.92618e-13 5.79205e-12
7.999e-13 5.79205e-12 2.35139e-12

5.33423e-12 1.85037e-12 7.70988e-13
1.85037e-12 1.63349e-12 3.75857e-13
7.70988e-13 3.75857e-13 -2.16884e-13

-2.27509e-12 1.30104e-12 -1.43115e-12
1.30104e-12 -4.24714e-13 1.57812e-13
-1.43115e-12 1.57812e-13 -1.16319e-13

2.50573e-12 1.23238e-12 1.73954e-12
1.23238e-12 -1.19501e-12 -7.02081e-12
1.73954e-12 -7.02081e-12 5.12709e-12

2.40288e-12 -5.05961e-13 1.27695e-13
-5.05961e-13 -4.53601e-12 -2.54908e-12
1.27695e-13 -2.54908e-12 2.40288e-12

2.29948e-12 1.73472e-13 -2.89121e-13
1.73472e-13 1.37429e-12 -5.7535e-12
-2.89121e-13 -5.7535e-12 1.52849e-12

3.42922e-12 -1.61908e-12 -2.85266e-12
-1.61908e-12 -1.6593e-12 -2.89121e-13
-2.85266e-12 -2.89121e-13 -8.88313e-13

1.73414e-12 4.51751e-14 2.04312e-12
4.51751e-14 1.73414e-12 -2.6069e-12
2.04312e-12 -2.6069e-12 1.11735e-12

1.53007e-12 -1.15648e-13 2.05276e-12
-1.15648e-13 2.45525e-12 -2.0383e-12
2.05276e-12 -2.0383e-12 4.92241e-12

1.06624e-12 1.807e-12 -8.19175e-14
1.807e-12 -3.21538e-13 1.56607e-12
-8.19175e-14 1.56607e-12 2.60822e-12

-2.42821e-12 4.36572e-12 -3.67665e-12
4.36572e-12 -2.8908e-12 -4.45728e-14
-3.67665e-12 -4.45728e-14 1.58093e-12

1.78667e-12 -4.04769e-13 -3.52245e-12
-4.04769e-13 -9.88888e-13 2.40934e-12
-3.52245e-12 2.40934e-12 -1.45148e-12

-2.17068e-12 2.08167e-12 -5.58966e-12
2.08167e-12 1.06747e-12 5.78241e-13
-5.58966e-12 5.78241e-13 -1.09129e-12

2.24876e-12 -6.93889e-13 -2.40934e-13
-6.93889e-13 -2.37717e-12 -4.37536e-12
-2.40934e-13 -4.37536e-12 -5.26796e-13

2.45583e-12 2.38524e-12 3.42126e-13
2.38524e-12 1.53065e-12 -1.02156e-12
3.42126e-13 -1.02156e-12 2.14744e-12

1.99308e-12 -4.33681e-13 4.53919e-12
-4.33681e-13 6.05302e-13 1.4191e-12
4.53919e-12 1.4191e-12 7.595e-13

1.16919e-12 -5.05961e-14 -1.03602e-13
-5.05961e-14 2.44001e-13 -1.97566e-12
-1.03602e-13 -1.97566e-12 5.33252e-12

2.40411e-12 3.46945e-13 -8.48087e-13
3.46945e-13 6.56744e-12 4.43318e-12
-8.48087e-13 4.43318e-12 2.40411e-12

-2.32565e-12 -2.22623e-12 3.71038e-13
-2.22623e-12 -4.75283e-13 3.21888e-12
3.71038e-13 3.21888e-12 -3.21085e-13

1.83745e-12 1.43115e-12 -8.18753e-12
1.43115e-12 -3.71367e-12 -3.9465e-12
-8.18753e-12 -3.9465e-12 4.30461e-12

2.86578e-12 -6.93889e-13 -3.69111e-12
-6.93889e-13 4.25356e-12 5.97034e-12
-3.69111e-12 5.97034e-12 7.02912e-12

-1.14341e-12 -9.25186e-13 -4.43318e-12
-9.25186e-13 3.94511e-12 4.04769e-13
-4.43318e-12 4.04769e-13 1.16956e-12

3.68654e-12 -2.89121e-14 -8.19175e-13
-2.89121e-14 -4.76801e-13 9.30005e-13
-8.19175e-13 9.30005e-13 -7.85196e-13

-7.8781e-12 2.19732e-12 3.51763e-12
2.19732e-12 -2.78958e-12 3.78748e-12
3.51763e-12 3.78748e-12 -7.85011e-13

1.6284e-11 5.31982e-12 1.3685e-12
5.31982e-12 3.33141e-12 1.82628e-12
1.3685e-12 1.82628e-12 2.86882e-12

4.2011e-12 -4.04769e-13 -3.18033e-13
-4.04769e-13 1.88814e-12 -1.83351e-12
-3.18033e-13 -1.83351e-12 4.97209e-12

2.0957e-12 -1.85037e-12 3.98023e-12
-1.85037e-12 -1.60504e-12 -9.58917e-13
3.98023e-12 -9.58917e-13 -2.06763e-12

-8.35374e-13 -5.34873e-13 -1.70099e-12
-5.34873e-13 -8.35374e-13 -1.54198e-12
-1.70099e-12 -1.54198e-12 1.94018e-12

-1.70781e-12 -8.17669e-14 4.50305e-12
-8.17669e-14 -3.20031e-13 4.53377e-12
4.50305e-12 4.53377e-12 -1.65834e-13

1.52773e-12 1.00974e-28 5.01142e-13
1.00974e-28 1.99032e-12 -3.9995e-13
5.01142e-13 -3.9995e-13 2.60712e-12

2.35043e-12 -1.76544e-28 2.69846e-13
-1.76544e-28 -8.87719e-13 2.69846e-13
2.69846e-13 2.69846e-13 1.27105e-12

-4.43235e-12 1.43837e-12 3.25261e-12
1.43837e-12 -1.65679e-12 -3.9995e-12
3.25261e-12 -3.9995e-12 -1.3484e-12

4.52153e-13 -1.30104e-13 1.15648e-12
-1.30104e-13 -1.86081e-12 -1.56607e-13
1.15648e-12 -1.56607e-13 -1.70661e-12

-2.2066e-13 1.01192e-12 1.21913e-12
1.01192e-12 -2.99622e-12 2.64063e-12
1.21913e-12 2.64063e-12 -1.14585e-12

-2.58143e-12 -3.00685e-12 4.37536e-12
-3.00685e-12 -4.4318e-12 -7.70988e-13
4.37536e-12 -7.70988e-13 -4.22661e-13

1.0669e-12 -1.61004e-12 5.30054e-13
-1.61004e-12 -3.09644e-12 -1.14684e-12
5.30054e-13 -1.14684e-12 -1.66684e-13

-2.18665e-13 -1.18539e-12 1.97009e-12
-1.18539e-12 -2.99422e-12 4.34163e-12
1.97009e-12 4.34163e-12 4.40726e-12

2.5577e-12 8.96274e-13 1.07938e-12
8.96274e-13 1.63251e-12 -3.05022e-12
1.07938e-12 -3.05022e-12 2.5577e-12

-7.86704e-13 5.78241e-14 6.82806e-12
5.78241e-14 -1.71189e-12 4.06696e-12
6.82806e-12 4.06696e-12 2.9268e-13

3.63536e-12 2.08167e-12 -2.94903e-12
2.08167e-12 8.59798e-13 1.38296e-12
-2.94903e-12 1.38296e-12 3.97206e-13

7.07722e-13 4.62593e-13 -1.97566e-13
4.62593e-13 -2.53043e-12 3.87422e-12
-1.97566e-13 3.87422e-12 2.45129e-13

-5.61657e-12 3.64292e-12 -3.66219e-13
3.64292e-12 -1.91583e-12 -4.81868e-14
-3.66219e-13 -4.81868e-14 -1.45323e-12

-4.79331e-12 2.1684e-13 -1.02156e-12
2.1684e-13 3.07077e-12 -1.40223e-12
-1.02156e-12 -1.40223e-12 3.22496e-12

8.11966e-13 1.50343e-12 4.95119e-12
1.50343e-12 2.19974e-12 -3.25743e-12
4.95119e-12 -3.25743e-12 -1.1926e-12

2.60831e-12 2.3997e-12 -5.58966e-12
2.3997e-12 2.95342e-13 -2.98758e-13
-5.58966e-12 -2.98758e-13 6.92584e-12

-4.79386e-12 -3.70074e-12 -1.89856e-12
-3.70074e-12 2.14503e-12 1.71304e-12
-1.89856e-12 1.71304e-12 1.37404e-12

-8.33808e-12 1.61908e-12 -1.46488e-12
1.61908e-12 -4.74002e-13 -1.49379e-13
-1.46488e-12 -1.49379e-13 -2.63277e-12

4.47574e-13 9.25186e-13 -5.72459e-12
9.25186e-13 -6.95391e-12 8.53869e-12
-5.72459e-12 8.53869e-12 6.01771e-13

-2.01756e-12 -1.85037e-12 -4.22237e-12
-1.85037e-12 2.14578e-12 8.67362e-13
-4.22237e-12 8.67362e-13 1.37479e-12

-2.58165e-12 -1.15648e-12 7.999e-13
-1.15648e-12 1.11909e-12 4.52956e-13
7.999e-13 4.52956e-13 -4.22884e-13

-3.76383e-12 -8.3845e-13 -8.67362e-13
-8.3845e-13 -6.30875e-14 5.71736e-12
-8.67362e-13 5.71736e-12 3.99505e-13

-8.34784e-13 -1.73472e-12 3.10805e-12
-1.73472e-12 -3.72191e-13 3.95131e-13
3.10805e-12 3.95131e-13 -1.29738e-12

8.60331e-13 -3.23815e-12 -5.54148e-14
-3.23815e-12 -1.91523e-12 2.65509e-12
-5.54148e-14 2.65509e-12 3.1733e-12

-2.0689e-12 -2.54426e-12 5.49329e-13
-2.54426e-12 -6.69483e-12 5.23308e-12
5.49329e-13 5.23308e-12 -1.14371e-12

8.52068e-12 2.31296e-13 4.52956e-13
2.31296e-13 6.20771e-12 1.60944e-12
4.52956e-13 1.60944e-12 2.81536e-12

2.91839e-12 2.83338e-12 5.26199e-12
2.83338e-12 3.84357e-12 -4.63557e-12
5.26199e-12 -4.63557e-12 2.1474e-12

-5.35842e-12 4.53919e-12 -7.70988e-13
4.53919e-12 1.58047e-12 9.63735e-14
-7.70988e-13 9.63735e-14 -8.86693e-13

-4.07242e-12 4.62593e-13 1.63835e-12
4.62593e-13 1.01611e-12 -2.9153e-12
1.63835e-12 -2.9153e-12 3.32907e-12

3.84343e-12 8.09538e-13 -3.79712e-12
8.09538e-13 2.45565e-12 4.16575e-12
-3.79712e-12 4.16575e-12 2.60984e-12

3.07173e-12 -6.93889e-13 9.05911e-13
-6.93889e-13 3.07173e-12 -4.50064e-12
9.05911e-13 -4.50064e-12 3.68852e-12

2.55725e-12 -1.27213e-12 -3.29597e-12
-1.27213e-12 -2.18312e-13 2.64063e-12
-3.29597e-12 2.64063e-12 4.40762e-12

3.84205e-12 -1.85037e-12 1.92024e-12
-1.85037e-12 4.30464e-12 -4.10551e-12
1.92024e-12 -4.10551e-12 3.53365e-12

-3.3554e-12 -1.15648e-12 -8.67362e-13
-1.15648e-12 3.4534e-13 -6.26428e-13
-8.67362e-13 -6.26428e-13 2.04151e-12

8.09932e-13 1.87928e-13 4.04769e-13
1.87928e-13 6.82364e-12 -5.97516e-13
4.04769e-13 -5.97516e-13 2.50611e-12

-1.40214e-14 -1.27213e-12 3.2767e-13
-1.27213e-12 5.99969e-12 1.19503e-12
3.2767e-13 1.19503e-12 1.99055e-12

-1.8127e-12 -1.47451e-12 2.54908e-12
-1.47451e-12 5.00266e-13 5.65713e-12
2.54908e-12 5.65713e-12 1.27125e-12

1.47729e-12 -1.56125e-12 6.39679e-13
-1.56125e-12 -3.73078e-13 7.70988e-14
6.39679e-13 7.70988e-14 1.93989e-12

-5.26682e-13 4.62593e-13 2.3226e-12
4.62593e-13 -5.15261e-12 -8.28812e-13
2.3226e-12 -8.28812e-13 -5.26682e-13

5.52578e-13 -3.93204e-12 -2.52017e-12
-3.93204e-12 -6.38632e-12 1.48415e-12
-2.52017e-12 1.48415e-12 5.52578e-13

-3.81604e-12 8.09538e-13 -8.43268e-13
8.09538e-13 8.09892e-13 -9.44461e-13
-8.43268e-13 -9.44461e-13 2.04347e-12

3.53306e-12 -3.46945e-13 6.64014e-12
-3.46945e-13 3.07047e-12 -6.12454e-12
6.64014e-12 -6.12454e-12 6.00022e-12

2.91696e-12 2.65991e-12 -4.15852e-12
2.65991e-12 -7.83782e-13 4.51028e-12
-4.15852e-12 4.51028e-12 1.22079e-12

-1.50322e-12 1.37332e-12 2.85266e-12
1.37332e-12 -1.50322e-12 2.74665e-12
2.85266e-12 2.74665e-12 2.04332e-12

7.59318e-12 -1.87657e-12 -1.9082e-12
-1.87657e-12 6.54287e-13 4.56961e-12
-1.9082e-12 4.56961e-12 9.62683e-13

5.48621e-12 4.62593e-13 -3.92963e-12
4.62593e-13 4.09843e-12 -9.68554e-13
-3.92963e-12 -9.68554e-13 6.4114e-12

-4.84542e-12 9.54098e-13 -5.49329e-13
9.54098e-13 -2.19486e-13 -7.90263e-13
-5.49329e-13 -7.90263e-13 7.057e-13

-7.32696e-13 -1.6769e-12 6.27633e-13
-1.6769e-12 -7.67159e-12 -1.16612e-12
6.27633e-13 -1.16612e-12 9.63478e-13

2.44139e-13 1.73472e-12 -4.56329e-12
1.73472e-12 1.16932e-12 -2.45271e-12
-4.56329e-12 -2.45271e-12 2.5571e-12

1.89043e-12 -4.74338e-12 4.7464e-13
-4.74338e-12 3.27821e-12 4.33681e-13
4.7464e-13 4.33681e-13 3.12401e-12

-2.84026e-12 1.56848e-12 1.42618e-12
1.56848e-12 -5.15322e-12 3.70074e-12
1.42618e-12 3.70074e-12 -9.89888e-13

8.60412e-13 -6.93889e-13 1.07938e-12
-6.93889e-13 -2.37774e-12 -9.49279e-13
1.07938e-12 -9.49279e-13 8.60412e-13

4.3057e-12 -5.36319e-12 -3.3538e-12
-5.36319e-12 6.04956e-13 7.21838e-12
-3.3538e-12 7.21838e-12 1.22175e-12

1.7856e-12 2.12504e-12 -9.25186e-13
2.12504e-12 -1.45255e-12 1.4697e-13
-9.25186e-13 1.4697e-13 1.7856e-12

2.76116e-12 -5.43547e-12 -4.13442e-12
-5.43547e-12 4.48195e-13 2.12022e-12
-4.13442e-12 2.12022e-12 -7.85386e-13

4.71345e-12 3.70074e-12 2.54426e-12
3.70074e-12 8.75192e-14 -2.19732e-12
2.54426e-12 -2.19732e-12 1.01271e-12

-8.44082e-12 1.79255e-12 6.5534e-13
1.79255e-12 -2.42711e-12 -4.21152e-12
6.5534e-13 -4.21152e-12 -3.96909e-12

-2.8413e-12 1.6769e-12 4.52956e-12
1.6769e-12 -1.45353e-12 1.81182e-12
4.52956e-12 1.81182e-12 8.59439e-13

1.28377e-11 -4.39463e-12 1.64799e-12
-4.39463e-12 5.43622e-12 1.9082e-12
1.64799e-12 1.9082e-12 2.96906e-12

-4.89676e-12 -5.78241e-13 -9.44461e-13
-5.78241e-13 -2.5838e-12 8.98683e-13
-9.44461e-13 8.98683e-13 2.81312e-12

-7.8267e-12 -1.38778e-12 -1.39742e-12
-1.38778e-12 -2.27558e-12 -5.97516e-13
-1.39742e-12 -5.97516e-13 -1.042e-12

-3.20733e-13 2.31296e-13 -2.50571e-13
2.31296e-13 3.8426e-12 -4.2308e-12
-2.50571e-13 -4.2308e-12 -1.66535e-13

-3.35373e-12 -1.96602e-12 -9.68554e-13
-1.96602e-12 -3.35373e-12 -8.42787e-12
-9.68554e-13 -8.42787e-12 1.92815e-13

-5.15471e-12 6.93889e-13 2.40934e-12
6.93889e-13 -1.91656e-12 -2.60209e-12
2.40934e-12 -2.60209e-12 -1.91656e-12

-1.86411e-12 9.8301e-13 2.80929e-12
9.8301e-13 2.29923e-12 1.03451e-12
2.80929e-12 1.03451e-12 1.99083e-12

8.97994e-12 -1.61908e-12 -8.19175e-13
-1.61908e-12 5.74179e-12 -1.63835e-13
-8.19175e-13 -1.63835e-13 5.58759e-12

1.4787e-12 1.15648e-12 -2.90325e-12
1.15648e-12 7.49241e-12 -4.25971e-12
-2.90325e-12 -4.25971e-12 2.40388e-12

-5.30469e-12 -6.36065e-12 6.74615e-14
-6.36065e-12 -6.78763e-13 -1.97566e-13
6.74615e-14 -1.97566e-13 -1.14136e-12

3.99709e-12 3.70074e-12 5.43547e-12
3.70074e-12 1.68412e-12 6.17754e-12
5.43547e-12 6.17754e-12 1.37573e-12

-4.23209e-13 -7.91468e-13 2.2178e-12
-7.91468e-13 -2.27358e-12 -4.33681e-12
2.2178e-12 -4.33681e-12 -1.14814e-13

9.63172e-13 -3.46945e-13 5.69568e-12
-3.46945e-13 -4.24607e-13 1.1101e-12
5.69568e-12 1.1101e-12 2.19675e-12

1.22098e-12 -1.38778e-12 -1.64317e-12
-1.38778e-12 4.45913e-12 -1.73472e-13
-1.64317e-12 -1.73472e-13 4.15073e-12

8.09325e-13 -6.36065e-13 3.86699e-13
-6.36065e-13 3.12229e-12 5.28127e-12
3.86699e-13 5.28127e-12 3.43068e-12

-8.34058e-12 -3.67251e-12 -1.92747e-14
-3.67251e-12 -3.71465e-12 4.29382e-12
-1.92747e-14 4.29382e-12 -2.17267e-12

-2.68689e-12 -4.93312e-13 3.85494e-14
-4.93312e-13 -3.73926e-13 1.16439e-12
3.85494e-14 1.16439e-12 -2.2243e-12

-2.63427e-12 1.61908e-12 -2.04312e-12
1.61908e-12 6.61759e-12 -4.12479e-12
-2.04312e-12 -4.12479e-12 2.14585e-12

7.54056e-12 -2.31296e-13 -7.90263e-13
-2.31296e-13 -4.02427e-12 6.16791e-13
-7.90263e-13 6.16791e-13 -1.69326e-13

1.32413e-12 -6.93889e-13 -3.31525e-12
-6.93889e-13 4.09969e-12 -2.21659e-12
-3.31525e-12 -2.21659e-12 -5.26243e-13

1.73339e-12 2.85507e-12 1.70912e-12
2.85507e-12 3.12117e-12 -4.56811e-12
1.70912e-12 -4.56811e-12 -2.71182e-13

-2.37659e-12 -1.85037e-12 1.25286e-12
-1.85037e-12 5.95008e-12 1.92747e-14
1.25286e-12 1.92747e-14 1.32415e-12

4.04653e-12 6.36065e-13 6.45703e-12
6.36065e-13 1.73357e-12 5.05961e-14
6.45703e-12 5.05961e-14 1.57937e-12

-3.71391e-12 -2.31296e-12 -9.68554e-13
-2.31296e-12 -1.40094e-12 -9.44461e-13
-9.68554e-13 -9.44461e-13 -7.84152e-13

4.20092e-12 3.1225e-12 -5.78241e-13
3.1225e-12 3.27574e-12 -3.78266e-13
-5.78241e-13 -3.78266e-13 8.08574e-13

-1.40105e-12 3.70074e-12 5.43065e-12
3.70074e-12 9.1191e-13 -6.89071e-13
5.43065e-12 -6.89071e-13 5.69204e-12

-2.17374e-12 2.76833e-12 3.03577e-13
2.76833e-12 -3.09892e-12 2.79483e-12
3.03577e-13 2.79483e-12 2.93426e-13

-5.25249e-13 -2.02384e-12 -4.06696e-12
-2.02384e-12 -2.83821e-12 -1.68654e-13
-4.06696e-12 -1.68654e-13 -6.2656e-14

-5.51189e-12 -3.3538e-12 4.49101e-12
-3.3538e-12 3.92266e-14 -2.684e-12
4.49101e-12 -2.684e-12 2.66059e-12

-2.37782e-12 3.00685e-12 5.78241e-14
3.00685e-12 1.32292e-12 -9.34823e-13
5.78241e-14 -9.34823e-13 3.97737e-13

3.79231e-12 -2.13949e-12 -2.69846e-13
-2.13949e-12 2.40453e-12 -1.63233e-12
-2.69846e-13 -1.63233e-12 2.40453e-12

5.43728e-12 6.93889e-13 -3.53691e-12
6.93889e-13 4.51209e-12 -4.80904e-12
-3.53691e-12 -4.80904e-12 2.97012e-12

-2.37797e-12 -7.51714e-13 1.49379e-12
-7.51714e-13 8.60178e-13 -3.70556e-12
1.49379e-12 -3.70556e-12 8.60178e-13

6.4625e-12 -2.73219e-12 -2.00457e-12
-2.73219e-12 1.83657e-12 2.38163e-12
-2.00457e-12 2.38163e-12 2.45336e-12

5.5394e-12 -3.23815e-12 3.94168e-12
-3.23815e-12 3.22643e-12 -2.89121e-14
3.94168e-12 -2.89121e-14 1.99285e-12

5.33336e-12 1.50343e-12 -1.97084e-12
1.50343e-12 -1.60554e-12 3.92963e-12
-1.97084e-12 3.92963e-12 3.02039e-12

-4.76e-13 4.62593e-13 -1.91783e-12
4.62593e-13 1.37437e-12 3.85012e-12
-1.91783e-12 3.85012e-12 -1.24699e-12

8.00417e-12 1.96602e-12 -5.5463e-12
1.96602e-12 2.91564e-12 -6.31488e-12
-5.5463e-12 -6.31488e-12 3.53243e-12

-9.72953e-12 4.04769e-12 1.4456e-12
4.04769e-12 -2.79063e-12 -3.56582e-13
1.4456e-12 -3.56582e-13 -1.71125e-12

6.10458e-12 -1.85037e-12 2.68882e-12
-1.85037e-12 2.40384e-12 -4.18261e-12
2.68882e-12 -4.18261e-12 2.86643e-12

2.35309e-12 9.25186e-13 7.999e-13
9.25186e-13 4.01252e-14 1.55161e-12
7.999e-13 1.55161e-12 3.4852e-13

-3.14804e-12 5.3946e-12 2.59245e-12
5.3946e-12 4.71604e-12 -4.28718e-12
2.59245e-12 -4.28718e-12 -1.29767e-12

-2.22163e-12 -9.25186e-13 -3.66219e-13
-9.25186e-13 2.4043e-12 2.73701e-12
-3.66219e-13 2.73701e-12 9.13367e-14

-5.66786e-12 -4.04769e-13 4.43318e-13
-4.04769e-13 -1.96712e-12 7.95082e-14
4.43318e-13 7.95082e-14 -1.65873e-12

5.12582e-12 7.51714e-13 -2.25514e-12
7.51714e-13 4.99894e-13 4.70785e-12
-2.25514e-12 4.70785e-12 2.65866e-12

1.78784e-12 -5.49329e-13 -9.25186e-13
-5.49329e-13 8.62655e-13 4.40427e-12
-9.25186e-13 4.40427e-12 -5.25124e-13

-7.05732e-12 -2.31296e-12 -7.03527e-13
-2.31296e-12 -1.9688e-12 -8.67362e-14
-7.03527e-13 -8.67362e-14 -2.72621e-13

-3.09624e-12 4.19225e-12 3.13214e-12
4.19225e-12 -1.70846e-12 -1.25286e-13
3.13214e-12 -1.25286e-13 -1.66488e-13

-1.81478e-12 9.25186e-13 2.83338e-12
9.25186e-13 -1.19918e-11 -4.7223e-12
2.83338e-12 -4.7223e-12 -2.89416e-12

-1.39902e-12 1.95156e-13 -3.77302e-12
1.95156e-13 -3.24939e-12 -6.07153e-13
-3.77302e-12 -6.07153e-13 -1.24482e-12

-2.27303e-12 2.94903e-12 2.12022e-12
2.94903e-12 -4.22662e-13 1.15648e-13
2.12022e-12 1.15648e-13 -1.14267e-13

-6.7841e-13 -3.5851e-12 2.40934e-12
-3.5851e-12 2.55974e-12 -6.11972e-13
2.40934e-12 -6.11972e-13 2.09715e-12

-2.19128e-13 1.20437e-12 1.41398e-13
1.20437e-12 -2.99469e-12 1.06975e-12
1.41398e-13 1.06975e-12 1.63124e-12

4.81923e-12 5.31982e-12 -1.12757e-12
5.31982e-12 -1.13715e-11 -9.63735e-15
-1.12757e-12 -9.63735e-15 -8.86084e-13

3.99013e-13 9.17958e-13 3.15141e-12
9.17958e-13 8.72569e-12 1.89856e-12
3.15141e-12 1.89856e-12 1.3242e-12

-7.33864e-13 -3.32489e-12 7.70988e-14
-3.32489e-12 -3.04683e-12 -4.28742e-12
7.70988e-14 -4.28742e-12 -8.88062e-13

-4.73767e-13 9.8301e-13 2.31296e-12
9.8301e-13 -2.32414e-12 -9.63735e-14
2.31296e-12 -9.63735e-14 -3.1957e-13

-4.48253e-12 1.27213e-12 -1.00228e-12
1.27213e-12 -1.24438e-12 -2.31296e-13
-1.00228e-12 -2.31296e-13 -2.01536e-12

6.57511e-13 1.14203e-12 -9.25186e-13
1.14203e-12 6.57511e-13 3.28875e-13
-9.25186e-13 3.28875e-13 -4.21872e-13

1.88864e-12 -1.44741e-12 -3.70677e-12
-1.44741e-12 2.81382e-12 4.50546e-12
-3.70677e-12 4.50546e-12 3.58481e-12

-3.86816e-12 -2.31296e-12 -6.07153e-13
-2.31296e-12 -1.67417e-13 5.01142e-13
-6.07153e-13 5.01142e-13 -1.32191e-14

-2.3768e-12 4.70182e-12 -4.6452e-12
4.70182e-12 -9.89022e-13 2.21659e-13
-4.6452e-12 2.21659e-13 -6.38361e-14

-1.65915e-12 -6.93889e-13 -1.24322e-12
-6.93889e-13 -1.19656e-12 4.29826e-12
-1.24322e-12 4.29826e-12 9.62207e-13

7.90072e-12 -1.73472e-13 -1.17576e-12
-1.73472e-13 3.66445e-14 -4.20189e-12
-1.17576e-12 -4.20189e-12 3.1206e-12

4.45842e-12 -1.04083e-12 -2.32742e-12
-1.04083e-12 4.45842e-12 -7.999e-13
-2.32742e-12 -7.999e-13 3.68743e-12

-1.19304e-12 -5.34873e-12 2.35151e-12
-5.34873e-12 2.9703e-12 -6.26428e-14
2.35151e-12 -6.26428e-14 1.89091e-12

-2.53034e-12 -1.61908e-12 -3.79712e-12
-1.61908e-12 -1.60516e-12 -1.06011e-13
-3.79712e-12 -1.06011e-13 -2.17378e-13

-9.89535e-13 -3.7405e-13 1.70461e-13
-3.7405e-13 -2.83991e-12 3.88385e-12
1.70461e-13 3.88385e-12 3.98244e-13

1.73424e-12 -1.65385e-12 3.87301e-12
-1.65385e-12 -2.4291e-12 4.66056e-12
3.87301e-12 4.66056e-12 2.50522e-12

3.94507e-12 -1.50343e-12 -2.31056e-12
-1.50343e-12 1.63211e-12 4.63557e-12
-2.31056e-12 4.63557e-12 6.72063e-12

-3.76447e-12 -3.64653e-12 1.80218e-12
-3.64653e-12 2.24924e-12 1.42829e-12
1.80218e-12 1.42829e-12 3.63702e-12

-2.94169e-12 -6.93889e-13 -3.28634e-12
-6.93889e-13 1.22165e-12 3.18033e-13
-3.28634e-12 3.18033e-13 4.50658e-13

2.95136e-13 -1.79255e-12 1.05168e-12
-1.79255e-12 -2.94301e-12 1.74436e-12
1.05168e-12 1.74436e-12 4.15008e-12

2.4543e-12 3.00685e-12 2.09131e-12
3.00685e-12 5.69245e-12 3.56582e-13
2.09131e-12 3.56582e-13 3.53368e-12

2.29909e-12 -1.89374e-12 -4.82349e-12
-1.89374e-12 9.11312e-13 5.66285e-12
-4.82349e-12 5.66285e-12 1.9907e-12

5.02344e-13 -2.13949e-12 -2.08167e-12
-2.13949e-12 -1.81062e-12 6.77024e-13
-2.08167e-12 6.77024e-13 1.27333e-12

6.02876e-13 1.73472e-13 -4.41391e-12
1.73472e-13 6.02876e-13 -2.04794e-14
-4.41391e-12 -2.04794e-14 -6.30706e-13

-1.09144e-12 -3.7658e-12 -1.79255e-12
-3.7658e-12 -5.25478e-12 1.82146e-12
-1.79255e-12 1.82146e-12 -4.74653e-13

4.46159e-12 5.20417e-13 -8.15561e-13
5.20417e-13 9.08752e-12 2.89121e-13
-8.15561e-13 2.89121e-13 4.61578e-12

5.74202e-12 6.93889e-13 -2.89121e-13
6.93889e-13 -3.50984e-12 1.06011e-13
-2.89121e-13 1.06011e-13 1.42449e-12

-8.87371e-13 1.4456e-12 -7.70988e-13
1.4456e-12 -2.27515e-12 5.54148e-14
-7.70988e-13 5.54148e-14 3.46211e-13

-2.42835e-12 -1.27213e-12 1.94675e-12
-1.27213e-12 -3.35354e-12 3.70074e-12
1.94675e-12 3.70074e-12 -7.32176e-13

-1.01389e-11 1.85037e-12 3.66219e-13
1.85037e-12 -7.82593e-12 4.43318e-13
3.66219e-13 4.43318e-13 -4.27939e-12

2.14638e-12 1.61908e-12 -1.9612e-12
1.61908e-12 3.07156e-12 1.4456e-13
-1.9612e-12 1.4456e-13 1.83798e-12

1.27176e-12 -1.6829e-28 -4.81868e-14
-1.6829e-28 -1.96639e-12 1.2384e-12
-4.81868e-14 1.2384e-12 2.50534e-12

9.61876e-13 -4.62593e-13 -1.91301e-12
-4.62593e-13 9.61876e-13 2.98758e-12
-1.91301e-12 2.98758e-12 8.07678e-13

1.78713e-12 -5.78241e-14 -1.72027e-12
-5.78241e-14 -4.68917e-12 4.76085e-12
-1.72027e-12 4.76085e-12 -5.25837e-13

4.4049e-12 -4.85723e-12 -1.8311e-13
-4.85723e-12 1.45819e-11 2.88157e-12
-1.8311e-13 2.88157e-12 4.4049e-12

-3.45731e-12 2.02384e-13 -3.4839e-12
2.02384e-13 -2.99472e-12 4.90541e-12
-3.4839e-12 4.90541e-12 -6.81751e-13

4.51168e-12 4.04769e-13 1.34923e-12
4.04769e-13 -5.76837e-13 4.67412e-13
1.34923e-12 4.67412e-13 6.56744e-13

5.12861e-12 -1.04083e-12 2.65991e-12
-1.04083e-12 3.27824e-12 2.40934e-13
2.65991e-12 2.40934e-13 2.66145e-12

-6.30322e-13 3.70074e-12 -3.71038e-12
3.70074e-12 2.14524e-12 -1.91783e-12
-3.71038e-12 -1.91783e-12 2.76203e-12

3.5351e-12 7.22801e-13 -5.02106e-12
7.22801e-13 2.60992e-12 8.3845e-13
-5.02106e-12 8.3845e-13 9.13743e-13

1.07314e-11 1.85037e-12 -1.97566e-12
1.85037e-12 4.7177e-12 4.48137e-13
-1.97566e-12 4.48137e-13 4.25511e-12

3.58238e-12 3.5851e-12 2.17202e-12
3.5851e-12 1.09839e-11 -3.85494e-14
2.17202e-12 -3.85494e-14 3.89077e-12

-3.66219e-12 2.31296e-12 3.95131e-13
2.31296e-12 -6.90034e-12 -6.44739e-12
3.95131e-13 -6.44739e-12 -5.78232e-13

4.71627e-12 1.27936e-12 -1.39742e-12
1.27936e-12 5.17886e-12 -9.23379e-13
-1.39742e-12 -9.23379e-13 7.02924e-12

3.9779e-13 4.42716e-13 6.192e-13
4.42716e-13 4.56113e-12 8.42858e-12
6.192e-13 8.42858e-12 5.48631e-12

-4.27662e-12 1.09866e-12 -1.54198e-13
1.09866e-12 -5.75876e-13 3.51763e-13
-1.54198e-13 3.51763e-13 -1.65526e-12

-1.6582e-12 -5.78241e-13 3.18033e-13
-5.78241e-13 1.92174e-13 8.56761e-12
3.18033e-13 8.56761e-12 -4.24617e-13

4.25151e-12 1.34632e-28 -5.68604e-13
1.34632e-28 -4.07516e-12 1.8311e-13
-5.68604e-13 1.8311e-13 8.81752e-14

9.39421e-12 1.02999e-12 1.01192e-12
1.02999e-12 3.3805e-12 3.56025e-12
1.01192e-12 3.56025e-12 4.45989e-12

-3.50674e-12 3.3538e-12 2.64666e-12
3.3538e-12 -9.05786e-12 2.88157e-12
2.64666e-12 2.88157e-12 -3.19835e-12

-4.02353e-12 4.62593e-12 -1.13721e-12
4.62593e-12 -3.56093e-12 -6.8377e-12
-1.13721e-12 -6.8377e-12 -1.68586e-13

-1.55485e-12 9.25186e-13 -2.1925e-12
9.25186e-13 -2.48004e-12 -1.08902e-12
-2.1925e-12 -1.08902e-12 -1.28745e-14

4.4834e-13 1.79255e-12 2.42771e-12
1.79255e-12 2.29871e-12 -2.73701e-12
2.42771e-12 -2.73701e-12 2.45291e-12

-2.4292e-12 7.51714e-13 5.43306e-13
7.51714e-13 -7.98032e-12 7.13164e-13
5.43306e-13 7.13164e-13 -1.65821e-12

-1.81007e-12 -1.96602e-12 4.81868e-13
-1.96602e-12 -1.34747e-12 5.87878e-13
4.81868e-13 5.87878e-13 3.487e-13

2.29978e-12 -1.38778e-12 -8.04719e-13
-1.38778e-12 4.49405e-13 1.9082e-12
-8.04719e-13 1.9082e-12 2.45397e-12

-1.19498e-12 2.39247e-12 4.65002e-12
2.39247e-12 7.13169e-12 -1.25286e-13
4.65002e-12 -1.25286e-13 5.01193e-13

6.46196e-12 -3.46945e-13 8.73144e-12
-3.46945e-13 -3.71509e-12 -1.34923e-13
8.73144e-12 -1.34923e-13 -3.22738e-13

5.4995e-13 2.3997e-12 -1.32634e-12
2.3997e-12 1.25774e-11 -7.51714e-13
-1.32634e-12 -7.51714e-13 3.7881e-12

2.86786e-12 1.38778e-12 1.59498e-12
1.38778e-12 -5.9214e-12 -2.69846e-13
1.59498e-12 -2.69846e-13 -2.22066e-12

8.72333e-12 4.16334e-12 1.9082e-12
4.16334e-12 5.02258e-12 -4.16334e-12
1.9082e-12 -4.16334e-12 2.24702e-12

-1.70838e-12 2.08167e-12 6.74615e-14
2.08167e-12 -2.17097e-12 -7.61351e-13
6.74615e-14 -7.61351e-13 -1.09159e-12

2.19575e-12 -2.83338e-12 -8.28812e-13
-2.83338e-12 -3.35536e-12 -1.88169e-12
-8.28812e-13 -1.88169e-12 1.91182e-13

3.89016e-12 -1.22515e-12 -3.36705e-12
-1.22515e-12 1.45298e-11 -1.65762e-12
-3.36705e-12 -1.65762e-12 4.66115e-12

4.48922e-13 1.59016e-13 -1.50343e-12
1.59016e-13 2.76189e-12 -4.69821e-13
-1.50343e-12 -4.69821e-13 1.9909e-12

1.35065e-11 -2.65991e-12 5.78241e-13
-2.65991e-12 2.86683e-12 2.21418e-12
5.78241e-13 2.21418e-12 6.10498e-12

2.91663e-12 2.08167e-12 -1.21913e-12
2.08167e-12 6.03667e-13 3.75375e-12
-1.21913e-12 3.75375e-12 -1.67321e-13

2.3512e-12 1.50343e-12 2.35392e-12
1.50343e-12 1.42602e-12 6.26428e-14
2.35392e-12 6.26428e-14 4.50997e-12

-1.39426e-11 4.62593e-13 -6.93889e-13
4.62593e-13 -3.303e-12 4.60665e-12
-6.93889e-13 4.60665e-12 -2.84041e-12

2.71019e-12 -1.83592e-12 5.02588e-12
-1.83592e-12 -2.84092e-12 -3.0695e-12
5.02588e-12 -3.0695e-12 2.2476e-12

-5.04848e-12 3.3538e-12 1.06011e-12
3.3538e-12 -2.73552e-12 -5.87878e-13
1.06011e-12 -5.87878e-13 -5.76749e-13

7.64437e-12 9.1073e-13 -6.22091e-12
9.1073e-13 2.55585e-12 2.67858e-12
-6.22091e-12 2.67858e-12 4.86882e-12

1.27217e-12 1.15648e-13 3.7658e-12
1.15648e-13 -1.50338e-12 2.73701e-12
3.7658e-12 2.73701e-12 4.81872e-12

-2.17935e-13 -4.62593e-13 -3.95613e-12
-4.62593e-13 2.09503e-12 3.01649e-12
-3.95613e-12 3.01649e-12 2.09503e-12

-3.19959e-12 -1.21431e-12 4.2826e-12
-1.21431e-12 -9.2133e-12 -5.53184e-12
4.2826e-12 -5.53184e-12 1.27214e-12

-8.37008e-13 7.62556e-13 2.3491e-14
7.62556e-13 5.50771e-13 1.46488e-12
2.3491e-14 1.46488e-12 -2.22479e-12

-6.29678e-13 1.96602e-12 -1.65281e-12
1.96602e-12 3.07107e-12 -4.92469e-12
-1.65281e-12 -4.92469e-12 1.83748e-12

1.04193e-11 -9.25186e-13 8.28812e-12
-9.25186e-13 3.01778e-12 3.75857e-12
8.28812e-12 3.75857e-12 1.63e-12

-1.45266e-12 -9.25186e-13 1.85519e-13
-9.25186e-13 -1.91526e-12 3.66701e-12
1.85519e-13 3.66701e-12 -6.48849e-14

-9.87898e-13 -2.31296e-12 7.49786e-12
-2.31296e-12 4.10062e-12 2.08167e-12
7.49786e-12 2.08167e-12 1.78766e-12

-3.21905e-13 -1.27213e-12 4.31031e-12
-1.27213e-12 -3.21905e-13 -3.9224e-12
4.31031e-12 -3.9224e-12 1.22007e-12

1.07313e-11 -2.77556e-12 7.90263e-13
-2.77556e-12 4.71764e-12 1.78773e-12
7.90263e-13 1.78773e-12 1.47949e-12

5.07553e-12 5.78241e-13 2.87675e-12
5.78241e-13 2.76257e-12 5.54148e-12
2.87675e-12 5.54148e-12 2.91676e-12

-5.5112e-12 4.62593e-13 3.08395e-13
4.62593e-13 5.02507e-13 -3.47667e-12
3.08395e-13 -3.47667e-12 -5.76877e-13

9.12422e-13 2.02384e-13 1.86965e-12
2.02384e-13 -4.1761e-12 1.08517e-11
1.86965e-12 1.08517e-11 5.69255e-12

-1.04129e-12 2.3997e-12 4.09587e-14
2.3997e-12 2.19686e-12 2.92976e-12
4.09587e-14 2.92976e-12 6.54888e-13

-2.73778e-12 -2.89121e-13 -1.92747e-13
-2.89121e-13 3.77781e-14 9.75782e-14
-1.92747e-13 9.75782e-14 2.65914e-12

1.99064e-12 -1.61908e-12 -8.29776e-12
-1.61908e-12 -3.56047e-12 -1.9082e-12
-8.29776e-12 -1.9082e-12 -6.30719e-13

4.35633e-12 2.56595e-13 2.1684e-13
2.56595e-13 1.11818e-12 3.88385e-12
2.1684e-13 3.88385e-12 3.73954e-12

-1.24523e-12 -7.51714e-13 4.70785e-12
-7.51714e-13 -4.94597e-12 -2.77556e-12
4.70785e-12 -2.77556e-12 -1.55362e-12

3.84377e-12 1.85037e-12 -2.02384e-13
1.85037e-12 3.38118e-12 -6.26428e-14
-2.02384e-13 -6.26428e-14 1.685e-12

1.10391e-11 1.38778e-12 1.88892e-12
1.38778e-12 1.5665e-11 4.36572e-12
1.88892e-12 4.36572e-12 5.95057e-12

6.97754e-12 6.93889e-13 7.03527e-13
6.93889e-13 9.63833e-13 -2.84784e-12
7.03527e-13 -2.84784e-12 3.47042e-13

3.17304e-12 -1.15648e-12 -1.8311e-13
-1.15648e-12 -4.22845e-12 3.38753e-12
-1.8311e-13 3.38753e-12 3.97478e-13

-2.99317e-12 -1.60281e-12 1.95156e-12
-1.60281e-12 -1.1428e-12 -5.80169e-12
1.95156e-12 -5.80169e-12 -2.17615e-13

-2.22146e-12 -1.15648e-13 1.27213e-12
-1.15648e-13 -3.14665e-12 -1.29141e-12
1.27213e-12 -1.29141e-12 9.15046e-14

-5.78288e-13 -1.6769e-12 -5.29091e-12
-1.6769e-12 -4.27903e-12 2.65027e-13
-5.29091e-12 2.65027e-13 1.11789e-12

-2.99258e-12 3.46945e-12 7.90263e-13
3.46945e-12 -1.14221e-12 4.11033e-12
7.90263e-13 4.11033e-12 -2.17027e-13

1.88705e-12 1.15648e-12 3.62364e-12
1.15648e-12 2.34964e-12 6.26428e-14
3.62364e-12 6.26428e-14 1.27026e-12

-9.36361e-13 5.49329e-13 4.56329e-12
5.49329e-13 -9.36361e-13 5.78241e-13
4.56329e-12 5.78241e-13 -1.24476e-12

-5.77054e-12 1.96602e-12 -5.54148e-13
1.96602e-12 -1.14461e-12 4.60184e-13
-5.54148e-13 4.60184e-13 -2.19426e-13

1.16849e-12 9.61326e-13 4.83509e-12
9.61326e-13 2.09368e-12 -4.91505e-12
4.83509e-12 -4.91505e-12 7.05898e-13

2.24996e-12 1.36248e-12 -1.07938e-12
1.36248e-12 1.32478e-12 3.46945e-12
-1.07938e-12 3.46945e-12 1.32478e-12

4.47996e-13 5.20417e-13 -8.32667e-12
5.20417e-13 -4.7719e-13 2.25514e-12
-8.32667e-12 2.25514e-12 -3.22992e-13

-2.32636e-12 1.27213e-12 -2.14913e-12
1.27213e-12 -1.40118e-12 -3.85494e-12
-2.14913e-12 -3.85494e-12 6.03392e-13

1.5292e-12 -1.48897e-12 3.02763e-12
-1.48897e-12 8.0055e-12 -2.75628e-12
3.02763e-12 -2.75628e-12 4.92155e-12

-2.68368e-12 -1.38778e-12 1.5998e-12
-1.38778e-12 1.01706e-12 2.06239e-12
1.5998e-12 2.06239e-12 -8.33311e-13

-2.94349e-12 -3.81639e-12 8.48087e-13
-3.81639e-12 -8.03201e-12 -2.72737e-12
8.48087e-13 -2.72737e-12 -1.40151e-12

1.78558e-12 7.51714e-13 3.96577e-12
7.51714e-13 5.94892e-12 2.57799e-13
3.96577e-12 2.57799e-13 2.71077e-12

2.04381e-12 -1.38778e-12 3.26706e-12
-1.38778e-12 1.11862e-12 -3.85494e-12
3.26706e-12 -3.85494e-12 5.01834e-13

-3.76677e-12 -2.15395e-12 2.26478e-12
-2.15395e-12 4.09731e-12 -9.8301e-13
2.26478e-12 -9.8301e-13 -9.9121e-13

-1.09163e-12 -9.54098e-13 -4.91505e-12
-9.54098e-13 3.9969e-12 2.12022e-13
-4.91505e-12 2.12022e-13 1.37554e-12

1.11806e-12 1.50343e-12 2.65027e-13
1.50343e-12 5.28139e-12 -5.15598e-13
2.65027e-13 -5.15598e-13 2.81423e-12

1.0676e-11 4.51028e-12 -9.44461e-13
4.51028e-12 6.97525e-12 1.97566e-12
-9.44461e-13 1.97566e-12 4.50809e-12

-2.01717e-12 3.5851e-12 -8.3604e-13
3.5851e-12 1.68357e-12 -4.63557e-12
-8.3604e-13 -4.63557e-12 7.38888e-12

7.64714e-12 2.31296e-13 4.01878e-12
2.31296e-13 2.09602e-12 -4.51028e-12
4.01878e-12 -4.51028e-12 5.33417e-12

3.84517e-14 -1.41308e-12 3.63283e-13
-1.41308e-12 -1.34933e-12 -2.88157e-12
3.63283e-13 -2.88157e-12 4.04759e-12

-3.20309e-13 1.04083e-12 7.14128e-12
1.04083e-12 2.91784e-12 1.13721e-12
7.14128e-12 1.13721e-12 7.59075e-13

1.63834e-11 4.80663e-12 -3.91517e-15
4.80663e-12 -5.82101e-12 -3.8706e-12
-3.91517e-15 -3.8706e-12 1.53041e-11

1.74629e-11 -5.40655e-12 1.89856e-12
-5.40655e-12 -3.35382e-12 -3.75013e-12
1.89856e-12 -3.75013e-12 1.82339e-11

1.0627e-11 -1.23021e-11 -1.19021e-12
-1.23021e-11 5.07585e-12 2.81712e-12
-1.19021e-12 2.81712e-12 1.72575e-11

1.05756e-11 1.12432e-11 8.33541e-12
1.12432e-11 6.87483e-12 -4.14045e-12
8.33541e-12 -4.14045e-12 1.79771e-11

-3.97031e-12 6.21609e-13 6.02575e-12
6.21609e-13 1.91593e-11 3.37307e-14
6.02575e-12 3.37307e-14 1.90051e-11

-2.18681e-13 8.23994e-12 1.85519e-12
8.23994e-12 1.22713e-11 -2.74785e-12
1.85519e-12 -2.74785e-12 1.41217e-11

-2.18696e-13 -8.78927e-12 6.20405e-13
-8.78927e-12 1.22713e-11 -2.76351e-12
6.20405e-13 -2.76351e-12 1.41217e-11

1.68518e-12 5.78241e-13 1.87928e-12
5.78241e-13 -2.47816e-12 1.25767e-12
1.87928e-12 1.25767e-12 -4.73586e-13

-7.92542e-12 1.27213e-12 -4.7223e-13
1.27213e-12 -6.53764e-12 8.33631e-13
-4.7223e-13 8.33631e-13 -2.8369e-12

-2.32452e-12 2.74665e-13 2.7081e-12
2.74665e-13 -1.39933e-12 -2.00848e-12
2.7081e-12 -2.00848e-12 -2.17032e-12

6.05338e-12 2.37079e-12 4.59702e-12
2.37079e-12 3.27783e-12 -4.90059e-12
4.59702e-12 -4.90059e-12 1.73585e-12

-2.1209e-12 -2.31296e-12 -2.09612e-12
-2.31296e-12 -7.20942e-12 6.45703e-13
-2.09612e-12 6.45703e-13 1.88824e-12

-9.90914e-13 4.04769e-13 -1.59016e-12
4.04769e-13 -4.69166e-12 -4.71267e-12
-1.59016e-12 -4.71267e-12 -5.28321e-13

6.72203e-12 6.07153e-12 3.16105e-12
6.07153e-12 4.40907e-12 4.77531e-12
3.16105e-12 4.77531e-12 3.94647e-12

-3.04485e-12 1.15648e-13 -3.82121e-12
1.15648e-13 -3.97004e-12 2.59727e-12
-3.82121e-12 2.59727e-12 -4.23495e-13

5.00325e-13 1.37332e-13 4.40322e-12
1.37332e-13 1.8881e-12 -4.54883e-12
4.40322e-12 -4.54883e-12 3.46127e-13

1.37638e-12 -2.65991e-12 -2.86094e-28
-2.65991e-12 -2.32436e-12 1.73472e-13
-2.86094e-28 1.73472e-13 6.05391e-13

-1.45197e-12 9.1073e-13 3.00294e-12
9.1073e-13 -5.26779e-13 -4.91505e-13
3.00294e-12 -4.91505e-13 1.32359e-12

1.94232e-12 1.15648e-12 5.58966e-13
1.15648e-12 1.01714e-12 3.29597e-12
5.58966e-13 3.29597e-12 9.19516e-14

-1.70862e-12 -6.36065e-13 -3.72966e-12
-6.36065e-13 2.45472e-12 -2.86229e-12
-3.72966e-12 -2.86229e-12 2.60891e-12

1.68171e-12 -2.77556e-12 4.7223e-13
-2.77556e-12 -1.55644e-12 -7.32439e-13
4.7223e-13 -7.32439e-13 -1.40224e-12

-8.13256e-12 2.19732e-12 -2.1684e-12
2.19732e-12 6.56702e-13 4.01275e-12
-2.1684e-12 4.01275e-12 3.99113e-14

-1.8637e-12 1.72388e-12 4.85723e-12
1.72388e-12 -1.8637e-12 1.01192e-13
4.85723e-12 1.01192e-13 -2.17209e-12

-1.91533e-12 -7.51714e-13 3.9465e-12
-7.51714e-13 -1.45273e-12 -3.66701e-12
3.9465e-12 -3.66701e-12 -6.49544e-14

-4.02041e-12 -4.04769e-12 1.47451e-12
-4.04769e-12 -3.55781e-12 -8.43268e-13
1.47451e-12 -8.43268e-13 -2.94102e-12

-5.30889e-12 2.08167e-12 -5.12707e-12
2.08167e-12 -1.60815e-12 -1.9612e-12
-5.12707e-12 -1.9612e-12 -2.20372e-13

-5.41167e-12 -3.46945e-13 -5.78241e-14
-3.46945e-13 -4.94908e-12 -8.60134e-13
-5.78241e-14 -8.60134e-13 -1.68954e-13

3.2771e-12 -1.47813e-12 1.2131e-12
-1.47813e-12 4.20228e-12 5.11743e-12
1.2131e-12 5.11743e-12 3.58549e-12

2.55733e-12 -1.61908e-12 5.34271e-12
-1.61908e-12 1.3197e-11 -2.98758e-13
5.34271e-12 -2.98758e-13 4.8703e-12

-1.09372e-12 -2.31296e-13 -2.15877e-12
-2.31296e-13 2.94062e-13 4.67291e-12
-2.15877e-12 4.67291e-12 2.29863e-12

1.01603e-12 -1.96602e-12 -5.73904e-12
-1.96602e-12 5.53437e-13 -8.5411e-13
-5.73904e-12 -8.5411e-13 1.47862e-12

1.52983e-12 -2.31296e-12 -4.16334e-12
-2.31296e-12 3.84279e-12 6.79433e-13
-4.16334e-12 6.79433e-13 3.5344e-12

6.71982e-12 2.89121e-12 -5.58966e-13
2.89121e-12 7.06114e-13 1.19503e-12
-5.58966e-13 1.19503e-12 2.09389e-12

-1.96678e-12 6.93889e-13 -7.03527e-13
6.93889e-13 -1.96678e-12 -2.66955e-12
-7.03527e-13 -2.66955e-12 1.91984e-13

-1.66485e-13 1.15648e-13 5.78241e-14
1.15648e-13 4.92204e-12 -2.1684e-13
5.78241e-14 -2.1684e-13 -4.7488e-13

2.43896e-13 1.40223e-12 7.22801e-14
1.40223e-12 -4.84463e-12 -2.82374e-12
7.22801e-14 -2.82374e-12 3.01945e-12

6.82235e-12 1.61908e-12 -2.94903e-12
1.61908e-12 5.43457e-12 -6.16791e-13
-2.94903e-12 -6.16791e-13 3.43e-12

-9.90303e-13 2.26779e-13 -7.98997e-13
2.26779e-13 -5.2771e-13 3.18033e-12
-7.98997e-13 3.18033e-12 8.60069e-13

-6.81977e-13 6.14381e-13 -2.6066e-12
6.14381e-13 -6.23309e-12 4.0766e-12
-2.6066e-12 4.0766e-12 -2.19384e-13

-4.17557e-12 8.67362e-13 2.13347e-12
8.67362e-13 -1.8626e-12 -6.64977e-13
2.13347e-12 -6.64977e-13 -2.63359e-12

3.84355e-14 -1.01192e-12 -8.07369e-12
-1.01192e-12 -5.05009e-12 -1.63835e-13
-8.07369e-12 -1.63835e-13 -5.78355e-13

-7.15919e-12 3.23815e-12 3.82603e-12
3.23815e-12 1.16749e-12 1.20949e-12
3.82603e-12 1.20949e-12 -1.14548e-12

-4.32899e-12 -2.11058e-12 4.52956e-13
-2.11058e-12 -2.01602e-12 2.17081e-12
4.52956e-13 2.17081e-12 -4.74048e-13

1.27128e-12 3.41162e-12 6.22693e-12
3.41162e-12 1.27128e-12 -2.74665e-12
6.22693e-12 -2.74665e-12 2.04227e-12

3.7538e-14 -4.86084e-13 1.87898e-12
-4.86084e-13 -1.81283e-12 -2.631e-12
1.87898e-12 -2.631e-12 1.73371e-12

2.1966e-12 -1.15648e-12 4.96324e-13
-1.15648e-12 5.43475e-12 -2.01421e-12
4.96324e-13 -2.01421e-12 2.505e-12

-4.89453e-12 -1.73472e-12 3.60437e-12
-1.73472e-12 1.93996e-13 -5.81915e-12
3.60437e-12 -5.81915e-12 3.97981e-14

-2.17094e-12 1.15648e-12 -4.60665e-12
1.15648e-12 -4.4839e-12 -1.06011e-13
-4.60665e-12 -1.06011e-13 -1.09155e-12

-2.378e-12 -4.38921e-12 4.85964e-12
-4.38921e-12 -2.378e-12 -5.71977e-12
4.85964e-12 -5.71977e-12 -1.45281e-12

-2.27537e-12 -2.08167e-12 -4.46209e-12
-2.08167e-12 1.88797e-12 6.90998e-12
-4.46209e-12 6.90998e-12 3.45994e-13

5.89803e-12 -1.43928e-12 -1.00469e-12
-1.43928e-12 -1.50346e-12 -1.52752e-12
-1.00469e-12 -1.52752e-12 8.51939e-12

5.01382e-13 1.15648e-13 -3.34416e-12
1.15648e-13 1.88916e-12 4.78976e-12
-3.34416e-12 4.78976e-12 3.47184e-13

4.25516e-12 -6.36065e-13 -4.16334e-12
-6.36065e-13 5.18035e-12 -2.22623e-12
-4.16334e-12 -2.22623e-12 1.9422e-12

-6.51436e-14 -1.74195e-12 -2.07595e-12
-1.74195e-12 4.56079e-12 4.60665e-12
-2.07595e-12 4.60665e-12 3.97449e-13

5.99977e-12 -5.78241e-14 5.14635e-12
-5.78241e-14 -4.76532e-13 9.97466e-13
5.14635e-12 9.97466e-13 -3.22334e-13

5.53527e-13 -3.00685e-12 -3.2767e-13
-3.00685e-12 -2.68462e-12 8.57724e-12
-3.2767e-13 8.57724e-12 -3.71659e-13

3.79073e-12 -3.72243e-13 2.60209e-13
-3.72243e-13 1.01517e-12 5.43547e-12
2.60209e-13 5.43547e-12 9.34185e-12

5.22913e-12 -3.46945e-13 2.45752e-12
-3.46945e-13 5.69173e-12 -6.59195e-12
2.45752e-12 -6.59195e-12 3.53296e-12

-3.14848e-12 -2.54426e-12 -4.04769e-13
-2.54426e-12 -6.38663e-12 -1.7299e-12
-4.04769e-13 -1.7299e-12 -1.29811e-12

3.46931e-13 -8.67362e-13 -5.07166e-13
-8.67362e-13 -1.02927e-11 5.82096e-12
-5.07166e-13 5.82096e-12 6.20644e-12

4.41137e-12 -9.25186e-12 -2.42861e-12
-9.25186e-12 -1.03916e-11 -7.70988e-14
-2.42861e-12 -7.70988e-14 -3.9153e-12

-1.59969e-11 -6.36065e-12 8.01828e-12
-6.36065e-12 6.67016e-12 2.94903e-12
8.01828e-12 2.94903e-12 -8.8552e-13

4.04876e-12 5.00179e-12 4.24044e-13
5.00179e-12 3.58616e-12 5.05961e-12
4.24044e-13 5.05961e-12 2.50678e-12

1.52891e-12 -1.17817e-12 -8.23994e-13
-1.17817e-12 -4.94739e-12 -5.76796e-12
-8.23994e-13 -5.76796e-12 1.22051e-12

2.34959e-12 1.82146e-12 -9.73373e-13
1.82146e-12 1.42441e-12 8.69771e-13
-9.73373e-13 8.69771e-13 1.7328e-12

-2.73881e-12 -5.78241e-14 -2.43825e-12
-5.78241e-14 -4.25842e-13 -1.69979e-12
-2.43825e-12 -1.69979e-12 3.1207e-12

1.22181e-12 4.62593e-12 7.51714e-13
4.62593e-12 -7.10486e-12 -9.73373e-13
7.51714e-13 -9.73373e-13 -9.36955e-13

2.76955e-11 -8.78927e-12 -5.39692e-12
-8.78927e-12 7.34146e-12 2.89121e-14
-5.39692e-12 2.89121e-14 5.95368e-12

-2.37579e-12 1.70265e-12 1.17576e-12
1.70265e-12 -1.4506e-12 1.65882e-12
1.17576e-12 1.65882e-12 3.99769e-13

6.8737e-12 5.78241e-13 -2.75869e-12
5.78241e-13 1.05744e-11 1.45524e-12
-2.75869e-12 1.45524e-12 4.09815e-12

3.63546e-12 4.09286e-13 -4.47685e-12
4.09286e-13 9.18657e-12 3.17069e-12
-4.47685e-12 3.17069e-12 3.17287e-12

1.41009e-13 -3.70074e-12 2.00216e-12
-3.70074e-12 2.45397e-12 -2.83097e-12
2.00216e-12 -2.83097e-12 9.08447e-12

2.76278e-12 2.31296e-13 2.79483e-13
2.31296e-13 6.00093e-12 -7.80626e-13
2.79483e-13 -7.80626e-13 1.99179e-12

8.62531e-13 2.54426e-12 2.02384e-12
2.54426e-12 8.62531e-13 2.12022e-13
2.02384e-12 2.12022e-13 3.99938e-13

-6.33667e-12 1.0842e-13 -2.89121e-12
1.0842e-13 -1.71074e-12 4.99938e-14
-2.89121e-12 4.99938e-14 -2.48173e-12

-5.2043e-12 6.93889e-13 2.05276e-12
6.93889e-13 -9.36764e-12 -3.79712e-12
2.05276e-12 -3.79712e-12 -3.04554e-12

1.88808e-12 -1.04083e-12 2.29369e-12
-1.04083e-12 -1.35007e-12 -3.50318e-12
2.29369e-12 -3.50318e-12 -5.79086e-13

3.53394e-12 -2.37079e-12 -1.94915e-12
-2.37079e-12 2.60875e-12 2.79483e-12
-1.94915e-12 2.79483e-12 1.20148e-11

-2.17002e-12 2.31296e-13 2.14913e-12
2.31296e-13 -1.24483e-12 1.85037e-12
2.14913e-12 1.85037e-12 -1.55323e-12

1.57991e-12 3.26706e-12 -4.47173e-12
3.26706e-12 -2.58342e-12 2.38043e-12
-4.47173e-12 2.38043e-12 1.88831e-12

5.84489e-12 -2.02384e-13 -3.37307e-13
-2.02384e-13 3.06933e-12 -8.04719e-13
-3.37307e-13 -8.04719e-13 3.68612e-12

6.55696e-13 2.65991e-12 3.95131e-13
2.65991e-12 3.89385e-12 4.90541e-12
3.95131e-13 4.90541e-12 1.88928e-12

-1.70954e-12 -1.38778e-12 -5.11262e-12
-1.38778e-12 6.03426e-13 3.60437e-12
-5.11262e-12 3.60437e-12 -1.09275e-12

-4.28047e-12 -4.62593e-13 -1.99493e-12
-4.62593e-13 -2.89269e-12 -1.68654e-13
-1.99493e-12 -1.68654e-13 6.53856e-13

-1.86334e-12 1.61908e-12 -1.17576e-12
1.61908e-12 -5.56408e-12 1.4456e-13
-1.17576e-12 1.4456e-13 -1.24655e-12

3.88394e-14 1.04083e-12 -1.21431e-12
1.04083e-12 1.88921e-12 -8.86636e-13
-1.21431e-12 -8.86636e-13 8.09828e-13

2.81406e-12 -5.67399e-13 -5.19273e-12
-5.67399e-13 -1.81187e-12 -1.01192e-13
-5.19273e-12 -1.01192e-13 7.28579e-12

4.97296e-12 6.64977e-13 -2.74183e-12
6.64977e-13 -1.04075e-12 2.83338e-12
-2.74183e-12 2.83338e-12 6.20654e-12

-9.37868e-13 9.54098e-13 -4.35307e-12
9.54098e-13 -9.37868e-13 5.86915e-12
-4.35307e-12 5.86915e-12 -1.24626e-12

-4.79192e-12 -3.70074e-12 2.12985e-12
-3.70074e-12 -2.01636e-12 -2.02866e-12
2.12985e-12 -2.02866e-12 -2.78735e-12

-4.02314e-12 -3.70239e-28 7.37257e-13
-3.70239e-28 1.99057e-12 -1.0842e-12
7.37257e-13 -1.0842e-12 -1.68202e-13

-3.09718e-12 4.62593e-13 3.81639e-12
4.62593e-13 -7.26052e-12 3.46945e-13
3.81639e-12 3.46945e-13 -2.94298e-12

7.05964e-13 1.73472e-12 -2.67677e-12
1.73472e-12 2.09374e-12 3.37307e-12
-2.67677e-12 3.37307e-12 1.16856e-12

-4.99814e-12 1.18539e-12 -3.5851e-12
1.18539e-12 -4.53554e-12 -2.48644e-12
-3.5851e-12 -2.48644e-12 -1.29739e-12

-1.67047e-13 -2.31296e-12 -3.78025e-12
-2.31296e-12 -6.2964e-13 2.48644e-12
-3.78025e-12 2.48644e-12 2.30012e-12

1.78584e-12 -4.62593e-13 2.9153e-12
-4.62593e-13 -2.37749e-12 1.77809e-12
2.9153e-12 1.77809e-12 5.48659e-12

4.47484e-13 -1.83592e-12 4.89939e-12
-1.83592e-12 -1.86548e-12 2.94903e-12
4.89939e-12 2.94903e-12 1.06427e-12

-5.35821e-12 -1.27213e-12 -4.24044e-12
-1.27213e-12 -9.05896e-12 -2.71291e-12
-4.24044e-12 -2.71291e-12 -1.34907e-12

5.74224e-12 -1.61908e-12 -6.33174e-12
-1.61908e-12 9.90558e-12 -6.26428e-14
-6.33174e-12 -6.26428e-14 4.66286e-12

-5.78982e-13 -1.53234e-12 -2.76592e-12
-1.53234e-12 1.73398e-12 -2.64545e-12
-2.76592e-12 -2.64545e-12 6.54599e-13

9.03377e-12 3.08433e-28 1.85519e-12
3.08433e-28 5.33303e-12 1.63474e-12
1.85519e-12 1.63474e-12 9.03377e-12

-7.26023e-12 -5.78241e-13 -2.89602e-12
-5.78241e-13 1.41257e-13 -8.96274e-12
-2.89602e-12 -8.96274e-12 -6.29732e-13

5.69154e-12 1.96602e-12 -5.56075e-12
1.96602e-12 6.03013e-13 2.65991e-12
-5.56075e-12 2.65991e-12 2.60758e-12

4.71733e-12 1.27213e-12 -5.7535e-12
1.27213e-12 -1.29638e-12 4.28862e-12
-5.7535e-12 4.28862e-12 2.40436e-12

5.04079e-13 3.81639e-12 5.8047e-12
3.81639e-12 1.62322e-11 1.34923e-13
5.8047e-12 1.34923e-13 5.4384e-12

-6.90282e-12 8.05382e-12 -4.85723e-12
8.05382e-12 -4.58985e-12 2.98637e-12
-4.85723e-12 2.98637e-12 3.44474e-13

-6.58952e-12 2.89121e-14 -2.75628e-12
2.89121e-14 4.9753e-12 -1.06011e-13
-2.75628e-12 -1.06011e-13 6.57769e-13

-5.78887e-13 2.31296e-12 -5.51257e-12
2.31296e-12 -1.04148e-12 -1.06011e-12
-5.51257e-12 -1.06011e-12 6.54694e-13

-1.03964e-12 -1.09866e-12 3.56582e-12
-1.09866e-12 -3.3526e-12 -4.97769e-12
3.56582e-12 -4.97769e-12 6.56538e-13

-1.67472e-13 -3.3538e-12 6.48112e-13
-3.3538e-12 -2.01784e-12 2.69846e-12
6.48112e-13 2.69846e-12 3.68747e-12

1.88856e-13 4.7994e-12 3.71038e-13
4.7994e-12 1.57664e-12 -1.23358e-12
3.71038e-13 -1.23358e-12 1.88503e-12

4.52904e-13 -1.30809e-11 1.70984e-13
-1.30809e-11 1.71062e-11 -3.41162e-12
1.70984e-13 -3.41162e-12 4.46204e-12

-1.06037e-11 5.55112e-12 6.36065e-13
5.55112e-12 2.81147e-12 -8.76035e-12
6.36065e-13 -8.76035e-12 -5.80882e-13

2.81425e-12 1.79255e-12 -2.74062e-12
1.79255e-12 1.88906e-12 9.15548e-13
-2.74062e-12 9.15548e-13 9.13635e-12

-1.11171e-11 1.15648e-12 2.46716e-12
1.15648e-12 -9.26674e-12 -7.81107e-12
2.46716e-12 -7.81107e-12 -4.94921e-12

-5.15657e-12 2.19732e-12 -9.10368e-12
2.19732e-12 -2.36603e-11 -1.5227e-12
-9.10368e-12 -1.5227e-12 -5.15657e-12

3.77225e-14 2.31296e-13 4.04769e-13
2.31296e-13 -1.35006e-12 1.92747e-13
4.04769e-13 1.92747e-13 1.2713e-12

-3.04774e-12 -2.1684e-12 5.05961e-12
-2.1684e-12 -3.51034e-12 9.05911e-12
5.05961e-12 9.05911e-12 -8.88977e-13

-4.24228e-13 -1.04083e-12 -4.43318e-13
-1.04083e-12 -5.51275e-12 -4.33681e-12
-4.43318e-13 -4.33681e-12 3.4676e-13

-8.74933e-12 -7.51714e-13 -1.61908e-12
-7.51714e-13 -1.34784e-12 -2.58281e-12
-1.61908e-12 -2.58281e-12 -1.03945e-12

-1.09397e-12 -1.85037e-12 -1.34441e-12
-1.85037e-12 2.93809e-13 5.51257e-12
-1.34441e-12 5.51257e-12 -4.77179e-13

-3.04716e-12 -2.19732e-12 2.62979e-12
-2.19732e-12 -9.52346e-12 -1.92747e-14
2.62979e-12 -1.92747e-14 -3.20136e-12

-6.59061e-12 -6.93889e-13 -4.11515e-12
-6.93889e-13 -2.88986e-12 -2.46716e-12
-4.11515e-12 -2.46716e-12 -2.58147e-12

4.09905e-12 -1.25767e-12 9.02899e-13
-1.25767e-12 -2.37725e-12 5.17767e-12
9.02899e-13 5.17767e-12 5.94942e-12

1.78627e-12 2.77556e-12 1.35887e-12
2.77556e-12 6.8748e-12 -1.46488e-12
1.35887e-12 -1.46488e-12 1.78627e-12

1.46888e-11 -4.04769e-12 5.11743e-12
-4.04769e-12 1.05254e-11 2.00457e-12
5.11743e-12 2.00457e-12 4.35752e-12

-1.12683e-11 8.32667e-12 4.58738e-12
8.32667e-12 -1.2656e-11 -1.00228e-12
4.58738e-12 -1.00228e-12 -5.10035e-12

2.95044e-13 -2.88578e-12 2.67918e-12
-2.88578e-12 4.92097e-12 -9.3407e-13
2.67918e-12 -9.3407e-13 7.38814e-12

1.74105e-11 5.08852e-12 1.5998e-12
5.08852e-12 6.30825e-12 9.15548e-13
1.5998e-12 9.15548e-13 5.53726e-12

4.86976e-12 -4.68375e-12 1.39742e-13
-4.68375e-12 2.55679e-12 1.82387e-12
1.39742e-13 1.82387e-12 1.04209e-11

4.61257e-12 -1.73472e-12 -2.36115e-13
-1.73472e-12 2.76219e-12 -3.94168e-12
-2.36115e-13 -3.94168e-12 6.03427e-13

8.10958e-13 5.78241e-13 -3.2767e-13
5.78241e-13 -1.14228e-13 -3.16828e-13
-3.2767e-13 -3.16828e-13 -1.6562e-12

-8.85571e-13 2.08167e-12 -3.508e-12
2.08167e-12 1.42739e-12 -4.57533e-12
-3.508e-12 -4.57533e-12 2.19838e-12

-6.81773e-13 9.25186e-13 -1.61908e-12
9.25186e-13 -2.06955e-12 2.21659e-13
-1.61908e-12 2.21659e-13 -1.60696e-12

-5.76859e-13 1.73472e-13 -4.51992e-12
1.73472e-13 1.73611e-12 -3.8453e-12
-4.51992e-12 -3.8453e-12 6.56722e-13

5.33482e-12 3.75857e-12 -3.82482e-12
3.75857e-12 1.78248e-11 2.94903e-12
-3.82482e-12 2.94903e-12 3.02186e-12

-2.69508e-13 1.21169e-27 9.63735e-14
1.21169e-27 1.03701e-11 -1.49379e-12
9.63735e-14 -1.49379e-12 1.88926e-12

8.67177e-12 4.62593e-13 -4.54883e-12
4.62593e-13 2.65806e-12 -1.81182e-12
-4.54883e-12 -1.81182e-12 4.35423e-12

5.52057e-13 -1.85037e-12 -1.8311e-12
-1.85037e-12 6.56576e-12 -4.63557e-12
-1.8311e-12 -4.63557e-12 1.47724e-12

-7.85451e-13 1.85037e-12 -6.36909e-12
1.85037e-12 -6.33657e-12 3.8453e-12
-6.36909e-12 3.8453e-12 -6.31253e-13

1.5616e-11 -2.77556e-12 1.14684e-12
-2.77556e-12 -1.03733e-12 6.02335e-13
1.14684e-12 6.02335e-13 3.89699e-12

8.82898e-12 -6.93889e-13 -1.25286e-12
-6.93889e-13 5.59083e-12 3.3538e-12
-1.25286e-12 3.3538e-12 2.19848e-12

-1.9667e-12 -8.96274e-13 -1.91301e-12
-8.96274e-13 1.27145e-12 -2.66714e-12
-1.91301e-12 -2.66714e-12 2.50503e-12

-2.83848e-12 -2.94903e-12 -3.85494e-14
-2.94903e-12 2.25005e-12 9.42051e-13
-3.85494e-14 9.42051e-13 -6.29191e-14

3.43091e-12 4.19225e-13 2.77134e-12
4.19225e-13 -8.59651e-12 -3.6887e-12
2.77134e-12 -3.6887e-12 8.82782e-12

5.07573e-12 9.8301e-13 4.51751e-14
9.8301e-13 -8.33946e-12 -4.67653e-12
4.51751e-14 -4.67653e-12 1.40192e-11

3.94499e-12 -6.27392e-12 4.60786e-12
-6.27392e-12 -3.4565e-12 4.81868e-14
4.60786e-12 4.81868e-14 1.45846e-11

2.04311e-12 -2.42861e-12 1.92747e-13
-2.42861e-12 -7.32446e-13 5.39692e-13
1.92747e-13 5.39692e-13 -4.2405e-13

6.66892e-12 2.54426e-12 -1.81905e-12
2.54426e-12 -1.65775e-12 9.30245e-12
-1.81905e-12 9.30245e-12 9.75287e-12

5.5384e-12 5.05961e-12 -2.75056e-12
5.05961e-12 -5.10124e-12 -7.42799e-12
-2.75056e-12 -7.42799e-12 1.30941e-11

5.07492e-12 1.18991e-12 -7.32439e-13
1.18991e-12 7.38788e-12 -2.27923e-12
-7.32439e-13 -2.27923e-12 3.84134e-12

-4.84413e-12 -5.37764e-12 -2.79001e-12
-5.37764e-12 1.16958e-12 6.5287e-12
-2.79001e-12 6.5287e-12 1.3197e-11

-1.39821e-12 -9.39642e-13 -4.38018e-12
-9.39642e-13 -4.73028e-13 7.55568e-12
-4.38018e-12 7.55568e-12 -1.24402e-12

4.71395e-12 -1.85037e-12 3.83567e-12
-1.85037e-12 1.02651e-11 -4.91505e-12
3.83567e-12 -4.91505e-12 4.71395e-12

-7.20849e-12 7.71952e-12 -4.60665e-12
7.71952e-12 -7.32189e-13 -5.51498e-12
-4.60665e-12 -5.51498e-12 8.82807e-12

5.48656e-12 4.98733e-13 1.97741e-28
4.98733e-13 9.1873e-12 1.97566e-12
1.97741e-28 1.97566e-12 4.09878e-12

-1.1441e-12 -3.81639e-12 4.80422e-12
-3.81639e-12 4.40701e-12 -2.80326e-12
4.80422e-12 -2.80326e-12 9.03294e-12

3.37938e-12 -4.39463e-12 -3.93927e-13
-4.39463e-12 -1.00358e-11 -3.7405e-12
-3.93927e-13 -3.7405e-12 1.00099e-11

1.58037e-12 -5.78241e-14 2.88639e-12
-5.78241e-14 2.04297e-12 -3.30079e-13
2.88639e-12 -3.30079e-13 8.36507e-12

5.84652e-12 4.39463e-12 9.14344e-13
4.39463e-12 -5.25571e-12 -9.22777e-13
9.14344e-13 -9.22777e-13 1.20144e-11

3.9448e-12 -1.51788e-12 9.21376e-12
-1.51788e-12 2.55702e-12 5.26199e-12
9.21376e-12 5.26199e-12 8.57073e-12

3.3761e-12 1.64799e-12 1.31249e-12
1.64799e-12 1.12402e-11 2.46716e-12
1.31249e-12 2.46716e-12 5.38067e-12

-1.15863e-13 8.09538e-13 -1.83833e-12
8.09538e-13 8.09323e-13 1.06252e-12
-1.83833e-12 1.06252e-12 6.66883e-12

9.49583e-12 -3.36103e-12 1.98831e-12
-3.36103e-12 5.33249e-12 4.93192e-12
1.98831e-12 4.93192e-12 1.13462e-11

-9.05882e-12 -2.16278e-12 9.03502e-13
-2.16278e-12 4.35637e-12 -7.32444e-12
9.03502e-13 -7.32444e-12 1.11411e-11

9.63561e-13 -1.15648e-12 -1.61908e-12
-1.15648e-12 3.27653e-12 -9.58917e-13
-1.61908e-12 -9.58917e-13 1.27196e-12

6.01952e-13 7.3021e-12 -6.22814e-13
7.3021e-12 4.76529e-12 4.86686e-12
-6.22814e-13 4.86686e-12 3.53171e-12

2.24844e-12 2.45752e-12 -5.99443e-12
2.45752e-12 3.63622e-12 2.96228e-12
-5.99443e-12 2.96228e-12 1.01125e-11

7.07976e-12 -8.67362e-13 3.46945e-13
-8.67362e-13 3.84161e-12 -1.2384e-12
3.46945e-13 -1.2384e-12 7.57655e-13

-9.31582e-12 3.15864e-12 -1.32514e-14
3.15864e-12 1.78641e-12 8.4881e-12
-1.32514e-14 8.4881e-12 9.65049e-12

9.63863e-13 -4.39463e-12 1.96602e-12
-4.39463e-12 2.81423e-12 9.05911e-13
1.96602e-12 9.05911e-13 1.73485e-12

3.83934e-14 -1.38778e-12 4.74158e-12
-1.38778e-12 1.42617e-12 -5.41619e-12
4.74158e-12 -5.41619e-12 1.27197e-12

-1.09247e-12 -6.4763e-12 1.89856e-12
-6.4763e-12 2.14568e-12 -5.58123e-12
1.89856e-12 -5.58123e-12 1.43273e-11

3.53358e-12 4.0766e-12 -2.33405e-12
4.0766e-12 1.22062e-12 -1.74677e-12
-2.33405e-12 -1.74677e-12 7.85111e-12

-5.82116e-12 5.81132e-12 1.87808e-12
5.81132e-12 -1.65783e-12 -7.40269e-12
1.87808e-12 -7.40269e-12 8.36502e-12

3.01977e-12 -2.54426e-12 3.64292e-12
-2.54426e-12 2.09459e-12 5.78241e-14
3.64292e-12 5.78241e-14 9.95867e-12

-6.54067e-12 -3.70074e-12 -8.3845e-13
-3.70074e-12 3.98227e-13 1.07938e-12
-8.3845e-13 1.07938e-12 -6.4366e-14

1.78728e-11 -1.6769e-12 -4.7223e-12
-1.6769e-12 -6.30915e-13 3.62364e-12
-4.7223e-12 3.62364e-12 3.68662e-12

1.83314e-12 8.0905e-12 -9.29351e-12
8.0905e-12 1.01598e-11 -2.46716e-12
-9.29351e-12 -2.46716e-12 1.67894e-12

-4.02356e-12 2.08167e-12 7.69061e-12
2.08167e-12 -1.42006e-11 -3.66219e-13
7.69061e-12 -3.66219e-13 -3.40677e-12

2.60734e-12 -1.50343e-12 -3.23333e-12
-1.50343e-12 -1.0934e-12 -1.15648e-13
-3.23333e-12 -1.15648e-13 -1.40153e-14

2.25192e-12 -4.33681e-12 6.52569e-12
-4.33681e-12 3.6397e-12 -2.50571e-13
6.52569e-12 -2.50571e-13 2.25192e-12

-2.37997e-12 -4.16334e-12 -6.95817e-12
-4.16334e-12 1.70489e-11 1.11793e-12
-6.95817e-12 1.11793e-12 1.32078e-12

-4.10319e-11 -3.46945e-12 3.85494e-13
-3.46945e-12 -9.11298e-12 -1.16612e-12
3.85494e-13 -1.16612e-12 -1.03466e-11

-2.07297e-12 -6.01506e-13 -7.35159e-12
-6.01506e-13 -1.13248e-11 2.58281e-12
-7.35159e-12 2.58281e-12 -2.07297e-12

7.33709e-12 1.61908e-12 -6.52449e-12
1.61908e-12 -9.89585e-13 -1.60221e-12
-6.52449e-12 -1.60221e-12 6.8745e-12

-1.49204e-11 6.01371e-12 7.18947e-12
6.01371e-12 -6.59371e-12 7.999e-13
7.18947e-12 7.999e-13 -4.43494e-12

-5.66516e-12 3.46945e-12 -1.85037e-12
3.46945e-12 -1.03924e-12 -8.96274e-13
-1.85037e-12 -8.96274e-13 -2.58121e-12

1.05255e-11 5.31982e-12 8.86636e-13
5.31982e-12 -1.14117e-13 -4.14406e-13
8.86636e-13 -4.14406e-13 2.50724e-12

4.25479e-12 8.3845e-13 1.88892e-12
8.3845e-13 4.25479e-12 3.52486e-12
1.88892e-12 3.52486e-12 2.86701e-12

7.0319e-12 3.78748e-12 1.87326e-13
3.78748e-12 3.57127e-11 -1.42633e-12
1.87326e-13 -1.42633e-12 7.95709e-12

1.31941e-11 -8.78927e-12 -1.32417e-11
-8.78927e-12 2.05956e-11 8.81818e-12
-1.32417e-11 8.81818e-12 9.03077e-12

-5.97226e-12 -2.54426e-12 5.01142e-13
-2.54426e-12 -4.21146e-13 -7.70988e-13
5.01142e-13 -7.70988e-13 8.12435e-13

-3.14788e-12 -8.09538e-13 4.56329e-12
-8.09538e-13 5.64138e-12 9.30848e-12
4.56329e-12 9.30848e-12 8.87953e-12

1.93956e-12 6.93889e-13 3.78266e-12
6.93889e-13 -1.76119e-12 5.79205e-12
3.78266e-12 5.79205e-12 8.91841e-14

-3.35402e-12 3.67183e-12 -3.24779e-12
3.67183e-12 1.27191e-12 2.89843e-12
-3.24779e-12 2.89843e-12 6.66883e-12

-3.40537e-12 3.3538e-12 -1.11143e-11
3.3538e-12 -3.86797e-12 5.50775e-12
-1.11143e-11 5.50775e-12 6.00068e-12

-4.58708e-12 2.77556e-12 6.08358e-12
2.77556e-12 4.20218e-12 -9.01092e-13
6.08358e-12 -9.01092e-13 5.89836e-12

-7.2948e-13 -1.63353e-12 1.92747e-13
-1.63353e-12 -7.20578e-12 -1.11793e-12
1.92747e-13 -1.11793e-12 5.04101e-13

-2.12444e-12 -5.20417e-13 -1.02819e-12
-5.20417e-13 -2.74064e-13 -1.15648e-12
-1.02819e-12 -1.15648e-12 -2.27863e-12

8.0865e-13 1.38778e-12 4.18261e-12
1.38778e-12 3.46057e-13 -8.96274e-12
4.18261e-12 -8.96274e-12 6.54452e-13

-1.47155e-11 -1.85037e-12 5.58966e-13
-1.85037e-12 -5.46367e-12 -2.69846e-12
5.58966e-13 -2.69846e-12 -4.53848e-12

-5.92671e-12 1.04083e-12 -5.15598e-12
1.04083e-12 1.47478e-12 -7.88335e-12
-5.15598e-12 -7.88335e-12 -8.38188e-13

3.09822e-11 1.85037e-12 7.9219e-12
1.85037e-12 1.37621e-12 1.39452e-11
7.9219e-12 1.39452e-11 6.15634e-12

-1.00344e-11 1.61908e-12 -2.98758e-12
1.61908e-12 -6.79622e-12 3.81639e-12
-2.98758e-12 3.81639e-12 -2.0161e-12

1.40717e-11 5.78241e-12 -6.16791e-13
5.78241e-12 1.12962e-11 -1.01867e-11
-6.16791e-13 -1.01867e-11 6.05347e-12

6.04837e-13 -4.62593e-12 -1.03698e-11
-4.62593e-12 -9.57221e-12 -8.04719e-12
-1.03698e-11 -8.04719e-12 -1.55393e-12

1.73577e-12 -2.31296e-13 -4.22116e-12
-2.31296e-13 -3.81534e-12 4.03805e-12
-4.22116e-12 4.03805e-12 -1.65658e-12

6.98132e-12 -1.04054e-28 7.90263e-13
-1.04054e-28 2.81799e-12 -5.49329e-13
7.90263e-13 -5.49329e-13 1.27601e-12

2.45603e-11 1.06396e-11 -1.92747e-13
1.06396e-11 -5.04566e-12 -3.85494e-13
-1.92747e-13 -3.85494e-13 2.66422e-12

9.08888e-12 -2.59052e-11 3.48872e-12
-2.59052e-11 2.38919e-11 -1.83013e-11
3.48872e-12 -1.83013e-11 7.7011e-12

4.15447e-12 6.93889e-12 1.73472e-13
6.93889e-12 -3.24702e-12 4.04769e-13
1.73472e-13 4.04769e-13 -1.24245e-12

1.22433e-12 2.77556e-12 -4.43318e-13
2.77556e-12 2.14952e-12 -2.85266e-12
-4.43318e-13 -2.85266e-12 9.15936e-13

VECTORS fluid_flux_TPM float
-1.8215e-19 4.01021e-20 1.62187e-21
-9.34975e-20 7.02234e-20 -9.32922e-21
1.20266e-19 9.04295e-20 -1.74951e-20
-3.48893e-20 2.67067e-20 2.38846e-21
-1.36916e-20 1.07111e-19 3.14171e-21
3.45055e-21 9.39485e-20 1.334e-20
-4.02834e-20 -5.3544e-20 -5.90999e-21
1.00213e-19 -5.35241e-20 -7.34714e-22
1.9993e-20 1.20533e-19 -9.27901e-21
-5.71533e-20 -1.32645e-20 -2.67856e-21
2.00855e-19 -1.00298e-20 4.13646e-21
-1.0706e-19 -7.4165e-21 -1.34754e-20
6.41802e-21 -6.71805e-21 4.02888e-21
1.34265e-19 -6.79266e-21 -2.58987e-21
-4.37624e-20 -2.02077e-20 7.33835e-21
1.0723e-19 -1.276e-22 -1.59556e-20
-5.98042e-20 -1.31041e-20 -3.44317e-21
9.35712e-20 4.27971e-23 3.19e-21
2.47563e-19 -1.33179e-20 -2.59318e-21
-9.9293e-21 -1.07234e-19 8.31227e-21
1.00258e-19 -6.68138e-20 6.73718e-21
8.05238e-20 -7.00337e-20 -9.22153e-22
-1.47275e-19 -3.3486e-20 -8.46919e-21
-8.05582e-20 -1.70632e-22 -1.69882e-21
-2.66991e-20 6.84279e-20 -3.38569e-21
-2.02035e-20 -2.46395e-20 -6.8159e-22
2.27639e-19 -1.27208e-19 2.25487e-20
-4.04702e-20 2.2098e-19 4.02597e-21
-2.8137e-19 -5.48001e-20 8.3336e-21
-1.41903e-19 1.60716e-19 1.65489e-20
-6.59135e-21 4.0111e-20 7.99139e-22
-8.03863e-20 4.01626e-20 1.64151e-21
5.3538e-20 -1.74145e-19 1.92022e-20
-8.03694e-20 1.07582e-19 1.24497e-20
2.66644e-20 -9.40329e-20 1.48672e-21
2.20905e-19 5.32524e-20 -8.29827e-21
-9.34933e-20 -1.20265e-19 -5.08999e-21
-5.12616e-19 -2.03552e-20 1.32467e-20
-7.40231e-20 1.32114e-20 -1.42646e-20
-3.08045e-19 -1.10376e-19 -1.42811e-20
1.32261e-20 -2.88773e-19 -5.06414e-21
-7.04159e-20 8.73217e-20 -1.02127e-20
2.14146e-19 -2.15673e-22 -1.75513e-20
1.07254e-19 1.32673e-20 1.33189e-20
-1.13864e-19 2.67788e-19 -1.17654e-20
1.13738e-19 -8.92735e-23 -4.24358e-21
6.52066e-21 2.69185e-20 9.24672e-21
-9.39354e-20 -4.00884e-20 -5.08648e-21
2.01467e-19 1.60526e-19 -2.09972e-20
-2.68359e-20 -1.80789e-19 2.47556e-21
-4.03045e-20 3.35578e-20 -7.60425e-21
-2.69546e-20 -3.21407e-19 -1.00845e-20
-3.41858e-21 4.06484e-20 1.0711e-20
-7.39463e-20 -1.07108e-19 -1.84569e-20
-1.03978e-20 -5.38303e-20 -2.66051e-21
2.54346e-19 -5.35705e-20 5.81046e-21
6.04164e-20 -1.60261e-19 -2.60443e-21
1.60686e-19 -1.18828e-19 -8.4668e-22
-1.4734e-19 3.99185e-20 -1.49204e-20
-2.02872e-20 -8.21696e-20 -5.10628e-21
-2.00875e-20 -7.70428e-20 -8.96107e-22
-1.59011e-20 -3.61602e-19 8.31702e-21
2.67697e-20 -1.33868e-19 -2.93482e-20
5.24958e-22 3.2897e-22 8.27636e-21
2.01016e-20 6.97242e-21 -3.34667e-21
1.20592e-19 -8.68679e-20 4.94487e-21
-1.47438e-19 2.71643e-20 5.9414e-21
-3.24739e-21 -6.03274e-20 4.97163e-21
1.64158e-19 -1.40742e-19 -1.59433e-20
-3.04151e-20 -1.60574e-19 2.32316e-21
1.47431e-19 -7.99603e-20 -8.43275e-21
-1.35104e-20 -9.31574e-20 -5.68839e-21
9.36947e-20 -1.32987e-20 -3.38154e-21
-9.04782e-20 8.02411e-20 7.47654e-21
4.70722e-20 -4.01412e-20 3.29967e-21
4.0097e-20 2.54346e-19 1.33359e-20
-1.73945e-19 8.73878e-20 -2.26464e-20
-8.04657e-20 5.03768e-21 -1.24832e-20
6.6853e-20 4.0501e-20 7.25565e-22
1.87267e-19 -5.74744e-20 1.61146e-21
4.0046e-20 -2.76757e-20 -1.09239e-20
1.2084e-19 5.06186e-20 7.44254e-21
-7.03373e-21 -1.04763e-20 1.15307e-20
2.14147e-19 1.80791e-19 -7.57969e-21
-1.87607e-19 -2.0081e-19 2.4489e-21
-2.68303e-20 2.67836e-19 2.46839e-21
2.66557e-20 -3.15353e-20 -1.16474e-20
6.49072e-21 -4.02472e-20 -6.0374e-21
6.68957e-20 2.81299e-19 -2.18232e-20
-5.89535e-19 -5.03146e-20 -7.65558e-21
-3.21383e-19 -1.10249e-19 -6.72617e-21
-7.75129e-20 -8.02525e-20 -7.76331e-22
1.20171e-19 7.17192e-20 -6.80092e-21
1.33726e-19 1.60579e-19 -3.49619e-21
-2.01669e-20 3.21293e-19 -1.26093e-20
1.60664e-19 2.93133e-20 -4.24567e-21
-1.71548e-23 -1.94243e-19 7.97562e-22
-2.09706e-22 -8.06261e-21 1.53408e-21
-3.21361e-19 -2.6923e-20 -5.03547e-21
2.66184e-20 -7.30317e-21 -8.44681e-21
-8.72815e-20 4.69111e-20 -5.08675e-21
1.33912e-20 2.23573e-19 1.00124e-20
-7.71129e-20 -5.35758e-20 4.14182e-21
-1.20266e-19 -8.88327e-20 -7.61646e-21
-2.71109e-20 3.84068e-20 -8.54063e-21
3.97908e-20 -7.32183e-20 -6.30224e-22
-2.66425e-20 3.71721e-20 6.69471e-21
-1.60701e-19 1.17127e-19 -8.47722e-21
5.3541e-20 -8.30884e-21 6.6578e-21
1.33903e-20 -1.05547e-19 4.90112e-21
-1.74295e-19 -5.05495e-21 1.32647e-20
2.66755e-20 4.01325e-20 1.00089e-20
2.07559e-19 1.40663e-19 -1.51331e-20
3.30543e-21 1.34043e-19 2.08644e-20
6.80283e-21 -4.02519e-20 -2.56377e-21
2.3235e-20 5.34641e-20 -1.00987e-20
-9.39917e-20 8.64986e-20 -2.61144e-21
4.00059e-20 2.00872e-19 -1.73073e-21
4.02095e-20 6.0113e-20 -5.91954e-21
-1.13922e-19 1.36223e-23 2.25929e-20
1.02228e-19 1.33999e-20 3.2732e-21
1.63924e-20 2.0369e-20 -2.92975e-20
-6.84509e-21 -1.96489e-20 4.01431e-21
6.79237e-21 2.6198e-20 1.58669e-21
2.67213e-20 -2.03089e-20 6.51208e-22
2.34036e-19 7.41279e-20 1.16175e-20
-1.33787e-19 -6.3609e-20 7.31491e-23
6.58648e-21 -6.88731e-20 -1.17702e-20
9.36002e-20 -2.01497e-20 -2.94917e-23
-4.0359e-20 1.9216e-20 -1.70881e-21
6.77728e-21 1.54504e-19 7.45982e-22
-1.87352e-19 3.34049e-20 2.46062e-21
4.70436e-20 2.02114e-20 -8.43358e-21
-1.5436e-19 -2.55129e-19 1.44971e-20
-6.26222e-23 -4.26873e-20 -8.40025e-21
5.35969e-20 -5.64585e-20 2.37757e-21
4.01069e-20 7.3679e-20 -8.78881e-22
9.38085e-20 -2.17689e-19 -2.1835e-20
-1.99359e-20 -1.00694e-19 -8.48909e-21
-3.61737e-19 6.42612e-19 -1.25181e-20
7.35414e-20 -1.47151e-19 1.62445e-21
5.33145e-20 4.01805e-20 9.8554e-21
-4.70816e-20 1.87513e-19 -6.15357e-23
2.01393e-20 -1.3238e-20 -1.43265e-20
5.3394e-20 -1.07149e-19 -6.73775e-21
1.30866e-19 5.3447e-20 7.51312e-22
-4.04048e-20 -4.69371e-20 -1.27293e-20
5.34953e-20 9.38517e-20 8.29517e-21
-1.51985e-20 -3.21495e-19 -8.39229e-21
3.48e-19 1.50582e-20 1.41735e-20
-9.37728e-20 1.67901e-20 1.24737e-20
8.3606e-20 -1.33824e-19 -1.0116e-20
-8.0394e-20 -4.01269e-20 1.58982e-21
-8.05399e-20 -8.67871e-20 -1.24292e-20
8.68056e-20 1.00453e-19 -6.6893e-22
-7.10008e-21 -1.88577e-20 -3.9546e-21
-7.49426e-23 8.06506e-20 7.42067e-21
-1.34665e-20 -8.04095e-20 -5.92605e-21
1.33759e-19 -2.20938e-19 1.08646e-20
4.71049e-20 1.67299e-19 -9.04301e-22
-9.3859e-20 2.01509e-20 1.16081e-20
-8.71929e-20 1.33885e-19 -2.1798e-20
5.33901e-20 -6.69579e-20 -5.91003e-21
5.35207e-20 -1.34473e-20 -2.18065e-20
1.32323e-20 -6.45089e-20 -2.59847e-20
-1.33368e-20 1.40527e-19 -3.40138e-21
-4.6967e-20 -4.02257e-20 -1.50898e-20
1.4052e-19 -1.34894e-20 -4.24959e-21
9.93355e-21 -2.14233e-19 -8.57052e-22
-1.34181e-20 4.93697e-20 -1.00803e-20
1.0129e-22 2.99294e-20 -5.91849e-21
3.61547e-19 -9.35121e-20 -6.72919e-21
1.1373e-19 8.02996e-20 2.48774e-21
4.00649e-20 3.22673e-20 -6.58263e-21
-1.47355e-19 9.57329e-21 -1.00833e-20
-3.21365e-19 -2.67884e-19 1.08409e-20
6.64734e-21 1.53873e-19 -2.66604e-20
5.35949e-20 -4.17289e-20 8.27918e-21
-3.77439e-22 -1.60477e-19 -8.35851e-21
-8.05907e-20 1.40328e-19 7.97614e-22
1.33756e-19 1.72415e-19 -9.26534e-21
-2.71186e-20 8.05391e-20 -3.12725e-21
4.972e-20 -1.40381e-19 -1.85765e-20
1.13801e-19 -5.35478e-20 7.58622e-22
-3.34488e-20 -1.67584e-19 -2.34065e-20
-5.36421e-20 1.50072e-20 -2.43372e-20
-3.37689e-20 2.00979e-20 -6.60454e-22
-5.35492e-20 -3.99274e-20 3.27618e-21
-2.24553e-22 2.64079e-20 -3.48375e-21
5.37399e-20 5.34356e-20 -8.17929e-23
1.33942e-19 -2.82827e-20 -1.00812e-20
1.67208e-19 2.66933e-20 -5.07595e-21
-1.6081e-19 1.20576e-19 1.0788e-20
5.93399e-24 -8.01838e-20 -5.05992e-21
-3.35391e-20 1.74621e-19 -8.40915e-21
7.80248e-23 -5.28588e-20 -1.17733e-20
7.35017e-20 1.00655e-19 -2.65147e-21
8.00674e-20 -8.03284e-20 2.38012e-22
-9.03792e-20 2.68673e-20 3.1724e-20
1.87661e-19 -7.33122e-20 5.78585e-21
-6.07592e-20 8.05865e-20 -8.55225e-21
3.54724e-19 -2.412e-19 -1.73269e-21
-1.60714e-19 -8.27286e-23 -1.34153e-20
-2.02504e-20 2.00587e-20 -2.54025e-21
-2.34449e-19 -4.02257e-20 -7.56928e-21
9.36068e-20 8.07374e-20 -6.00894e-21
-8.02959e-20 8.11055e-23 5.7783e-21
1.40465e-19 2.81536e-23 1.92006e-20
-2.61843e-22 -3.02084e-20 -5.45067e-23
1.53868e-19 1.00662e-19 3.17717e-21
6.70091e-20 -1.27424e-19 2.84516e-20
1.07195e-19 -2.51779e-20 1.60372e-21
1.67779e-20 8.02373e-20 6.6298e-21
2.64739e-20 -2.59693e-23 -5.88968e-21
-1.14004e-19 1.74044e-19 -1.25941e-20
-7.36411e-20 -2.57802e-22 7.80965e-22
3.99664e-20 9.36387e-20 -5.08493e-21
-1.37456e-19 8.0207e-20 -1.49457e-20
-2.45205e-22 4.57148e-20 -8.98284e-22
4.96793e-20 2.37974e-22 -3.53166e-21
6.73652e-20 -7.09519e-20 -3.4863e-21
-7.08253e-21 -3.98056e-20 6.00712e-21
-5.03447e-20 3.16952e-23 -1.42623e-20
-5.01302e-20 2.40874e-19 1.75225e-20
-5.38698e-20 -5.10807e-20 -6.00186e-21
4.99553e-20 2.24079e-23 -1.44511e-21
-3.23412e-22 2.44809e-20 -1.00229e-21
-1.03962e-19 1.38598e-20 2.66062e-20
-9.34245e-20 -1.67775e-20 9.99227e-21
-1.67155e-20 6.01383e-20 1.66241e-20
-6.87387e-21 -4.5566e-20 7.36242e-22
1.6065e-19 -1.50466e-19 -8.67292e-22
1.2026e-19 -1.33171e-22 5.81595e-21
3.33832e-20 1.31074e-19 2.50342e-20
5.75705e-19 -6.12179e-20 -4.23955e-21
5.01675e-20 1.98341e-20 1.24049e-20
-4.55014e-23 -6.08295e-20 -9.29556e-23
-7.04904e-20 -1.97804e-20 -6.88916e-21
2.669e-20 1.02306e-19 3.29613e-21
-9.75925e-20 3.88831e-22 6.96955e-21
6.02364e-20 -9.06575e-20 -7.61883e-21
-4.04304e-20 1.67291e-19 -2.01369e-20
-1.66577e-20 -2.881e-19 -1.58797e-20
-1.60722e-19 -1.60794e-19 -1.70842e-21
-6.7025e-20 1.19068e-20 -1.52315e-20
-6.67721e-20 -6.74634e-21 2.07966e-20
-1.47358e-19 3.0058e-19 5.86999e-21
2.54288e-19 1.85735e-21 8.3364e-22
6.02369e-20 1.07208e-19 -2.18342e-20
-5.3708e-20 1.105e-19 -5.28215e-23
-1.00262e-22 1.98672e-20 1.54601e-21
2.47642e-19 2.40991e-19 -7.56335e-21
1.60446e-19 6.26323e-23 -1.26742e-20
-4.48753e-19 -5.36275e-20 -1.0947e-20
1.17074e-19 -4.01458e-20 -1.26167e-20
-9.03598e-20 -1.80705e-19 1.08419e-20
-1.67357e-19 6.62494e-20 1.41591e-20
1.75745e-19 -2.00426e-19 4.89726e-21
6.99511e-20 -1.80637e-19 1.36689e-20
-2.69293e-20 -3.21465e-19 -5.92078e-21
1.67235e-19 -4.02331e-20 1.00132e-20
7.30459e-20 8.74797e-20 3.99417e-21
8.03854e-20 1.11308e-22 -1.68181e-20
-1.80761e-19 5.1762e-23 -1.70034e-21
-5.3685e-20 -1.97018e-20 1.65685e-20
-1.00686e-19 3.88305e-19 -1.67912e-20
9.37004e-20 -1.94414e-19 -8.26895e-21
-1.20578e-19 1.13861e-19 6.68172e-21
-1.49792e-22 -1.13624e-19 -6.8416e-21
7.33309e-20 8.02555e-20 -1.27484e-20
-8.05836e-20 8.05424e-20 -2.30851e-21
4.01806e-20 -4.04178e-20 6.71611e-21
1.20611e-19 1.54148e-19 1.75269e-20
2.67897e-20 -1.60196e-19 -6.80532e-21
-9.88531e-23 -9.35268e-20 -2.55569e-21
-4.01824e-19 3.84274e-23 -1.72386e-21
1.6053e-19 1.2041e-19 4.96215e-21
1.87102e-19 4.42788e-20 6.52147e-21
5.00766e-20 4.02554e-20 -1.66568e-20
1.8059e-19 8.92465e-24 -7.74663e-22
-5.37616e-20 -1.53984e-19 8.30771e-21
1.34678e-20 1.34237e-19 -1.09238e-20
-1.1704e-19 6.69713e-20 -6.74866e-21
4.01668e-20 -8.03909e-20 -1.5088e-20
1.53951e-19 1.3712e-20 3.27157e-21
-6.03533e-20 -3.99856e-20 2.33982e-20
1.98938e-20 2.07699e-19 1.16736e-20
5.35511e-20 8.02676e-20 -6.72037e-21
-1.20545e-19 1.22445e-19 -9.22537e-22
1.60105e-19 1.61351e-20 3.25802e-20
-2.01456e-20 4.96829e-22 -1.10041e-20
-3.00908e-20 4.03559e-20 7.46666e-21
2.60975e-19 -1.40807e-19 -9.24555e-21
1.09821e-22 5.33384e-20 -1.73578e-21
-2.4128e-19 -3.0648e-19 -2.43238e-20
-1.60698e-19 -1.70234e-19 -9.32429e-21
2.00922e-20 7.78042e-20 -8.41752e-21
-4.02282e-20 6.68904e-21 4.09437e-21
1.33723e-19 2.94716e-19 -3.33845e-21
1.00497e-19 1.60754e-19 -2.34727e-23
-3.08254e-19 -1.35028e-20 -5.93275e-21
-2.54681e-19 4.69989e-20 -3.11781e-23
1.01527e-20 5.34356e-20 -6.79453e-21
-1.77155e-22 3.16228e-19 -1.17798e-20
1.3373e-20 -1.3457e-20 6.64973e-21
-1.20705e-19 2.6724e-20 -1.25881e-20
1.50616e-19 -1.47298e-19 -5.91434e-21
2.69336e-20 2.0507e-20 4.93965e-21
2.67834e-19 -1.74091e-19 1.25567e-20
5.75193e-19 3.99048e-20 1.17039e-20
-4.02285e-20 1.07167e-19 -1.08813e-20
2.12304e-19 -1.61033e-19 3.76443e-20
1.13887e-19 -1.32254e-20 -2.5363e-21
-1.61819e-22 -8.0584e-20 -1.43218e-22
1.9971e-20 -2.65887e-20 5.78865e-21
-2.67865e-20 -3.84351e-20 4.89508e-21
1.3389e-19 9.70446e-20 6.65181e-21
6.01337e-20 1.15682e-19 7.6604e-21
6.02038e-20 2.40943e-19 -2.26558e-20
-6.73266e-20 -1.31648e-20 -1.32072e-23
4.00738e-20 -6.50121e-20 1.57452e-21
1.31063e-20 5.02326e-21 -1.5121e-20
-1.55549e-22 1.90691e-19 -1.81477e-21
8.71833e-20 1.67303e-19 9.94307e-21
1.87325e-19 1.33397e-20 -8.39298e-21
9.35712e-20 5.35946e-20 6.68156e-21
1.06842e-19 -8.62812e-20 4.92988e-21
2.00714e-20 -4.34476e-20 -3.45828e-21
6.69714e-20 -1.7409e-19 1.08741e-20
1.33889e-19 4.0169e-20 5.73872e-21
-4.68006e-20 1.33919e-19 5.00012e-21
2.00599e-20 4.27217e-22 5.78834e-21
-1.07212e-19 -3.32009e-19 -6.75623e-21
1.0047e-19 -1.20471e-19 -2.53889e-21
5.34645e-20 8.5823e-20 -9.12533e-22
-4.15345e-19 -1.82041e-19 -2.01198e-20
1.34828e-20 -1.87317e-19 1.42051e-20
-1.67952e-20 -5.34535e-20 7.54336e-21
-8.05716e-20 -9.42163e-23 -6.06117e-21
-3.333e-20 -1.73996e-19 7.46829e-21
-3.14784e-19 -1.74187e-19 -2.26396e-20
1.33659e-19 1.34817e-20 1.24765e-20
-1.0035e-19 -8.32452e-20 -3.36907e-21
6.01957e-20 -1.40442e-19 1.72028e-21
2.00016e-20 5.36045e-20 -3.44598e-21
-2.67366e-20 3.47885e-19 -3.42477e-20
1.74064e-19 -1.74144e-19 -2.55982e-21
-4.02937e-20 9.37571e-20 -4.24388e-21
-8.0399e-20 -5.35088e-20 7.9751e-22
1.73752e-19 -1.34015e-19 -2.51539e-20
-1.07267e-19 -1.20541e-19 2.92552e-20
-1.87601e-19 -3.07983e-19 -2.5495e-21
2.77795e-19 6.70159e-20 9.16764e-21
8.02718e-20 2.04166e-19 2.08812e-20
-2.41086e-19 2.00881e-19 1.83734e-20
8.02955e-20 -1.33954e-19 2.46769e-21
-5.78696e-20 4.02051e-20 4.97941e-21
1.40538e-19 1.8067e-19 -1.18503e-20
-8.7531e-20 1.60458e-19 6.52196e-21
1.34036e-19 2.00483e-20 -1.68737e-20
2.66798e-20 4.02097e-20 -6.78815e-21
-8.04913e-20 -1.3304e-20 -8.40792e-21
-2.0116e-19 -1.47184e-19 -5.88464e-21
-2.71539e-19 -9.38499e-20 1.0003e-20
1.40305e-19 -6.68981e-20 -2.01934e-20
1.40611e-19 -4.01214e-20 -1.50917e-20
-2.94342e-19 2.17949e-20 -1.84163e-20
1.67456e-19 -6.57266e-21 3.76697e-20
-2.08986e-22 5.67883e-20 1.73584e-20
-2.67962e-19 -5.77653e-21 9.12158e-21
7.38772e-22 1.71325e-20 2.08096e-20
1.07084e-19 1.34244e-20 4.09106e-21
-2.41123e-19 -1.91148e-19 -1.51036e-20
8.02774e-20 1.56432e-19 -1.26035e-20
6.71872e-20 9.69234e-23 7.48276e-21
-6.726e-21 -1.17329e-23 -1.33827e-20
3.61558e-19 1.07144e-19 -2.59625e-20
-4.83606e-24 -4.0854e-21 -1.50853e-20
6.02246e-20 -6.68078e-20 1.02955e-23
2.5432e-19 3.48036e-19 -5.21486e-23
3.99837e-20 -1.47283e-19 -1.67985e-20
-1.40909e-19 8.22329e-23 -2.63561e-21
-6.80576e-21 -1.60808e-19 -1.72401e-21
-6.03374e-20 9.43987e-23 1.25182e-20
-3.6174e-19 -2.52854e-19 -2.9329e-20
1.12338e-22 -3.60266e-20 8.10193e-22
6.54879e-21 9.38172e-20 6.70557e-21
-3.07999e-19 7.91272e-20 -1.84501e-20
2.29619e-23 1.20579e-19 -1.72766e-21
-7.36268e-20 -6.5256e-21 -1.26174e-23
-2.81169e-19 -4.02392e-20 7.52885e-21
-8.69376e-20 1.74089e-19 2.51673e-21
-3.07125e-23 -9.37447e-20 -1.09945e-20
8.0326e-20 -4.02215e-20 -8.40167e-21
1.87497e-19 -5.34979e-20 9.13884e-21
-1.13712e-19 -1.27193e-19 1.25017e-20
1.20432e-19 -4.55288e-19 9.12542e-21
-1.68546e-20 1.33731e-19 -2.59888e-21
2.67249e-20 -2.19129e-20 -1.25897e-20
-2.81613e-19 9.36361e-20 1.75129e-20
-2.94642e-19 -1.22186e-19 -4.5671e-23
-1.27393e-19 1.73817e-19 1.4148e-20
1.87617e-19 3.77506e-20 2.17306e-20
-3.35634e-20 6.70098e-20 1.08337e-20
-2.94784e-19 2.14137e-19 -1.73544e-21
-7.01925e-20 2.28108e-19 -9.98448e-21
3.67535e-20 1.47276e-19 1.1677e-20
-1.34153e-20 4.01945e-20 3.29386e-21
2.67042e-20 -4.02978e-20 6.66196e-21
-5.3578e-20 -5.35191e-20 2.08767e-20
-2.28095e-19 2.40951e-19 -7.66961e-21
1.15025e-22 -1.49593e-20 1.73109e-21
3.98412e-20 -9.21765e-20 -2.01323e-20
5.35746e-20 1.2433e-20 -2.53807e-21
5.08877e-19 -3.85068e-20 -6.71574e-21
7.35755e-20 -2.27798e-19 -1.92888e-20
3.28959e-22 -2.63576e-20 9.36538e-22
-1.54306e-19 -8.04338e-20 -8.51145e-21
5.34138e-20 6.71553e-20 -6.85295e-21
-1.60834e-19 5.37727e-20 -7.60139e-21
-2.14258e-19 3.36892e-20 -5.08663e-21
1.47163e-19 1.74093e-19 4.97865e-21
3.21314e-19 -1.00596e-19 1.08656e-20
-1.60666e-19 1.98281e-20 1.55018e-21
-9.38401e-20 -9.38444e-20 1.00039e-20
-1.07082e-19 -9.37836e-20 9.17734e-21
-4.03114e-20 1.20439e-19 -7.58756e-21
-1.87516e-19 1.34573e-20 -2.18114e-20
6.66339e-20 2.0748e-19 -9.41517e-21
1.74232e-19 4.27744e-20 -5.88593e-21
2.81092e-19 1.04753e-19 -1.67166e-20
2.01273e-20 2.68875e-20 -5.90463e-21
4.00774e-20 -1.0032e-19 7.58143e-21
-6.98501e-21 4.69868e-20 -1.58982e-20
-1.74145e-19 -2.67918e-19 -5.87055e-21
1.53795e-19 1.06968e-19 8.13127e-22
-2.74011e-19 3.07949e-19 2.08863e-20
-2.54483e-19 3.0376e-19 -3.35269e-20
1.47362e-19 3.34927e-19 1.08598e-20
-1.47406e-22 -4.01057e-20 6.55657e-21
9.79664e-21 1.346e-20 2.30993e-23
-2.14089e-19 9.11109e-23 -3.38106e-21
1.40725e-19 9.37796e-20 -3.92683e-23
-2.68112e-19 4.69154e-20 2.38047e-21
-6.01162e-20 1.54158e-19 1.75549e-20
2.66435e-20 2.40987e-19 8.04139e-22
-8.04244e-20 1.49383e-19 1.498e-20
-1.13925e-19 -6.69347e-20 9.93365e-21
1.35186e-20 2.01203e-20 9.1671e-21
-5.02417e-20 -6.03366e-20 -1.72658e-21
-2.4114e-19 -5.69559e-20 1.58547e-20
-6.02316e-20 -1.73923e-19 1.00035e-20
2.27459e-19 9.70941e-20 -1.91438e-20
-2.00878e-19 -2.27707e-19 1.09317e-20
3.54816e-19 4.55611e-19 -1.10545e-20
-2.81377e-19 6.66152e-19 -1.75206e-20
-5.22025e-20 -1.99512e-22 -1.10944e-20
-6.7565e-21 4.01949e-20 3.36892e-21
7.01855e-20 3.45791e-24 -9.57615e-22
1.60572e-19 -2.27525e-23 -8.7395e-22
-1.32027e-20 -3.14427e-19 -9.28011e-21
8.0253e-20 8.06547e-20 -1.35751e-20
1.67231e-19 -6.16111e-19 -2.33559e-20
-3.48216e-19 -4.95547e-19 1.33454e-20
1.73684e-19 -1.20227e-19 -1.42041e-20
-1.87436e-19 -1.19965e-19 -1.01925e-20
1.13716e-19 -2.47864e-19 -5.918e-21
1.87599e-19 -6.65783e-20 -1.18075e-20
3.37928e-20 -6.03188e-20 1.60449e-21
-1.35117e-20 6.91741e-21 4.02754e-21
5.76637e-20 4.42984e-22 -5.15276e-21
-1.34377e-20 -1.60367e-19 -4.26644e-21
1.0036e-19 -6.69607e-20 -1.51914e-20
3.21342e-19 -2.07543e-19 7.91772e-22
-4.58626e-19 -6.84413e-21 -1.00863e-20
-1.74387e-19 -1.309e-19 1.16797e-20
-1.07374e-19 2.07433e-19 4.15271e-21
-3.02911e-20 4.01528e-20 4.12927e-21
-3.21749e-19 -2.27839e-19 1.91602e-20
3.41353e-19 5.3535e-20 -4.22463e-21
-9.31917e-20 -1.40416e-19 -4.30287e-21
-8.70222e-20 -1.73439e-22 -1.51957e-20
-1.20706e-19 -2.94611e-19 9.14125e-21
1.30316e-19 -2.27503e-19 -1.52089e-21
-8.04275e-20 -4.97077e-24 9.09121e-21
-1.37953e-19 1.07514e-19 -1.09845e-20
8.04426e-20 -4.28711e-19 -1.51122e-20
-3.75131e-19 2.80985e-19 -2.26014e-20
1.14049e-19 2.68282e-20 1.33405e-20
-5.36684e-20 -1.30636e-20 -1.43223e-20
1.33383e-19 1.47073e-19 9.90874e-21
1.9634e-22 2.14293e-19 -4.18128e-21
-2.6801e-19 -1.20546e-19 -8.42997e-21
1.47414e-19 -3.61683e-20 -1.81086e-21
8.69835e-20 2.41102e-19 2.00438e-20
4.01019e-20 -4.75419e-19 -1.67807e-20
1.07051e-19 4.35785e-20 2.08807e-20
-1.72796e-22 1.98151e-20 -1.00952e-20
6.02052e-20 2.67573e-20 1.08363e-20
2.14203e-19 -5.08895e-19 9.99922e-21
2.14162e-19 9.85743e-20 -5.82752e-21
-3.88406e-19 2.68335e-20 -6.73711e-21
1.60618e-19 -5.67056e-20 6.57137e-21
5.00719e-20 -5.3815e-20 -1.92656e-20
-4.02067e-20 1.87436e-19 -1.59483e-20
-2.00663e-19 1.35206e-19 3.30442e-21
1.3224e-20 -1.74084e-19 -4.2347e-21
2.14147e-19 -4.01496e-20 4.98484e-21
1.87349e-19 -2.87979e-19 3.31094e-21
9.36912e-20 -6.6999e-20 4.14406e-21
-3.08066e-19 4.02015e-20 -1.71834e-21
1.94267e-19 5.03605e-22 -5.95385e-21
-1.34631e-20 -4.01631e-20 -2.55656e-21
4.00282e-20 1.47279e-19 4.98451e-21
-3.28127e-19 -1.74079e-19 -8.78607e-22
8.03273e-20 3.21149e-19 -1.176e-20
-5.36006e-20 -1.97088e-19 2.3994e-21
-4.02412e-20 2.54384e-19 3.29619e-21
4.01518e-20 3.99219e-20 3.2978e-21
-6.69798e-20 1.53987e-19 1.62934e-21
1.60705e-19 -3.21706e-19 -5.9021e-21
-5.28864e-23 2.04142e-19 8.19015e-22
1.07016e-19 6.69816e-20 1.08403e-20
4.68395e-20 -3.34758e-19 -4.23064e-21
5.35124e-20 2.41008e-19 -1.00869e-20
-1.20569e-19 -1.20419e-19 -8.85453e-22
-8.03445e-20 3.88942e-19 -1.92888e-20
-4.21911e-20 4.68648e-19 1.33707e-20
-2.67686e-19 9.73775e-20 -1.60717e-20
3.40998e-19 7.98651e-20 4.00844e-20
1.27136e-19 1.07432e-19 -9.22084e-23
-1.60676e-19 4.82351e-19 5.68282e-21
2.5445e-19 7.22994e-19 -3.08796e-20
-8.40783e-22 1.30275e-19 -8.25246e-22
6.70997e-20 2.77512e-22 2.37287e-21
2.54421e-19 1.60717e-19 -6.73979e-21
2.67068e-19 1.64071e-19 3.09691e-20
4.02097e-20 2.0738e-19 1.17367e-20
1.40802e-19 -1.48645e-22 4.11361e-23
-9.05045e-20 -4.01823e-20 2.49843e-20
-1.60735e-19 2.21288e-19 2.34831e-21
-1.93464e-23 -2.14492e-19 -3.00418e-20
-3.21935e-19 8.02393e-20 5.66181e-21
1.7405e-19 2.81211e-19 -9.25419e-21
1.87384e-19 -8.70035e-20 9.07024e-22
-6.70005e-20 -1.2058e-19 1.25069e-20
5.35636e-19 2.27636e-19 -4.6389e-23
2.41021e-19 1.33399e-20 -7.58187e-21
9.39151e-20 6.02856e-19 7.39649e-21
2.74813e-20 2.40478e-22 -8.57576e-21
1.73681e-19 -2.81476e-19 3.08213e-20
-1.27544e-19 -6.00088e-20 5.893e-21
1.07163e-19 3.21187e-19 -1.9956e-20
1.07144e-19 7.50008e-19 7.65597e-21
2.67837e-20 2.34893e-20 6.80577e-21
-1.1375e-19 -1.60414e-19 9.60214e-23
2.6861e-20 3.21328e-19 -3.28996e-21
-1.1379e-19 -1.20679e-19 -2.5208e-21
-1.60879e-19 -8.08576e-20 1.59452e-21
3.97371e-20 3.21396e-19 -8.46984e-21
8.56624e-19 1.07129e-19 1.49014e-20
-6.43243e-19 2.81208e-19 9.05118e-21
-1.61153e-19 -1.33918e-19 9.86433e-21
TENSORS solid_stress_TPM float
-3.35123e-11 3.50378e-12 2.72255e-13
3.50378e-12 -2.28726e-11 -8.93864e-13
2.72255e-13 -8.93864e-13 -1.70131e-11

-2.58538e-11 -4.62593e-13 6.84252e-13
-4.62593e-13 -2.63164e-11 3.1996e-12
6.84252e-13 3.1996e-12 -2.5237e-11

-3.39235e-11 -3.00685e-12 -9.63735e-15
-3.00685e-12 -2.51342e-11 -1.25286e-13
-9.63735e-15 -1.25286e-13 -2.79098e-11

-2.71902e-11 -2.77556e-12 -2.12985e-12
-2.77556e-12 -3.22787e-11 -2.73701e-12
-2.12985e-12 -2.73701e-12 -2.87322e-11

-3.35637e-11 1.73472e-12 -3.89349e-12
1.73472e-12 -2.47744e-11 -3.26706e-12
-3.89349e-12 -3.26706e-12 -2.64706e-11

-2.65734e-11 -3.46945e-13 2.4768e-12
-3.46945e-13 -2.98115e-11 -6.07153e-13
2.4768e-12 -6.07153e-13 -2.81154e-11

-3.46431e-11 -3.11347e-12 2.02746e-12
-3.11347e-12 -2.40034e-11 5.57333e-12
2.02746e-12 5.57333e-12 -1.87607e-11

-2.61108e-11 9.25186e-13 4.14406e-13
9.25186e-13 -3.02741e-11 1.15648e-13
4.14406e-13 1.15648e-13 -2.81154e-11

-3.32039e-11 -6.36065e-13 -1.16612e-12
-6.36065e-13 -2.81154e-11 -4.30428e-12
-1.16612e-12 -4.30428e-12 -2.68818e-11

-2.13307e-11 2.20093e-12 -2.81411e-12
2.20093e-12 -2.5494e-11 2.18073e-13
-2.81411e-12 2.18073e-13 -2.56482e-11

-2.85266e-11 4.62593e-13 -1.82628e-12
4.62593e-13 -2.11251e-11 -7.46774e-12
-1.82628e-12 -7.46774e-12 -1.88121e-11

-2.40548e-11 -2.35633e-12 4.96324e-12
-2.35633e-12 -2.26671e-11 -9.63735e-13
4.96324e-12 -9.63735e-13 -2.54426e-11

-2.56996e-11 1.61908e-12 -1.79255e-12
1.61908e-12 -2.06111e-11 5.30054e-12
-1.79255e-12 5.30054e-12 -2.46202e-11

-2.65734e-11 -3.46945e-13 -2.28405e-12
-3.46945e-13 -2.84238e-11 4.37536e-12
-2.28405e-12 4.37536e-12 -2.67276e-11

-2.27185e-11 9.25186e-13 -2.83338e-12
9.25186e-13 -2.41062e-11 -2.39006e-12
-2.83338e-12 -2.39006e-12 -2.28726e-11

-2.63678e-11 -2.48644e-12 4.86686e-12
-2.48644e-12 -2.35922e-11 6.14381e-14
4.86686e-12 6.14381e-14 -2.498e-11

-2.50314e-11 1.4456e-12 -2.166e-12
1.4456e-12 -1.94803e-11 2.60209e-13
-2.166e-12 2.60209e-13 -2.51856e-11

-2.8064e-11 1.09866e-12 1.04083e-12
1.09866e-12 -2.71388e-11 -4.29284e-12
1.04083e-12 -4.29284e-12 -2.71388e-11

-2.4723e-11 1.15648e-13 4.33681e-14
1.15648e-13 -2.98115e-11 1.84073e-12
4.33681e-14 1.84073e-12 -2.71902e-11

-2.17419e-11 -5.45715e-13 -4.43318e-13
-5.45715e-13 -2.40548e-11 -5.10659e-12
-4.43318e-13 -5.10659e-12 -2.35922e-11

-3.08395e-11 -6.93889e-13 6.74615e-13
-6.93889e-13 -2.76014e-11 9.73373e-13
6.74615e-13 9.73373e-13 -2.94518e-11

-3.47459e-11 1.59739e-12 9.46027e-12
1.59739e-12 -3.70588e-11 -2.81411e-12
9.46027e-12 -2.81411e-12 -3.11993e-11

-2.33352e-11 2.89121e-13 -6.26428e-13
2.89121e-13 -2.65734e-11 -4.25308e-12
-6.26428e-13 -4.25308e-12 -2.34894e-11

-2.86808e-11 -1.38778e-12 2.60209e-13
-1.38778e-12 -2.7293e-11 -1.77327e-12
2.60209e-13 -1.77327e-12 -2.7293e-11

-2.755e-11 -8.45678e-13 1.34923e-13
-8.45678e-13 -2.66248e-11 -2.06721e-12
1.34923e-13 -2.06721e-12 -2.50828e-11

-2.40548e-11 -2.47198e-12 2.41898e-12
-2.47198e-12 -2.68304e-11 -3.28634e-12
2.41898e-12 -3.28634e-12 -2.68304e-11

-3.06853e-11 -7.99691e-13 -5.61376e-12
-7.99691e-13 -2.60594e-11 -2.73766e-12
-5.61376e-12 -2.73766e-12 -2.18961e-11

-3.10965e-11 2.08167e-12 -2.60209e-12
2.08167e-12 -2.73958e-11 -5.01142e-13
-2.60209e-12 -5.01142e-13 -2.81668e-11

-1.88121e-11 -2.41777e-12 -1.56848e-12
-2.41777e-12 -1.97373e-11 -5.87879e-12
-1.56848e-12 -5.87879e-12 -1.88121e-11

-2.6522e-11 1.15648e-11 -1.89856e-12
1.15648e-11 -3.25357e-11 -4.24044e-13
-1.89856e-12 -4.24044e-13 -2.79098e-11

-2.27699e-11 2.77556e-12 3.79712e-12
2.77556e-12 -2.92462e-11 -3.66219e-13
3.79712e-12 -3.66219e-13 -2.63164e-11

-2.35922e-11 -1.15648e-13 -1.72268e-12
-1.15648e-13 -2.68304e-11 -1.26731e-12
-1.72268e-12 -1.26731e-12 -2.17419e-11

-2.95031e-11 2.31296e-12 -4.55004e-12
2.31296e-12 -2.71902e-11 -2.75869e-12
-4.55004e-12 -2.75869e-12 -2.04055e-11

-2.73958e-11 -5.20417e-12 5.91252e-12
-5.20417e-12 -3.10965e-11 -4.33681e-12
5.91252e-12 -4.33681e-12 -2.81668e-11

-2.80126e-11 -2.89121e-14 -8.60134e-13
-2.89121e-14 -2.70874e-11 -4.7223e-12
-8.60134e-13 -4.7223e-12 -2.69332e-11

-1.76299e-11 6.36065e-13 -1.4456e-13
6.36065e-13 -2.04055e-11 1.25286e-12
-1.4456e-13 1.25286e-12 -2.33352e-11

-2.77042e-11 3.00685e-12 1.47211e-12
3.00685e-12 -3.78812e-11 -5.57039e-12
1.47211e-12 -5.57039e-12 -2.84752e-11

-1.21816e-11 -1.15648e-13 -1.92747e-12
-1.15648e-13 -2.60594e-11 -4.50064e-12
-1.92747e-12 -4.50064e-12 -2.37464e-11

-3.43861e-11 2.31296e-12 7.51714e-13
2.31296e-12 -2.69846e-11 -1.26249e-12
7.51714e-13 -1.26249e-12 -2.83724e-11

-2.61622e-11 -1.28659e-12 -5.63062e-12
-1.28659e-12 -2.43118e-11 -5.8306e-13
-5.63062e-12 -5.8306e-13 -1.76813e-11

-2.83724e-11 1.79255e-12 -2.79001e-12
1.79255e-12 -2.37464e-11 1.64558e-12
-2.79001e-12 1.64558e-12 -2.37464e-11

-3.22273e-11 -1.4456e-13 2.09371e-12
-1.4456e-13 -3.26899e-11 -4.20189e-12
2.09371e-12 -4.20189e-12 -3.13021e-11

-2.15363e-11 2.31296e-13 5.1078e-12
2.31296e-13 -3.07881e-11 5.30054e-13
5.1078e-12 5.30054e-13 -2.69332e-11

-3.64934e-11 1.73472e-12 -2.75628e-12
1.73472e-12 -3.00171e-11 1.9347e-12
-2.75628e-12 1.9347e-12 -3.03255e-11

-2.7807e-11 1.15648e-12 -3.60437e-12
1.15648e-12 -3.01199e-11 1.85278e-12
-3.60437e-12 1.85278e-12 -2.56482e-11

-2.51342e-11 2.1684e-13 -3.44535e-12
2.1684e-13 -2.74472e-11 -1.75821e-12
-3.44535e-12 -1.75821e-12 -2.60594e-11

-2.5494e-11 4.62593e-13 7.32439e-13
4.62593e-13 -2.13307e-11 5.78241e-14
7.32439e-13 5.78241e-14 -2.56482e-11

-3.03255e-11 1.15648e-13 -1.70099e-12
1.15648e-13 -3.54141e-11 8.57724e-13
-1.70099e-12 8.57724e-13 -2.73958e-11

-2.81154e-11 1.26987e-12 -2.36356e-12
1.26987e-12 -2.53398e-11 1.92747e-14
-2.36356e-12 1.92747e-14 -2.64192e-11

-2.8321e-11 2.02384e-12 -1.99011e-12
2.02384e-12 -2.92462e-11 -2.99963e-12
-1.99011e-12 -2.99963e-12 -2.35408e-11

-3.08909e-11 2.89121e-13 2.39488e-12
2.89121e-13 -2.81154e-11 1.76424e-12
2.39488e-12 1.76424e-12 -2.64192e-11

-2.15363e-11 3.75857e-13 3.18033e-13
3.75857e-13 -2.5237e-11 -8.86636e-13
3.18033e-13 -8.86636e-13 -2.13821e-11

-2.85266e-11 -2.65991e-12 -2.5298e-13
-2.65991e-12 -3.03769e-11 -2.81411e-12
-2.5298e-13 -2.81411e-12 -2.89892e-11

-2.55454e-11 -2.19732e-12 7.73879e-12
-2.19732e-12 -2.50828e-11 -6.54858e-12
7.73879e-12 -6.54858e-12 -2.49286e-11

-2.69846e-11 3.46945e-12 4.81868e-14
3.46945e-12 -3.20731e-11 -2.18768e-12
4.81868e-14 -2.18768e-12 -2.79098e-11

-2.64192e-11 1.4456e-12 -2.83338e-12
1.4456e-12 -2.64192e-11 2.11901e-12
-2.83338e-12 2.11901e-12 -1.96345e-11

-2.52884e-11 -3.06468e-12 3.73447e-14
-3.06468e-12 -2.5751e-11 -5.78241e-14
3.73447e-14 -5.78241e-14 -2.5751e-11

-2.4466e-11 -3.61401e-13 1.1348e-12
-3.61401e-13 -2.30782e-11 -1.87446e-12
1.1348e-12 -1.87446e-12 -2.15363e-11

-2.8321e-11 2.77556e-12 4.45246e-12
2.77556e-12 -2.69332e-11 8.48087e-13
4.45246e-12 8.48087e-13 -2.58538e-11

-3.05311e-11 3.61401e-12 1.20467e-13
3.61401e-12 -3.14563e-11 -9.49279e-13
1.20467e-13 -9.49279e-13 -2.68304e-11

-2.55968e-11 2.54426e-12 2.33224e-12
2.54426e-12 -2.46716e-11 -9.92647e-13
2.33224e-12 -9.92647e-13 -2.55968e-11

-2.66762e-11 -1.76364e-12 1.56125e-12
-1.76364e-12 -2.89892e-11 -3.45981e-12
1.56125e-12 -3.45981e-12 -2.66762e-11

-3.16105e-11 -1.24322e-12 2.2961e-12
-1.24322e-12 -2.6522e-11 6.52931e-12
2.2961e-12 6.52931e-12 -2.05083e-11

-2.80126e-11 -1.73472e-12 1.15648e-13
-1.73472e-12 -2.47744e-11 -1.3685e-12
1.15648e-13 -1.3685e-12 -2.92462e-11

-2.50828e-11 3.46945e-13 4.85e-12
3.46945e-13 -2.69332e-11 -2.19732e-12
4.85e-12 -2.19732e-12 -2.63164e-11

-2.9092e-11 2.86229e-12 1.32514e-13
2.86229e-12 -3.14049e-11 -5.73422e-12
1.32514e-13 -5.73422e-12 -2.80126e-11

-2.58024e-11 -6.93889e-13 -5.26199e-12
-6.93889e-13 -2.6265e-11 4.68375e-12
-5.26199e-12 4.68375e-12 -2.7807e-11

-2.45174e-11 3.98986e-12 -2.14913e-12
3.98986e-12 -2.86808e-11 -3.71038e-13
-2.14913e-12 -3.71038e-13 -2.7293e-11

-2.4723e-11 -3.93204e-12 2.59245e-12
-3.93204e-12 -2.28726e-11 2.84302e-12
2.59245e-12 2.84302e-12 -2.58024e-11

-2.33866e-11 1.42686e-12 1.3685e-12
1.42686e-12 -2.47744e-11 1.84408e-13
1.3685e-12 1.84408e-13 -2.55454e-11

-2.4466e-11 -4.62593e-13 3.42126e-13
-4.62593e-13 -2.30782e-11 1.3685e-12
3.42126e-13 1.3685e-12 -2.43118e-11

-3.36151e-11 6.07153e-13 9.63735e-15
6.07153e-13 -3.08395e-11 -7.90263e-13
9.63735e-15 -7.90263e-13 -2.62136e-11

-2.73444e-11 1.15648e-12 -1.46729e-12
1.15648e-12 -2.50314e-11 2.3467e-12
-1.46729e-12 2.3467e-12 -2.28726e-11

-2.68818e-11 -2.54426e-12 1.95638e-12
-2.54426e-12 -2.22559e-11 -4.91505e-13
1.95638e-12 -4.91505e-13 -2.61108e-11

-2.39006e-11 -4.56811e-12 3.8694e-12
-4.56811e-12 -2.3438e-11 4.385e-12
3.8694e-12 4.385e-12 -2.66762e-11

-2.67276e-11 1.4456e-12 -3.65015e-12
1.4456e-12 -2.16391e-11 7.04611e-12
-3.65015e-12 7.04611e-12 -1.76299e-11

-2.53912e-11 8.67362e-14 -4.42354e-12
8.67362e-14 -3.09423e-11 2.89121e-13
-4.42354e-12 2.89121e-13 -2.66248e-11

-3.53113e-11 1.87928e-12 -1.54198e-13
1.87928e-12 -3.16105e-11 9.8301e-13
-1.54198e-13 9.8301e-13 -2.83724e-11

-2.6265e-11 1.15648e-13 5.71495e-12
1.15648e-13 -2.34894e-11 -4.91505e-12
5.71495e-12 -4.91505e-12 -2.73444e-11

-2.48258e-11 3.26706e-12 -2.62136e-12
3.26706e-12 -2.5751e-11 1.64799e-12
-2.62136e-12 1.64799e-12 -2.3438e-11

-2.43632e-11 1.51788e-12 1.99975e-12
1.51788e-12 -2.5751e-11 5.34873e-13
1.99975e-12 5.34873e-13 -2.39006e-11

-2.68304e-11 -3.23815e-12 8.84709e-12
-3.23815e-12 -3.42319e-11 3.48872e-12
8.84709e-12 3.48872e-12 -2.77556e-11

-2.5237e-11 -1.82869e-12 4.81868e-14
-1.82869e-12 -2.15363e-11 -2.48162e-12
4.81868e-14 -2.48162e-12 -2.69332e-11

-2.00971e-11 8.09538e-13 7.44004e-12
8.09538e-13 -2.28726e-11 1.14203e-12
7.44004e-12 1.14203e-12 -1.93261e-11

-3.05825e-11 2.0898e-12 2.22141e-12
2.0898e-12 -2.64192e-11 -9.97617e-15
2.22141e-12 -9.97617e-15 -2.65734e-11

-2.81668e-11 9.25186e-13 6.40884e-12
9.25186e-13 -3.83438e-11 4.02841e-12
6.40884e-12 4.02841e-12 -2.47744e-11

-2.90406e-11 6.14381e-13 -2.58161e-12
6.14381e-13 -2.90406e-11 -3.49836e-12
-2.58161e-12 -3.49836e-12 -2.73444e-11

-1.78869e-11 -1.09866e-12 2.03348e-12
-1.09866e-12 -2.66762e-11 -2.21659e-13
2.03348e-12 -2.21659e-13 -2.39006e-11

-2.35922e-11 -1.61908e-12 1.29381e-12
-1.61908e-12 -2.35922e-11 1.04083e-12
1.29381e-12 1.04083e-12 -1.66533e-11

3.13535e-12 -5.66676e-12 -9.03984e-12
-5.66676e-12 -9.35466e-12 5.09816e-12
-9.03984e-12 5.09816e-12 -1.89149e-11

-2.79612e-11 5.78241e-14 -8.98683e-13
5.78241e-14 -2.74986e-11 3.62846e-12
-8.98683e-13 3.62846e-12 -2.34894e-11

-6.58424e-11 -1.66244e-13 -4.7994e-12
-1.66244e-13 -3.80868e-11 -9.8301e-13
-4.7994e-12 -9.8301e-13 -3.57739e-11

-2.8578e-11 1.6769e-12 7.999e-13
1.6769e-12 -2.67276e-11 5.79205e-12
7.999e-13 5.79205e-12 -2.45688e-11

-2.15877e-11 1.85037e-12 7.70988e-13
1.85037e-12 -2.52884e-11 3.75857e-13
7.70988e-13 3.75857e-13 -2.71388e-11

-2.91948e-11 1.30104e-12 -1.43115e-12
1.30104e-12 -2.73444e-11 1.57812e-13
-1.43115e-12 1.57812e-13 -2.7036e-11

-2.44146e-11 1.23238e-12 1.73954e-12
1.23238e-12 -2.81154e-11 -7.02081e-12
1.73954e-12 -7.02081e-12 -2.17933e-11

-2.45174e-11 -5.05961e-13 1.27695e-13
-5.05961e-13 -3.14563e-11 -2.54908e-12
1.27695e-13 -2.54908e-12 -2.45174e-11

-2.46202e-11 1.73472e-13 -2.89121e-13
1.73472e-13 -2.55454e-11 -5.7535e-12
-2.89121e-13 -5.7535e-12 -2.53912e-11

-2.34894e-11 -1.61908e-12 -2.85266e-12
-1.61908e-12 -2.8578e-11 -2.89121e-13
-2.85266e-12 -2.89121e-13 -2.7807e-11

-2.51856e-11 4.51751e-14 2.04312e-12
4.51751e-14 -2.51856e-11 -2.6069e-12
2.04312e-12 -2.6069e-12 -2.58024e-11

-2.53912e-11 -1.15648e-13 2.05276e-12
-1.15648e-13 -2.4466e-11 -2.0383e-12
2.05276e-12 -2.0383e-12 -2.19989e-11

-2.58538e-11 1.807e-12 -8.19175e-14
1.807e-12 -2.72416e-11 1.56607e-12
-8.19175e-14 1.56607e-12 -2.43118e-11

-2.9349e-11 4.36572e-12 -3.67665e-12
4.36572e-12 -2.98115e-11 -4.45728e-14
-3.67665e-12 -4.45728e-14 -2.53398e-11

-2.51342e-11 -4.04769e-13 -3.52245e-12
-4.04769e-13 -2.79098e-11 2.40934e-12
-3.52245e-12 2.40934e-12 -2.83724e-11

-2.9092e-11 2.08167e-12 -5.58966e-12
2.08167e-12 -2.58538e-11 5.78241e-13
-5.58966e-12 5.78241e-13 -2.80126e-11

-2.46716e-11 -6.93889e-13 -2.40934e-13
-6.93889e-13 -2.92976e-11 -4.37536e-12
-2.40934e-13 -4.37536e-12 -2.74472e-11

-2.4466e-11 2.38524e-12 3.42126e-13
2.38524e-12 -2.53912e-11 -1.02156e-12
3.42126e-13 -1.02156e-12 -2.47744e-11

-2.49286e-11 -4.33681e-13 4.53919e-12
-4.33681e-13 -2.63164e-11 1.4191e-12
4.53919e-12 1.4191e-12 -2.61622e-11

-2.5751e-11 -5.05961e-14 -1.03602e-13
-5.05961e-14 -2.66762e-11 -1.97566e-12
-1.03602e-13 -1.97566e-12 -2.15877e-11

-2.45174e-11 3.46945e-13 -8.48087e-13
3.46945e-13 -2.03541e-11 4.43318e-12
-8.48087e-13 4.43318e-12 -2.45174e-11

-2.92462e-11 -2.22623e-12 3.71038e-13
-2.22623e-12 -2.73958e-11 3.21888e-12
3.71038e-13 3.21888e-12 -2.72416e-11

-2.50828e-11 1.43115e-12 -8.18753e-12
1.43115e-12 -3.06339e-11 -3.9465e-12
-8.18753e-12 -3.9465e-12 -2.26157e-11

-2.40548e-11 -6.93889e-13 -3.69111e-12
-6.93889e-13 -2.26671e-11 5.97034e-12
-3.69111e-12 5.97034e-12 -1.98915e-11

-2.8064e-11 -9.25186e-13 -4.43318e-12
-9.25186e-13 -2.29754e-11 4.04769e-13
-4.43318e-12 4.04769e-13 -2.5751e-11

-2.32324e-11 -2.89121e-14 -8.19175e-13
-2.89121e-14 -2.73958e-11 9.30005e-13
-8.19175e-13 9.30005e-13 -2.77042e-11

-3.47973e-11 2.19732e-12 3.51763e-12
2.19732e-12 -2.97087e-11 3.78748e-12
3.51763e-12 3.78748e-12 -2.77042e-11

-1.06396e-11 5.31982e-12 1.3685e-12
5.31982e-12 -2.35922e-11 1.82628e-12
1.3685e-12 1.82628e-12 -2.40548e-11

-2.27185e-11 -4.04769e-13 -3.18033e-13
-4.04769e-13 -2.50314e-11 -1.83351e-12
-3.18033e-13 -1.83351e-12 -2.19475e-11

-2.48258e-11 -1.85037e-12 3.98023e-12
-1.85037e-12 -2.85266e-11 -9.58917e-13
3.98023e-12 -9.58917e-13 -2.89892e-11

-2.77556e-11 -5.34873e-13 -1.70099e-12
-5.34873e-13 -2.77556e-11 -1.54198e-12
-1.70099e-12 -1.54198e-12 -2.498e-11

-2.86294e-11 -8.17669e-14 4.50305e-12
-8.17669e-14 -2.72416e-11 4.53377e-12
4.50305e-12 4.53377e-12 -2.70874e-11

-2.53912e-11 1.00974e-28 5.01142e-13
1.00974e-28 -2.49286e-11 -3.9995e-13
5.01142e-13 -3.9995e-13 -2.43118e-11

-2.45688e-11 -1.76544e-28 2.69846e-13
-1.76544e-28 -2.7807e-11 2.69846e-13
2.69846e-13 2.69846e-13 -2.56482e-11

-3.13535e-11 1.43837e-12 3.25261e-12
1.43837e-12 -2.8578e-11 -3.9995e-12
3.25261e-12 -3.9995e-12 -2.82696e-11

-2.64706e-11 -1.30104e-13 1.15648e-12
-1.30104e-13 -2.87836e-11 -1.56607e-13
1.15648e-12 -1.56607e-13 -2.86294e-11

-2.71388e-11 1.01192e-12 1.21913e-12
1.01192e-12 -2.99143e-11 2.64063e-12
1.21913e-12 2.64063e-12 -2.8064e-11

-2.95031e-11 -3.00685e-12 4.37536e-12
-3.00685e-12 -3.13535e-11 -7.70988e-13
4.37536e-12 -7.70988e-13 -2.73444e-11

-2.58538e-11 -1.61004e-12 5.30054e-13
-1.61004e-12 -3.00171e-11 -1.14684e-12
5.30054e-13 -1.14684e-12 -2.70874e-11

-2.71388e-11 -1.18539e-12 1.97009e-12
-1.18539e-12 -2.99143e-11 4.34163e-12
1.97009e-12 4.34163e-12 -2.25129e-11

-2.43632e-11 8.96274e-13 1.07938e-12
8.96274e-13 -2.52884e-11 -3.05022e-12
1.07938e-12 -3.05022e-12 -2.43632e-11

-2.77042e-11 5.78241e-14 6.82806e-12
5.78241e-14 -2.86294e-11 4.06696e-12
6.82806e-12 4.06696e-12 -2.66248e-11

-2.32838e-11 2.08167e-12 -2.94903e-12
2.08167e-12 -2.60594e-11 1.38296e-12
-2.94903e-12 1.38296e-12 -2.6522e-11

-2.62136e-11 4.62593e-13 -1.97566e-13
4.62593e-13 -2.94518e-11 3.87422e-12
-1.97566e-13 3.87422e-12 -2.66762e-11

-3.25357e-11 3.64292e-12 -3.66219e-13
3.64292e-12 -2.8835e-11 -4.81868e-14
-3.66219e-13 -4.81868e-14 -2.83724e-11

-3.17133e-11 2.1684e-13 -1.02156e-12
2.1684e-13 -2.38492e-11 -1.40223e-12
-1.02156e-12 -1.40223e-12 -2.3695e-11

-2.61108e-11 1.50343e-12 4.95119e-12
1.50343e-12 -2.4723e-11 -3.25743e-12
4.95119e-12 -3.25743e-12 -2.81154e-11

-2.43118e-11 2.3997e-12 -5.58966e-12
2.3997e-12 -2.66248e-11 -2.98758e-13
-5.58966e-12 -2.98758e-13 -1.99943e-11

-3.17133e-11 -3.70074e-12 -1.89856e-12
-3.70074e-12 -2.47744e-11 1.71304e-12
-1.89856e-12 1.71304e-12 -2.55454e-11

-3.52599e-11 1.61908e-12 -1.46488e-12
1.61908e-12 -2.73958e-11 -1.49379e-13
-1.46488e-12 -1.49379e-13 -2.95545e-11

-2.64706e-11 9.25186e-13 -5.72459e-12
9.25186e-13 -3.38721e-11 8.53869e-12
-5.72459e-12 8.53869e-12 -2.63164e-11

-2.89378e-11 -1.85037e-12 -4.22237e-12
-1.85037e-12 -2.47744e-11 8.67362e-13
-4.22237e-12 8.67362e-13 -2.55454e-11

-2.95031e-11 -1.15648e-12 7.999e-13
-1.15648e-12 -2.58024e-11 4.52956e-13
7.999e-13 4.52956e-13 -2.73444e-11

-3.06853e-11 -8.3845e-13 -8.67362e-13
-8.3845e-13 -2.69846e-11 5.71736e-12
-8.67362e-13 5.71736e-12 -2.6522e-11

-2.77556e-11 -1.73472e-12 3.10805e-12
-1.73472e-12 -2.7293e-11 3.95131e-13
3.10805e-12 3.95131e-13 -2.82182e-11

-2.60594e-11 -3.23815e-12 -5.54148e-14
-3.23815e-12 -2.8835e-11 2.65509e-12
-5.54148e-14 2.65509e-12 -2.37464e-11

-2.89892e-11 -2.54426e-12 5.49329e-13
-2.54426e-12 -3.36151e-11 5.23308e-12
5.49329e-13 5.23308e-12 -2.8064e-11

-1.84009e-11 2.31296e-13 4.52956e-13
2.31296e-13 -2.07139e-11 1.60944e-12
4.52956e-13 1.60944e-12 -2.41062e-11

-2.40034e-11 2.83338e-12 5.26199e-12
2.83338e-12 -2.30782e-11 -4.63557e-12
5.26199e-12 -4.63557e-12 -2.47744e-11

-3.22787e-11 4.53919e-12 -7.70988e-13
4.53919e-12 -2.53398e-11 9.63735e-14
-7.70988e-13 9.63735e-14 -2.7807e-11

-3.09937e-11 4.62593e-13 1.63835e-12
4.62593e-13 -2.59052e-11 -2.9153e-12
1.63835e-12 -2.9153e-12 -2.35922e-11

-2.30782e-11 8.09538e-13 -3.79712e-12
8.09538e-13 -2.4466e-11 4.16575e-12
-3.79712e-12 4.16575e-12 -2.43118e-11

-2.38492e-11 -6.93889e-13 9.05911e-13
-6.93889e-13 -2.38492e-11 -4.50064e-12
9.05911e-13 -4.50064e-12 -2.32324e-11

-2.43632e-11 -1.27213e-12 -3.29597e-12
-1.27213e-12 -2.71388e-11 2.64063e-12
-3.29597e-12 2.64063e-12 -2.25129e-11

-2.30782e-11 -1.85037e-12 1.92024e-12
-1.85037e-12 -2.26157e-11 -4.10551e-12
1.92024e-12 -4.10551e-12 -2.33866e-11

-3.02741e-11 -1.15648e-12 -8.67362e-13
-1.15648e-12 -2.65734e-11 -6.26428e-13
-8.67362e-13 -6.26428e-13 -2.48772e-11

-2.61108e-11 1.87928e-13 4.04769e-13
1.87928e-13 -2.00971e-11 -5.97516e-13
4.04769e-13 -5.97516e-13 -2.44146e-11

-2.69332e-11 -1.27213e-12 3.2767e-13
-1.27213e-12 -2.09195e-11 1.19503e-12
3.2767e-13 1.19503e-12 -2.49286e-11

-2.87322e-11 -1.47451e-12 2.54908e-12
-1.47451e-12 -2.64192e-11 5.65713e-12
2.54908e-12 5.65713e-12 -2.56482e-11

-2.54426e-11 -1.56125e-12 6.39679e-13
-1.56125e-12 -2.7293e-11 7.70988e-14
6.39679e-13 7.70988e-14 -2.498e-11

-2.74472e-11 4.62593e-13 2.3226e-12
4.62593e-13 -3.20731e-11 -8.28812e-13
2.3226e-12 -8.28812e-13 -2.74472e-11

-2.63678e-11 -3.93204e-12 -2.52017e-12
-3.93204e-12 -3.33067e-11 1.48415e-12
-2.52017e-12 1.48415e-12 -2.63678e-11

-3.07367e-11 8.09538e-13 -8.43268e-13
8.09538e-13 -2.61108e-11 -9.44461e-13
-8.43268e-13 -9.44461e-13 -2.48772e-11

-2.33866e-11 -3.46945e-13 6.64014e-12
-3.46945e-13 -2.38492e-11 -6.12454e-12
6.64014e-12 -6.12454e-12 -2.09195e-11

-2.40034e-11 2.65991e-12 -4.15852e-12
2.65991e-12 -2.77042e-11 4.51028e-12
-4.15852e-12 4.51028e-12 -2.56996e-11

-2.84238e-11 1.37332e-12 2.85266e-12
1.37332e-12 -2.84238e-11 2.74665e-12
2.85266e-12 2.74665e-12 -2.48772e-11

-1.93261e-11 -1.87657e-12 -1.9082e-12
-1.87657e-12 -2.6265e-11 4.56961e-12
-1.9082e-12 4.56961e-12 -2.59566e-11

-2.14335e-11 4.62593e-13 -3.92963e-12
4.62593e-13 -2.28213e-11 -9.68554e-13
-3.92963e-12 -9.68554e-13 -2.05083e-11

-3.17647e-11 9.54098e-13 -5.49329e-13
9.54098e-13 -2.71388e-11 -7.90263e-13
-5.49329e-13 -7.90263e-13 -2.62136e-11

-2.76528e-11 -1.6769e-12 6.27633e-13
-1.6769e-12 -3.45917e-11 -1.16612e-12
6.27633e-13 -1.16612e-12 -2.59566e-11

-2.66762e-11 1.73472e-12 -4.56329e-12
1.73472e-12 -2.5751e-11 -2.45271e-12
-4.56329e-12 -2.45271e-12 -2.43632e-11

-2.50314e-11 -4.74338e-12 4.7464e-13
-4.74338e-12 -2.36436e-11 4.33681e-13
4.7464e-13 4.33681e-13 -2.37978e-11

-2.97601e-11 1.56848e-12 1.42618e-12
1.56848e-12 -3.20731e-11 3.70074e-12
1.42618e-12 3.70074e-12 -2.79098e-11

-2.60594e-11 -6.93889e-13 1.07938e-12
-6.93889e-13 -2.92976e-11 -9.49279e-13
1.07938e-12 -9.49279e-13 -2.60594e-11

-2.26157e-11 -5.36319e-12 -3.3538e-12
-5.36319e-12 -2.63164e-11 7.21838e-12
-3.3538e-12 7.21838e-12 -2.56996e-11

-2.51342e-11 2.12504e-12 -9.25186e-13
2.12504e-12 -2.83724e-11 1.4697e-13
-9.25186e-13 1.4697e-13 -2.51342e-11

-2.41576e-11 -5.43547e-12 -4.13442e-12
-5.43547e-12 -2.64706e-11 2.12022e-12
-4.13442e-12 2.12022e-12 -2.77042e-11

-2.22045e-11 3.70074e-12 2.54426e-12
3.70074e-12 -2.68304e-11 -2.19732e-12
2.54426e-12 -2.19732e-12 -2.59052e-11

-3.53627e-11 1.79255e-12 6.5534e-13
1.79255e-12 -2.9349e-11 -4.21152e-12
6.5534e-13 -4.21152e-12 -3.08909e-11

-2.97601e-11 1.6769e-12 4.52956e-12
1.6769e-12 -2.83724e-11 1.81182e-12
4.52956e-12 1.81182e-12 -2.60594e-11

-1.40834e-11 -4.39463e-12 1.64799e-12
-4.39463e-12 -2.14849e-11 1.9082e-12
1.64799e-12 1.9082e-12 -2.3952e-11

-3.18161e-11 -5.78241e-13 -9.44461e-13
-5.78241e-13 -2.95031e-11 8.98683e-13
-9.44461e-13 8.98683e-13 -2.41062e-11

-3.47459e-11 -1.38778e-12 -1.39742e-12
-1.38778e-12 -2.91948e-11 -5.97516e-13
-1.39742e-12 -5.97516e-13 -2.79612e-11

-2.72416e-11 2.31296e-13 -2.50571e-13
2.31296e-13 -2.30782e-11 -4.2308e-12
-2.50571e-13 -4.2308e-12 -2.70874e-11

-3.02741e-11 -1.96602e-12 -9.68554e-13
-1.96602e-12 -3.02741e-11 -8.42787e-12
-9.68554e-13 -8.42787e-12 -2.67276e-11

-3.20731e-11 6.93889e-13 2.40934e-12
6.93889e-13 -2.8835e-11 -2.60209e-12
2.40934e-12 -2.60209e-12 -2.8835e-11

-2.87836e-11 9.8301e-13 2.80929e-12
9.8301e-13 -2.46202e-11 1.03451e-12
2.80929e-12 1.03451e-12 -2.49286e-11

-1.79383e-11 -1.61908e-12 -8.19175e-13
-1.61908e-12 -2.11765e-11 -1.63835e-13
-8.19175e-13 -1.63835e-13 -2.13307e-11

-2.54426e-11 1.15648e-12 -2.90325e-12
1.15648e-12 -1.94289e-11 -4.25971e-12
-2.90325e-12 -4.25971e-12 -2.45174e-11

-3.22273e-11 -6.36065e-12 6.74615e-14
-6.36065e-12 -2.76014e-11 -1.97566e-13
6.74615e-14 -1.97566e-13 -2.8064e-11

-2.2924e-11 3.70074e-12 5.43547e-12
3.70074e-12 -2.5237e-11 6.17754e-12
5.43547e-12 6.17754e-12 -2.55454e-11

-2.73444e-11 -7.91468e-13 2.2178e-12
-7.91468e-13 -2.91948e-11 -4.33681e-12
2.2178e-12 -4.33681e-12 -2.7036e-11

-2.59566e-11 -3.46945e-13 5.69568e-12
-3.46945e-13 -2.73444e-11 1.1101e-12
5.69568e-12 1.1101e-12 -2.4723e-11

-2.56996e-11 -1.38778e-12 -1.64317e-12
-1.38778e-12 -2.24615e-11 -1.73472e-13
-1.64317e-12 -1.73472e-13 -2.27699e-11

-2.61108e-11 -6.36065e-13 3.86699e-13
-6.36065e-13 -2.37978e-11 5.28127e-12
3.86699e-13 5.28127e-12 -2.34894e-11

-3.52599e-11 -3.67251e-12 -1.92747e-14
-3.67251e-12 -3.06339e-11 4.29382e-12
-1.92747e-14 4.29382e-12 -2.9092e-11

-2.96059e-11 -4.93312e-13 3.85494e-14
-4.93312e-13 -2.7293e-11 1.16439e-12
3.85494e-14 1.16439e-12 -2.91434e-11

-2.95545e-11 1.61908e-12 -2.04312e-12
1.61908e-12 -2.03027e-11 -4.12479e-12
-2.04312e-12 -4.12479e-12 -2.47744e-11

-1.93775e-11 -2.31296e-13 -7.90263e-13
-2.31296e-13 -3.09423e-11 6.16791e-13
-7.90263e-13 6.16791e-13 -2.70874e-11

-2.55968e-11 -6.93889e-13 -3.31525e-12
-6.93889e-13 -2.28213e-11 -2.21659e-12
-3.31525e-12 -2.21659e-12 -2.74472e-11

-2.51856e-11 2.85507e-12 1.70912e-12
2.85507e-12 -2.37978e-11 -4.56811e-12
1.70912e-12 -4.56811e-12 -2.71902e-11

-2.92976e-11 -1.85037e-12 1.25286e-12
-1.85037e-12 -2.09709e-11 1.92747e-14
1.25286e-12 1.92747e-14 -2.55968e-11

-2.28726e-11 6.36065e-13 6.45703e-12
6.36065e-13 -2.51856e-11 5.05961e-14
6.45703e-12 5.05961e-14 -2.53398e-11

-3.06339e-11 -2.31296e-12 -9.68554e-13
-2.31296e-12 -2.8321e-11 -9.44461e-13
-9.68554e-13 -9.44461e-13 -2.77042e-11

-2.27185e-11 3.1225e-12 -5.78241e-13
3.1225e-12 -2.36436e-11 -3.78266e-13
-5.78241e-13 -3.78266e-13 -2.61108e-11

-2.8321e-11 3.70074e-12 5.43065e-12
3.70074e-12 -2.6008e-11 -6.89071e-13
5.43065e-12 -6.89071e-13 -2.12279e-11

-2.9092e-11 2.76833e-12 3.03577e-13
2.76833e-12 -3.00171e-11 2.79483e-12
3.03577e-13 2.79483e-12 -2.66248e-11

-2.74472e-11 -2.02384e-12 -4.06696e-12
-2.02384e-12 -2.97601e-11 -1.68654e-13
-4.06696e-12 -1.68654e-13 -2.69846e-11

-3.24329e-11 -3.3538e-12 4.49101e-12
-3.3538e-12 -2.68818e-11 -2.684e-12
4.49101e-12 -2.684e-12 -2.42604e-11

-2.92976e-11 3.00685e-12 5.78241e-14
3.00685e-12 -2.55968e-11 -9.34823e-13
5.78241e-14 -9.34823e-13 -2.6522e-11

-2.31296e-11 -2.13949e-12 -2.69846e-13
-2.13949e-12 -2.45174e-11 -1.63233e-12
-2.69846e-13 -1.63233e-12 -2.45174e-11

-2.14849e-11 6.93889e-13 -3.53691e-12
6.93889e-13 -2.24101e-11 -4.80904e-12
-3.53691e-12 -4.80904e-12 -2.3952e-11

-2.92976e-11 -7.51714e-13 1.49379e-12
-7.51714e-13 -2.60594e-11 -3.70556e-12
1.49379e-12 -3.70556e-12 -2.60594e-11

-2.04569e-11 -2.73219e-12 -2.00457e-12
-2.73219e-12 -2.50828e-11 2.38163e-12
-2.00457e-12 2.38163e-12 -2.4466e-11

-2.13821e-11 -3.23815e-12 3.94168e-12
-3.23815e-12 -2.3695e-11 -2.89121e-14
3.94168e-12 -2.89121e-14 -2.49286e-11

-2.15877e-11 1.50343e-12 -1.97084e-12
1.50343e-12 -2.85266e-11 3.92963e-12
-1.97084e-12 3.92963e-12 -2.39006e-11

-2.73958e-11 4.62593e-13 -1.91783e-12
4.62593e-13 -2.55454e-11 3.85012e-12
-1.91783e-12 3.85012e-12 -2.81668e-11

-1.89149e-11 1.96602e-12 -5.5463e-12
1.96602e-12 -2.40034e-11 -6.31488e-12
-5.5463e-12 -6.31488e-12 -2.33866e-11

-3.66476e-11 4.04769e-12 1.4456e-12
4.04769e-12 -2.97087e-11 -3.56582e-13
1.4456e-12 -3.56582e-13 -2.86294e-11

-2.08167e-11 -1.85037e-12 2.68882e-12
-1.85037e-12 -2.45174e-11 -4.18261e-12
2.68882e-12 -4.18261e-12 -2.40548e-11

-2.45688e-11 9.25186e-13 7.999e-13
9.25186e-13 -2.68818e-11 1.55161e-12
7.999e-13 1.55161e-12 -2.65734e-11

-3.00685e-11 5.3946e-12 2.59245e-12
5.3946e-12 -2.22045e-11 -4.28718e-12
2.59245e-12 -4.28718e-12 -2.82182e-11

-2.91434e-11 -9.25186e-13 -3.66219e-13
-9.25186e-13 -2.45174e-11 2.73701e-12
-3.66219e-13 2.73701e-12 -2.68304e-11

-3.25871e-11 -4.04769e-13 4.43318e-13
-4.04769e-13 -2.88864e-11 7.95082e-14
4.43318e-13 7.95082e-14 -2.8578e-11

-2.17933e-11 7.51714e-13 -2.25514e-12
7.51714e-13 -2.64192e-11 4.70785e-12
-2.25514e-12 4.70785e-12 -2.42604e-11

-2.51342e-11 -5.49329e-13 -9.25186e-13
-5.49329e-13 -2.60594e-11 4.40427e-12
-9.25186e-13 4.40427e-12 -2.74472e-11

-3.39749e-11 -2.31296e-12 -7.03527e-13
-2.31296e-12 -2.88864e-11 -8.67362e-14
-7.03527e-13 -8.67362e-14 -2.71902e-11

-3.00171e-11 4.19225e-12 3.13214e-12
4.19225e-12 -2.86294e-11 -1.25286e-13
3.13214e-12 -1.25286e-13 -2.70874e-11

-2.87322e-11 9.25186e-13 2.83338e-12
9.25186e-13 -3.89092e-11 -4.7223e-12
2.83338e-12 -4.7223e-12 -2.98115e-11

-2.8321e-11 1.95156e-13 -3.77302e-12
1.95156e-13 -3.01713e-11 -6.07153e-13
-3.77302e-12 -6.07153e-13 -2.81668e-11

-2.91948e-11 2.94903e-12 2.12022e-12
2.94903e-12 -2.73444e-11 1.15648e-13
2.12022e-12 1.15648e-13 -2.7036e-11

-2.76014e-11 -3.5851e-12 2.40934e-12
-3.5851e-12 -2.43632e-11 -6.11972e-13
2.40934e-12 -6.11972e-13 -2.48258e-11

-2.71388e-11 1.20437e-12 1.41398e-13
1.20437e-12 -2.99143e-11 1.06975e-12
1.41398e-13 1.06975e-12 -2.52884e-11

-2.21017e-11 5.31982e-12 -1.12757e-12
5.31982e-12 -3.82924e-11 -9.63735e-15
-1.12757e-12 -9.63735e-15 -2.7807e-11

-2.6522e-11 9.17958e-13 3.15141e-12
9.17958e-13 -1.81953e-11 1.89856e-12
3.15141e-12 1.89856e-12 -2.55968e-11

-2.76528e-11 -3.32489e-12 7.70988e-14
-3.32489e-12 -2.99657e-11 -4.28742e-12
7.70988e-14 -4.28742e-12 -2.7807e-11

-2.73958e-11 9.8301e-13 2.31296e-12
9.8301e-13 -2.92462e-11 -9.63735e-14
2.31296e-12 -9.63735e-14 -2.72416e-11

-3.14049e-11 1.27213e-12 -1.00228e-12
1.27213e-12 -2.81668e-11 -2.31296e-13
-1.00228e-12 -2.31296e-13 -2.89378e-11

-2.6265e-11 1.14203e-12 -9.25186e-13
1.14203e-12 -2.6265e-11 3.28875e-13
-9.25186e-13 3.28875e-13 -2.73444e-11

-2.50314e-11 -1.44741e-12 -3.70677e-12
-1.44741e-12 -2.41062e-11 4.50546e-12
-3.70677e-12 4.50546e-12 -2.33352e-11

-3.07881e-11 -2.31296e-12 -6.07153e-13
-2.31296e-12 -2.70874e-11 5.01142e-13
-6.07153e-13 5.01142e-13 -2.69332e-11

-2.92976e-11 4.70182e-12 -4.6452e-12
4.70182e-12 -2.79098e-11 2.21659e-13
-4.6452e-12 2.21659e-13 -2.69846e-11

-2.8578e-11 -6.93889e-13 -1.24322e-12
-6.93889e-13 -2.81154e-11 4.29826e-12
-1.24322e-12 4.29826e-12 -2.59566e-11

-1.90177e-11 -1.73472e-13 -1.17576e-12
-1.73472e-13 -2.68818e-11 -4.20189e-12
-1.17576e-12 -4.20189e-12 -2.37978e-11

-2.24615e-11 -1.04083e-12 -2.32742e-12
-1.04083e-12 -2.24615e-11 -7.999e-13
-2.32742e-12 -7.999e-13 -2.32324e-11

-2.81154e-11 -5.34873e-12 2.35151e-12
-5.34873e-12 -2.3952e-11 -6.26428e-14
2.35151e-12 -6.26428e-14 -2.50314e-11

-2.94518e-11 -1.61908e-12 -3.79712e-12
-1.61908e-12 -2.85266e-11 -1.06011e-13
-3.79712e-12 -1.06011e-13 -2.71388e-11

-2.79098e-11 -3.7405e-13 1.70461e-13
-3.7405e-13 -2.97601e-11 3.88385e-12
1.70461e-13 3.88385e-12 -2.6522e-11

-2.51856e-11 -1.65385e-12 3.87301e-12
-1.65385e-12 -2.9349e-11 4.66056e-12
3.87301e-12 4.66056e-12 -2.44146e-11

-2.29754e-11 -1.50343e-12 -2.31056e-12
-1.50343e-12 -2.52884e-11 4.63557e-12
-2.31056e-12 4.63557e-12 -2.01999e-11

-3.06853e-11 -3.64653e-12 1.80218e-12
-3.64653e-12 -2.46716e-11 1.42829e-12
1.80218e-12 1.42829e-12 -2.32838e-11

-2.98629e-11 -6.93889e-13 -3.28634e-12
-6.93889e-13 -2.56996e-11 3.18033e-13
-3.28634e-12 3.18033e-13 -2.64706e-11

-2.66248e-11 -1.79255e-12 1.05168e-12
-1.79255e-12 -2.98629e-11 1.74436e-12
1.05168e-12 1.74436e-12 -2.27699e-11

-2.4466e-11 3.00685e-12 2.09131e-12
3.00685e-12 -2.12279e-11 3.56582e-13
2.09131e-12 3.56582e-13 -2.33866e-11

-2.46202e-11 -1.89374e-12 -4.82349e-12
-1.89374e-12 -2.6008e-11 5.66285e-12
-4.82349e-12 5.66285e-12 -2.49286e-11

-2.64192e-11 -2.13949e-12 -2.08167e-12
-2.13949e-12 -2.87322e-11 6.77024e-13
-2.08167e-12 6.77024e-13 -2.56482e-11

-2.63164e-11 1.73472e-13 -4.41391e-12
1.73472e-13 -2.63164e-11 -2.04794e-14
-4.41391e-12 -2.04794e-14 -2.755e-11

-2.80126e-11 -3.7658e-12 -1.79255e-12
-3.7658e-12 -3.21759e-11 1.82146e-12
-1.79255e-12 1.82146e-12 -2.73958e-11

-2.24615e-11 5.20417e-13 -8.15561e-13
5.20417e-13 -1.78355e-11 2.89121e-13
-8.15561e-13 2.89121e-13 -2.23073e-11

-2.11765e-11 6.93889e-13 -2.89121e-13
6.93889e-13 -3.04283e-11 1.06011e-13
-2.89121e-13 1.06011e-13 -2.5494e-11

-2.7807e-11 1.4456e-12 -7.70988e-13
1.4456e-12 -2.91948e-11 5.54148e-14
-7.70988e-13 5.54148e-14 -2.65734e-11

-2.9349e-11 -1.27213e-12 1.94675e-12
-1.27213e-12 -3.02741e-11 3.70074e-12
1.94675e-12 3.70074e-12 -2.76528e-11

-3.70588e-11 1.85037e-12 3.66219e-13
1.85037e-12 -3.47459e-11 4.43318e-13
3.66219e-13 4.43318e-13 -3.11993e-11

-2.47744e-11 1.61908e-12 -1.9612e-12
1.61908e-12 -2.38492e-11 1.4456e-13
-1.9612e-12 1.4456e-13 -2.50828e-11

-2.56482e-11 -1.6829e-28 -4.81868e-14
-1.6829e-28 -2.88864e-11 1.2384e-12
-4.81868e-14 1.2384e-12 -2.44146e-11

-2.59566e-11 -4.62593e-13 -1.91301e-12
-4.62593e-13 -2.59566e-11 2.98758e-12
-1.91301e-12 2.98758e-12 -2.61108e-11

-2.51342e-11 -5.78241e-14 -1.72027e-12
-5.78241e-14 -3.16105e-11 4.76085e-12
-1.72027e-12 4.76085e-12 -2.74472e-11

-2.25129e-11 -4.85723e-12 -1.8311e-13
-4.85723e-12 -1.23358e-11 2.88157e-12
-1.8311e-13 2.88157e-12 -2.25129e-11

-3.03769e-11 2.02384e-13 -3.4839e-12
2.02384e-13 -2.99143e-11 4.90541e-12
-3.4839e-12 4.90541e-12 -2.76014e-11

-2.24101e-11 4.04769e-13 1.34923e-12
4.04769e-13 -2.74986e-11 4.67412e-13
1.34923e-12 4.67412e-13 -2.6265e-11

-2.17933e-11 -1.04083e-12 2.65991e-12
-1.04083e-12 -2.36436e-11 2.40934e-13
2.65991e-12 2.40934e-13 -2.42604e-11

-2.755e-11 3.70074e-12 -3.71038e-12
3.70074e-12 -2.47744e-11 -1.91783e-12
-3.71038e-12 -1.91783e-12 -2.41576e-11

-2.33866e-11 7.22801e-13 -5.02106e-12
7.22801e-13 -2.43118e-11 8.3845e-13
-5.02106e-12 8.3845e-13 -2.6008e-11

-1.61908e-11 1.85037e-12 -1.97566e-12
1.85037e-12 -2.22045e-11 4.48137e-13
-1.97566e-12 4.48137e-13 -2.26671e-11

-2.33352e-11 3.5851e-12 2.17202e-12
3.5851e-12 -1.59338e-11 -3.85494e-14
2.17202e-12 -3.85494e-14 -2.30268e-11

-3.05825e-11 2.31296e-12 3.95131e-13
2.31296e-12 -3.38207e-11 -6.44739e-12
3.95131e-13 -6.44739e-12 -2.74986e-11

-2.22045e-11 1.27936e-12 -1.39742e-12
1.27936e-12 -2.17419e-11 -9.23379e-13
-1.39742e-12 -9.23379e-13 -1.98915e-11

-2.6522e-11 4.42716e-13 6.192e-13
4.42716e-13 -2.23587e-11 8.42858e-12
6.192e-13 8.42858e-12 -2.14335e-11

-3.11993e-11 1.09866e-12 -1.54198e-13
1.09866e-12 -2.74986e-11 3.51763e-13
-1.54198e-13 3.51763e-13 -2.8578e-11

-2.8578e-11 -5.78241e-13 3.18033e-13
-5.78241e-13 -2.67276e-11 8.56761e-12
3.18033e-13 8.56761e-12 -2.73444e-11

-2.26671e-11 1.34632e-28 -5.68604e-13
1.34632e-28 -3.09937e-11 1.8311e-13
-5.68604e-13 1.8311e-13 -2.68304e-11

-1.75271e-11 1.02999e-12 1.01192e-12
1.02999e-12 -2.35408e-11 3.56025e-12
1.01192e-12 3.56025e-12 -2.24615e-11

-3.04283e-11 3.3538e-12 2.64666e-12
3.3538e-12 -3.59794e-11 2.88157e-12
2.64666e-12 2.88157e-12 -3.01199e-11

-3.09423e-11 4.62593e-12 -1.13721e-12
4.62593e-12 -3.04797e-11 -6.8377e-12
-1.13721e-12 -6.8377e-12 -2.70874e-11

-2.84752e-11 9.25186e-13 -2.1925e-12
9.25186e-13 -2.94004e-11 -1.08902e-12
-2.1925e-12 -1.08902e-12 -2.69332e-11

-2.64706e-11 1.79255e-12 2.42771e-12
1.79255e-12 -2.46202e-11 -2.73701e-12
2.42771e-12 -2.73701e-12 -2.4466e-11

-2.9349e-11 7.51714e-13 5.43306e-13
7.51714e-13 -3.49001e-11 7.13164e-13
5.43306e-13 7.13164e-13 -2.8578e-11

-2.87322e-11 -1.96602e-12 4.81868e-13
-1.96602e-12 -2.82696e-11 5.87878e-13
4.81868e-13 5.87878e-13 -2.65734e-11

-2.46202e-11 -1.38778e-12 -8.04719e-13
-1.38778e-12 -2.64706e-11 1.9082e-12
-8.04719e-13 1.9082e-12 -2.4466e-11

-2.81154e-11 2.39247e-12 4.65002e-12
2.39247e-12 -1.97887e-11 -1.25286e-13
4.65002e-12 -1.25286e-13 -2.64192e-11

-2.04569e-11 -3.46945e-13 8.73144e-12
-3.46945e-13 -3.06339e-11 -1.34923e-13
8.73144e-12 -1.34923e-13 -2.72416e-11

-2.63678e-11 2.3997e-12 -1.32634e-12
2.3997e-12 -1.43404e-11 -7.51714e-13
-1.32634e-12 -7.51714e-13 -2.31296e-11

-2.40548e-11 1.38778e-12 1.59498e-12
1.38778e-12 -3.28441e-11 -2.69846e-13
1.59498e-12 -2.69846e-13 -2.91434e-11

-1.81953e-11 4.16334e-12 1.9082e-12
4.16334e-12 -2.18961e-11 -4.16334e-12
1.9082e-12 -4.16334e-12 -2.46716e-11

-2.86294e-11 2.08167e-12 6.74615e-14
2.08167e-12 -2.9092e-11 -7.61351e-13
6.74615e-14 -7.61351e-13 -2.80126e-11

-2.4723e-11 -2.83338e-12 -8.28812e-13
-2.83338e-12 -3.02741e-11 -1.88169e-12
-8.28812e-13 -1.88169e-12 -2.67276e-11

-2.30268e-11 -1.22515e-12 -3.36705e-12
-1.22515e-12 -1.23872e-11 -1.65762e-12
-3.36705e-12 -1.65762e-12 -2.22559e-11

-2.64706e-11 1.59016e-13 -1.50343e-12
1.59016e-13 -2.41576e-11 -4.69821e-13
-1.50343e-12 -4.69821e-13 -2.49286e-11

-1.34152e-11 -2.65991e-12 5.78241e-13
-2.65991e-12 -2.40548e-11 2.21418e-12
5.78241e-13 2.21418e-12 -2.08167e-11

-2.40034e-11 2.08167e-12 -1.21913e-12
2.08167e-12 -2.63164e-11 3.75375e-12
-1.21913e-12 3.75375e-12 -2.70874e-11

-2.45688e-11 1.50343e-12 2.35392e-12
1.50343e-12 -2.5494e-11 6.26428e-14
2.35392e-12 6.26428e-14 -2.24101e-11

-4.08624e-11 4.62593e-13 -6.93889e-13
4.62593e-13 -3.02227e-11 4.60665e-12
-6.93889e-13 4.60665e-12 -2.97601e-11

-2.4209e-11 -1.83592e-12 5.02588e-12
-1.83592e-12 -2.97601e-11 -3.0695e-12
5.02588e-12 -3.0695e-12 -2.46716e-11

-3.19703e-11 3.3538e-12 1.06011e-12
3.3538e-12 -2.96573e-11 -5.87878e-13
1.06011e-12 -5.87878e-13 -2.74986e-11

-1.92747e-11 9.1073e-13 -6.22091e-12
9.1073e-13 -2.43632e-11 2.67858e-12
-6.22091e-12 2.67858e-12 -2.20503e-11

-2.56482e-11 1.15648e-13 3.7658e-12
1.15648e-13 -2.84238e-11 2.73701e-12
3.7658e-12 2.73701e-12 -2.21017e-11

-2.71388e-11 -4.62593e-13 -3.95613e-12
-4.62593e-13 -2.48258e-11 3.01649e-12
-3.95613e-12 3.01649e-12 -2.48258e-11

-3.01199e-11 -1.21431e-12 4.2826e-12
-1.21431e-12 -3.61336e-11 -5.53184e-12
4.2826e-12 -5.53184e-12 -2.56482e-11

-2.77556e-11 7.62556e-13 2.3491e-14
7.62556e-13 -2.63678e-11 1.46488e-12
2.3491e-14 1.46488e-12 -2.91434e-11

-2.755e-11 1.96602e-12 -1.65281e-12
1.96602e-12 -2.38492e-11 -4.92469e-12
-1.65281e-12 -4.92469e-12 -2.50828e-11

-1.64991e-11 -9.25186e-13 8.28812e-12
-9.25186e-13 -2.39006e-11 3.75857e-12
8.28812e-12 3.75857e-12 -2.52884e-11

-2.83724e-11 -9.25186e-13 1.85519e-13
-9.25186e-13 -2.8835e-11 3.66701e-12
1.85519e-13 3.66701e-12 -2.69846e-11

-2.79098e-11 -2.31296e-12 7.49786e-12
-2.31296e-12 -2.28213e-11 2.08167e-12
7.49786e-12 2.08167e-12 -2.51342e-11

-2.72416e-11 -1.27213e-12 4.31031e-12
-1.27213e-12 -2.72416e-11 -3.9224e-12
4.31031e-12 -3.9224e-12 -2.56996e-11

-1.61908e-11 -2.77556e-12 7.90263e-13
-2.77556e-12 -2.22045e-11 1.78773e-12
7.90263e-13 1.78773e-12 -2.54426e-11

-2.18447e-11 5.78241e-13 2.87675e-12
5.78241e-13 -2.41576e-11 5.54148e-12
2.87675e-12 5.54148e-12 -2.40034e-11

-3.24329e-11 4.62593e-13 3.08395e-13
4.62593e-13 -2.64192e-11 -3.47667e-12
3.08395e-13 -3.47667e-12 -2.74986e-11

-2.6008e-11 2.02384e-13 1.86965e-12
2.02384e-13 -3.10965e-11 1.08517e-11
1.86965e-12 1.08517e-11 -2.12279e-11

-2.79612e-11 2.3997e-12 4.09587e-14
2.3997e-12 -2.4723e-11 2.92976e-12
4.09587e-14 2.92976e-12 -2.6265e-11

-2.96573e-11 -2.89121e-13 -1.92747e-13
-2.89121e-13 -2.68818e-11 9.75782e-14
-1.92747e-13 9.75782e-14 -2.42604e-11

-2.49286e-11 -1.61908e-12 -8.29776e-12
-1.61908e-12 -3.04797e-11 -1.9082e-12
-8.29776e-12 -1.9082e-12 -2.755e-11

-2.25643e-11 2.56595e-13 2.1684e-13
2.56595e-13 -2.58024e-11 3.88385e-12
2.1684e-13 3.88385e-12 -2.3181e-11

-2.81668e-11 -7.51714e-13 4.70785e-12
-7.51714e-13 -3.18675e-11 -2.77556e-12
4.70785e-12 -2.77556e-12 -2.84752e-11

-2.30782e-11 1.85037e-12 -2.02384e-13
1.85037e-12 -2.35408e-11 -6.26428e-14
-2.02384e-13 -6.26428e-14 -2.5237e-11

-1.58824e-11 1.38778e-12 1.88892e-12
1.38778e-12 -1.12564e-11 4.36572e-12
1.88892e-12 4.36572e-12 -2.09709e-11

-1.99429e-11 6.93889e-13 7.03527e-13
6.93889e-13 -2.59566e-11 -2.84784e-12
7.03527e-13 -2.84784e-12 -2.65734e-11

-2.37464e-11 -1.15648e-12 -1.8311e-13
-1.15648e-12 -3.11479e-11 3.38753e-12
-1.8311e-13 3.38753e-12 -2.6522e-11

-2.99143e-11 -1.60281e-12 1.95156e-12
-1.60281e-12 -2.8064e-11 -5.80169e-12
1.95156e-12 -5.80169e-12 -2.71388e-11

-2.91434e-11 -1.15648e-13 1.27213e-12
-1.15648e-13 -3.00685e-11 -1.29141e-12
1.27213e-12 -1.29141e-12 -2.68304e-11

-2.74986e-11 -1.6769e-12 -5.29091e-12
-1.6769e-12 -3.11993e-11 2.65027e-13
-5.29091e-12 2.65027e-13 -2.58024e-11

-2.99143e-11 3.46945e-12 7.90263e-13
3.46945e-12 -2.8064e-11 4.11033e-12
7.90263e-13 4.11033e-12 -2.71388e-11

-2.50314e-11 1.15648e-12 3.62364e-12
1.15648e-12 -2.45688e-11 6.26428e-14
3.62364e-12 6.26428e-14 -2.56482e-11

-2.78584e-11 5.49329e-13 4.56329e-12
5.49329e-13 -2.78584e-11 5.78241e-13
4.56329e-12 5.78241e-13 -2.81668e-11

-3.26899e-11 1.96602e-12 -5.54148e-13
1.96602e-12 -2.8064e-11 4.60184e-13
-5.54148e-13 4.60184e-13 -2.71388e-11

-2.5751e-11 9.61326e-13 4.83509e-12
9.61326e-13 -2.48258e-11 -4.91505e-12
4.83509e-12 -4.91505e-12 -2.62136e-11

-2.46716e-11 1.36248e-12 -1.07938e-12
1.36248e-12 -2.55968e-11 3.46945e-12
-1.07938e-12 3.46945e-12 -2.55968e-11

-2.64706e-11 5.20417e-13 -8.32667e-12
5.20417e-13 -2.73958e-11 2.25514e-12
-8.32667e-12 2.25514e-12 -2.72416e-11

-2.92462e-11 1.27213e-12 -2.14913e-12
1.27213e-12 -2.8321e-11 -3.85494e-12
-2.14913e-12 -3.85494e-12 -2.63164e-11

-2.53912e-11 -1.48897e-12 3.02763e-12
-1.48897e-12 -1.89149e-11 -2.75628e-12
3.02763e-12 -2.75628e-12 -2.19989e-11

-2.96059e-11 -1.38778e-12 1.5998e-12
-1.38778e-12 -2.59052e-11 2.06239e-12
1.5998e-12 2.06239e-12 -2.77556e-11

-2.98629e-11 -3.81639e-12 8.48087e-13
-3.81639e-12 -3.49515e-11 -2.72737e-12
8.48087e-13 -2.72737e-12 -2.8321e-11

-2.51342e-11 7.51714e-13 3.96577e-12
7.51714e-13 -2.09709e-11 2.57799e-13
3.96577e-12 2.57799e-13 -2.4209e-11

-2.48772e-11 -1.38778e-12 3.26706e-12
-1.38778e-12 -2.58024e-11 -3.85494e-12
3.26706e-12 -3.85494e-12 -2.64192e-11

-3.06853e-11 -2.15395e-12 2.26478e-12
-2.15395e-12 -2.28213e-11 -9.8301e-13
2.26478e-12 -9.8301e-13 -2.79098e-11

-2.80126e-11 -9.54098e-13 -4.91505e-12
-9.54098e-13 -2.2924e-11 2.12022e-13
-4.91505e-12 2.12022e-13 -2.55454e-11

-2.58024e-11 1.50343e-12 2.65027e-13
1.50343e-12 -2.16391e-11 -5.15598e-13
2.65027e-13 -5.15598e-13 -2.41062e-11

-1.62422e-11 4.51028e-12 -9.44461e-13
4.51028e-12 -1.99429e-11 1.97566e-12
-9.44461e-13 1.97566e-12 -2.24101e-11

-2.89378e-11 3.5851e-12 -8.3604e-13
3.5851e-12 -2.5237e-11 -4.63557e-12
-8.3604e-13 -4.63557e-12 -1.95317e-11

-1.92747e-11 2.31296e-13 4.01878e-12
2.31296e-13 -2.48258e-11 -4.51028e-12
4.01878e-12 -4.51028e-12 -2.15877e-11

-2.68818e-11 -1.41308e-12 3.63283e-13
-1.41308e-12 -2.82696e-11 -2.88157e-12
3.63283e-13 -2.88157e-12 -2.28726e-11

-2.72416e-11 1.04083e-12 7.14128e-12
1.04083e-12 -2.40034e-11 1.13721e-12
7.14128e-12 1.13721e-12 -2.61622e-11

-1.05368e-11 4.80663e-12 -3.91517e-15
4.80663e-12 -3.27413e-11 -3.8706e-12
-3.91517e-15 -3.8706e-12 -1.16162e-11

-9.45746e-12 -5.40655e-12 1.89856e-12
-5.40655e-12 -3.02741e-11 -3.75013e-12
1.89856e-12 -3.75013e-12 -8.68647e-12

-1.62936e-11 -1.23021e-11 -1.19021e-12
-1.23021e-11 -2.18447e-11 2.81712e-12
-1.19021e-12 2.81712e-12 -9.66305e-12

-1.63449e-11 1.12432e-11 8.33541e-12
1.12432e-11 -2.00457e-11 -4.14045e-12
8.33541e-12 -4.14045e-12 -8.94346e-12

-3.08909e-11 6.21609e-13 6.02575e-12
6.21609e-13 -7.76128e-12 3.37307e-14
6.02575e-12 3.37307e-14 -7.91548e-12

-2.71388e-11 8.23994e-12 1.85519e-12
8.23994e-12 -1.46488e-11 -2.74785e-12
1.85519e-12 -2.74785e-12 -1.27984e-11

-2.71388e-11 -8.78927e-12 6.20405e-13
-8.78927e-12 -1.46488e-11 -2.76351e-12
6.20405e-13 -2.76351e-12 -1.27984e-11

-2.5237e-11 5.78241e-13 1.87928e-12
5.78241e-13 -2.94004e-11 1.25767e-12
1.87928e-12 1.25767e-12 -2.73958e-11

-3.48487e-11 1.27213e-12 -4.7223e-13
1.27213e-12 -3.34609e-11 8.33631e-13
-4.7223e-13 8.33631e-13 -2.97601e-11

-2.92462e-11 2.74665e-13 2.7081e-12
2.74665e-13 -2.8321e-11 -2.00848e-12
2.7081e-12 -2.00848e-12 -2.9092e-11

-2.08681e-11 2.37079e-12 4.59702e-12
2.37079e-12 -2.36436e-11 -4.90059e-12
4.59702e-12 -4.90059e-12 -2.51856e-11

-2.90406e-11 -2.31296e-12 -2.09612e-12
-2.31296e-12 -3.41291e-11 6.45703e-13
-2.09612e-12 6.45703e-13 -2.50314e-11

-2.79098e-11 4.04769e-13 -1.59016e-12
4.04769e-13 -3.16105e-11 -4.71267e-12
-1.59016e-12 -4.71267e-12 -2.74472e-11

-2.01999e-11 6.07153e-12 3.16105e-12
6.07153e-12 -2.25129e-11 4.77531e-12
3.16105e-12 4.77531e-12 -2.29754e-11

-2.99657e-11 1.15648e-13 -3.82121e-12
1.15648e-13 -3.08909e-11 2.59727e-12
-3.82121e-12 2.59727e-12 -2.73444e-11

-2.64192e-11 1.37332e-13 4.40322e-12
1.37332e-13 -2.50314e-11 -4.54883e-12
4.40322e-12 -4.54883e-12 -2.65734e-11

-2.55454e-11 -2.65991e-12 -2.86094e-28
-2.65991e-12 -2.92462e-11 1.73472e-13
-2.86094e-28 1.73472e-13 -2.63164e-11

-2.83724e-11 9.1073e-13 3.00294e-12
9.1073e-13 -2.74472e-11 -4.91505e-13
3.00294e-12 -4.91505e-13 -2.55968e-11

-2.498e-11 1.15648e-12 5.58966e-13
1.15648e-12 -2.59052e-11 3.29597e-12
5.58966e-13 3.29597e-12 -2.68304e-11

-2.86294e-11 -6.36065e-13 -3.72966e-12
-6.36065e-13 -2.4466e-11 -2.86229e-12
-3.72966e-12 -2.86229e-12 -2.43118e-11

-2.5237e-11 -2.77556e-12 4.7223e-13
-2.77556e-12 -2.84752e-11 -7.32439e-13
4.7223e-13 -7.32439e-13 -2.8321e-11

-3.50543e-11 2.19732e-12 -2.1684e-12
2.19732e-12 -2.6265e-11 4.01275e-12
-2.1684e-12 4.01275e-12 -2.68818e-11

-2.87836e-11 1.72388e-12 4.85723e-12
1.72388e-12 -2.87836e-11 1.01192e-13
4.85723e-12 1.01192e-13 -2.9092e-11

-2.8835e-11 -7.51714e-13 3.9465e-12
-7.51714e-13 -2.83724e-11 -3.66701e-12
3.9465e-12 -3.66701e-12 -2.69846e-11

-3.09423e-11 -4.04769e-12 1.47451e-12
-4.04769e-12 -3.04797e-11 -8.43268e-13
1.47451e-12 -8.43268e-13 -2.98629e-11

-3.22273e-11 2.08167e-12 -5.12707e-12
2.08167e-12 -2.85266e-11 -1.9612e-12
-5.12707e-12 -1.9612e-12 -2.71388e-11

-3.23301e-11 -3.46945e-13 -5.78241e-14
-3.46945e-13 -3.18675e-11 -8.60134e-13
-5.78241e-14 -8.60134e-13 -2.70874e-11

-2.36436e-11 -1.47813e-12 1.2131e-12
-1.47813e-12 -2.27185e-11 5.11743e-12
1.2131e-12 5.11743e-12 -2.33352e-11

-2.43632e-11 -1.61908e-12 5.34271e-12
-1.61908e-12 -1.37236e-11 -2.98758e-13
5.34271e-12 -2.98758e-13 -2.20503e-11

-2.80126e-11 -2.31296e-13 -2.15877e-12
-2.31296e-13 -2.66248e-11 4.67291e-12
-2.15877e-12 4.67291e-12 -2.46202e-11

-2.59052e-11 -1.96602e-12 -5.73904e-12
-1.96602e-12 -2.63678e-11 -8.5411e-13
-5.73904e-12 -8.5411e-13 -2.54426e-11

-2.53912e-11 -2.31296e-12 -4.16334e-12
-2.31296e-12 -2.30782e-11 6.79433e-13
-4.16334e-12 6.79433e-13 -2.33866e-11

-2.01999e-11 2.89121e-12 -5.58966e-13
2.89121e-12 -2.62136e-11 1.19503e-12
-5.58966e-13 1.19503e-12 -2.48258e-11

-2.88864e-11 6.93889e-13 -7.03527e-13
6.93889e-13 -2.88864e-11 -2.66955e-12
-7.03527e-13 -2.66955e-12 -2.67276e-11

-2.70874e-11 1.15648e-13 5.78241e-14
1.15648e-13 -2.19989e-11 -2.1684e-13
5.78241e-14 -2.1684e-13 -2.73958e-11

-2.66762e-11 1.40223e-12 7.22801e-14
1.40223e-12 -3.17647e-11 -2.82374e-12
7.22801e-14 -2.82374e-12 -2.39006e-11

-2.00971e-11 1.61908e-12 -2.94903e-12
1.61908e-12 -2.14849e-11 -6.16791e-13
-2.94903e-12 -6.16791e-13 -2.34894e-11

-2.79098e-11 2.26779e-13 -7.98997e-13
2.26779e-13 -2.74472e-11 3.18033e-12
-7.98997e-13 3.18033e-12 -2.60594e-11

-2.76014e-11 6.14381e-13 -2.6066e-12
6.14381e-13 -3.31525e-11 4.0766e-12
-2.6066e-12 4.0766e-12 -2.71388e-11

-3.10965e-11 8.67362e-13 2.13347e-12
8.67362e-13 -2.87836e-11 -6.64977e-13
2.13347e-12 -6.64977e-13 -2.95545e-11

-2.68818e-11 -1.01192e-12 -8.07369e-12
-1.01192e-12 -3.19703e-11 -1.63835e-13
-8.07369e-12 -1.63835e-13 -2.74986e-11

-3.40777e-11 3.23815e-12 3.82603e-12
3.23815e-12 -2.5751e-11 1.20949e-12
3.82603e-12 1.20949e-12 -2.8064e-11

-3.12507e-11 -2.11058e-12 4.52956e-13
-2.11058e-12 -2.89378e-11 2.17081e-12
4.52956e-13 2.17081e-12 -2.73958e-11

-2.56482e-11 3.41162e-12 6.22693e-12
3.41162e-12 -2.56482e-11 -2.74665e-12
6.22693e-12 -2.74665e-12 -2.48772e-11

-2.68818e-11 -4.86084e-13 1.87898e-12
-4.86084e-13 -2.87322e-11 -2.631e-12
1.87898e-12 -2.631e-12 -2.51856e-11

-2.4723e-11 -1.15648e-12 4.96324e-13
-1.15648e-12 -2.14849e-11 -2.01421e-12
4.96324e-13 -2.01421e-12 -2.44146e-11

-3.18161e-11 -1.73472e-12 3.60437e-12
-1.73472e-12 -2.67276e-11 -5.81915e-12
3.60437e-12 -5.81915e-12 -2.68818e-11

-2.9092e-11 1.15648e-12 -4.60665e-12
1.15648e-12 -3.14049e-11 -1.06011e-13
-4.60665e-12 -1.06011e-13 -2.80126e-11

-2.92976e-11 -4.38921e-12 4.85964e-12
-4.38921e-12 -2.92976e-11 -5.71977e-12
4.85964e-12 -5.71977e-12 -2.83724e-11

-2.91948e-11 -2.08167e-12 -4.46209e-12
-2.08167e-12 -2.50314e-11 6.90998e-12
-4.46209e-12 6.90998e-12 -2.65734e-11

-2.10223e-11 -1.43928e-12 -1.00469e-12
-1.43928e-12 -2.84238e-11 -1.52752e-12
-1.00469e-12 -1.52752e-12 -1.84009e-11

-2.64192e-11 1.15648e-13 -3.34416e-12
1.15648e-13 -2.50314e-11 4.78976e-12
-3.34416e-12 4.78976e-12 -2.65734e-11

-2.26671e-11 -6.36065e-13 -4.16334e-12
-6.36065e-13 -2.17419e-11 -2.22623e-12
-4.16334e-12 -2.22623e-12 -2.498e-11

-2.69846e-11 -1.74195e-12 -2.07595e-12
-1.74195e-12 -2.23587e-11 4.60665e-12
-2.07595e-12 4.60665e-12 -2.6522e-11

-2.09195e-11 -5.78241e-14 5.14635e-12
-5.78241e-14 -2.73958e-11 9.97466e-13
5.14635e-12 9.97466e-13 -2.72416e-11

-2.63678e-11 -3.00685e-12 -3.2767e-13
-3.00685e-12 -2.96059e-11 8.57724e-12
-3.2767e-13 8.57724e-12 -2.7293e-11

-2.31296e-11 -3.72243e-13 2.60209e-13
-3.72243e-13 -2.59052e-11 5.43547e-12
2.60209e-13 5.43547e-12 -1.75785e-11

-2.16905e-11 -3.46945e-13 2.45752e-12
-3.46945e-13 -2.12279e-11 -6.59195e-12
2.45752e-12 -6.59195e-12 -2.33866e-11

-3.00685e-11 -2.54426e-12 -4.04769e-13
-2.54426e-12 -3.33067e-11 -1.7299e-12
-4.04769e-13 -1.7299e-12 -2.82182e-11

-2.65734e-11 -8.67362e-13 -5.07166e-13
-8.67362e-13 -3.7213e-11 5.82096e-12
-5.07166e-13 5.82096e-12 -2.07139e-11

-2.25129e-11 -9.25186e-12 -2.42861e-12
-9.25186e-12 -3.73158e-11 -7.70988e-14
-2.42861e-12 -7.70988e-14 -3.08395e-11

-4.29183e-11 -6.36065e-12 8.01828e-12
-6.36065e-12 -2.02513e-11 2.94903e-12
8.01828e-12 2.94903e-12 -2.7807e-11

-2.28726e-11 5.00179e-12 4.24044e-13
5.00179e-12 -2.33352e-11 5.05961e-12
4.24044e-13 5.05961e-12 -2.44146e-11

-2.53912e-11 -1.17817e-12 -8.23994e-13
-1.17817e-12 -3.18675e-11 -5.76796e-12
-8.23994e-13 -5.76796e-12 -2.56996e-11

-2.45688e-11 1.82146e-12 -9.73373e-13
1.82146e-12 -2.5494e-11 8.69771e-13
-9.73373e-13 8.69771e-13 -2.51856e-11

-2.96573e-11 -5.78241e-14 -2.43825e-12
-5.78241e-14 -2.73444e-11 -1.69979e-12
-2.43825e-12 -1.69979e-12 -2.37978e-11

-2.56996e-11 4.62593e-12 7.51714e-13
4.62593e-12 -3.40263e-11 -9.73373e-13
7.51714e-13 -9.73373e-13 -2.78584e-11

7.70988e-13 -8.78927e-12 -5.39692e-12
-8.78927e-12 -1.95831e-11 2.89121e-14
-5.39692e-12 2.89121e-14 -2.09709e-11

-2.92976e-11 1.70265e-12 1.17576e-12
1.70265e-12 -2.83724e-11 1.65882e-12
1.17576e-12 1.65882e-12 -2.6522e-11

-2.00457e-11 5.78241e-13 -2.75869e-12
5.78241e-13 -1.63449e-11 1.45524e-12
-2.75869e-12 1.45524e-12 -2.28213e-11

-2.32838e-11 4.09286e-13 -4.47685e-12
4.09286e-13 -1.77327e-11 3.17069e-12
-4.47685e-12 3.17069e-12 -2.37464e-11

-2.6779e-11 -3.70074e-12 2.00216e-12
-3.70074e-12 -2.4466e-11 -2.83097e-12
2.00216e-12 -2.83097e-12 -1.78355e-11

-2.41576e-11 2.31296e-13 2.79483e-13
2.31296e-13 -2.09195e-11 -7.80626e-13
2.79483e-13 -7.80626e-13 -2.49286e-11

-2.60594e-11 2.54426e-12 2.02384e-12
2.54426e-12 -2.60594e-11 2.12022e-13
2.02384e-12 2.12022e-13 -2.6522e-11

-3.32553e-11 1.0842e-13 -2.89121e-12
1.0842e-13 -2.86294e-11 4.99938e-14
-2.89121e-12 4.99938e-14 -2.94004e-11

-3.21245e-11 6.93889e-13 2.05276e-12
6.93889e-13 -3.62878e-11 -3.79712e-12
2.05276e-12 -3.79712e-12 -2.99657e-11

-2.50314e-11 -1.04083e-12 2.29369e-12
-1.04083e-12 -2.82696e-11 -3.50318e-12
2.29369e-12 -3.50318e-12 -2.74986e-11

-2.33866e-11 -2.37079e-12 -1.94915e-12
-2.37079e-12 -2.43118e-11 2.79483e-12
-1.94915e-12 2.79483e-12 -1.49058e-11

-2.9092e-11 2.31296e-13 2.14913e-12
2.31296e-13 -2.81668e-11 1.85037e-12
2.14913e-12 1.85037e-12 -2.84752e-11

-2.53398e-11 3.26706e-12 -4.47173e-12
3.26706e-12 -2.95031e-11 2.38043e-12
-4.47173e-12 2.38043e-12 -2.50314e-11

-2.10737e-11 -2.02384e-13 -3.37307e-13
-2.02384e-13 -2.38492e-11 -8.04719e-13
-3.37307e-13 -8.04719e-13 -2.32324e-11

-2.6265e-11 2.65991e-12 3.95131e-13
2.65991e-12 -2.30268e-11 4.90541e-12
3.95131e-13 4.90541e-12 -2.50314e-11

-2.86294e-11 -1.38778e-12 -5.11262e-12
-1.38778e-12 -2.63164e-11 3.60437e-12
-5.11262e-12 3.60437e-12 -2.80126e-11

-3.11993e-11 -4.62593e-13 -1.99493e-12
-4.62593e-13 -2.98115e-11 -1.68654e-13
-1.99493e-12 -1.68654e-13 -2.6265e-11

-2.87836e-11 1.61908e-12 -1.17576e-12
1.61908e-12 -3.24843e-11 1.4456e-13
-1.17576e-12 1.4456e-13 -2.81668e-11

-2.68818e-11 1.04083e-12 -1.21431e-12
1.04083e-12 -2.50314e-11 -8.86636e-13
-1.21431e-12 -8.86636e-13 -2.61108e-11

-2.41062e-11 -5.67399e-13 -5.19273e-12
-5.67399e-13 -2.87322e-11 -1.01192e-13
-5.19273e-12 -1.01192e-13 -1.96345e-11

-2.19475e-11 6.64977e-13 -2.74183e-12
6.64977e-13 -2.79612e-11 2.83338e-12
-2.74183e-12 2.83338e-12 -2.07139e-11

-2.78584e-11 9.54098e-13 -4.35307e-12
9.54098e-13 -2.78584e-11 5.86915e-12
-4.35307e-12 5.86915e-12 -2.81668e-11

-3.17133e-11 -3.70074e-12 2.12985e-12
-3.70074e-12 -2.89378e-11 -2.02866e-12
2.12985e-12 -2.02866e-12 -2.97087e-11

-3.09423e-11 -3.70239e-28 7.37257e-13
-3.70239e-28 -2.49286e-11 -1.0842e-12
7.37257e-13 -1.0842e-12 -2.70874e-11

-3.00171e-11 4.62593e-13 3.81639e-12
4.62593e-13 -3.41805e-11 3.46945e-13
3.81639e-12 3.46945e-13 -2.98629e-11

-2.62136e-11 1.73472e-12 -2.67677e-12
1.73472e-12 -2.48258e-11 3.37307e-12
-2.67677e-12 3.37307e-12 -2.5751e-11

-3.19189e-11 1.18539e-12 -3.5851e-12
1.18539e-12 -3.14563e-11 -2.48644e-12
-3.5851e-12 -2.48644e-12 -2.82182e-11

-2.70874e-11 -2.31296e-12 -3.78025e-12
-2.31296e-12 -2.755e-11 2.48644e-12
-3.78025e-12 2.48644e-12 -2.46202e-11

-2.51342e-11 -4.62593e-13 2.9153e-12
-4.62593e-13 -2.92976e-11 1.77809e-12
2.9153e-12 1.77809e-12 -2.14335e-11

-2.64706e-11 -1.83592e-12 4.89939e-12
-1.83592e-12 -2.87836e-11 2.94903e-12
4.89939e-12 2.94903e-12 -2.58538e-11

-3.22787e-11 -1.27213e-12 -4.24044e-12
-1.27213e-12 -3.59794e-11 -2.71291e-12
-4.24044e-12 -2.71291e-12 -2.82696e-11

-2.11765e-11 -1.61908e-12 -6.33174e-12
-1.61908e-12 -1.70131e-11 -6.26428e-14
-6.33174e-12 -6.26428e-14 -2.22559e-11

-2.74986e-11 -1.53234e-12 -2.76592e-12
-1.53234e-12 -2.51856e-11 -2.64545e-12
-2.76592e-12 -2.64545e-12 -2.6265e-11

-1.78869e-11 3.08433e-28 1.85519e-12
3.08433e-28 -2.15877e-11 1.63474e-12
1.85519e-12 1.63474e-12 -1.78869e-11

-3.41805e-11 -5.78241e-13 -2.89602e-12
-5.78241e-13 -2.6779e-11 -8.96274e-12
-2.89602e-12 -8.96274e-12 -2.755e-11

-2.12279e-11 1.96602e-12 -5.56075e-12
1.96602e-12 -2.63164e-11 2.65991e-12
-5.56075e-12 2.65991e-12 -2.43118e-11

-2.22045e-11 1.27213e-12 -5.7535e-12
1.27213e-12 -2.82182e-11 4.28862e-12
-5.7535e-12 4.28862e-12 -2.45174e-11

-2.64192e-11 3.81639e-12 5.8047e-12
3.81639e-12 -1.0691e-11 1.34923e-13
5.8047e-12 1.34923e-13 -2.14849e-11

-3.38207e-11 8.05382e-12 -4.85723e-12
8.05382e-12 -3.15077e-11 2.98637e-12
-4.85723e-12 2.98637e-12 -2.65734e-11

-3.35123e-11 2.89121e-14 -2.75628e-12
2.89121e-14 -2.19475e-11 -1.06011e-13
-2.75628e-12 -1.06011e-13 -2.6265e-11

-2.74986e-11 2.31296e-12 -5.51257e-12
2.31296e-12 -2.79612e-11 -1.06011e-12
-5.51257e-12 -1.06011e-12 -2.6265e-11

-2.79612e-11 -1.09866e-12 3.56582e-12
-1.09866e-12 -3.02741e-11 -4.97769e-12
3.56582e-12 -4.97769e-12 -2.6265e-11

-2.70874e-11 -3.3538e-12 6.48112e-13
-3.3538e-12 -2.89378e-11 2.69846e-12
6.48112e-13 2.69846e-12 -2.32324e-11

-2.67276e-11 4.7994e-12 3.71038e-13
4.7994e-12 -2.53398e-11 -1.23358e-12
3.71038e-13 -1.23358e-12 -2.50314e-11

-2.64706e-11 -1.30809e-11 1.70984e-13
-1.30809e-11 -9.81725e-12 -3.41162e-12
1.70984e-13 -3.41162e-12 -2.24615e-11

-3.75214e-11 5.55112e-12 6.36065e-13
5.55112e-12 -2.41062e-11 -8.76035e-12
6.36065e-13 -8.76035e-12 -2.74986e-11

-2.41062e-11 1.79255e-12 -2.74062e-12
1.79255e-12 -2.50314e-11 9.15548e-13
-2.74062e-12 9.15548e-13 -1.77841e-11

-3.80354e-11 1.15648e-12 2.46716e-12
1.15648e-12 -3.6185e-11 -7.81107e-12
2.46716e-12 -7.81107e-12 -3.18675e-11

-3.20731e-11 2.19732e-12 -9.10368e-12
2.19732e-12 -5.05768e-11 -1.5227e-12
-9.10368e-12 -1.5227e-12 -3.20731e-11

-2.68818e-11 2.31296e-13 4.04769e-13
2.31296e-13 -2.82696e-11 1.92747e-13
4.04769e-13 1.92747e-13 -2.56482e-11

-2.99657e-11 -2.1684e-12 5.05961e-12
-2.1684e-12 -3.04283e-11 9.05911e-12
5.05961e-12 9.05911e-12 -2.7807e-11

-2.73444e-11 -1.04083e-12 -4.43318e-13
-1.04083e-12 -3.24329e-11 -4.33681e-12
-4.43318e-13 -4.33681e-12 -2.65734e-11

-3.56711e-11 -7.51714e-13 -1.61908e-12
-7.51714e-13 -2.82696e-11 -2.58281e-12
-1.61908e-12 -2.58281e-12 -2.79612e-11

-2.80126e-11 -1.85037e-12 -1.34441e-12
-1.85037e-12 -2.66248e-11 5.51257e-12
-1.34441e-12 5.51257e-12 -2.73958e-11

-2.99657e-11 -2.19732e-12 2.62979e-12
-2.19732e-12 -3.6442e-11 -1.92747e-14
2.62979e-12 -1.92747e-14 -3.01199e-11

-3.35123e-11 -6.93889e-13 -4.11515e-12
-6.93889e-13 -2.98115e-11 -2.46716e-12
-4.11515e-12 -2.46716e-12 -2.95031e-11

-2.28213e-11 -1.25767e-12 9.02899e-13
-1.25767e-12 -2.92976e-11 5.17767e-12
9.02899e-13 5.17767e-12 -2.09709e-11

-2.51342e-11 2.77556e-12 1.35887e-12
2.77556e-12 -2.00457e-11 -1.46488e-12
1.35887e-12 -1.46488e-12 -2.51342e-11

-1.2233e-11 -4.04769e-12 5.11743e-12
-4.04769e-12 -1.63963e-11 2.00457e-12
5.11743e-12 2.00457e-12 -2.25643e-11

-3.81896e-11 8.32667e-12 4.58738e-12
8.32667e-12 -3.95774e-11 -1.00228e-12
4.58738e-12 -1.00228e-12 -3.20217e-11

-2.66248e-11 -2.88578e-12 2.67918e-12
-2.88578e-12 -2.19989e-11 -9.3407e-13
2.67918e-12 -9.3407e-13 -1.95317e-11

-9.50885e-12 5.08852e-12 1.5998e-12
5.08852e-12 -2.06111e-11 9.15548e-13
1.5998e-12 9.15548e-13 -2.13821e-11

-2.20503e-11 -4.68375e-12 1.39742e-13
-4.68375e-12 -2.43632e-11 1.82387e-12
1.39742e-13 1.82387e-12 -1.64991e-11

-2.23073e-11 -1.73472e-12 -2.36115e-13
-1.73472e-12 -2.41576e-11 -3.94168e-12
-2.36115e-13 -3.94168e-12 -2.63164e-11

-2.61108e-11 5.78241e-13 -3.2767e-13
5.78241e-13 -2.7036e-11 -3.16828e-13
-3.2767e-13 -3.16828e-13 -2.8578e-11

-2.7807e-11 2.08167e-12 -3.508e-12
2.08167e-12 -2.5494e-11 -4.57533e-12
-3.508e-12 -4.57533e-12 -2.4723e-11

-2.76014e-11 9.25186e-13 -1.61908e-12
9.25186e-13 -2.89892e-11 2.21659e-13
-1.61908e-12 2.21659e-13 -2.85266e-11

-2.74986e-11 1.73472e-13 -4.51992e-12
1.73472e-13 -2.51856e-11 -3.8453e-12
-4.51992e-12 -3.8453e-12 -2.6265e-11

-2.15877e-11 3.75857e-12 -3.82482e-12
3.75857e-12 -9.09766e-12 2.94903e-12
-3.82482e-12 2.94903e-12 -2.39006e-11

-2.71902e-11 1.21169e-27 9.63735e-14
1.21169e-27 -1.65505e-11 -1.49379e-12
9.63735e-14 -1.49379e-12 -2.50314e-11

-1.82467e-11 4.62593e-13 -4.54883e-12
4.62593e-13 -2.42604e-11 -1.81182e-12
-4.54883e-12 -1.81182e-12 -2.25643e-11

-2.63678e-11 -1.85037e-12 -1.8311e-12
-1.85037e-12 -2.03541e-11 -4.63557e-12
-1.8311e-12 -4.63557e-12 -2.54426e-11

-2.77042e-11 1.85037e-12 -6.36909e-12
1.85037e-12 -3.32553e-11 3.8453e-12
-6.36909e-12 3.8453e-12 -2.755e-11

-1.13078e-11 -2.77556e-12 1.14684e-12
-2.77556e-12 -2.79612e-11 6.02335e-13
1.14684e-12 6.02335e-13 -2.30268e-11

-1.80925e-11 -6.93889e-13 -1.25286e-12
-6.93889e-13 -2.13307e-11 3.3538e-12
-1.25286e-12 3.3538e-12 -2.4723e-11

-2.88864e-11 -8.96274e-13 -1.91301e-12
-8.96274e-13 -2.56482e-11 -2.66714e-12
-1.91301e-12 -2.66714e-12 -2.44146e-11

-2.97601e-11 -2.94903e-12 -3.85494e-14
-2.94903e-12 -2.46716e-11 9.42051e-13
-3.85494e-14 9.42051e-13 -2.69846e-11

-2.34894e-11 4.19225e-13 2.77134e-12
4.19225e-13 -3.55169e-11 -3.6887e-12
2.77134e-12 -3.6887e-12 -1.80925e-11

-2.18447e-11 9.8301e-13 4.51751e-14
9.8301e-13 -3.52599e-11 -4.67653e-12
4.51751e-14 -4.67653e-12 -1.29012e-11

-2.29754e-11 -6.27392e-12 4.60786e-12
-6.27392e-12 -3.03769e-11 4.81868e-14
4.60786e-12 4.81868e-14 -1.23358e-11

-2.48772e-11 -2.42861e-12 1.92747e-13
-2.42861e-12 -2.76528e-11 5.39692e-13
1.92747e-13 5.39692e-13 -2.73444e-11

-2.02513e-11 2.54426e-12 -1.81905e-12
2.54426e-12 -2.8578e-11 9.30245e-12
-1.81905e-12 9.30245e-12 -1.71673e-11

-2.13821e-11 5.05961e-12 -2.75056e-12
5.05961e-12 -3.20217e-11 -7.42799e-12
-2.75056e-12 -7.42799e-12 -1.38264e-11

-2.18447e-11 1.18991e-12 -7.32439e-13
1.18991e-12 -1.95317e-11 -2.27923e-12
-7.32439e-13 -2.27923e-12 -2.30782e-11

-3.17647e-11 -5.37764e-12 -2.79001e-12
-5.37764e-12 -2.5751e-11 6.5287e-12
-2.79001e-12 6.5287e-12 -1.37236e-11

-2.8321e-11 -9.39642e-13 -4.38018e-12
-9.39642e-13 -2.73958e-11 7.55568e-12
-4.38018e-12 7.55568e-12 -2.81668e-11

-2.22045e-11 -1.85037e-12 3.83567e-12
-1.85037e-12 -1.66533e-11 -4.91505e-12
3.83567e-12 -4.91505e-12 -2.22045e-11

-3.41291e-11 7.71952e-12 -4.60665e-12
7.71952e-12 -2.76528e-11 -5.51498e-12
-4.60665e-12 -5.51498e-12 -1.80925e-11

-2.14335e-11 4.98733e-13 1.97741e-28
4.98733e-13 -1.77327e-11 1.97566e-12
1.97741e-28 1.97566e-12 -2.28213e-11

-2.8064e-11 -3.81639e-12 4.80422e-12
-3.81639e-12 -2.25129e-11 -2.80326e-12
4.80422e-12 -2.80326e-12 -1.78869e-11

-2.35408e-11 -4.39463e-12 -3.93927e-13
-4.39463e-12 -3.6956e-11 -3.7405e-12
-3.93927e-13 -3.7405e-12 -1.69103e-11

-2.53398e-11 -5.78241e-14 2.88639e-12
-5.78241e-14 -2.48772e-11 -3.30079e-13
2.88639e-12 -3.30079e-13 -1.85551e-11

-2.10737e-11 4.39463e-12 9.14344e-13
4.39463e-12 -3.21759e-11 -9.22777e-13
9.14344e-13 -9.22777e-13 -1.49058e-11

-2.29754e-11 -1.51788e-12 9.21376e-12
-1.51788e-12 -2.43632e-11 5.26199e-12
9.21376e-12 5.26199e-12 -1.83495e-11

-2.35408e-11 1.64799e-12 1.31249e-12
1.64799e-12 -1.56768e-11 2.46716e-12
1.31249e-12 2.46716e-12 -2.15363e-11

-2.7036e-11 8.09538e-13 -1.83833e-12
8.09538e-13 -2.61108e-11 1.06252e-12
-1.83833e-12 1.06252e-12 -2.02513e-11

-1.74243e-11 -3.36103e-12 1.98831e-12
-3.36103e-12 -2.15877e-11 4.93192e-12
1.98831e-12 4.93192e-12 -1.5574e-11

-3.59794e-11 -2.16278e-12 9.03502e-13
-2.16278e-12 -2.25643e-11 -7.32444e-12
9.03502e-13 -7.32444e-12 -1.57796e-11

-2.59566e-11 -1.15648e-12 -1.61908e-12
-1.15648e-12 -2.36436e-11 -9.58917e-13
-1.61908e-12 -9.58917e-13 -2.56482e-11

-2.63164e-11 7.3021e-12 -6.22814e-13
7.3021e-12 -2.21531e-11 4.86686e-12
-6.22814e-13 4.86686e-12 -2.33866e-11

-2.46716e-11 2.45752e-12 -5.99443e-12
2.45752e-12 -2.32838e-11 2.96228e-12
-5.99443e-12 2.96228e-12 -1.68075e-11

-1.98401e-11 -8.67362e-13 3.46945e-13
-8.67362e-13 -2.30782e-11 -1.2384e-12
3.46945e-13 -1.2384e-12 -2.61622e-11

-3.62364e-11 3.15864e-12 -1.32514e-14
3.15864e-12 -2.51342e-11 8.4881e-12
-1.32514e-14 8.4881e-12 -1.72701e-11

-2.59566e-11 -4.39463e-12 1.96602e-12
-4.39463e-12 -2.41062e-11 9.05911e-13
1.96602e-12 9.05911e-13 -2.51856e-11

-2.68818e-11 -1.38778e-12 4.74158e-12
-1.38778e-12 -2.5494e-11 -5.41619e-12
4.74158e-12 -5.41619e-12 -2.56482e-11

-2.80126e-11 -6.4763e-12 1.89856e-12
-6.4763e-12 -2.47744e-11 -5.58123e-12
1.89856e-12 -5.58123e-12 -1.25928e-11

-2.33866e-11 4.0766e-12 -2.33405e-12
4.0766e-12 -2.56996e-11 -1.74677e-12
-2.33405e-12 -1.74677e-12 -1.90691e-11

-3.27413e-11 5.81132e-12 1.87808e-12
5.81132e-12 -2.8578e-11 -7.40269e-12
1.87808e-12 -7.40269e-12 -1.85551e-11

-2.39006e-11 -2.54426e-12 3.64292e-12
-2.54426e-12 -2.48258e-11 5.78241e-14
3.64292e-12 5.78241e-14 -1.69617e-11

-3.34609e-11 -3.70074e-12 -8.3845e-13
-3.70074e-12 -2.6522e-11 1.07938e-12
-8.3845e-13 1.07938e-12 -2.69846e-11

-9.04626e-12 -1.6769e-12 -4.7223e-12
-1.6769e-12 -2.755e-11 3.62364e-12
-4.7223e-12 3.62364e-12 -2.32324e-11

-2.50828e-11 8.0905e-12 -9.29351e-12
8.0905e-12 -1.67561e-11 -2.46716e-12
-9.29351e-12 -2.46716e-12 -2.5237e-11

-3.09423e-11 2.08167e-12 7.69061e-12
2.08167e-12 -4.11194e-11 -3.66219e-13
7.69061e-12 -3.66219e-13 -3.03255e-11

-2.43118e-11 -1.50343e-12 -3.23333e-12
-1.50343e-12 -2.80126e-11 -1.15648e-13
-3.23333e-12 -1.15648e-13 -2.69332e-11

-2.46716e-11 -4.33681e-12 6.52569e-12
-4.33681e-12 -2.32838e-11 -2.50571e-13
6.52569e-12 -2.50571e-13 -2.46716e-11

-2.92976e-11 -4.16334e-12 -6.95817e-12
-4.16334e-12 -9.86865e-12 1.11793e-12
-6.95817e-12 1.11793e-12 -2.55968e-11

-6.79498e-11 -3.46945e-12 3.85494e-13
-3.46945e-12 -3.60308e-11 -1.16612e-12
3.85494e-13 -1.16612e-12 -3.72644e-11

-2.89892e-11 -6.01506e-13 -7.35159e-12
-6.01506e-13 -3.8241e-11 2.58281e-12
-7.35159e-12 2.58281e-12 -2.89892e-11

-1.95831e-11 1.61908e-12 -6.52449e-12
1.61908e-12 -2.79098e-11 -1.60221e-12
-6.52449e-12 -1.60221e-12 -2.00457e-11

-4.1839e-11 6.01371e-12 7.18947e-12
6.01371e-12 -3.35123e-11 7.999e-13
7.18947e-12 7.999e-13 -3.13535e-11

-3.25871e-11 3.46945e-12 -1.85037e-12
3.46945e-12 -2.79612e-11 -8.96274e-13
-1.85037e-12 -8.96274e-13 -2.95031e-11

-1.63963e-11 5.31982e-12 8.86636e-13
5.31982e-12 -2.7036e-11 -4.14406e-13
8.86636e-13 -4.14406e-13 -2.44146e-11

-2.26671e-11 8.3845e-13 1.88892e-12
8.3845e-13 -2.26671e-11 3.52486e-12
1.88892e-12 3.52486e-12 -2.40548e-11

-1.98915e-11 3.78748e-12 1.87326e-13
3.78748e-12 8.78927e-12 -1.42633e-12
1.87326e-13 -1.42633e-12 -1.89663e-11

-1.37236e-11 -8.78927e-12 -1.32417e-11
-8.78927e-12 -6.3221e-12 8.81818e-12
-1.32417e-11 8.81818e-12 -1.78869e-11

-3.28955e-11 -2.54426e-12 5.01142e-13
-2.54426e-12 -2.73444e-11 -7.70988e-13
5.01142e-13 -7.70988e-13 -2.61108e-11

-3.00685e-11 -8.09538e-13 4.56329e-12
-8.09538e-13 -2.12793e-11 9.30848e-12
4.56329e-12 9.30848e-12 -1.80411e-11

-2.498e-11 6.93889e-13 3.78266e-12
6.93889e-13 -2.86808e-11 5.79205e-12
3.78266e-12 5.79205e-12 -2.68304e-11

-3.02741e-11 3.67183e-12 -3.24779e-12
3.67183e-12 -2.56482e-11 2.89843e-12
-3.24779e-12 2.89843e-12 -2.02513e-11

-3.03255e-11 3.3538e-12 -1.11143e-11
3.3538e-12 -3.07881e-11 5.50775e-12
-1.11143e-11 5.50775e-12 -2.09195e-11

-3.15077e-11 2.77556e-12 6.08358e-12
2.77556e-12 -2.27185e-11 -9.01092e-13
6.08358e-12 -9.01092e-13 -2.10223e-11

-2.76528e-11 -1.63353e-12 1.92747e-13
-1.63353e-12 -3.41291e-11 -1.11793e-12
1.92747e-13 -1.11793e-12 -2.64192e-11

-2.90406e-11 -5.20417e-13 -1.02819e-12
-5.20417e-13 -2.71902e-11 -1.15648e-12
-1.02819e-12 -1.15648e-12 -2.91948e-11

-2.61108e-11 1.38778e-12 4.18261e-12
1.38778e-12 -2.65734e-11 -8.96274e-12
4.18261e-12 -8.96274e-12 -2.6265e-11

-4.16334e-11 -1.85037e-12 5.58966e-13
-1.85037e-12 -3.23815e-11 -2.69846e-12
5.58966e-13 -2.69846e-12 -3.14563e-11

-3.28441e-11 1.04083e-12 -5.15598e-12
1.04083e-12 -2.54426e-11 -7.88335e-12
-5.15598e-12 -7.88335e-12 -2.77556e-11

4.06054e-12 1.85037e-12 7.9219e-12
1.85037e-12 -2.55454e-11 1.39452e-11
7.9219e-12 1.39452e-11 -2.07653e-11

-3.6956e-11 1.61908e-12 -2.98758e-12
1.61908e-12 -3.37179e-11 3.81639e-12
-2.98758e-12 3.81639e-12 -2.89378e-11

-1.28498e-11 5.78241e-12 -6.16791e-13
5.78241e-12 -1.56254e-11 -1.01867e-11
-6.16791e-13 -1.01867e-11 -2.08681e-11

-2.63164e-11 -4.62593e-12 -1.03698e-11
-4.62593e-12 -3.64934e-11 -8.04719e-12
-1.03698e-11 -8.04719e-12 -2.84752e-11

-2.51856e-11 -2.31296e-13 -4.22116e-12
-2.31296e-13 -3.07367e-11 4.03805e-12
-4.22116e-12 4.03805e-12 -2.8578e-11

-1.99429e-11 -1.04054e-28 7.90263e-13
-1.04054e-28 -2.41062e-11 -5.49329e-13
7.90263e-13 -5.49329e-13 -2.56482e-11

-2.36436e-12 1.06396e-11 -1.92747e-13
1.06396e-11 -3.19703e-11 -3.85494e-13
-1.92747e-13 -3.85494e-13 -2.42604e-11

-1.78355e-11 -2.59052e-11 3.48872e-12
-2.59052e-11 -3.03255e-12 -1.83013e-11
3.48872e-12 -1.83013e-11 -1.92233e-11

-2.27699e-11 6.93889e-12 1.73472e-13
6.93889e-12 -3.01713e-11 4.04769e-13
1.73472e-13 4.04769e-13 -2.81668e-11

-2.56996e-11 2.77556e-12 -4.43318e-13
2.77556e-12 -2.47744e-11 -2.85266e-12
-4.43318e-13 -2.85266e-12 -2.6008e-11

FIELD solute_concentration_TPM 3
glc 1 563 float
0
0
0
0
0
0
0
0
0
0
0
0
0
0
0
0
0
0
0
0
0
0
0
0
0
0
0
0
0
0
0
0
0
0
0
0
0
0
0
0
0
0
0
0
0
0
0
0
0
0
0
0
0
0
0
0
0
0
0
0
0
0
0
0
0
0
0
0
0
0
0
0
0
0
0
0
0
0
0
0
0
0
0
0
0
0
0
0
0
0
0
0
0
0
0
0
0
0
0
0
0
0
0
0
0
0
0
0
0
0
0
0
0
0
0
0
0
0
0
0
0
0
0
0
0
0
0
0
0
0
0
0
0
0
0
0
0
0
0
0
0
0
0
0
0
0
0
0
0
0
0
0
0
0
0
0
0
0
0
0
0
0
0
0
0
0
0
0
0
0
0
0
0
0
0
0
0
0
0
0
0
0
0
0
0
0
0
0
0
0
0
0
0
0
0
0
0
0
0
0
0
0
0
0
0
0
0
0
0
0
0
0
0
0
0
0
0
0
0
0
0
0
0
0
0
0
0
0
0
0
0
0
0
0
0
0
0
0
0
0
0
0
0
0
0
0
0
0
0
0
0
0
0
0
0
0
0
0
0
0
0
0
0
0
0
0
0
0
0
0
0
0
0
0
0
0
0
0
0
0
0
0
0
0
0
0
0
0
0
0
0
0
0
0
0
0
0
0
0
0
0
0
0
0
0
0
0
0
0
0
0
0
0
0
0
0
0
0
0
0
0
0
0
0
0
0
0
0
0
0
0
0
0
0
0
0
0
0
0
0
0
0
0
0
0
0
0
0
0
0
0
0
0
0
0
0
0
0
0
0
0
0
0
0
0
0
0
0
0
0
0
0
0
0
0
0
0
0
0
0
0
0
0
0
0
0
0
0
0
0
0
0
0
0
0
0
0
0
0
0
0
0
0
0
0
0
0
0
0
0
0
0
0
0
0
0
0
0
0
0
0
0
0
0
0
0
0
0
0
0
0
0
0
0
0
0
0
0
0
0
0
0
0
0
0
0
0
0
0
0
0
0
0
0
0
0
0
0
0
0
0
0
0
0
0
0
0
0
0
0
0
0
0
0
0
0
0
0
0
0
0
0
0
0
0
0
0
0
0
0
0
0
0
0
0
0
0
0
0
0
0
0
0
0
0
0
0
0
0
0
0
0
0
0
0
0
0
0
0
0
0
0
0
0
0
0
0
0
0
0
0
0
0
0
0
0
0
0
0
0
0
0
0
0
0
0
0
0
0
0
0
0
0
0
0
0
0
0
0
0
0
0
0
o2 1 563 float
1.18233e-24
1.18233e-24
1.18233e-24
1.18233e-24
1.18233e-24
1.18233e-24
1.18233e-24
1.18233e-24
1.18233e-24
1.18233e-24
1.18233e-24
1.18233e-24
1.18233e-24
1.18233e-24
1.18233e-24
1.18233e-24
1.18233e-24
1.18233e-24
1.18233e-24
1.18233e-24
1.18233e-24
1.18233e-24
1.18233e-24
1.18233e-24
1.18233e-24
1.18233e-24
1.18233e-24
1.18233e-24
1.18233e-24
1.18233e-24
1.18233e-24
1.18233e-24
1.18233e-24
1.18233e-24
1.18233e-24
1.18233e-24
1.18233e-24
1.18233e-24
1.18233e-24
1.18233e-24
1.18233e-24
1.18233e-24
1.18233e-24
1.18233e-24
1.18233e-24
1.18233e-24
1.18233e-24
1.18233e-24
1.18233e-24
1.18233e-24
1.18233e-24
1.18233e-24
1.18233e-24
1.18233e-24
1.18233e-24
1.18233e-24
1.18233e-24
1.18233e-24
1.18233e-24
1.18233e-24
1.18233e-24
1.18233e-24
1.18233e-24
1.18233e-24
1.18233e-24
1.18233e-24
1.18233e-24
1.18233e-24
1.18233e-24
1.18233e-24
1.18233e-24
1.18233e-24
1.18233e-24
1.18233e-24
1.18233e-24
1.18233e-24
1.18233e-24
1.18233e-24
1.18233e-24
1.18233e-24
1.18233e-24
1.18233e-24
1.18233e-24
1.18233e-24
1.18233e-24
1.18233e-24
1.18233e-24
1.18233e-24
1.18233e-24
1.18233e-24
1.18233e-24
1.18233e-24
1.18233e-24
1.18233e-24
1.18233e-24
1.18233e-24
1.18233e-24
1.18233e-24
1.18233e-24
1.18233e-24
1.18233e-24
1.18233e-24
1.18233e-24
1.18233e-24
1.18233e-24
1.18233e-24
1.18233e-24
1.18233e-24
1.18233e-24
1.18233e-24
1.18233e-24
1.18233e-24
1.18233e-24
1.18233e-24
1.18233e-24
1.18233e-24
1.18233e-24
1.18233e-24
1.18233e-24
1.18233e-24
1.18233e-24
1.18233e-24
1.18233e-24
1.18233e-24
1.18233e-24
1.18233e-24
1.18233e-24
1.18233e-24
1.18233e-24
1.18233e-24
1.18233e-24
1.18233e-24
1.18233e-24
1.18233e-24
1.18233e-24
1.18233e-24
1.18233e-24
1.18233e-24
1.18233e-24
1.18233e-24
1.18233e-24
1.18233e-24
1.18233e-24
1.18233e-24
1.18233e-24
1.18233e-24
1.18233e-24
1.18233e-24
1.18233e-24
1.18233e-24
1.18233e-24
1.18233e-24
1.18233e-24
1.18233e-24
1.18233e-24
1.18233e-24
1.18233e-24
1.18233e-24
1.18233e-24
1.18233e-24
1.18233e-24
1.18233e-24
1.18233e-24
1.18233e-24
1.18233e-24
1.18233e-24
1.18233e-24
1.18233e-24
1.18233e-24
1.18233e-24
1.18233e-24
1.18233e-24
1.18233e-24
1.18233e-24
1.18233e-24
1.18233e-24
1.18233e-24
1.18233e-24
1.18233e-24
1.18233e-24
1.18233e-24
1.18233e-24
1.18233e-24
1.18233e-24
1.18233e-24
1.18233e-24
1.18233e-24
1.18233e-24
1.18233e-24
1.18233e-24
1.18233e-24
1.18233e-24
1.18233e-24
1.18233e-24
1.18233e-24
1.18233e-24
1.18233e-24
1.18233e-24
1.18233e-24
1.18233e-24
1.18233e-24
1.18233e-24
1.18233e-24
1.18233e-24
1.18233e-24
1.18233e-24
1.18233e-24
1.18233e-24
1.18233e-24
1.18233e-24
1.18233e-24
1.18233e-24
1.18233e-24
1.18233e-24
1.18233e-24
1.18233e-24
1.18233e-24
1.18233e-24
1.18233e-24
1.18233e-24
1.18233e-24
1.18233e-24
1.18233e-24
1.18233e-24
1.18233e-24
1.18233e-24
1.18233e-24
1.18233e-24
1.18233e-24
1.18233e-24
1.18233e-24
1.18233e-24
1.18233e-24
1.18233e-24
1.18233e-24
1.18233e-24
1.18233e-24
1.18233e-24
1.18233e-24
1.18233e-24
1.18233e-24
1.18233e-24
1.18233e-24
1.18233e-24
1.18233e-24
1.18233e-24
1.18233e-24
1.18233e-24
1.18233e-24
1.18233e-24
1.18233e-24
1.18233e-24
1.18233e-24
1.18233e-24
1.18233e-24
1.18233e-24
1.18233e-24
1.18233e-24
1.18233e-24
1.18233e-24
1.18233e-24
1.18233e-24
1.18233e-24
1.18233e-24
1.18233e-24
1.18233e-24
1.18233e-24
1.18233e-24
1.18233e-24
1.18233e-24
1.18233e-24
1.18233e-24
1.18233e-24
1.18233e-24
1.18233e-24
1.18233e-24
1.18233e-24
1.18233e-24
1.18233e-24
1.18233e-24
1.18233e-24
1.18233e-24
1.18233e-24
1.18233e-24
1.18233e-24
1.18233e-24
1.18233e-24
1.18233e-24
1.18233e-24
1.18233e-24
1.18233e-24
1.18233e-24
1.18233e-24
1.18233e-24
1.18233e-24
1.18233e-24
1.18233e-24
1.18233e-24
1.18233e-24
1.18233e-24
1.18233e-24
1.18233e-24
1.18233e-24
1.18233e-24
1.18233e-24
1.18233e-24
1.18233e-24
1.18233e-24
1.18233e-24
1.18233e-24
1.18233e-24
1.18233e-24
1.18233e-24
1.18233e-24
1.18233e-24
1.18233e-24
1.18233e-24
1.18233e-24
1.18233e-24
1.18233e-24
1.18233e-24
1.18233e-24
1.18233e-24
1.18233e-24
1.18233e-24
1.18233e-24
1.18233e-24
1.18233e-24
1.18233e-24
1.18233e-24
1.18233e-24
1.18233e-24
1.18233e-24
1.18233e-24
1.18233e-24
1.18233e-24
1.18233e-24
1.18233e-24
1.18233e-24
1.18233e-24
1.18233e-24
1.18233e-24
1.18233e-24
1.18233e-24
1.18233e-24
1.18233e-24
1.18233e-24
1.18233e-24
1.18233e-24
1.18233e-24
1.18233e-24
1.18233e-24
1.18233e-24
1.18233e-24
1.18233e-24
1.18233e-24
1.18233e-24
1.18233e-24
1.18233e-24
1.18233e-24
1.18233e-24
1.18233e-24
1.18233e-24
1.18233e-24
1.18233e-24
1.18233e-24
1.18233e-24
1.18233e-24
1.18233e-24
1.18233e-24
1.18233e-24
1.18233e-24
1.18233e-24
1.18233e-24
1.18233e-24
1.18233e-24
1.18233e-24
1.18233e-24
1.18233e-24
1.18233e-24
1.18233e-24
1.18233e-24
1.18233e-24
1.18233e-24
1.18233e-24
1.18233e-24
1.18233e-24
1.18233e-24
1.18233e-24
1.18233e-24
1.18233e-24
1.18233e-24
1.18233e-24
1.18233e-24
1.18233e-24
1.18233e-24
1.18233e-24
1.18233e-24
1.18233e-24
1.18233e-24
1.18233e-24
1.18233e-24
1.18233e-24
1.18233e-24
1.18233e-24
1.18233e-24
1.18233e-24
1.18233e-24
1.18233e-24
1.18233e-24
1.18233e-24
1.18233e-24
1.18233e-24
1.18233e-24
1.18233e-24
1.18233e-24
1.18233e-24
1.18233e-24
1.18233e-24
1.18233e-24
1.18233e-24
1.18233e-24
1.18233e-24
1.18233e-24
1.18233e-24
1.18233e-24
1.18233e-24
1.18233e-24
1.18233e-24
1.18233e-24
1.18233e-24
1.18233e-24
1.18233e-24
1.18233e-24
1.18233e-24
1.18233e-24
1.18233e-24
1.18233e-24
1.18233e-24
1.18233e-24
1.18233e-24
1.18233e-24
1.18233e-24
1.18233e-24
1.18233e-24
1.18233e-24
1.18233e-24
1.18233e-24
1.18233e-24
1.18233e-24
1.18233e-24
1.18233e-24
1.18233e-24
1.18233e-24
1.18233e-24
1.18233e-24
1.18233e-24
1.18233e-24
1.18233e-24
1.18233e-24
1.18233e-24
1.18233e-24
1.18233e-24
1.18233e-24
1.18233e-24
1.18233e-24
1.18233e-24
1.18233e-24
1.18233e-24
1.18233e-24
1.18233e-24
1.18233e-24
1.18233e-24
1.18233e-24
1.18233e-24
1.18233e-24
1.18233e-24
1.18233e-24
1.18233e-24
1.18233e-24
1.18233e-24
1.18233e-24
1.18233e-24
1.18233e-24
1.18233e-24
1.18233e-24
1.18233e-24
1.18233e-24
1.18233e-24
1.18233e-24
1.18233e-24
1.18233e-24
1.18233e-24
1.18233e-24
1.18233e-24
1.18233e-24
1.18233e-24
1.18233e-24
1.18233e-24
1.18233e-24
1.18233e-24
1.18233e-24
1.18233e-24
1.18233e-24
1.18233e-24
1.18233e-24
1.18233e-24
1.18233e-24
1.18233e-24
1.18233e-24
1.18233e-24
1.18233e-24
1.18233e-24
1.18233e-24
1.18233e-24
1.18233e-24
1.18233e-24
1.18233e-24
1.18233e-24
1.18233e-24
1.18233e-24
1.18233e-24
1.18233e-24
1.18233e-24
1.18233e-24
1.18233e-24
1.18233e-24
1.18233e-24
1.18233e-24
1.18233e-24
1.18233e-24
1.18233e-24
1.18233e-24
1.18233e-24
1.18233e-24
1.18233e-24
1.18233e-24
1.18233e-24
1.18233e-24
1.18233e-24
1.18233e-24
1.18233e-24
1.18233e-24
1.18233e-24
1.18233e-24
1.18233e-24
1.18233e-24
1.18233e-24
1.18233e-24
1.18233e-24
1.18233e-24
1.18233e-24
1.18233e-24
1.18233e-24
1.18233e-24
1.18233e-24
1.18233e-24
1.18233e-24
1.18233e-24
1.18233e-24
1.18233e-24
1.18233e-24
1.18233e-24
lac 1 563 float
4.12145
4.12145
4.12145
4.12145
4.12145
4.12145
4.12145
4.12145
4.12145
4.12145
4.12145
4.12145
4.12145
4.12145
4.12145
4.12145
4.12145
4.12145
4.12145
4.12145
4.12145
4.12145
4.12145
4.12145
4.12145
4.12145
4.12145
4.12145
4.12145
4.12145
4.12145
4.12145
4.12145
4.12145
4.12145
4.12145
4.12145
4.12145
4.12145
4.12145
4.12145
4.12145
4.12145
4.12145
4.12145
4.12145
4.12145
4.12145
4.12145
4.12145
4.12145
4.12145
4.12145
4.12145
4.12145
4.12145
4.12145
4.12145
4.12145
4.12145
4.12145
4.12145
4.12145
4.12145
4.12145
4.12145
4.12145
4.12145
4.12145
4.12145
4.12145
4.12145
4.12145
4.12145
4.12145
4.12145
4.12145
4.12145
4.12145
4.12145
4.12145
4.12145
4.12145
4.12145
4.12145
4.12145
4.12145
4.12145
4.12145
4.12145
4.12145
4.12145
4.12145
4.12145
4.12145
4.12145
4.12145
4.12145
4.12145
4.12145
4.12145
4.12145
4.12145
4.12145
4.12145
4.12145
4.12145
4.12145
4.12145
4.12145
4.12145
4.12145
4.12145
4.12145
4.12145
4.12145
4.12145
4.12145
4.12145
4.12145
4.12145
4.12145
4.12145
4.12145
4.12145
4.12145
4.12145
4.12145
4.12145
4.12145
4.12145
4.12145
4.12145
4.12145
4.12145
4.12145
4.12145
4.12145
4.12145
4.12145
4.12145
4.12145
4.12145
4.12145
4.12145
4.12145
4.12145
4.12145
4.12145
4.12145
4.12145
4.12145
4.12145
4.12145
4.12145
4.12145
4.12145
4.12145
4.12145
4.12145
4.12145
4.12145
4.12145
4.12145
4.12145
4.12145
4.12145
4.12145
4.12145
4.12145
4.12145
4.12145
4.12145
4.12145
4.12145
4.12145
4.12145
4.12145
4.12145
4.12145
4.12145
4.12145
4.12145
4.12145
4.12145
4.12145
4.12145
4.12145
4.12145
4.12145
4.12145
4.12145
4.12145
4.12145
4.12145
4.12145
4.12145
4.12145
4.12145
4.12145
4.12145
4.12145
4.12145
4.12145
4.12145
4.12145
4.12145
4.12145
4.12145
4.12145
4.12145
4.12145
4.12145
4.12145
4.12145
4.12145
4.12145
4.12145
4.12145
4.12145
4.12145
4.12145
4.12145
4.12145
4.12145
4.12145
4.12145
4.12145
4.12145
4.12145
4.12145
4.12145
4.12145
4.12145
4.12145
4.12145
4.12145
4.12145
4.12145
4.12145
4.12145
4.12145
4.12145
4.12145
4.12145
4.12145
4.12145
4.12145
4.12145
4.12145
4.12145
4.12145
4.12145
4.12145
4.12145
4.12145
4.12145
4.12145
4.12145
4.12145
4.12145
4.12145
4.12145
4.12145
4.12145
4.12145
4.12145
4.12145
4.12145
4.12145
4.12145
4.12145
4.12145
4.12145
4.12145
4.12145
4.12145
4.12145
4.12145
4.12145
4.12145
4.12145
4.12145
4.12145
4.12145
4.12145
4.12145
4.12145
4.12145
4.12145
4.12145
4.12145
4.12145
4.12145
4.12145
4.12145
4.12145
4.12145
4.12145
4.12145
4.12145
4.12145
4.12145
4.12145
4.12145
4.12145
4.12145
4.12145
4.12145
4.12145
4.12145
4.12145
4.12145
4.12145
4.12145
4.12145
4.12145
4.12145
4.12145
4.12145
4.12145
4.12145
4.12145
4.12145
4.12145
4.12145
4.12145
4.12145
4.12145
4.12145
4.12145
4.12145
4.12145
4.12145
4.12145
4.12145
4.12145
4.12145
4.12145
4.12145
4.12145
4.12145
4.12145
4.12145
4.12145
4.12145
4.12145
4.12145
4.12145
4.12145
4.12145
4.12145
4.12145
4.12145
4.12145
4.12145
4.12145
4.12145
4.12145
4.12145
4.12145
4.12145
4.12145
4.12145
4.12145
4.12145
4.12145
4.12145
4.12145
4.12145
4.12145
4.12145
4.12145
4.12145
4.12145
4.12145
4.12145
4.12145
4.12145
4.12145
4.12145
4.12145
4.12145
4.12145
4.12145
4.12145
4.12145
4.12145
4.12145
4.12145
4.12145
4.12145
4.12145
4.12145
4.12145
4.12145
4.12145
4.12145
4.12145
4.12145
4.12145
4.12145
4.12145
4.12145
4.12145
4.12145
4.12145
4.12145
4.12145
4.12145
4.12145
4.12145
4.12145
4.12145
4.12145
4.12145
4.12145
4.12145
4.12145
4.12145
4.12145
4.12145
4.12145
4.12145
4.12145
4.12145
4.12145
4.12145
4.12145
4.12145
4.12145
4.12145
4.12145
4.12145
4.12145
4.12145
4.12145
4.12145
4.12145
4.12145
4.12145
4.12145
4.12145
4.12145
4.12145
4.12145
4.12145
4.12145
4.12145
4.12145
4.12145
4.12145
4.12145
4.12145
4.12145
4.12145
4.12145
4.12145
4.12145
4.12145
4.12145
4.12145
4.12145
4.12145
4.12145
4.12145
4.12145
4.12145
4.12145
4.12145
4.12145
4.12145
4.12145
4.12145
4.12145
4.12145
4.12145
4.12145
4.12145
4.12145
4.12145
4.12145
4.12145
4.12145
4.12145
4.12145
4.12145
4.12145
4.12145
4.12145
4.12145
4.12145
4.12145
4.12145
4.12145
4.12145
4.12145
4.12145
4.12145
4.12145
4.12145
4.12145
4.12145
4.12145
4.12145
4.12145
4.12145
4.12145
4.12145
4.12145
4.12145
4.12145
4.12145
4.12145
4.12145
4.12145
4.12145
4.12145
4.12145
4.12145
4.12145
4.12145
4.12145
4.12145
4.12145
4.12145
4.12145
4.12145
4.12145
4.12145
4.12145
4.12145
4.12145
4.12145
4.12145
4.12145
4.12145
4.12145
4.12145
4.12145
4.12145
4.12145
4.12145
4.12145
4.12145
4.12145
4.12145
4.12145
4.12145
4.12145
4.12145
4.12145
4.12145
4.12145
4.12145
4.12145
4.12145
4.12145
4.12145
4.12145
4.12145
4.12145
4.12145
FIELD solute_flux_TPM 3
glc 3 563 float
0 0 0
0 0 0
0 0 0
0 0 0
0 0 0
0 0 0
0 0 0
0 0 0
0 0 0
0 0 0
0 0 0
0 0 0
0 0 0
0 0 0
0 0 0
0 0 0
0 0 0
0 0 0
0 0 0
0 0 0
0 0 0
0 0 0
0 0 0
0 0 0
0 0 0
0 0 0
0 0 0
0 0 0
0 0 0
0 0 0
0 0 0
0 0 0
0 0 0
0 0 0
0 0 0
0 0 0
0 0 0
0 0 0
0 0 0
0 0 0
0 0 0
0 0 0
0 0 0
0 0 0
0 0 0
0 0 0
0 0 0
0 0 0
0 0 0
0 0 0
0 0 0
0 0 0
0 0 0
0 0 0
0 0 0
0 0 0
0 0 0
0 0 0
0 0 0
0 0 0
0 0 0
0 0 0
0 0 0
0 0 0
0 0 0
0 0 0
0 0 0
0 0 0
0 0 0
0 0 0
0 0 0
0 0 0
0 0 0
0 0 0
0 0 0
0 0 0
0 0 0
0 0 0
0 0 0
0 0 0
0 0 0
0 0 0
0 0 0
0 0 0
0 0 0
0 0 0
0 0 0
0 0 0
0 0 0
0 0 0
0 0 0
0 0 0
0 0 0
0 0 0
0 0 0
0 0 0
0 0 0
0 0 0
0 0 0
0 0 0
0 0 0
0 0 0
0 0 0
0 0 0
0 0 0
0 0 0
0 0 0
0 0 0
0 0 0
0 0 0
0 0 0
0 0 0
0 0 0
0 0 0
0 0 0
0 0 0
0 0 0
0 0 0
0 0 0
0 0 0
0 0 0
0 0 0
0 0 0
0 0 0
0 0 0
0 0 0
0 0 0
0 0 0
0 0 0
0 0 0
0 0 0
0 0 0
0 0 0
0 0 0
0 0 0
0 0 0
0 0 0
0 0 0
0 0 0
0 0 0
0 0 0
0 0 0
0 0 0
0 0 0
0 0 0
0 0 0
0 0 0
0 0 0
0 0 0
0 0 0
0 0 0
0 0 0
0 0 0
0 0 0
0 0 0
0 0 0
0 0 0
0 0 0
0 0 0
0 0 0
0 0 0
0 0 0
0 0 0
0 0 0
0 0 0
0 0 0
0 0 0
0 0 0
0 0 0
0 0 0
0 0 0
0 0 0
0 0 0
0 0 0
0 0 0
0 0 0
0 0 0
0 0 0
0 0 0
0 0 0
0 0 0
0 0 0
0 0 0
0 0 0
0 0 0
0 0 0
0 0 0
0 0 0
0 0 0
0 0 0
0 0 0
0 0 0
0 0 0
0 0 0
0 0 0
0 0 0
0 0 0
0 0 0
0 0 0
0 0 0
0 0 0
0 0 0
0 0 0
0 0 0
0 0 0
0 0 0
0 0 0
0 0 0
0 0 0
0 0 0
0 0 0
0 0 0
0 0 0
0 0 0
0 0 0
0 0 0
0 0 0
0 0 0
0 0 0
0 0 0
0 0 0
0 0 0
0 0 0
0 0 0
0 0 0
0 0 0
0 0 0
0 0 0
0 0 0
0 0 0
0 0 0
0 0 0
0 0 0
0 0 0
0 0 0
0 0 0
0 0 0
0 0 0
0 0 0
0 0 0
0 0 0
0 0 0
0 0 0
0 0 0
0 0 0
0 0 0
0 0 0
0 0 0
0 0 0
0 0 0
0 0 0
0 0 0
0 0 0
0 0 0
0 0 0
0 0 0
0 0 0
0 0 0
0 0 0
0 0 0
0 0 0
0 0 0
0 0 0
0 0 0
0 0 0
0 0 0
0 0 0
0 0 0
0 0 0
0 0 0
0 0 0
0 0 0
0 0 0
0 0 0
0 0 0
0 0 0
0 0 0
0 0 0
0 0 0
0 0 0
0 0 0
0 0 0
0 0 0
0 0 0
0 0 0
0 0 0
0 0 0
0 0 0
0 0 0
0 0 0
0 0 0
0 0 0
0 0 0
0 0 0
0 0 0
0 0 0
0 0 0
0 0 0
0 0 0
0 0 0
0 0 0
0 0 0
0 0 0
0 0 0
0 0 0
0 0 0
0 0 0
0 0 0
0 0 0
0 0 0
0 0 0
0 0 0
0 0 0
0 0 0
0 0 0
0 0 0
0 0 0
0 0 0
0 0 0
0 0 0
0 0 0
0 0 0
0 0 0
0 0 0
0 0 0
0 0 0
0 0 0
0 0 0
0 0 0
0 0 0
0 0 0
0 0 0
0 0 0
0 0 0
0 0 0
0 0 0
0 0 0
0 0 0
0 0 0
0 0 0
0 0 0
0 0 0
0 0 0
0 0 0
0 0 0
0 0 0
0 0 0
0 0 0
0 0 0
0 0 0
0 0 0
0 0 0
0 0 0
0 0 0
0 0 0
0 0 0
0 0 0
0 0 0
0 0 0
0 0 0
0 0 0
0 0 0
0 0 0
0 0 0
0 0 0
0 0 0
0 0 0
0 0 0
0 0 0
0 0 0
0 0 0
0 0 0
0 0 0
0 0 0
0 0 0
0 0 0
0 0 0
0 0 0
0 0 0
0 0 0
0 0 0
0 0 0
0 0 0
0 0 0
0 0 0
0 0 0
0 0 0
0 0 0
0 0 0
0 0 0
0 0 0
0 0 0
0 0 0
0 0 0
0 0 0
0 0 0
0 0 0
0 0 0
0 0 0
0 0 0
0 0 0
0 0 0
0 0 0
0 0 0
0 0 0
0 0 0
0 0 0
0 0 0
0 0 0
0 0 0
0 0 0
0 0 0
0 0 0
0 0 0
0 0 0
0 0 0
0 0 0
0 0 0
0 0 0
0 0 0
0 0 0
0 0 0
0 0 0
0 0 0
0 0 0
0 0 0
0 0 0
0 0 0
0 0 0
0 0 0
0 0 0
0 0 0
0 0 0
0 0 0
0 0 0
0 0 0
0 0 0
0 0 0
0 0 0
0 0 0
0 0 0
0 0 0
0 0 0
0 0 0
0 0 0
0 0 0
0 0 0
0 0 0
0 0 0
0 0 0
0 0 0
0 0 0
0 0 0
0 0 0
0 0 0
0 0 0
0 0 0
0 0 0
0 0 0
0 0 0
0 0 0
0 0 0
0 0 0
0 0 0
0 0 0
0 0 0
0 0 0
0 0 0
0 0 0
0 0 0
0 0 0
0 0 0
0 0 0
0 0 0
0 0 0
0 0 0
0 0 0
0 0 0
0 0 0
0 0 0
0 0 0
0 0 0
0 0 0
0 0 0
0 0 0
0 0 0
0 0 0
0 0 0
0 0 0
0 0 0
0 0 0
0 0 0
0 0 0
0 0 0
0 0 0
0 0 0
0 0 0
0 0 0
0 0 0
0 0 0
0 0 0
0 0 0
0 0 0
0 0 0
0 0 0
0 0 0
0 0 0
0 0 0
0 0 0
0 0 0
0 0 0
0 0 0
0 0 0
0 0 0
0 0 0
0 0 0
0 0 0
0 0 0
0 0 0
0 0 0
0 0 0
0 0 0
0 0 0
0 0 0
0 0 0
0 0 0
0 0 0
0 0 0
0 0 0
0 0 0
0 0 0
0 0 0
0 0 0
0 0 0
0 0 0
0 0 0
0 0 0
0 0 0
0 0 0
0 0 0
0 0 0
0 0 0
0 0 0
0 0 0
0 0 0
0 0 0
0 0 0
0 0 0
0 0 0
0 0 0
0 0 0
0 0 0
0 0 0
0 0 0
0 0 0
0 0 0
0 0 0
0 0 0
0 0 0
0 0 0
0 0 0
0 0 0
0 0 0
o2 3 563 float
-4.97461e-43 3.83956e-43 -1.96182e-44
1.17709e-43 1.16308e-43 8.40779e-45
2.77457e-43 1.68156e-44 -3.36312e-44
2.24208e-44 3.08286e-44 2.8026e-45
-6.16571e-44 2.35418e-43 2.38221e-44
2.83062e-43 3.92364e-43 4.90454e-44
-4.7504e-43 -8.12753e-44 -9.80909e-45
3.40516e-43 -1.68156e-44 -7.00649e-45
4.62428e-44 -6.72623e-44 -1.82169e-44
-1.23314e-43 -4.34403e-44 7.00649e-45
-4.62428e-44 -7.00649e-45 2.24208e-44
2.92871e-43 -6.72623e-44 3.92364e-44
2.10195e-44 1.54143e-44 -3.78351e-44
2.10195e-44 -1.4013e-43 2.8026e-45
-2.21405e-43 -9.80909e-45 1.68156e-44
1.84971e-43 1.09301e-43 -1.54143e-44
-2.92871e-43 -3.25101e-43 -1.96182e-44
3.19496e-43 2.73253e-43 2.8026e-45
2.67648e-43 -7.9874e-44 -5.60519e-45
1.21913e-43 -4.52619e-43 -2.8026e-45
-1.59748e-43 1.84971e-43 -9.80909e-45
-1.12384e-42 5.64723e-43 -1.26117e-44
4.48416e-44 -1.079e-43 -1.54143e-44
-9.3887e-44 4.35804e-43 1.4013e-44
-8.54792e-44 1.00893e-43 -0
6.30584e-44 -3.13891e-43 2.8026e-45
-3.22299e-44 4.62428e-44 7.00649e-45
-1.4013e-45 2.73253e-43 -4.76441e-44
1.5134e-43 1.89175e-43 -1.4013e-45
-2.52234e-43 1.16308e-43 2.8026e-45
5.1848e-44 2.56438e-43 4.2039e-45
-3.1249e-43 6.19374e-43 3.08286e-44
4.80645e-43 -5.04467e-44 0
-6.22177e-43 -3.78351e-44 -7.00649e-45
8.54792e-44 -4.90454e-44 2.8026e-45
1.4013e-44 8.12753e-44 -1.26117e-44
-1.37327e-43 3.26503e-43 -3.50325e-44
-1.54143e-43 -1.55544e-43 7.00649e-45
-1.82169e-43 2.42425e-43 -4.2039e-44
-6.7963e-43 -4.06377e-44 -9.80909e-45
-6.5861e-44 2.24208e-44 -6.16571e-44
1.00893e-43 6.16571e-44 1.12104e-44
-3.48923e-43 -0 -4.48416e-44
3.50325e-44 1.16308e-43 -4.2039e-45
2.52234e-43 1.33123e-43 -3.22299e-44
2.20004e-43 2.18603e-43 -2.66247e-44
-4.2039e-44 -1.49939e-43 3.92364e-44
-1.55544e-43 -2.01787e-43 -3.50325e-44
-4.28797e-43 1.34525e-43 -6.5861e-44
-1.31722e-43 1.4013e-45 2.38221e-44
3.3491e-43 1.44334e-43 -2.94273e-44
1.05097e-43 -4.13383e-43 -2.52234e-44
1.16308e-43 7.42688e-44 3.78351e-44
1.35926e-43 -1.98984e-43 -7.00649e-45
4.06377e-44 -3.54529e-43 -2.8026e-44
2.17201e-43 -2.81661e-43 1.54143e-44
1.79366e-43 8.40779e-44 -3.36312e-44
7.9874e-44 1.90577e-43 1.68156e-44
-4.35804e-43 1.96182e-44 -5.46506e-44
2.43826e-43 1.48538e-43 -1.54143e-44
-1.27518e-43 -7.00649e-44 -2.66247e-44
-1.1911e-43 -1.79366e-43 -3.22299e-44
-6.86636e-44 -5.03066e-43 -1.4013e-45
2.18603e-43 -2.45227e-43 -1.12104e-44
8.26766e-44 -6.86636e-44 6.5861e-44
1.23314e-43 -7.9874e-44 2.8026e-44
-2.52234e-43 1.21913e-43 5.46506e-44
-1.12104e-44 7.00649e-45 9.80909e-45
3.26503e-43 -1.42932e-43 -1.54143e-44
2.8026e-45 1.93379e-43 1.4013e-45
4.37205e-43 -3.92364e-44 -5.74532e-44
2.94273e-44 -1.28919e-43 -2.38221e-44
1.82169e-43 2.11596e-43 5.60519e-45
-1.68156e-44 -3.96567e-43 -1.26117e-44
3.05483e-43 3.61535e-43 -8.40779e-45
4.56823e-43 1.44334e-43 2.94273e-44
-3.22299e-43 2.01787e-43 1.12104e-44
-4.76441e-43 -8.54792e-44 -2.38221e-44
5.05869e-43 2.56438e-43 1.26117e-44
5.8294e-43 1.89175e-43 1.54143e-44
-5.32493e-44 -2.25609e-43 -4.34403e-44
-1.21913e-43 -2.94273e-44 -3.08286e-44
8.68805e-44 -2.94273e-44 3.36312e-44
1.24716e-43 -3.19496e-43 -0
-1.47136e-43 1.1911e-43 5.60519e-45
-1.03696e-43 2.77457e-43 -2.10195e-44
1.26117e-44 -1.4013e-45 -2.8026e-45
-1.5134e-43 -1.8357e-43 1.82169e-44
-2.8026e-45 1.38729e-43 -9.80909e-45
6.54406e-43 -1.61149e-43 -9.80909e-45
-3.04082e-43 -2.49431e-43 2.8026e-44
2.42425e-43 -2.94273e-43 -3.92364e-44
-4.86251e-43 2.14399e-43 -3.50325e-44
8.40779e-44 3.51726e-43 1.96182e-44
8.12753e-44 3.76949e-43 2.10195e-44
-2.4803e-43 -6.5861e-44 -1.4013e-44
1.82169e-43 -1.27518e-43 6.16571e-44
-7.28675e-44 2.25609e-43 1.54143e-44
-3.95166e-43 2.95674e-43 -1.96182e-44
3.58732e-43 -5.60519e-45 -2.52234e-44
1.47136e-43 2.0459e-43 9.80909e-45
7.00649e-45 1.91978e-43 3.64338e-44
-2.92871e-43 -2.66247e-44 -3.92364e-44
-1.68156e-43 7.42688e-44 -1.96182e-44
2.41023e-43 -2.03188e-43 -6.86636e-44
3.78351e-44 -3.08286e-43 2.24208e-44
2.0459e-43 -8.40779e-45 9.24857e-44
1.38729e-43 8.68805e-44 3.22299e-44
2.66247e-44 1.63952e-43 1.12104e-44
1.34525e-43 -1.10703e-43 -8.40779e-45
-2.85865e-43 -2.2701e-43 8.40779e-45
-3.13891e-43 1.65353e-43 7.84727e-44
-2.52234e-44 1.77965e-43 -2.24208e-44
-1.44334e-43 -7.00649e-45 1.82169e-44
1.26117e-44 1.68156e-44 4.2039e-45
-2.24208e-43 3.53127e-43 9.80909e-45
1.80768e-43 -2.39622e-43 -9.80909e-45
4.38606e-43 6.30584e-44 3.08286e-44
4.38606e-43 -3.15292e-43 -1.82169e-44
-5.60519e-44 3.46121e-43 5.1848e-44
2.60642e-43 6.16571e-44 1.26117e-44
-1.1911e-43 2.8026e-44 -5.88545e-44
-1.26117e-44 1.7236e-43 5.32493e-44
-1.05097e-43 -8.96831e-44 -1.26117e-44
7.70714e-44 4.48416e-44 5.88545e-44
4.73639e-43 6.72623e-43 -1.4013e-44
5.52112e-43 -5.40901e-43 3.50325e-44
-1.77965e-43 -3.08286e-44 -3.64338e-44
2.83062e-43 2.45227e-43 4.48416e-44
-3.78351e-44 1.49939e-43 1.68156e-44
2.8026e-45 2.57839e-43 -7.00649e-45
1.79366e-43 -1.8357e-43 1.96182e-44
-1.21913e-43 2.8026e-44 -3.36312e-44
-5.88545e-44 -2.88667e-43 5.60519e-45
2.00386e-43 3.32108e-43 4.48416e-44
-8.26766e-44 8.40779e-45 1.26117e-44
-1.62551e-43 -1.82169e-44 -3.92364e-44
-2.98477e-43 -2.35418e-43 -3.36312e-44
1.80768e-43 -8.54792e-44 -1.4013e-44
-3.96567e-43 3.18095e-43 -8.40779e-45
-1.63952e-43 -1.45735e-43 4.34403e-44
8.12753e-44 -1.62551e-43 1.4013e-45
-4.2039e-44 1.28919e-43 1.4013e-44
1.37327e-43 1.93379e-43 -1.26117e-44
2.90069e-43 7.42688e-44 3.92364e-44
2.87266e-43 2.63444e-43 -5.60519e-45
-3.78351e-44 -2.00386e-43 -3.92364e-44
-2.8026e-44 1.73761e-43 5.60519e-45
-1.23314e-43 -2.12997e-43 3.50325e-44
1.90577e-43 6.44597e-44 1.4013e-44
-2.28412e-43 -7.14662e-44 1.82169e-44
-4.2039e-45 -2.66247e-43 7.00649e-45
8.68805e-44 1.80768e-43 -2.8026e-44
2.24208e-43 1.12104e-44 2.24208e-44
-4.76441e-44 1.21913e-43 1.26117e-44
-4.2039e-45 -3.04082e-43 4.2039e-45
4.90454e-43 9.3887e-44 1.96182e-44
2.56438e-43 1.41531e-43 1.82169e-44
-2.05991e-43 -1.82169e-44 5.88545e-44
9.66896e-44 1.96182e-44 -2.10195e-44
7.14662e-44 -3.3491e-43 2.94273e-44
-7.9874e-44 2.4803e-43 -4.2039e-44
1.7236e-43 -5.05869e-43 1.82169e-44
-1.27518e-43 3.57331e-43 -2.66247e-44
3.51726e-43 2.99878e-43 -3.50325e-44
2.8026e-45 3.05483e-43 9.80909e-45
8.54792e-44 8.96831e-44 1.96182e-44
5.60519e-45 1.12104e-44 1.68156e-44
2.77457e-43 -7.00649e-44 3.92364e-44
-5.15678e-43 2.42425e-43 3.22299e-44
2.18603e-43 2.28412e-43 4.2039e-45
5.33895e-43 -1.00893e-43 5.1848e-44
8.40779e-44 -7.00649e-44 6.86636e-44
-7.14662e-44 1.4013e-44 5.60519e-44
-2.36819e-43 1.14906e-43 1.96182e-44
-4.13383e-43 -4.51218e-43 -8.40779e-45
1.58347e-43 5.74532e-44 -1.4013e-45
-6.44597e-44 -9.80909e-45 -6.16571e-44
-5.46506e-44 -7.9874e-44 -7.00649e-45
3.22299e-44 3.237e-43 5.60519e-45
2.66247e-43 8.54792e-44 -9.80909e-45
3.50325e-43 3.92364e-44 -1.4013e-45
1.97583e-43 2.39622e-43 -1.96182e-44
1.75162e-43 -1.7236e-43 -3.92364e-44
3.78351e-44 -1.91978e-43 -5.60519e-45
-2.66247e-44 1.73761e-43 -1.96182e-44
-2.98477e-43 4.62428e-44 1.26117e-44
-1.17709e-43 -2.56438e-43 -2.8026e-45
-2.36819e-43 -2.22806e-43 3.50325e-44
5.17079e-43 -3.78351e-44 9.80909e-45
-7.00649e-45 -1.98984e-43 1.82169e-44
-8.40779e-45 8.54792e-44 -3.78351e-44
-2.62043e-43 3.32108e-43 -1.4013e-44
-1.09301e-43 -1.48538e-43 3.92364e-44
-1.079e-43 2.18603e-43 -1.54143e-44
5.46506e-44 7.56701e-44 -2.38221e-44
-1.63952e-43 1.03696e-43 -9.80909e-45
-3.41917e-43 -2.03188e-43 2.8026e-44
-5.32493e-44 3.08286e-44 1.4013e-44
-2.70451e-43 3.64338e-44 -5.60519e-45
-1.38729e-43 -5.04467e-44 1.96182e-44
1.66755e-43 -1.55544e-43 -1.4013e-45
1.65353e-43 2.00386e-43 -1.4013e-45
2.66247e-44 2.8026e-44 -9.80909e-45
-1.34525e-43 -1.4013e-45 -4.2039e-45
-8.40779e-45 -1.98984e-43 2.8026e-44
-1.84971e-43 1.82169e-44 -6.02558e-44
2.14399e-43 -2.18603e-43 -1.4013e-44
3.26503e-43 -3.96567e-43 -7.14662e-44
7.56701e-44 -1.13505e-43 1.68156e-44
-3.50325e-44 -1.90577e-43 4.62428e-44
-4.91856e-43 8.12753e-44 -1.96182e-44
2.45227e-43 3.85357e-43 -2.8026e-44
2.85865e-43 2.18603e-43 -5.88545e-44
-2.92871e-43 4.49817e-43 1.26117e-44
-2.9147e-43 5.46506e-44 -2.94273e-44
-2.70451e-43 1.37327e-43 -9.80909e-45
-9.52883e-44 -4.14784e-43 -8.40779e-45
-1.82169e-44 -3.22299e-44 -1.4013e-44
1.61149e-43 -1.63952e-43 1.12104e-44
1.61149e-43 -2.8026e-43 1.96182e-44
-2.76056e-43 -9.24857e-44 6.02558e-44
-1.06499e-43 0 -3.08286e-44
5.74532e-44 -3.53127e-43 1.4013e-44
2.28412e-43 2.8026e-44 -3.08286e-44
1.06499e-43 0 2.24208e-44
-1.45735e-43 2.08793e-43 2.66247e-44
-4.2039e-44 -1.02295e-43 5.74532e-44
8.40779e-45 2.14399e-43 -3.08286e-44
3.01279e-43 1.38729e-43 2.8026e-44
-2.76056e-43 4.06377e-44 -2.8026e-45
2.97075e-43 -3.86758e-43 2.52234e-44
1.49939e-43 1.27518e-43 2.10195e-44
5.32493e-44 2.28412e-43 4.2039e-44
5.75934e-43 -1.65353e-43 1.96182e-44
2.34017e-43 -1.7236e-43 4.2039e-44
2.99878e-43 -8.40779e-44 1.68156e-44
-1.44334e-43 -4.62428e-44 -4.2039e-45
-1.86373e-43 2.57839e-43 2.52234e-44
1.79366e-43 -4.90454e-43 2.10195e-44
1.20512e-43 -7.70714e-44 -3.08286e-44
1.97583e-43 3.01279e-43 -1.12104e-44
2.8026e-44 -1.24716e-43 -2.24208e-44
2.94273e-44 -1.34525e-43 -1.12104e-44
2.39622e-43 1.87774e-43 2.38221e-44
-5.1848e-44 -1.9478e-43 8.40779e-45
-1.63952e-43 6.5861e-44 2.8026e-45
3.25101e-43 -1.63952e-43 6.44597e-44
-1.06499e-43 1.62551e-43 -3.36312e-44
-1.54143e-43 -1.35926e-43 -3.50325e-44
5.46506e-44 6.44597e-44 -7.00649e-45
1.49939e-43 -8.40779e-45 1.68156e-44
-5.74532e-44 1.82169e-43 -3.92364e-44
-7.76319e-43 8.26766e-44 -2.8026e-45
3.92364e-44 1.079e-43 -5.60519e-45
1.45735e-43 -2.53635e-43 3.08286e-44
-9.80909e-45 3.22299e-44 -4.2039e-45
-4.86251e-43 -9.94922e-44 9.80909e-45
-1.28919e-43 -3.61535e-43 4.62428e-44
1.68156e-43 4.2039e-45 -1.12104e-44
2.18603e-43 3.06884e-43 3.50325e-44
-2.18603e-43 7.00649e-45 4.90454e-44
1.21913e-43 0 -2.94273e-44
-3.89561e-43 2.18603e-43 2.8026e-45
2.28412e-43 -2.46629e-43 4.06377e-44
-2.0459e-43 3.01279e-43 2.52234e-44
-3.16693e-43 7.31478e-43 -5.32493e-44
2.31214e-43 2.21405e-43 4.2039e-44
2.08793e-43 1.26117e-43 1.68156e-44
5.46506e-44 -3.36312e-44 -4.2039e-44
-9.3887e-44 3.92364e-44 -1.4013e-45
2.01787e-43 -2.85865e-43 1.4013e-45
-1.9478e-43 1.84971e-43 7.00649e-45
-5.60519e-45 -7.9874e-44 2.10195e-44
-5.46506e-44 1.90577e-43 3.78351e-44
-2.98477e-43 -3.62936e-43 -1.82169e-44
3.69943e-43 4.2039e-44 5.1848e-44
-1.26117e-43 -3.3491e-43 4.76441e-44
1.24716e-43 -3.06884e-43 4.06377e-44
8.96831e-44 -2.18603e-43 7.00649e-45
1.00893e-43 -1.58347e-43 9.80909e-45
-1.12104e-44 9.3887e-44 2.66247e-44
-2.57839e-43 1.06499e-43 -2.66247e-44
1.8357e-43 -2.03188e-43 1.4013e-45
5.74532e-44 -1.20512e-43 5.60519e-45
-5.74532e-44 -3.11088e-43 3.64338e-44
2.73253e-43 8.40779e-44 8.40779e-45
1.17709e-43 -1.54143e-44 1.54143e-44
2.49431e-43 1.24716e-43 -5.60519e-45
1.5134e-43 -5.01665e-43 -4.2039e-45
4.48416e-44 2.18603e-43 -2.94273e-44
-3.36312e-44 4.38606e-43 4.76441e-44
-3.50325e-44 -3.05483e-43 -5.1848e-44
9.80909e-45 -9.80909e-45 -1.12104e-44
-6.44597e-44 -8.26766e-44 -4.34403e-44
-7.9874e-44 -6.30584e-44 -4.2039e-44
4.1058e-43 -2.24208e-44 8.40779e-45
3.97969e-43 -5.60519e-45 2.24208e-44
2.56438e-43 2.18603e-43 2.8026e-45
4.316e-43 2.97075e-43 3.64338e-44
-7.3428e-43 2.4803e-43 -5.46506e-44
-1.26117e-43 1.44334e-43 -2.10195e-44
-1.13505e-43 -9.80909e-45 -9.80909e-45
-4.17587e-43 3.06884e-43 1.82169e-44
1.69557e-43 -2.42425e-43 4.34403e-44
-4.2039e-44 8.54792e-44 3.36312e-44
1.28919e-43 -3.64338e-44 -1.4013e-45
-1.86373e-43 -2.21405e-43 -2.10195e-44
1.59748e-43 -2.67648e-43 1.54143e-44
2.11596e-43 -7.80523e-43 -5.1848e-44
2.25609e-43 2.71852e-43 3.78351e-44
7.69313e-43 1.20512e-43 2.24208e-44
1.93379e-43 -9.80909e-44 2.10195e-44
1.09301e-43 2.32616e-43 8.40779e-45
2.46629e-43 3.50325e-43 -2.8026e-45
5.88545e-44 6.44597e-44 -5.60519e-45
1.38729e-43 3.93765e-43 3.78351e-44
-1.87774e-43 5.61921e-43 1.12104e-44
-1.24716e-43 8.26766e-44 -2.66247e-44
-1.24716e-43 -1.06499e-43 -5.32493e-44
-8.96831e-44 -2.24208e-44 -5.74532e-44
1.69557e-43 3.76949e-43 2.52234e-44
-5.46506e-44 2.03188e-43 6.16571e-44
4.34403e-44 2.55036e-43 1.4013e-45
3.78351e-44 -2.66247e-43 1.54143e-44
1.96182e-44 1.7236e-43 1.96182e-44
1.80768e-43 -2.76056e-43 2.8026e-45
-2.63444e-43 3.08286e-44 -1.82169e-44
8.82818e-44 -1.58347e-43 3.08286e-44
2.56438e-43 4.2039e-43 -6.72623e-44
2.24208e-44 4.76441e-44 -1.4013e-45
-1.54143e-43 3.27904e-43 3.22299e-44
1.65353e-43 -2.8026e-43 -2.8026e-45
-3.237e-43 -1.86373e-43 3.50325e-44
-1.91978e-43 8.26766e-44 -1.68156e-44
-1.87774e-43 -2.43826e-43 -1.12104e-44
-1.30321e-43 -5.29691e-43 -1.96182e-44
-2.90069e-43 -2.45227e-43 -1.68156e-44
-1.76564e-43 -2.73253e-43 2.10195e-44
-1.80768e-43 -4.90454e-44 -7.00649e-45
-1.00893e-43 7.70714e-44 -5.60519e-45
2.94273e-44 -1.12104e-44 -3.08286e-44
-1.76564e-43 -1.24716e-43 -0
-5.1848e-44 -2.69049e-43 -4.2039e-45
9.10844e-44 2.45227e-43 -1.96182e-44
1.68156e-43 1.079e-43 -4.06377e-44
8.12753e-43 -4.13383e-43 -5.74532e-44
1.79366e-43 1.91978e-43 -2.8026e-45
1.23314e-43 1.37327e-43 3.50325e-44
-5.88545e-44 -2.4803e-43 -3.08286e-44
4.55422e-43 2.41023e-43 8.40779e-45
-2.56438e-43 -2.62043e-43 -1.4013e-45
9.80909e-45 3.36312e-44 2.8026e-45
2.8026e-45 2.87266e-43 -2.66247e-44
-9.80909e-45 3.72745e-43 1.26117e-44
-8.68805e-44 -2.11596e-43 -2.52234e-44
8.96831e-44 -7.80523e-43 -2.38221e-44
-9.3887e-44 6.16571e-44 2.52234e-44
7.42688e-44 2.97075e-43 1.54143e-44
5.74532e-44 -2.08793e-43 -0
7.70714e-44 7.42688e-44 7.00649e-45
1.77965e-43 -2.97075e-43 -3.08286e-44
-2.63444e-43 -3.64338e-44 3.64338e-44
1.24716e-43 4.48416e-44 2.94273e-44
3.36312e-44 1.48538e-43 -6.86636e-44
2.69049e-43 -2.01787e-43 1.12104e-44
-4.00771e-43 -5.60519e-45 2.66247e-44
1.63952e-43 2.87266e-43 7.42688e-44
-4.54021e-43 1.59748e-43 6.16571e-44
-6.02558e-44 -2.99878e-43 -3.36312e-44
0 -1.82169e-44 -9.80909e-45
-2.38221e-43 -1.93379e-43 1.54143e-44
9.94922e-44 -4.49817e-43 -2.94273e-44
1.48538e-43 -5.46506e-44 -1.12104e-44
9.66896e-44 9.10844e-44 5.60519e-45
-9.3887e-44 2.18603e-43 -4.2039e-45
3.78351e-43 1.26117e-43 -2.66247e-44
-1.27518e-43 3.39114e-43 -2.38221e-44
-1.61149e-43 -1.23314e-43 -1.96182e-44
2.43826e-43 4.25995e-43 8.40779e-45
2.92871e-43 -2.9147e-43 -6.72623e-44
-4.06377e-43 5.46506e-44 -5.46506e-44
-1.4013e-43 -4.06377e-43 -1.96182e-44
2.60642e-43 -2.66247e-44 -3.64338e-44
2.94273e-43 -4.44212e-43 -3.08286e-44
5.99756e-43 -2.85865e-43 7.00649e-45
-5.60519e-45 2.28412e-43 -1.4013e-44
2.29813e-43 2.07392e-43 -2.94273e-44
2.55036e-43 -1.4013e-43 4.34403e-44
-3.54529e-43 1.54143e-44 -5.60519e-45
-6.5861e-44 -2.83062e-43 7.14662e-44
1.12104e-44 3.95166e-43 -1.26117e-44
1.27518e-43 -4.62428e-44 -3.92364e-44
-1.69557e-43 1.97583e-43 2.66247e-44
9.24857e-44 -2.24208e-44 2.8026e-45
-4.65231e-43 -1.7236e-43 -3.08286e-44
2.22806e-43 -3.75548e-43 2.66247e-44
-4.48416e-44 2.94273e-44 -4.2039e-45
-5.60519e-45 3.36312e-43 -5.60519e-45
-3.08286e-44 5.54914e-43 -5.04467e-44
-1.09301e-43 3.92364e-44 4.2039e-44
-5.32493e-44 -5.88545e-44 4.76441e-44
1.96182e-44 8.96831e-44 1.54143e-44
4.76441e-44 -2.57839e-43 4.76441e-44
-7.28675e-44 1.87774e-43 1.4013e-44
1.4013e-45 4.06377e-44 4.2039e-44
-3.92364e-44 5.08671e-43 3.64338e-44
-4.34403e-43 1.10703e-43 -9.80909e-45
1.76564e-43 -3.11088e-43 -4.2039e-45
-8.96831e-44 -2.08793e-43 4.2039e-45
-8.05747e-43 5.1848e-43 2.24208e-44
-2.55036e-43 -2.158e-43 -4.06377e-44
-3.06884e-43 -1.02295e-43 -5.60519e-44
2.45227e-43 -1.65353e-43 -2.24208e-44
2.70451e-43 -1.4013e-43 -8.40779e-45
1.82169e-44 -3.1249e-43 -2.94273e-44
-5.81539e-43 3.50325e-43 -5.60519e-45
-8.21161e-43 -1.12104e-43 9.80909e-45
8.40779e-45 -3.6714e-43 1.68156e-44
-3.69943e-43 6.30584e-44 -2.52234e-44
2.8026e-45 -1.17709e-43 3.22299e-44
2.00386e-43 2.85865e-43 1.96182e-44
8.68805e-44 -5.04467e-44 4.76441e-44
1.12104e-44 1.37327e-43 6.72623e-44
-7.42688e-44 8.12753e-44 -4.2039e-45
4.76441e-44 -3.37713e-43 -0
5.32493e-44 -1.76564e-43 1.26117e-44
-7.83326e-43 -2.94273e-44 -5.60519e-45
-2.10195e-44 2.4803e-43 8.40779e-45
-4.04975e-43 1.05097e-43 -1.4013e-45
1.38729e-43 4.76441e-44 -1.12104e-44
4.62428e-44 -2.0459e-43 -2.52234e-44
3.29305e-43 1.68156e-43 4.62428e-44
1.05097e-43 -1.4013e-43 -1.4013e-44
-5.04467e-44 -7.84727e-44 6.02558e-44
4.94658e-43 -1.28919e-43 -1.4013e-44
-2.20004e-43 -3.93765e-43 9.24857e-44
-1.80768e-43 5.74532e-44 -2.52234e-44
2.00386e-43 3.37713e-43 1.82169e-44
-1.90577e-43 -1.96182e-44 -2.94273e-44
5.88545e-44 -3.20897e-43 5.60519e-45
3.1249e-43 3.64338e-44 -0
-3.1249e-43 4.62428e-44 -1.12104e-44
-2.77457e-43 2.94273e-44 -6.30584e-44
3.69943e-43 4.94658e-43 6.72623e-44
6.72623e-44 -4.48416e-44 2.8026e-44
-1.66755e-43 1.4013e-45 1.26117e-44
-2.64845e-43 -8.82818e-44 -7.00649e-45
7.00649e-45 9.80909e-45 2.8026e-45
2.01787e-43 -4.76441e-44 -1.4013e-44
-8.26766e-44 -2.18603e-43 -1.68156e-44
-7.56701e-44 -8.54792e-44 7.00649e-44
4.76441e-43 -3.43318e-43 -1.82169e-44
-5.53513e-43 -4.03574e-43 9.80909e-45
2.11596e-43 9.80909e-44 -1.4013e-45
1.5134e-43 1.69557e-43 -2.52234e-44
-1.12104e-43 4.35804e-43 1.54143e-44
4.14784e-43 5.60519e-44 2.94273e-44
2.25609e-43 7.28675e-44 -2.38221e-44
-8.40779e-44 3.27904e-43 3.92364e-44
-5.15678e-43 4.25995e-43 4.2039e-45
-1.70538e-42 3.6714e-43 -6.16571e-44
5.64723e-43 7.86128e-43 -8.68805e-44
-4.6383e-43 -6.81031e-43 1.96182e-44
1.76564e-43 1.26117e-44 -8.26766e-44
-1.8357e-43 -5.88545e-44 -4.2039e-45
1.38729e-43 -3.58732e-43 -1.4013e-45
3.61535e-43 2.8026e-45 -3.64338e-44
1.26117e-43 -3.57331e-43 -2.8026e-44
2.29813e-43 -1.87774e-43 4.90454e-44
-2.38221e-44 1.82169e-44 -5.60519e-45
1.12104e-44 -7.9874e-44 -1.96182e-44
-2.24208e-44 2.39622e-43 -5.60519e-45
-1.31722e-43 -4.93257e-43 1.26117e-44
-1.44334e-43 5.1848e-44 2.8026e-45
4.77843e-43 2.07392e-43 2.24208e-44
1.28919e-43 2.52234e-43 2.8026e-45
-7.84727e-44 1.96182e-44 -1.82169e-44
1.68156e-43 -7.56701e-44 -4.2039e-45
2.41023e-43 6.30584e-44 4.2039e-45
-2.83062e-43 -1.06499e-43 -9.80909e-45
-7.9874e-44 3.64338e-44 4.2039e-44
-3.86758e-43 -2.73253e-43 -1.54143e-44
2.8026e-44 3.237e-43 -1.96182e-44
6.86636e-44 1.82169e-44 9.66896e-44
1.68156e-44 1.26117e-43 2.66247e-44
2.76056e-43 -2.39622e-43 -1.68156e-44
-9.52883e-44 5.21283e-43 -4.62428e-44
1.38729e-43 -5.88545e-44 -3.78351e-44
-1.17709e-43 -6.16571e-44 -1.4013e-44
-6.43196e-43 1.45735e-43 2.24208e-44
3.46121e-43 -1.48538e-43 -1.68156e-44
-2.38221e-44 -5.04467e-44 -5.60519e-45
2.00386e-43 -1.03696e-43 4.48416e-44
1.38729e-43 9.80909e-45 1.12104e-44
-2.70451e-43 -2.98477e-43 -4.34403e-44
1.26117e-43 -4.51218e-43 1.82169e-44
-1.63952e-43 -4.48416e-44 -2.38221e-44
3.75548e-43 -2.38221e-44 1.26117e-44
-3.1249e-43 -5.78736e-43 -3.64338e-44
3.237e-43 5.95552e-43 -0
-8.09951e-43 -2.24208e-44 2.24208e-44
4.79244e-43 1.76564e-43 3.22299e-44
-3.0268e-43 4.09179e-43 -6.30584e-44
-7.42688e-44 1.65353e-43 -6.30584e-44
3.01279e-43 4.45613e-43 -2.10195e-44
2.60642e-43 -5.95552e-43 -4.2039e-45
3.96567e-43 1.68156e-44 -2.94273e-44
1.96182e-44 -7.32879e-43 2.8026e-44
-1.35926e-43 5.12875e-43 -1.12104e-44
-4.34403e-44 -7.9874e-44 2.38221e-44
2.95674e-43 1.63952e-43 -1.54143e-44
2.84464e-43 -1.10703e-43 2.52234e-44
-5.32493e-44 3.95166e-43 -1.12104e-44
-1.62551e-43 -5.95552e-43 -1.82169e-44
-1.77965e-43 7.04853e-43 -1.4013e-44
-2.08793e-43 -2.60642e-43 1.68156e-44
-2.56438e-43 -1.65353e-43 1.12104e-44
-2.34017e-43 -2.70451e-43 -4.2039e-45
-4.33001e-43 1.89175e-43 -9.80909e-45
-2.8026e-45 -3.76949e-43 5.60519e-45
-3.64338e-44 -9.3887e-44 6.16571e-44
2.35418e-43 1.59748e-43 7.00649e-45
2.38221e-44 -8.1976e-43 8.40779e-45
-3.01279e-43 1.55544e-43 -4.2039e-44
1.4013e-43 -1.31722e-43 -5.60519e-45
2.50832e-43 5.63322e-43 -5.04467e-44
-1.48538e-43 2.31214e-43 -7.00649e-45
-3.86758e-43 1.75162e-43 -1.54143e-44
5.14277e-43 -6.1517e-43 -2.24208e-44
2.08793e-43 -1.65353e-43 -8.40779e-45
4.66632e-43 1.28919e-43 -0
1.079e-43 -4.79244e-43 -7.70714e-44
3.9937e-43 4.73639e-43 -9.52883e-44
7.84727e-44 -7.28675e-44 9.80909e-45
-4.55422e-43 -1.93379e-43 5.60519e-45
6.05361e-43 -2.28412e-43 -1.26117e-44
-4.52619e-43 1.75162e-43 9.80909e-45
4.4281e-43 7.27274e-43 -1.4013e-45
-4.48416e-44 -1.96182e-44 7.9874e-44
-5.15678e-43 2.45227e-43 -2.38221e-44
1.09021e-42 1.66755e-43 -8.40779e-44
-3.22299e-43 4.21791e-43 3.36312e-44
3.22299e-43 1.26677e-42 -1.26117e-44
3.83956e-43 -3.8816e-43 1.68156e-44
8.54792e-44 -5.68927e-43 1.82169e-44
1.55544e-43 2.12997e-43 -9.80909e-45
9.55686e-43 -3.20897e-43 -2.38221e-44
5.01665e-43 4.41409e-43 -5.60519e-45
3.20897e-43 -1.09301e-43 1.68156e-44
2.85865e-43 -7.21669e-43 -9.80909e-45
-2.2701e-43 -1.75162e-43 -5.32493e-44
-3.78351e-44 1.21913e-43 -6.86636e-44
9.26258e-43 5.17079e-43 2.66247e-44
-3.32108e-43 -7.9874e-44 5.46506e-44
7.00649e-45 -1.02435e-42 2.38221e-44
2.31214e-43 5.22684e-43 -1.96182e-44
-2.20004e-43 -9.66896e-44 1.4013e-44
4.11982e-43 -3.1249e-43 -1.68156e-44
3.47522e-43 -5.88545e-44 1.4013e-44
6.02558e-44 5.32493e-44 -5.60519e-45
-1.73621e-42 1.72079e-42 -4.2039e-45
-3.25101e-43 6.16571e-44 3.08286e-44
lac 3 563 float
-1.50919e-18 3.32896e-19 1.37861e-20
-7.7663e-19 5.82645e-19 -7.65287e-20
9.9862e-19 7.49361e-19 -1.45557e-19
-2.90939e-19 2.21883e-19 2.06027e-20
-1.11524e-19 8.8802e-19 2.73963e-20
2.79288e-20 7.77408e-19 1.10918e-19
-3.33209e-19 -4.4399e-19 -4.86539e-20
8.32168e-19 -4.43956e-19 -6.76164e-21
1.66348e-19 9.99079e-19 -7.64421e-20
-4.72193e-19 -1.10788e-19 -2.11029e-20
1.66508e-18 -8.32314e-20 3.46063e-20
-8.87932e-19 -6.22411e-20 -1.11152e-19
5.50247e-20 -5.5542e-20 3.44208e-20
1.11067e-18 -5.56706e-20 -2.095e-20
-3.61187e-19 -1.66718e-19 6.21063e-20
8.88225e-19 -2.20004e-22 -1.31913e-19
-4.98743e-19 -1.10511e-19 -2.79161e-20
7.76757e-19 7.37895e-23 2.74795e-20
2.05332e-18 -1.1088e-19 -2.09557e-20
-8.30581e-20 -8.88233e-19 6.92804e-20
8.32246e-19 -5.54787e-19 5.5575e-20
6.66344e-19 -5.82318e-19 -7.08481e-21
-1.22102e-18 -2.7753e-19 -6.9551e-20
-6.66403e-19 -2.94199e-22 -1.39188e-20
-2.21869e-19 5.67873e-19 -2.78169e-20
-1.66711e-19 -2.07329e-19 -6.67004e-21
1.88709e-18 -1.05455e-18 1.87239e-19
-3.33531e-19 1.83165e-18 3.44158e-20
-2.3314e-18 -4.54398e-19 6.93172e-20
-1.1733e-18 1.33212e-18 1.3843e-19
-5.53235e-20 3.32912e-19 6.87271e-21
-6.66106e-19 3.33001e-19 1.382e-20
4.4398e-19 -1.44319e-18 1.5949e-19
-6.66077e-19 8.88833e-19 1.03888e-19
2.2181e-19 -7.83048e-19 1.35531e-20
1.83152e-18 4.43487e-19 -6.92563e-20
-7.76623e-19 -9.98617e-19 -4.17452e-20
-4.24669e-18 -1.66973e-19 1.10757e-19
-6.11176e-19 1.10696e-19 -1.18007e-19
-2.55323e-18 -9.15629e-19 -1.18036e-19
1.10722e-19 -2.39362e-18 -4.17006e-20
-5.82977e-19 7.22023e-19 -8.35469e-20
1.77591e-18 -3.71856e-22 -1.45654e-19
8.88267e-19 1.10793e-19 1.10882e-19
-9.43622e-19 2.22007e-18 -9.72136e-20
9.43405e-19 -1.53923e-22 -3.4791e-20
5.52016e-20 2.22248e-19 7.63864e-20
-7.77385e-19 -3.32873e-19 -4.17391e-20
1.66956e-18 1.33179e-18 -1.73574e-19
-2.22105e-19 -1.4986e-18 2.07529e-20
-3.33245e-19 2.77654e-19 -6.25648e-20
-2.2231e-19 -2.66419e-18 -8.33258e-20
-2.78737e-20 3.33838e-19 8.99007e-20
-6.11044e-19 -8.88014e-19 -1.5271e-19
-8.38659e-20 -4.44484e-19 -2.10718e-20
2.10897e-18 -4.44036e-19 4.84823e-20
4.99798e-19 -1.33133e-18 -2.09751e-20
1.33206e-18 -9.8515e-19 -6.95468e-21
-1.22113e-18 3.3258e-19 -1.24633e-19
-1.66855e-19 -6.81545e-19 -4.17733e-20
-1.66511e-19 -6.38362e-19 -7.0399e-21
-1.31819e-19 -2.99724e-18 6.92886e-20
2.21991e-19 -1.10999e-18 -2.42922e-19
9.05116e-22 5.67199e-22 6.92185e-20
1.66535e-19 5.59805e-20 -2.77497e-20
9.99181e-19 -7.21241e-19 4.1495e-20
-1.2213e-18 2.22671e-19 4.8708e-20
-2.75785e-20 -4.99645e-19 4.15411e-20
1.36003e-18 -1.1658e-18 -1.31891e-19
-2.50256e-19 -1.33187e-18 2.04901e-20
1.22129e-18 -6.65372e-19 -6.94881e-20
-1.11212e-19 -7.70549e-19 -4.82718e-20
7.7697e-19 -1.10847e-19 -2.78098e-20
-7.49445e-19 6.65856e-19 6.23446e-20
3.88873e-19 -3.32964e-19 2.76686e-20
3.32887e-19 2.10897e-18 1.10911e-19
-1.44284e-18 7.22137e-19 -1.87408e-19
-6.66243e-19 4.1655e-20 -1.03946e-19
5.54855e-19 3.33584e-19 6.74586e-21
1.55373e-18 -4.76867e-19 1.37682e-20
3.32799e-19 -2.29048e-19 -9.02679e-20
9.99608e-19 4.16967e-19 6.2286e-20
-5.60863e-20 -8.60618e-20 9.6809e-20
1.77591e-18 1.4986e-18 -6.25224e-20
-1.55432e-18 -1.665e-18 2.07069e-20
-2.22096e-19 2.22015e-18 2.07405e-20
2.21794e-19 -2.63177e-19 -9.70102e-20
5.515e-20 -3.33146e-19 -4.88735e-20
5.54929e-19 2.33128e-18 -1.80493e-19
-4.88484e-18 -4.16443e-19 -6.26533e-20
-2.66415e-18 -9.15409e-19 -5.5556e-20
-6.44668e-19 -6.65876e-19 -6.83339e-21
9.98455e-19 5.96214e-19 -5.56848e-20
1.10974e-18 1.33188e-18 -2.80075e-20
-1.66648e-19 2.66399e-18 -1.04164e-19
1.33203e-18 2.42861e-19 -3.47946e-20
-2.95778e-23 -1.60972e-18 6.87e-21
-3.61569e-22 -6.88499e-20 1.36347e-20
-2.66411e-18 -2.22256e-19 -4.16512e-20
2.2173e-19 -6.0672e-20 -6.95124e-20
-7.21954e-19 3.88595e-19 -4.17396e-20
1.11007e-19 1.85261e-18 8.32014e-20
-6.38483e-19 -4.44045e-19 3.46155e-20
-9.98619e-19 -7.35618e-19 -6.25858e-20
-2.22579e-19 3.18983e-19 -6.96741e-20
3.3236e-19 -6.09789e-19 -6.58148e-21
-2.21772e-19 3.05865e-19 5.55017e-20
-1.33209e-18 9.71228e-19 -6.95648e-20
4.43985e-19 -6.92745e-20 5.54381e-20
1.11005e-19 -8.74333e-19 4.14195e-20
-1.44345e-18 -4.16848e-20 1.10788e-19
2.21829e-19 3.32949e-19 8.31954e-20
1.72059e-18 1.16566e-18 -1.25e-19
2.76786e-20 1.11029e-18 1.73345e-19
5.56881e-20 -3.33155e-19 -2.0905e-20
1.93917e-19 4.43852e-19 -8.33502e-20
-7.77482e-19 7.20604e-19 -2.09872e-20
3.3273e-19 1.6651e-18 -1.39738e-20
3.33081e-19 4.99275e-19 -4.86703e-20
-9.43723e-19 2.34872e-23 1.87315e-19
8.48005e-19 1.11021e-19 2.7623e-20
1.38161e-19 1.66996e-19 -2.42834e-19
-5.5761e-20 -1.65755e-19 3.43957e-20
5.56701e-20 2.1551e-19 1.37255e-20
2.21908e-19 -1.66893e-19 6.61766e-21
1.93659e-18 6.11357e-19 9.69586e-20
-1.10985e-18 -5.27282e-19 1.26121e-22
5.53151e-20 -5.71732e-19 -9.7222e-20
7.76807e-19 -1.66618e-19 -5.08487e-23
-3.33339e-19 1.59513e-19 -1.3936e-20
5.56441e-20 1.27745e-18 6.78106e-21
-1.55388e-18 2.7739e-19 2.07271e-20
3.88824e-19 1.66725e-19 -6.94896e-20
-1.2772e-18 -2.11582e-18 1.18408e-19
-1.07971e-22 -3.53838e-19 -6.94321e-20
4.44081e-19 -4.70995e-19 2.05839e-20
3.32905e-19 6.10583e-19 -7.0102e-21
7.77167e-19 -1.804e-18 -1.80514e-19
-1.66249e-19 -8.32997e-19 -6.95853e-20
-2.99748e-18 5.32803e-18 -1.04006e-19
6.10346e-19 -1.22081e-18 1.37906e-20
4.43594e-19 3.33031e-19 8.29307e-20
-3.88889e-19 1.55415e-18 -1.06098e-22
1.666e-19 -1.10742e-19 -1.18114e-19
4.43732e-19 -8.88085e-19 -5.55759e-20
1.08283e-18 4.43823e-19 6.79025e-21
-3.33418e-19 -3.8864e-19 -1.0437e-19
4.43906e-19 7.77241e-19 6.92509e-20
-1.25112e-19 -2.66434e-18 -6.94184e-20
2.88587e-18 1.2487e-19 1.1785e-19
-7.77105e-19 1.38846e-19 1.0393e-19
6.93637e-19 -1.10991e-18 -8.33801e-20
-6.6612e-19 -3.32939e-19 1.37309e-20
-6.66371e-19 -7.21101e-19 -1.03853e-19
7.21133e-19 8.32582e-19 -6.64821e-21
-5.62006e-20 -1.58896e-19 -3.42927e-20
-1.29214e-22 6.66562e-19 6.22483e-20
-1.11136e-19 -6.66147e-19 -4.86816e-20
1.1098e-18 -1.83158e-18 9.01657e-20
3.88929e-19 1.38742e-18 -7.05403e-21
-7.77253e-19 1.6662e-19 9.69425e-20
-7.21801e-19 1.11002e-18 -1.8045e-19
4.43725e-19 -5.55036e-19 -4.86539e-20
4.4395e-19 -1.11103e-19 -1.80464e-19
1.10733e-19 -5.34329e-19 -2.15143e-19
-1.10913e-19 1.16543e-18 -2.7844e-20
-3.88691e-19 -3.33109e-19 -1.24925e-19
1.16542e-18 -1.11176e-19 -3.48013e-20
8.30655e-20 -1.77606e-18 -6.97257e-21
-1.11053e-19 4.09319e-19 -8.33185e-20
1.74641e-22 2.45297e-19 -4.86685e-20
2.99715e-18 -7.76655e-19 -5.55612e-20
9.4339e-19 6.65957e-19 2.07739e-20
3.32832e-19 2.64439e-19 -5.53085e-20
-1.22116e-18 7.96969e-20 -8.33237e-20
-2.66412e-18 -2.22023e-18 9.01248e-20
5.54201e-20 1.27636e-18 -2.21803e-19
4.44078e-19 -3.46691e-19 6.92233e-20
-6.50769e-22 -1.3317e-18 -6.93601e-20
-6.66459e-19 1.16509e-18 6.87009e-21
1.1098e-18 1.42922e-18 -7.64185e-20
-2.22593e-19 6.6637e-19 -2.73714e-20
4.15417e-19 -1.16518e-18 -1.52916e-19
9.43514e-19 -4.43997e-19 6.80286e-21
-2.77466e-19 -1.38792e-18 -1.94213e-19
-4.44159e-19 1.24782e-19 -2.01313e-19
-2.78018e-19 1.66529e-19 -6.6336e-21
-4.43999e-19 -3.32595e-19 2.76281e-20
-3.87168e-22 2.21367e-19 -2.7986e-20
4.44328e-19 4.43803e-19 -1.41025e-22
1.11012e-18 -2.35589e-19 -8.332e-20
1.38727e-18 2.21859e-19 -4.1721e-20
-1.33228e-18 9.99153e-19 9.00336e-20
1.02312e-23 -6.65757e-19 -4.16933e-20
-2.77622e-19 1.44804e-18 -6.94474e-20
1.34528e-22 -4.37314e-19 -9.72272e-20
6.10277e-19 8.3293e-19 -2.10562e-20
6.65557e-19 -6.66007e-19 4.10373e-22
-7.49274e-19 2.22159e-19 2.63502e-19
1.55441e-18 -6.09951e-19 4.84398e-20
-5.00389e-19 6.66452e-19 -6.96942e-20
2.94143e-18 -1.99839e-18 -1.39772e-20
-1.33211e-18 -1.42638e-22 -1.11048e-19
-1.66792e-19 1.66461e-19 -2.08644e-20
-1.94279e-18 -3.33109e-19 -6.25045e-20
7.76819e-19 6.66712e-19 -4.88245e-20
-6.65951e-19 1.3984e-22 4.84268e-20
1.16532e-18 4.85416e-23 1.59487e-19
-4.51461e-22 -2.49899e-19 -9.39787e-23
1.27635e-18 8.32942e-19 2.74574e-20
5.55124e-19 -1.05492e-18 2.35881e-19
8.88166e-19 -2.08257e-19 1.37548e-20
1.38825e-19 6.6585e-19 5.53898e-20
2.21481e-19 -4.47755e-23 -4.86188e-20
-9.43864e-19 1.44301e-18 -1.04137e-19
-6.10518e-19 -4.44494e-22 6.84138e-21
3.32662e-19 7.76874e-19 -4.17365e-20
-1.13815e-18 6.65797e-19 -1.24676e-19
-4.22774e-22 3.7829e-19 -7.04366e-21
4.15347e-19 4.10307e-22 -2.80686e-20
5.55738e-19 -5.89431e-19 -2.79904e-20
-5.61704e-20 -3.32385e-19 4.88213e-20
-4.16495e-19 5.46479e-23 -1.18003e-19
-4.16125e-19 1.99783e-18 1.45604e-19
-4.44552e-19 -4.23259e-19 -4.88123e-20
4.15823e-19 3.8635e-23 -1.34813e-20
-5.57617e-22 2.04308e-19 -7.22299e-21
-8.60612e-19 1.11814e-19 2.21709e-19
-7.76504e-19 -1.41572e-19 8.31667e-20
-1.38718e-19 4.99319e-19 1.3856e-19
-5.58106e-20 -3.75286e-19 6.76427e-21
1.332e-18 -1.2485e-18 -6.99022e-21
9.98609e-19 -2.2961e-22 4.84917e-20
2.77353e-19 1.08594e-18 2.08009e-19
4.77308e-18 -5.06675e-19 -3.4784e-20
4.16189e-19 1.66074e-19 1.03811e-19
-7.84522e-23 -5.0051e-19 -1.60271e-22
-5.83106e-19 -1.65982e-19 -5.5837e-20
2.21854e-19 8.46767e-19 2.76625e-20
-8.0567e-19 6.70411e-22 5.59756e-20
4.99488e-19 -7.52502e-19 -6.25899e-20
-3.33462e-19 1.38741e-18 -1.66596e-19
-1.38618e-19 -2.38697e-18 -1.31782e-19
-1.33213e-18 -1.33225e-18 -1.39353e-20
-5.55152e-19 1.00205e-19 -1.25169e-19
-5.54716e-19 -5.55907e-20 1.73228e-19
-1.22117e-18 2.49091e-18 4.85849e-20
2.10887e-18 1.51795e-20 6.9322e-21
4.99489e-19 8.88187e-19 -1.80512e-19
-4.44273e-19 9.15842e-19 -9.10732e-23
-1.72869e-22 1.66131e-19 1.36553e-20
2.05346e-18 1.99803e-18 -6.24943e-20
1.33165e-18 1.07989e-22 -1.04275e-19
-3.71897e-18 -4.44134e-19 -9.03077e-20
9.71136e-19 -3.32972e-19 -1.04176e-19
-7.49241e-19 -1.49846e-18 9.01265e-20
-1.38752e-18 5.48319e-19 1.17825e-19
1.45694e-18 -1.66433e-18 4.14129e-20
5.82176e-19 -1.49834e-18 1.11485e-19
-2.22266e-19 -2.66429e-18 -4.86725e-20
1.38731e-18 -3.33122e-19 8.32028e-20
6.09491e-19 7.22296e-19 3.43609e-20
6.66105e-19 1.91914e-22 -1.38895e-19
-1.49855e-18 8.92464e-23 -1.39214e-20
-4.44233e-19 -1.65846e-19 1.38464e-19
-8.32983e-19 3.21912e-18 -1.38848e-19
7.7698e-19 -1.61001e-18 -6.92057e-20
-9.99157e-19 9.43617e-19 5.54793e-20
-2.58266e-22 -9.43208e-19 -5.5755e-20
6.09983e-19 6.65881e-19 -1.04403e-19
-6.66447e-19 6.66376e-19 -2.04648e-20
3.33032e-19 -3.34814e-19 5.55386e-20
9.99214e-19 1.27683e-18 1.45611e-19
2.22026e-19 -1.33122e-18 -5.56924e-20
-1.70439e-22 -7.76681e-19 -2.0891e-20
-3.33035e-18 6.62553e-23 -1.3962e-20
1.33179e-18 9.98867e-19 4.15248e-20
1.55344e-18 3.67572e-19 5.5203e-20
4.16032e-19 3.33161e-19 -1.38616e-19
1.49826e-18 1.53876e-23 -6.83051e-21
-4.44365e-19 -1.27655e-18 6.92725e-20
1.11139e-19 1.11063e-18 -9.02677e-20
-9.71078e-19 5.55059e-19 -5.55947e-20
3.33008e-19 -6.66114e-19 -1.24922e-19
1.27649e-18 1.1156e-19 2.76202e-20
-4.99689e-19 -3.32695e-19 1.94199e-19
1.66177e-19 1.72083e-18 9.70554e-20
4.44002e-19 6.65902e-19 -5.5546e-20
-9.991e-19 1.01474e-18 -7.08547e-21
1.33106e-18 1.34969e-19 2.70473e-19
-1.66611e-19 8.56617e-22 -9.04061e-20
-2.49697e-19 3.33334e-19 6.23276e-20
2.16436e-18 -1.16591e-18 -7.63844e-20
1.8935e-22 4.43636e-19 -1.39825e-20
-1.99853e-18 -2.53954e-18 -2.01289e-19
-1.33208e-18 -1.41447e-18 -7.65202e-20
1.66519e-19 6.4517e-19 -6.94619e-20
-3.33114e-19 5.5492e-20 3.45337e-20
1.10974e-18 2.44233e-18 -2.77355e-20
8.32657e-19 1.33218e-18 -4.0471e-23
-2.55359e-18 -1.11199e-19 -4.86931e-20
-2.10955e-18 3.88746e-19 -5.37563e-23
8.34434e-20 4.43803e-19 -5.56738e-20
-3.05444e-22 2.62229e-18 -9.72385e-20
1.10975e-19 -1.1112e-19 5.54242e-20
-9.99377e-19 2.21912e-19 -1.04127e-19
1.24876e-18 -1.22106e-18 -4.86614e-20
2.22274e-19 1.67234e-19 4.1486e-20
2.22015e-18 -1.44309e-18 1.04073e-19
4.7722e-18 3.32556e-19 9.71076e-20
-3.33114e-19 8.88117e-19 -9.01944e-20
1.76174e-18 -1.33266e-18 3.12174e-19
9.43663e-19 -1.10721e-19 -2.08576e-20
-2.79003e-22 -6.66447e-19 -2.46931e-22
1.6631e-19 -2.21679e-19 4.84447e-20
-2.2202e-19 -3.19032e-19 4.14091e-20
1.11003e-18 8.04726e-19 5.54278e-20
4.99311e-19 9.57747e-19 6.26616e-20
4.99432e-19 1.99795e-18 -1.87424e-19
-5.55671e-19 -1.10616e-19 -2.27715e-23
3.32847e-19 -5.39317e-19 1.37045e-20
1.10515e-19 4.16301e-20 -1.24979e-19
-2.68193e-22 1.58161e-18 -1.41187e-20
7.21785e-19 1.38743e-18 8.30819e-20
1.55383e-18 1.10918e-19 -6.94195e-20
7.76757e-19 4.44077e-19 5.5479e-20
8.87556e-19 -7.15421e-19 4.14691e-20
1.66483e-19 -3.60644e-19 -2.79421e-20
5.55059e-19 -1.44309e-18 9.01821e-20
1.11003e-18 3.33012e-19 4.83586e-20
-3.88405e-19 1.11008e-18 4.15902e-20
1.66463e-19 7.36594e-22 4.84441e-20
-8.88195e-19 -2.75115e-18 -5.56078e-20
8.32611e-19 -9.98972e-19 -2.08621e-20
4.43853e-19 7.11197e-19 -7.06823e-21
-3.44158e-18 -1.509e-18 -1.66567e-19
1.11164e-19 -1.55382e-18 1.17905e-19
-1.38855e-19 -4.43834e-19 6.24598e-20
-6.66426e-19 -1.62445e-22 -4.89145e-20
-2.77261e-19 -1.44293e-18 6.23304e-20
-2.60881e-18 -1.44326e-18 -1.87396e-19
1.10963e-18 1.11163e-19 1.03935e-19
-8.32403e-19 -6.90268e-19 -2.77883e-20
4.99418e-19 -1.16528e-18 1.39558e-20
1.66363e-19 4.44095e-19 -2.79209e-20
-2.21934e-19 2.88568e-18 -2.84338e-19
1.44305e-18 -1.44318e-18 -2.08982e-20
-3.33227e-19 7.77078e-19 -3.47915e-20
-6.66128e-19 -4.4393e-19 6.86991e-21
1.44251e-18 -1.11024e-18 -2.08215e-19
-8.88289e-19 -9.99093e-19 2.42761e-19
-1.55431e-18 -2.55313e-18 -2.08804e-20
2.30326e-18 5.55136e-19 7.62501e-20
6.65909e-19 1.69276e-18 1.73374e-19
-1.99819e-18 1.66512e-18 1.52566e-19
6.6595e-19 -1.11014e-18 2.07393e-20
-4.78922e-19 3.33074e-19 4.15545e-20
1.16545e-18 1.4984e-18 -9.73601e-20
-7.22384e-19 1.33167e-18 5.52039e-20
1.11028e-18 1.66443e-19 -1.3899e-19
2.21836e-19 3.33082e-19 -5.56628e-20
-6.66288e-19 -1.10856e-19 -6.94453e-20
-1.6656e-18 -1.22087e-18 -4.86102e-20
-2.24852e-18 -7.77238e-19 8.31853e-20
1.16505e-18 -5.54933e-19 -1.66693e-19
1.16557e-18 -3.32929e-19 -1.24928e-19
-2.44169e-18 1.80445e-19 -1.5264e-19
1.3877e-18 -5.52913e-20 3.12218e-19
-3.60328e-22 4.71563e-19 1.45321e-19
-2.22037e-18 -4.84238e-20 7.61706e-20
1.27377e-21 1.39437e-19 1.73251e-19
8.87974e-19 1.11064e-19 3.4528e-20
-1.99826e-18 -1.58377e-18 -1.24949e-19
6.65919e-19 1.29725e-18 -1.04154e-19
5.55431e-19 1.67112e-22 6.23553e-20
-5.55557e-20 -2.02295e-23 -1.10992e-19
2.99717e-18 8.88077e-19 -2.15104e-19
-8.33818e-24 -3.45182e-20 -1.24917e-19
4.99468e-19 -5.54777e-19 1.77511e-23
2.10893e-18 2.88594e-18 -8.9913e-23
3.32692e-19 -1.22104e-18 -1.38861e-19
-1.16609e-18 1.41783e-22 -2.10288e-20
-5.56932e-20 -1.33227e-18 -1.39622e-20
-4.99662e-19 1.62759e-22 1.04006e-19
-2.99748e-18 -2.09541e-18 -2.42888e-19
1.9369e-22 -2.98395e-19 6.89177e-21
5.52501e-20 7.77181e-19 5.55204e-20
-2.55315e-18 6.55693e-19 -1.52698e-19
3.95901e-23 9.99159e-19 -1.39685e-20
-6.10493e-19 -5.52101e-20 -2.17545e-23
-2.33106e-18 -3.33133e-19 6.24348e-20
-7.21361e-19 1.44309e-18 2.08239e-20
-5.29535e-23 -7.77056e-19 -9.03896e-20
6.66002e-19 -3.33102e-19 -6.94345e-20
1.55413e-18 -4.43911e-19 7.62004e-20
-9.43361e-19 -1.05452e-18 1.03978e-19
9.98905e-19 -3.7742e-18 7.61773e-20
-1.38958e-19 1.10975e-18 -2.09655e-20
2.21914e-19 -1.81335e-19 -1.0413e-19
-2.33182e-18 7.76869e-19 1.45587e-19
-2.4422e-18 -1.01292e-18 -7.87446e-23
-1.05487e-18 1.44262e-18 1.17806e-19
1.55433e-18 3.12357e-19 1.80334e-19
-2.77663e-19 5.55125e-19 9.01123e-20
-2.44245e-18 1.77589e-18 -1.39819e-20
-5.82592e-19 1.8879e-18 -8.31533e-20
3.05143e-19 1.22102e-18 9.70612e-20
-1.11048e-19 3.33056e-19 2.76586e-20
2.21878e-19 -3.33234e-19 5.54453e-20
-4.44049e-19 -4.43947e-19 1.73367e-19
-1.88788e-18 1.99796e-18 -6.26775e-20
1.98322e-22 -1.247e-19 1.39744e-20
3.32446e-19 -7.63363e-19 -1.66588e-19
4.44043e-19 1.0386e-19 -2.08607e-20
4.21827e-18 -3.19156e-19 -5.5538e-20
6.10405e-19 -1.88737e-18 -1.59639e-19
5.67181e-22 -2.21281e-19 7.10961e-21
-1.2771e-18 -6.66188e-19 -6.96238e-20
4.43766e-19 5.55376e-19 -5.57746e-20
-1.33232e-18 4.44385e-19 -6.25599e-20
-1.7761e-18 2.7788e-19 -4.17394e-20
1.22083e-18 1.4431e-18 4.15532e-20
2.66403e-18 -8.32828e-19 9.01674e-20
-1.33203e-18 1.66064e-19 1.36625e-20
-7.77221e-19 -7.77228e-19 8.31867e-20
-8.87971e-19 -7.77123e-19 7.62668e-20
-3.33257e-19 9.98918e-19 -6.2536e-20
-1.55416e-18 1.11121e-19 -1.80473e-19
5.54477e-19 1.72046e-18 -7.66768e-20
1.44334e-18 3.53988e-19 -4.86124e-20
2.33092e-18 8.6747e-19 -1.3872e-19
1.6658e-19 2.22194e-19 -4.86446e-20
3.32854e-19 -8.32353e-19 6.25254e-20
-5.60023e-20 3.88726e-19 -1.31814e-19
-1.44319e-18 -2.22029e-18 -4.85859e-20
1.27622e-18 8.87773e-19 6.89683e-21
-2.27064e-18 2.55307e-18 1.73383e-19
-2.10921e-18 2.51837e-18 -2.77601e-19
1.22117e-18 2.77542e-18 9.01574e-20
-2.54152e-22 -3.32902e-19 5.52635e-20
8.28294e-20 1.11125e-19 3.98271e-23
-1.77581e-18 1.57091e-22 -2.7809e-20
1.16577e-18 7.77117e-19 -6.77052e-23
-2.22063e-18 3.88602e-19 2.05889e-20
-4.99281e-19 1.27685e-18 1.4566e-19
2.21774e-19 1.99802e-18 6.88133e-21
-6.66172e-19 1.23565e-18 1.24736e-19
-9.43727e-19 -5.54996e-19 8.30657e-20
1.11226e-19 1.66567e-19 7.62491e-20
-4.16317e-19 -4.99661e-19 -1.39666e-20
-1.99829e-18 -4.71852e-19 1.31739e-19
-4.9948e-19 -1.44281e-18 8.31862e-20
1.88678e-18 8.04811e-19 -1.59389e-19
-1.66512e-18 -1.88721e-18 9.02813e-20
2.94158e-18 3.77476e-18 -9.04931e-20
-2.33142e-18 5.52316e-18 -1.45601e-19
-4.30688e-19 -3.43993e-22 -9.05618e-20
-5.56083e-20 3.33056e-19 2.7788e-20
5.8258e-19 5.96202e-24 -7.14595e-21
1.33187e-18 -3.92291e-23 -7.0017e-21
-1.10682e-19 -2.60819e-18 -7.6444e-20
6.65877e-19 6.66569e-19 -1.11324e-19
1.38731e-18 -5.1065e-18 -1.94126e-19
-2.88625e-18 -4.10737e-18 1.10928e-19
1.44239e-18 -9.98553e-19 -1.17903e-19
-1.55402e-18 -9.981e-19 -8.3512e-20
9.43366e-19 -2.05384e-18 -4.86677e-20
1.5543e-18 -5.54381e-19 -9.72863e-20
2.78059e-19 -4.9963e-19 1.37561e-20
-1.11214e-19 5.58857e-20 3.44185e-20
4.78568e-19 7.6378e-22 -4.18534e-20
-1.11087e-19 -1.33151e-18 -3.48304e-20
8.32421e-19 -5.55041e-19 -1.251e-19
2.66408e-18 -1.72057e-18 6.86001e-21
-3.80193e-18 -5.57594e-20 -8.33288e-20
-1.4436e-18 -1.08289e-18 9.70658e-20
-8.88473e-19 1.72037e-18 3.46343e-20
-2.50042e-19 3.32984e-19 3.45939e-20
-2.66478e-18 -1.88744e-18 1.59417e-19
2.83046e-18 4.43975e-19 -3.47583e-20
-7.76103e-19 -1.16524e-18 -3.48932e-20
-7.21507e-19 -2.99038e-22 -1.25108e-19
-9.99378e-19 -2.44215e-18 7.62046e-20
1.08189e-18 -1.88686e-18 -1.3612e-20
-6.66178e-19 -8.57045e-24 7.61183e-20
-1.14451e-18 8.88714e-19 -9.03724e-20
6.66204e-19 -3.55254e-18 -1.24964e-19
-3.10849e-18 2.33074e-18 -1.8733e-19
9.43941e-19 2.22092e-19 1.10919e-19
-4.44205e-19 -1.10442e-19 -1.18107e-19
1.10915e-18 1.22067e-18 8.30227e-20
3.38523e-22 1.77616e-18 -3.46835e-20
-2.22045e-18 -9.99102e-19 -6.94833e-20
1.22126e-18 -2.98639e-19 -1.4112e-20
7.2144e-19 1.99822e-18 1.66436e-19
3.32896e-19 -3.94079e-18 -1.3883e-19
8.87916e-19 3.6087e-19 1.73374e-19
-2.97929e-22 1.66041e-19 -8.33442e-20
4.99434e-19 2.2197e-19 9.01169e-20
1.77601e-18 -4.2183e-18 8.31787e-20
1.77594e-18 8.16979e-19 -4.85117e-20
-3.21929e-18 2.22101e-19 -5.55748e-20
1.33195e-18 -4.71421e-19 5.52891e-20
4.16024e-19 -4.44457e-19 -1.59599e-19
-3.33077e-19 1.55402e-18 -1.319e-19
-1.66474e-18 1.12054e-18 2.76768e-20
1.10718e-19 -1.44308e-18 -3.47757e-20
1.77591e-18 -3.32978e-19 4.15639e-20
1.55387e-18 -2.38676e-18 2.76881e-20
7.76964e-19 -5.55107e-19 3.46194e-20
-2.55327e-18 3.33068e-19 -1.39524e-20
1.60976e-18 8.683e-22 -4.87295e-20
-1.1113e-19 -3.33001e-19 -2.08925e-20
3.32769e-19 1.22103e-18 4.15633e-20
-2.71973e-18 -1.44307e-18 -7.00973e-21
6.66005e-19 2.66374e-18 -9.72044e-20
-4.44088e-19 -1.6366e-18 2.06216e-20
-3.33136e-19 2.10904e-18 2.76626e-20
3.32982e-19 3.32585e-19 2.76654e-20
-5.55074e-19 1.27655e-18 1.3799e-20
1.3321e-18 -2.6647e-18 -4.86403e-20
-9.11851e-23 1.69272e-18 6.90698e-21
8.87856e-19 5.55077e-19 9.01237e-20
3.88472e-19 -2.77512e-18 -3.47687e-20
4.43936e-19 1.99806e-18 -8.333e-20
-9.99141e-19 -9.98883e-19 -7.02153e-21
-6.66034e-19 3.22571e-18 -1.59639e-19
-3.47488e-19 3.88515e-18 1.10971e-19
-2.21989e-18 8.05299e-19 -1.32113e-19
2.82984e-18 6.65208e-19 3.32866e-19
1.05442e-18 8.88573e-19 -1.58983e-22
-1.33205e-18 3.9967e-18 4.82622e-20
2.10915e-18 5.99413e-18 -2.56552e-19
-1.44965e-21 1.08182e-18 -6.91773e-21
5.5528e-19 4.78478e-22 2.05758e-20
2.1091e-18 1.33212e-18 -5.55794e-20
2.21883e-18 1.35988e-18 2.56706e-19
3.33082e-19 1.72028e-18 9.71641e-20
1.1659e-18 -2.56289e-22 7.09257e-23
-7.4949e-19 -3.33035e-19 2.07923e-19
-1.33215e-18 1.83218e-18 2.05335e-20
-3.33565e-23 -1.77651e-18 -2.49612e-19
-2.6651e-18 6.65853e-19 4.8226e-20
1.44302e-18 2.33113e-18 -7.63993e-20
1.55393e-18 -7.21475e-19 7.05873e-21
-5.55109e-19 -9.9916e-19 1.03987e-19
4.44024e-18 1.88709e-18 -7.99826e-23
1.99808e-18 1.10918e-19 -6.25262e-20
7.7735e-19 4.99573e-18 6.22066e-20
2.28713e-19 4.14625e-22 -6.97347e-20
1.44239e-18 -2.33159e-18 2.56451e-19
-1.05513e-18 -4.99096e-19 4.86246e-20
8.8811e-19 2.66381e-18 -1.66284e-19
8.88077e-19 6.21654e-18 6.2654e-20
2.22015e-19 1.94356e-19 5.56932e-20
-9.43427e-19 -1.3316e-18 1.65557e-22
2.22149e-19 2.66405e-18 -2.76519e-20
-9.43495e-19 -9.99331e-19 -2.08309e-20
-1.3324e-18 -6.66919e-19 1.37389e-20
3.32267e-19 2.66417e-18 -6.95521e-20
7.1037e-18 8.8805e-19 1.246e-19
-5.32912e-18 2.33112e-18 7.60493e-20
-1.33287e-18 -1.11008e-18 8.29461e-20
SCALARS necrosis float
LOOKUP_TABLE default
1
1
1
1
1
1
1
1
1
1
1
1
1
1
1
1
1
1
1
1
1
1
1
1
1
1
1
1
1
1
1
1
1
1
1
1
1
1
1
1
1
1
1
1
1
1
1
1
1
1
1
1
1
1
1
1
1
1
1
1
1
1
1
1
1
1
1
1
1
1
1
1
1
1
1
1
1
1
1
1
1
1
1
1
1
1
1
1
1
1
1
1
1
1
1
1
1
1
1
1
1
1
1
1
1
1
1
1
1
1
1
1
1
1
1
1
1
1
1
1
1
1
1
1
1
1
1
1
1
1
1
1
1
1
1
1
1
1
1
1
1
1
1
1
1
1
1
1
1
1
1
1
1
1
1
1
1
1
1
1
1
1
1
1
1
1
1
1
1
1
1
1
1
1
1
1
1
1
1
1
1
1
1
1
1
1
1
1
1
1
1
1
1
1
1
1
1
1
1
1
1
1
1
1
1
1
1
1
1
1
1
1
1
1
1
1
1
1
1
1
1
1
1
1
1
1
1
1
1
1
1
1
1
1
1
1
1
1
1
1
1
1
1
1
1
1
1
1
1
1
1
1
1
1
1
1
1
1
1
1
1
1
1
1
1
1
1
1
1
1
1
1
1
1
1
1
1
1
1
1
1
1
1
1
1
1
1
1
1
1
1
1
1
1
1
1
1
1
1
1
1
1
1
1
1
1
1
1
1
1
1
1
1
1
1
1
1
1
1
1
1
1
1
1
1
1
1
1
1
1
1
1
1
1
1
1
1
1
1
1
1
1
1
1
1
1
1
1
1
1
1
1
1
1
1
1
1
1
1
1
1
1
1
1
1
1
1
1
1
1
1
1
1
1
1
1
1
1
1
1
1
1
1
1
1
1
1
1
1
1
1
1
1
1
1
1
1
1
1
1
1
1
1
1
1
1
1
1
1
1
1
1
1
1
1
1
1
1
1
1
1
1
1
1
1
1
1
1
1
1
1
1
1
1
1
1
1
1
1
1
1
1
1
1
1
1
1
1
1
1
1
1
1
1
1
1
1
1
1
1
1
1
1
1
1
1
1
1
1
1
1
1
1
1
1
1
1
1
1
1
1
1
1
1
1
1
1
1
1
1
1
1
1
1
1
1
1
1
1
1
1
1
1
1
1
1
1
1
1
1
1
1
1
1
1
1
1
1
1
1
1
1
1
1
1
1
1
1
1
1
1
1
1
1
1
1
1
1
1
1
1
1
1
1
1
1
1
1
1
1
1
1
1
1
1
1
1
1
1
1
1
1
1
SCALARS ATP float
LOOKUP_TABLE default
0.1
0.1
0.1
0.1
0.1
0.1
0.1
0.1
0.1
0.1
0.1
0.1
0.1
0.1
0.1
0.1
0.1
0.1
0.1
0.1
0.1
0.1
0.1
0.1
0.1
0.1
0.1
0.1
0.1
0.1
0.1
0.1
0.1
0.1
0.1
0.1
0.1
0.1
0.1
0.1
0.1
0.1
0.1
0.1
0.1
0.1
0.1
0.1
0.1
0.1
0.1
0.1
0.1
0.1
0.1
0.1
0.1
0.1
0.1
0.1
0.1
0.1
0.1
0.1
0.1
0.1
0.1
0.1
0.1
0.1
0.1
0.1
0.1
0.1
0.1
0.1
0.1
0.1
0.1
0.1
0.1
0.1
0.1
0.1
0.1
0.1
0.1
0.1
0.1
0.1
0.1
0.1
0.1
0.1
0.1
0.1
0.1
0.1
0.1
0.1
0.1
0.1
0.1
0.1
0.1
0.1
0.1
0.1
0.1
0.1
0.1
0.1
0.1
0.1
0.1
0.1
0.1
0.1
0.1
0.1
0.1
0.1
0.1
0.1
0.1
0.1
0.1
0.1
0.1
0.1
0.1
0.1
0.1
0.1
0.1
0.1
0.1
0.1
0.1
0.1
0.1
0.1
0.1
0.1
0.1
0.1
0.1
0.1
0.1
0.1
0.1
0.1
0.1
0.1
0.1
0.1
0.1
0.1
0.1
0.1
0.1
0.1
0.1
0.1
0.1
0.1
0.1
0.1
0.1
0.1
0.1
0.1
0.1
0.1
0.1
0.1
0.1
0.1
0.1
0.1
0.1
0.1
0.1
0.1
0.1
0.1
0.1
0.1
0.1
0.1
0.1
0.1
0.1
0.1
0.1
0.1
0.1
0.1
0.1
0.1
0.1
0.1
0.1
0.1
0.1
0.1
0.1
0.1
0.1
0.1
0.1
0.1
0.1
0.1
0.1
0.1
0.1
0.1
0.1
0.1
0.1
0.1
0.1
0.1
0.1
0.1
0.1
0.1
0.1
0.1
0.1
0.1
0.1
0.1
0.1
0.1
0.1
0.1
0.1
0.1
0.1
0.1
0.1
0.1
0.1
0.1
0.1
0.1
0.1
0.1
0.1
0.1
0.1
0.1
0.1
0.1
0.1
0.1
0.1
0.1
0.1
0.1
0.1
0.1
0.1
0.1
0.1
0.1
0.1
0.1
0.1
0.1
0.1
0.1
0.1
0.1
0.1
0.1
0.1
0.1
0.1
0.1
0.1
0.1
0.1
0.1
0.1
0.1
0.1
0.1
0.1
0.1
0.1
0.1
0.1
0.1
0.1
0.1
0.1
0.1
0.1
0.1
0.1
0.1
0.1
0.1
0.1
0.1
0.1
0.1
0.1
0.1
0.1
0.1
0.1
0.1
0.1
0.1
0.1
0.1
0.1
0.1
0.1
0.1
0.1
0.1
0.1
0.1
0.1
0.1
0.1
0.1
0.1
0.1
0.1
0.1
0.1
0.1
0.1
0.1
0.1
0.1
0.1
0.1
0.1
0.1
0.1
0.1
0.1
0.1
0.1
0.1
0.1
0.1
0.1
0.1
0.1
0.1
0.1
0.1
0.1
0.1
0.1
0.1
0.1
0.1
0.1
0.1
0.1
0.1
0.1
0.1
0.1
0.1
0.1
0.1
0.1
0.1
0.1
0.1
0.1
0.1
0.1
0.1
0.1
0.1
0.1
0.1
0.1
0.1
0.1
0.1
0.1
0.1
0.1
0.1
0.1
0.1
0.1
0.1
0.1
0.1
0.1
0.1
0.1
0.1
0.1
0.1
0.1
0.1
0.1
0.1
0.1
0.1
0.1
0.1
0.1
0.1
0.1
0.1
0.1
0.1
0.1
0.1
0.1
0.1
0.1
0.1
0.1
0.1
0.1
0.1
0.1
0.1
0.1
0.1
0.1
0.1
0.1
0.1
0.1
0.1
0.1
0.1
0.1
0.1
0.1
0.1
0.1
0.1
0.1
0.1
0.1
0.1
0.1
0.1
0.1
0.1
0.1
0.1
0.1
0.1
0.1
0.1
0.1
0.1
0.1
0.1
0.1
0.1
0.1
0.1
0.1
0.1
0.1
0.1
0.1
0.1
0.1
0.1
0.1
0.1
0.1
0.1
0.1
0.1
0.1
0.1
0.1
0.1
0.1
0.1
0.1
0.1
0.1
0.1
0.1
0.1
0.1
0.1
0.1
0.1
0.1
0.1
0.1
0.1
0.1
0.1
0.1
0.1
0.1
0.1
0.1
0.1
0.1
0.1
0.1
0.1
0.1
0.1
0.1
0.1
0.1
0.1
0.1
0.1
0.1
0.1
0.1
0.1
0.1
0.1
0.1
0.1
0.1
0.1
0.1
0.1
0.1
0.1
0.1
0.1
0.1
0.1
0.1
0.1
0.1
0.1
0.1
0.1
0.1
0.1
0.1
0.1
0.1
0.1
0.1
0.1
0.1
0.1
0.1
0.1
0.1
SCALARS GLC float
LOOKUP_TABLE default
-0
0
-0
0
-0
-0
-0
0
-0
-0
0
-0
-0
0
0
0
-0
0
-0
0
0
0
0
-0
-0
0
0
0
0
0
-0
0
-0
0
0
-0
0
-0
0
0
-0
0
-0
0
-0
-0
-0
0
0
0
0
0
-0
-0
0
0
-0
-0
0
0
0
0
-0
0
-0
0
0
0
-0
0
-0
-0
-0
0
0
0
-0
-0
0
0
-0
0
-0
0
-0
0
0
-0
0
-0
-0
-0
0
-0
0
-0
0
-0
0
-0
0
-0
0
-0
0
0
-0
0
0
-0
0
0
-0
0
0
0
-0
-0
-0
0
0
0
0
0
0
0
-0
0
0
-0
0
-0
-0
-0
0
0
-0
-0
-0
0
0
0
-0
0
0
0
-0
-0
0
0
0
0
0
-0
-0
0
-0
0
0
-0
-0
0
0
0
-0
-0
-0
0
-0
0
0
0
0
-0
-0
0
-0
0
0
-0
-0
0
0
-0
-0
-0
-0
-0
0
-0
0
-0
-0
0
0
0
0
-0
-0
-0
-0
0
0
-0
-0
-0
0
-0
-0
0
-0
-0
0
-0
-0
0
-0
0
-0
-0
-0
-0
0
0
-0
0
-0
0
0
-0
0
0
-0
-0
0
0
-0
-0
0
-0
-0
-0
0
-0
-0
0
-0
-0
-0
0
0
0
0
-0
0
-0
-0
0
-0
0
-0
0
-0
-0
-0
0
0
-0
-0
-0
-0
-0
-0
-0
-0
0
0
-0
0
-0
-0
0
-0
-0
-0
-0
-0
0
0
0
0
-0
0
0
0
0
0
-0
-0
0
-0
-0
0
-0
0
0
-0
-0
-0
-0
0
0
0
-0
-0
-0
-0
0
0
-0
-0
-0
0
-0
-0
-0
-0
0
0
0
-0
0
-0
0
0
-0
0
-0
0
-0
-0
0
0
0
-0
0
-0
-0
-0
-0
-0
0
0
0
-0
-0
0
-0
0
-0
0
0
0
0
0
0
0
-0
-0
0
-0
0
-0
0
0
0
0
0
-0
0
0
-0
-0
0
0
0
-0
-0
0
0
-0
-0
0
-0
0
0
-0
0
0
-0
-0
0
-0
0
0
0
0
0
-0
-0
0
0
-0
-0
0
-0
0
0
-0
-0
-0
-0
-0
-0
-0
-0
0
-0
-0
0
0
-0
0
-0
-0
-0
-0
-0
0
-0
0
0
0
0
0
0
-0
-0
0
-0
-0
0
0
-0
0
0
0
-0
-0
-0
0
0
-0
-0
0
0
-0
0
0
0
-0
0
-0
0
0
0
0
0
0
-0
-0
0
-0
-0
-0
0
-0
0
0
0
-0
0
-0
-0
-0
-0
-0
-0
0
-0
0
-0
-0
0
0
0
0
0
-0
-0
-0
0
0
0
0
-0
-0
0
-0
0
-0
0
0
-0
0
0
-0
-0
-0
-0
-0
-0
0
0
0
0
-0
-0
-0
-0
-0
0
0
0
-0
0
0
-0
-0
-0
0
0
0
-0
-0
0
-0
-0
0
-0
0
0
-0
SCALARS LAC float
LOOKUP_TABLE default
4.12145
4.12145
4.12145
4.12145
4.12145
4.12145
4.12145
4.12145
4.12145
4.12145
4.12145
4.12145
4.12145
4.12145
4.12145
4.12145
4.12145
4.12145
4.12145
4.12145
4.12145
4.12145
4.12145
4.12145
4.12145
4.12145
4.12145
4.12145
4.12145
4.12145
4.12145
4.12145
4.12145
4.12145
4.12145
4.12145
4.12145
4.12145
4.12145
4.12145
4.12145
4.12145
4.12145
4.12145
4.12145
4.12145
4.12145
4.12145
4.12145
4.12145
4.12145
4.12145
4.12145
4.12145
4.12145
4.12145
4.12145
4.12145
4.12145
4.12145
4.12145
4.12145
4.12145
4.12145
4.12145
4.12145
4.12145
4.12145
4.12145
4.12145
4.12145
4.12145
4.12145
4.12145
4.12145
4.12145
4.12145
4.12145
4.12145
4.12145
4.12145
4.12145
4.12145
4.12145
4.12145
4.12145
4.12145
4.12145
4.12145
4.12145
4.12145
4.12145
4.12145
4.12145
4.12145
4.12145
4.12145
4.12145
4.12145
4.12145
4.12145
4.12145
4.12145
4.12145
4.12145
4.12145
4.12145
4.12145
4.12145
4.12145
4.12145
4.12145
4.12145
4.12145
4.12145
4.12145
4.12145
4.12145
4.12145
4.12145
4.12145
4.12145
4.12145
4.12145
4.12145
4.12145
4.12145
4.12145
4.12145
4.12145
4.12145
4.12145
4.12145
4.12145
4.12145
4.12145
4.12145
4.12145
4.12145
4.12145
4.12145
4.12145
4.12145
4.12145
4.12145
4.12145
4.12145
4.12145
4.12145
4.12145
4.12145
4.12145
4.12145
4.12145
4.12145
4.12145
4.12145
4.12145
4.12145
4.12145
4.12145
4.12145
4.12145
4.12145
4.12145
4.12145
4.12145
4.12145
4.12145
4.12145
4.12145
4.12145
4.12145
4.12145
4.12145
4.12145
4.12145
4.12145
4.12145
4.12145
4.12145
4.12145
4.12145
4.12145
4.12145
4.12145
4.12145
4.12145
4.12145
4.12145
4.12145
4.12145
4.12145
4.12145
4.12145
4.12145
4.12145
4.12145
4.12145
4.12145
4.12145
4.12145
4.12145
4.12145
4.12145
4.12145
4.12145
4.12145
4.12145
4.12145
4.12145
4.12145
4.12145
4.12145
4.12145
4.12145
4.12145
4.12145
4.12145
4.12145
4.12145
4.12145
4.12145
4.12145
4.12145
4.12145
4.12145
4.12145
4.12145
4.12145
4.12145
4.12145
4.12145
4.12145
4.12145
4.12145
4.12145
4.12145
4.12145
4.12145
4.12145
4.12145
4.12145
4.12145
4.12145
4.12145
4.12145
4.12145
4.12145
4.12145
4.12145
4.12145
4.12145
4.12145
4.12145
4.12145
4.12145
4.12145
4.12145
4.12145
4.12145
4.12145
4.12145
4.12145
4.12145
4.12145
4.12145
4.12145
4.12145
4.12145
4.12145
4.12145
4.12145
4.12145
4.12145
4.12145
4.12145
4.12145
4.12145
4.12145
4.12145
4.12145
4.12145
4.12145
4.12145
4.12145
4.12145
4.12145
4.12145
4.12145
4.12145
4.12145
4.12145
4.12145
4.12145
4.12145
4.12145
4.12145
4.12145
4.12145
4.12145
4.12145
4.12145
4.12145
4.12145
4.12145
4.12145
4.12145
4.12145
4.12145
4.12145
4.12145
4.12145
4.12145
4.12145
4.12145
4.12145
4.12145
4.12145
4.12145
4.12145
4.12145
4.12145
4.12145
4.12145
4.12145
4.12145
4.12145
4.12145
4.12145
4.12145
4.12145
4.12145
4.12145
4.12145
4.12145
4.12145
4.12145
4.12145
4.12145
4.12145
4.12145
4.12145
4.12145
4.12145
4.12145
4.12145
4.12145
4.12145
4.12145
4.12145
4.12145
4.12145
4.12145
4.12145
4.12145
4.12145
4.12145
4.12145
4.12145
4.12145
4.12145
4.12145
4.12145
4.12145
4.12145
4.12145
4.12145
4.12145
4.12145
4.12145
4.12145
4.12145
4.12145
4.12145
4.12145
4.12145
4.12145
4.12145
4.12145
4.12145
4.12145
4.12145
4.12145
4.12145
4.12145
4.12145
4.12145
4.12145
4.12145
4.12145
4.12145
4.12145
4.12145
4.12145
4.12145
4.12145
4.12145
4.12145
4.12145
4.12145
4.12145
4.12145
4.12145
4.12145
4.12145
4.12145
4.12145
4.12145
4.12145
4.12145
4.12145
4.12145
4.12145
4.12145
4.12145
4.12145
4.12145
4.12145
4.12145
4.12145
4.12145
4.12145
4.12145
4.12145
4.12145
4.12145
4.12145
4.12145
4.12145
4.12145
4.12145
4.12145
4.12145
4.12145
4.12145
4.12145
4.12145
4.12145
4.12145
4.12145
4.12145
4.12145
4.12145
4.12145
4.12145
4.12145
4.12145
4.12145
4.12145
4.12145
4.12145
4.12145
4.12145
4.12145
4.12145
4.12145
4.12145
4.12145
4.12145
4.12145
4.12145
4.12145
4.12145
4.12145
4.12145
4.12145
4.12145
4.12145
4.12145
4.12145
4.12145
4.12145
4.12145
4.12145
4.12145
4.12145
4.12145
4.12145
4.12145
4.12145
4.12145
4.12145
4.12145
4.12145
4.12145
4.12145
4.12145
4.12145
4.12145
4.12145
4.12145
4.12145
4.12145
4.12145
4.12145
4.12145
4.12145
4.12145
4.12145
4.12145
4.12145
4.12145
4.12145
4.12145
4.12145
4.12145
4.12145
4.12145
4.12145
4.12145
4.12145
4.12145
4.12145
4.12145
4.12145
4.12145
4.12145
4.12145
4.12145
4.12145
4.12145
4.12145
4.12145
4.12145
4.12145
4.12145
4.12145
4.12145
4.12145
4.12145
4.12145
4.12145
4.12145
4.12145
4.12145
4.12145
4.12145
4.12145
4.12145
4.12145
4.12145
4.12145
4.12145
4.12145
4.12145
4.12145
4.12145
4.12145
4.12145
4.12145
4.12145
4.12145
4.12145
4.12145
4.12145
4.12145
4.12145
4.12145
4.12145
4.12145
4.12145
4.12145
SCALARS O2 float
LOOKUP_TABLE default
9.81618e-25
9.81618e-25
9.81618e-25
9.81618e-25
9.81618e-25
9.81618e-25
9.81618e-25
9.81618e-25
9.81618e-25
9.81618e-25
9.81618e-25
9.81618e-25
9.81618e-25
9.81618e-25
9.81618e-25
9.81618e-25
9.81618e-25
9.81618e-25
9.81618e-25
9.81618e-25
9.81618e-25
9.81618e-25
9.81618e-25
9.81618e-25
9.81618e-25
9.81618e-25
9.81618e-25
9.81618e-25
9.81618e-25
9.81618e-25
9.81618e-25
9.81618e-25
9.81618e-25
9.81618e-25
9.81618e-25
9.81618e-25
9.81618e-25
9.81618e-25
9.81618e-25
9.81618e-25
9.81618e-25
9.81618e-25
9.81618e-25
9.81618e-25
9.81618e-25
9.81618e-25
9.81618e-25
9.81618e-25
9.81618e-25
9.81618e-25
9.81618e-25
9.81618e-25
9.81618e-25
9.81618e-25
9.81618e-25
9.81618e-25
9.81618e-25
9.81618e-25
9.81618e-25
9.81618e-25
9.81618e-25
9.81618e-25
9.81618e-25
9.81618e-25
9.81618e-25
9.81618e-25
9.81618e-25
9.81618e-25
9.81618e-25
9.81618e-25
9.81618e-25
9.81618e-25
9.81618e-25
9.81618e-25
9.81618e-25
9.81618e-25
9.81618e-25
9.81618e-25
9.81618e-25
9.81618e-25
9.81618e-25
9.81618e-25
9.81618e-25
9.81618e-25
9.81618e-25
9.81618e-25
9.81618e-25
9.81618e-25
9.81618e-25
9.81618e-25
9.81618e-25
9.81618e-25
9.81618e-25
9.81618e-25
9.81618e-25
9.81618e-25
9.81618e-25
9.81618e-25
9.81618e-25
9.81618e-25
9.81618e-25
9.81618e-25
9.81618e-25
9.81618e-25
9.81618e-25
9.81618e-25
9.81618e-25
9.81618e-25
9.81618e-25
9.81618e-25
9.81618e-25
9.81618e-25
9.81618e-25
9.81618e-25
9.81618e-25
9.81618e-25
9.81618e-25
9.81618e-25
9.81618e-25
9.81618e-25
9.81618e-25
9.81618e-25
9.81618e-25
9.81619e-25
9.81618e-25
9.81618e-25
9.81618e-25
9.81618e-25
9.81618e-25
9.81618e-25
9.81618e-25
9.81618e-25
9.81618e-25
9.81618e-25
9.81618e-25
9.81618e-25
9.81618e-25
9.81618e-25
9.81618e-25
9.81618e-25
9.81618e-25
9.81618e-25
9.81618e-25
9.81618e-25
9.81618e-25
9.81618e-25
9.81618e-25
9.81618e-25
9.81618e-25
9.81618e-25
9.81618e-25
9.81618e-25
9.81618e-25
9.81618e-25
9.81618e-25
9.81618e-25
9.81618e-25
9.81618e-25
9.81618e-25
9.81618e-25
9.81618e-25
9.81618e-25
9.81618e-25
9.81618e-25
9.81618e-25
9.81618e-25
9.81618e-25
9.81618e-25
9.81618e-25
9.81618e-25
9.81618e-25
9.81618e-25
9.81618e-25
9.81618e-25
9.81618e-25
9.81618e-25
9.81618e-25
9.81618e-25
9.81618e-25
9.81618e-25
9.81618e-25
9.81618e-25
9.81618e-25
9.81618e-25
9.81618e-25
9.81618e-25
9.81618e-25
9.81618e-25
9.81618e-25
9.81618e-25
9.81618e-25
9.81618e-25
9.81618e-25
9.81618e-25
9.81618e-25
9.81618e-25
9.81618e-25
9.81618e-25
9.81618e-25
9.81618e-25
9.81618e-25
9.81619e-25
9.81618e-25
9.81618e-25
9.81618e-25
9.81618e-25
9.81618e-25
9.81618e-25
9.81618e-25
9.81618e-25
9.81618e-25
9.81618e-25
9.81618e-25
9.81618e-25
9.81618e-25
9.81618e-25
9.81618e-25
9.81618e-25
9.81618e-25
9.81618e-25
9.81618e-25
9.81618e-25
9.81618e-25
9.81618e-25
9.81618e-25
9.81618e-25
9.81618e-25
9.81618e-25
9.81618e-25
9.81618e-25
9.81618e-25
9.81618e-25
9.81618e-25
9.81618e-25
9.81618e-25
9.81618e-25
9.81618e-25
9.81618e-25
9.81618e-25
9.81618e-25
9.81618e-25
9.81618e-25
9.81618e-25
9.81618e-25
9.81619e-25
9.81618e-25
9.81618e-25
9.81618e-25
9.81618e-25
9.81618e-25
9.81618e-25
9.81618e-25
9.81618e-25
9.81618e-25
9.81618e-25
9.81618e-25
9.81618e-25
9.81618e-25
9.81618e-25
9.81618e-25
9.81618e-25
9.81618e-25
9.81618e-25
9.81618e-25
9.81618e-25
9.81618e-25
9.81618e-25
9.81618e-25
9.81618e-25
9.81618e-25
9.81618e-25
9.81618e-25
9.81618e-25
9.81618e-25
9.81618e-25
9.81618e-25
9.81618e-25
9.81618e-25
9.81618e-25
9.81618e-25
9.81618e-25
9.81618e-25
9.81618e-25
9.81618e-25
9.81618e-25
9.81618e-25
9.81618e-25
9.81618e-25
9.81618e-25
9.81618e-25
9.81618e-25
9.81618e-25
9.81618e-25
9.81618e-25
9.81618e-25
9.81618e-25
9.81618e-25
9.81618e-25
9.81618e-25
9.81618e-25
9.81618e-25
9.81618e-25
9.81618e-25
9.81618e-25
9.81618e-25
9.81618e-25
9.81618e-25
9.81618e-25
9.81618e-25
9.81618e-25
9.81618e-25
9.81618e-25
9.81618e-25
9.81618e-25
9.81618e-25
9.81618e-25
9.81618e-25
9.81618e-25
9.81618e-25
9.81618e-25
9.81618e-25
9.81618e-25
9.81618e-25
9.81618e-25
9.81618e-25
9.81618e-25
9.81618e-25
9.81618e-25
9.81618e-25
9.81618e-25
9.81618e-25
9.81618e-25
9.81618e-25
9.81618e-25
9.81618e-25
9.81618e-25
9.81618e-25
9.81618e-25
9.81618e-25
9.81618e-25
9.81619e-25
9.81618e-25
9.81618e-25
9.81618e-25
9.81618e-25
9.81618e-25
9.81618e-25
9.81618e-25
9.81618e-25
9.81618e-25
9.81618e-25
9.81618e-25
9.81618e-25
9.81618e-25
9.81618e-25
9.81618e-25
9.81618e-25
9.81618e-25
9.81618e-25
9.81618e-25
9.81618e-25
9.81618e-25
9.81618e-25
9.81618e-25
9.81618e-25
9.81618e-25
9.81618e-25
9.81618e-25
9.81618e-25
9.81618e-25
9.81618e-25
9.81618e-25
9.81618e-25
9.81618e-25
9.81618e-25
9.81618e-25
9.81618e-25
9.81618e-25
9.81618e-25
9.81618e-25
9.81618e-25
9.81618e-25
9.81618e-25
9.81618e-25
9.81618e-25
9.81618e-25
9.81618e-25
9.81618e-25
9.81618e-25
9.81618e-25
9.81618e-25
9.81618e-25
9.81618e-25
9.81618e-25
9.81618e-25
9.81618e-25
9.81618e-25
9.81618e-25
9.81618e-25
9.81618e-25
9.81618e-25
9.81618e-25
9.81618e-25
9.81618e-25
9.81618e-25
9.81618e-25
9.81618e-25
9.81618e-25
9.81618e-25
9.81618e-25
9.81618e-25
9.81618e-25
9.81618e-25
9.81618e-25
9.81618e-25
9.81618e-25
9.81618e-25
9.81618e-25
9.81618e-25
9.81618e-25
9.81618e-25
9.81618e-25
9.81618e-25
9.81618e-25
9.81618e-25
9.81618e-25
9.81618e-25
9.81618e-25
9.81618e-25
9.81618e-25
9.81618e-25
9.81618e-25
9.81618e-25
9.81618e-25
9.81618e-25
9.81618e-25
9.81618e-25
9.81618e-25
9.81618e-25
9.81618e-25
9.81618e-25
9.81618e-25
9.81618e-25
9.81618e-25
9.81618e-25
9.81618e-25
9.81618e-25
9.81618e-25
9.81618e-25
9.81618e-25
9.81618e-25
9.81618e-25
9.81618e-25
9.81618e-25
9.81618e-25
9.81618e-25
9.81618e-25
9.81618e-25
9.81618e-25
9.81618e-25
9.81618e-25
9.81618e-25
9.81618e-25
9.81618e-25
9.81618e-25
9.81618e-25
9.81618e-25
9.81618e-25
9.81618e-25
9.81618e-25
9.81618e-25
9.81618e-25
9.81618e-25
9.81618e-25
9.81618e-25
9.81618e-25
9.81618e-25
9.81618e-25
9.81618e-25
9.81618e-25
9.81618e-25
9.81618e-25
9.81618e-25
9.81618e-25
9.81618e-25
9.81618e-25
9.81618e-25
9.81618e-25
9.81618e-25
9.81618e-25
9.81618e-25
9.81618e-25
9.81618e-25
9.81618e-25
9.81618e-25
9.81618e-25
9.81618e-25
9.81618e-25
9.81618e-25
9.81618e-25
9.81618e-25
9.81618e-25
9.81618e-25
9.81618e-25
9.81618e-25
9.81618e-25
9.81618e-25
9.81618e-25
9.81618e-25
9.81618e-25
9.81618e-25
9.81618e-25
9.81618e-25
9.81618e-25
9.81618e-25
9.81618e-25
9.81618e-25
9.81618e-25
9.81618e-25
9.81618e-25
9.81618e-25
9.81618e-25
9.81618e-25
9.81618e-25
9.81618e-25
9.81618e-25
9.81619e-25
9.81618e-25
9.81618e-25
9.81618e-25
9.81618e-25
9.81618e-25
9.81618e-25
9.81619e-25
9.81618e-25
9.81618e-25
9.81618e-25
9.81619e-25
9.81618e-25
9.81618e-25
9.81618e-25
9.81618e-25
9.81618e-25
9.81618e-25
9.81618e-25
9.81618e-25
9.81618e-25
9.81618e-25
9.81618e-25
9.81618e-25
9.81618e-25
9.81618e-25
9.81618e-25
9.81618e-25
9.81618e-25
9.81619e-25
9.81618e-25
9.81618e-25
9.81618e-25
9.81618e-25
9.81618e-25
9.81618e-25
9.81618e-25
SCALARS PYR float
LOOKUP_TABLE default
2.74764
2.74764
2.74764
2.74764
2.74764
2.74764
2.74764
2.74764
2.74764
2.74764
2.74764
2.74764
2.74764
2.74764
2.74764
2.74764
2.74764
2.74764
2.74764
2.74764
2.74764
2.74764
2.74764
2.74764
2.74764
2.74764
2.74764
2.74764
2.74764
2.74764
2.74764
2.74764
2.74764
2.74764
2.74764
2.74764
2.74764
2.74764
2.74764
2.74764
2.74764
2.74764
2.74764
2.74764
2.74764
2.74764
2.74764
2.74764
2.74764
2.74764
2.74764
2.74764
2.74764
2.74764
2.74764
2.74764
2.74764
2.74764
2.74764
2.74764
2.74764
2.74764
2.74764
2.74764
2.74764
2.74764
2.74764
2.74764
2.74764
2.74764
2.74764
2.74764
2.74764
2.74764
2.74764
2.74764
2.74764
2.74764
2.74764
2.74764
2.74764
2.74764
2.74764
2.74764
2.74764
2.74764
2.74764
2.74764
2.74764
2.74764
2.74764
2.74764
2.74764
2.74764
2.74764
2.74764
2.74764
2.74764
2.74764
2.74764
2.74764
2.74764
2.74764
2.74764
2.74764
2.74764
2.74764
2.74764
2.74764
2.74764
2.74764
2.74764
2.74764
2.74764
2.74764
2.74764
2.74764
2.74764
2.74764
2.74764
2.74764
2.74764
2.74764
2.74764
2.74764
2.74764
2.74764
2.74764
2.74764
2.74764
2.74764
2.74764
2.74764
2.74764
2.74764
2.74764
2.74764
2.74764
2.74764
2.74764
2.74764
2.74764
2.74764
2.74764
2.74764
2.74764
2.74764
2.74764
2.74764
2.74764
2.74764
2.74764
2.74764
2.74764
2.74764
2.74764
2.74764
2.74764
2.74764
2.74764
2.74764
2.74764
2.74764
2.74764
2.74764
2.74764
2.74764
2.74764
2.74764
2.74764
2.74764
2.74764
2.74764
2.74764
2.74764
2.74764
2.74764
2.74764
2.74764
2.74764
2.74764
2.74764
2.74764
2.74764
2.74764
2.74764
2.74764
2.74764
2.74764
2.74764
2.74764
2.74764
2.74764
2.74764
2.74764
2.74764
2.74764
2.74764
2.74764
2.74764
2.74764
2.74764
2.74764
2.74764
2.74764
2.74764
2.74764
2.74764
2.74764
2.74764
2.74764
2.74764
2.74764
2.74764
2.74764
2.74764
2.74764
2.74764
2.74764
2.74764
2.74764
2.74764
2.74764
2.74764
2.74764
2.74764
2.74764
2.74764
2.74764
2.74764
2.74764
2.74764
2.74764
2.74764
2.74764
2.74764
2.74764
2.74764
2.74764
2.74764
2.74764
2.74764
2.74764
2.74764
2.74764
2.74764
2.74764
2.74764
2.74764
2.74764
2.74764
2.74764
2.74764
2.74764
2.74764
2.74764
2.74764
2.74764
2.74764
2.74764
2.74764
2.74764
2.74764
2.74764
2.74764
2.74764
2.74764
2.74764
2.74764
2.74764
2.74764
2.74764
2.74764
2.74764
2.74764
2.74764
2.74764
2.74764
2.74764
2.74764
2.74764
2.74764
2.74764
2.74764
2.74764
2.74764
2.74764
2.74764
2.74764
2.74764
2.74764
2.74764
2.74764
2.74764
2.74764
2.74764
2.74764
2.74764
2.74764
2.74764
2.74764
2.74764
2.74764
2.74764
2.74764
2.74764
2.74764
2.74764
2.74764
2.74764
2.74764
2.74764
2.74764
2.74764
2.74764
2.74764
2.74764
2.74764
2.74764
2.74764
2.74764
2.74764
2.74764
2.74764
2.74764
2.74764
2.74764
2.74764
2.74764
2.74764
2.74764
2.74764
2.74764
2.74764
2.74764
2.74764
2.74764
2.74764
2.74764
2.74764
2.74764
2.74764
2.74764
2.74764
2.74764
2.74764
2.74764
2.74764
2.74764
2.74764
2.74764
2.74764
2.74764
2.74764
2.74764
2.74764
2.74764
2.74764
2.74764
2.74764
2.74764
2.74764
2.74764
2.74764
2.74764
2.74764
2.74764
2.74764
2.74764
2.74764
2.74764
2.74764
2.74764
2.74764
2.74764
2.74764
2.74764
2.74764
2.74764
2.74764
2.74764
2.74764
2.74764
2.74764
2.74764
2.74764
2.74764
2.74764
2.74764
2.74764
2.74764
2.74764
2.74764
2.74764
2.74764
2.74764
2.74764
2.74764
2.74764
2.74764
2.74764
2.74764
2.74764
2.74764
2.74764
2.74764
2.74764
2.74764
2.74764
2.74764
2.74764
2.74764
2.74764
2.74764
2.74764
2.74764
2.74764
2.74764
2.74764
2.74764
2.74764
2.74764
2.74764
2.74764
2.74764
2.74764
2.74764
2.74764
2.74764
2.74764
2.74764
2.74764
2.74764
2.74764
2.74764
2.74764
2.74764
2.74764
2.74764
2.74764
2.74764
2.74764
2.74764
2.74764
2.74764
2.74764
2.74764
2.74764
2.74764
2.74764
2.74764
2.74764
2.74764
2.74764
2.74764
2.74764
2.74764
2.74764
2.74764
2.74764
2.74764
2.74764
2.74764
2.74764
2.74764
2.74764
2.74764
2.74764
2.74764
2.74764
2.74764
2.74764
2.74764
2.74764
2.74764
2.74764
2.74764
2.74764
2.74764
2.74764
2.74764
2.74764
2.74764
2.74764
2.74764
2.74764
2.74764
2.74764
2.74764
2.74764
2.74764
2.74764
2.74764
2.74764
2.74764
2.74764
2.74764
2.74764
2.74764
2.74764
2.74764
2.74764
2.74764
2.74764
2.74764
2.74764
2.74764
2.74764
2.74764
2.74764
2.74764
2.74764
2.74764
2.74764
2.74764
2.74764
2.74764
2.74764
2.74764
2.74764
2.74764
2.74764
2.74764
2.74764
2.74764
2.74764
2.74764
2.74764
2.74764
2.74764
2.74764
2.74764
2.74764
2.74764
2.74764
2.74764
2.74764
2.74764
2.74764
2.74764
2.74764
2.74764
2.74764
2.74764
2.74764
2.74764
2.74764
2.74764
2.74764
2.74764
2.74764
2.74764
2.74764
2.74764
2.74764
2.74764
2.74764
2.74764
2.74764
2.74764
2.74764
2.74764
2.74764
SCALARS ADP float
LOOKUP_TABLE default
3.9
3.9
3.9
3.9
3.9
3.9
3.9
3.9
3.9
3.9
3.9
3.9
3.9
3.9
3.9
3.9
3.9
3.9
3.9
3.9
3.9
3.9
3.9
3.9
3.9
3.9
3.9
3.9
3.9
3.9
3.9
3.9
3.9
3.9
3.9
3.9
3.9
3.9
3.9
3.9
3.9
3.9
3.9
3.9
3.9
3.9
3.9
3.9
3.9
3.9
3.9
3.9
3.9
3.9
3.9
3.9
3.9
3.9
3.9
3.9
3.9
3.9
3.9
3.9
3.9
3.9
3.9
3.9
3.9
3.9
3.9
3.9
3.9
3.9
3.9
3.9
3.9
3.9
3.9
3.9
3.9
3.9
3.9
3.9
3.9
3.9
3.9
3.9
3.9
3.9
3.9
3.9
3.9
3.9
3.9
3.9
3.9
3.9
3.9
3.9
3.9
3.9
3.9
3.9
3.9
3.9
3.9
3.9
3.9
3.9
3.9
3.9
3.9
3.9
3.9
3.9
3.9
3.9
3.9
3.9
3.9
3.9
3.9
3.9
3.9
3.9
3.9
3.9
3.9
3.9
3.9
3.9
3.9
3.9
3.9
3.9
3.9
3.9
3.9
3.9
3.9
3.9
3.9
3.9
3.9
3.9
3.9
3.9
3.9
3.9
3.9
3.9
3.9
3.9
3.9
3.9
3.9
3.9
3.9
3.9
3.9
3.9
3.9
3.9
3.9
3.9
3.9
3.9
3.9
3.9
3.9
3.9
3.9
3.9
3.9
3.9
3.9
3.9
3.9
3.9
3.9
3.9
3.9
3.9
3.9
3.9
3.9
3.9
3.9
3.9
3.9
3.9
3.9
3.9
3.9
3.9
3.9
3.9
3.9
3.9
3.9
3.9
3.9
3.9
3.9
3.9
3.9
3.9
3.9
3.9
3.9
3.9
3.9
3.9
3.9
3.9
3.9
3.9
3.9
3.9
3.9
3.9
3.9
3.9
3.9
3.9
3.9
3.9
3.9
3.9
3.9
3.9
3.9
3.9
3.9
3.9
3.9
3.9
3.9
3.9
3.9
3.9
3.9
3.9
3.9
3.9
3.9
3.9
3.9
3.9
3.9
3.9
3.9
3.9
3.9
3.9
3.9
3.9
3.9
3.9
3.9
3.9
3.9
3.9
3.9
3.9
3.9
3.9
3.9
3.9
3.9
3.9
3.9
3.9
3.9
3.9
3.9
3.9
3.9
3.9
3.9
3.9
3.9
3.9
3.9
3.9
3.9
3.9
3.9
3.9
3.9
3.9
3.9
3.9
3.9
3.9
3.9
3.9
3.9
3.9
3.9
3.9
3.9
3.9
3.9
3.9
3.9
3.9
3.9
3.9
3.9
3.9
3.9
3.9
3.9
3.9
3.9
3.9
3.9
3.9
3.9
3.9
3.9
3.9
3.9
3.9
3.9
3.9
3.9
3.9
3.9
3.9
3.9
3.9
3.9
3.9
3.9
3.9
3.9
3.9
3.9
3.9
3.9
3.9
3.9
3.9
3.9
3.9
3.9
3.9
3.9
3.9
3.9
3.9
3.9
3.9
3.9
3.9
3.9
3.9
3.9
3.9
3.9
3.9
3.9
3.9
3.9
3.9
3.9
3.9
3.9
3.9
3.9
3.9
3.9
3.9
3.9
3.9
3.9
3.9
3.9
3.9
3.9
3.9
3.9
3.9
3.9
3.9
3.9
3.9
3.9
3.9
3.9
3.9
3.9
3.9
3.9
3.9
3.9
3.9
3.9
3.9
3.9
3.9
3.9
3.9
3.9
3.9
3.9
3.9
3.9
3.9
3.9
3.9
3.9
3.9
3.9
3.9
3.9
3.9
3.9
3.9
3.9
3.9
3.9
3.9
3.9
3.9
3.9
3.9
3.9
3.9
3.9
3.9
3.9
3.9
3.9
3.9
3.9
3.9
3.9
3.9
3.9
3.9
3.9
3.9
3.9
3.9
3.9
3.9
3.9
3.9
3.9
3.9
3.9
3.9
3.9
3.9
3.9
3.9
3.9
3.9
3.9
3.9
3.9
3.9
3.9
3.9
3.9
3.9
3.9
3.9
3.9
3.9
3.9
3.9
3.9
3.9
3.9
3.9
3.9
3.9
3.9
3.9
3.9
3.9
3.9
3.9
3.9
3.9
3.9
3.9
3.9
3.9
3.9
3.9
3.9
3.9
3.9
3.9
3.9
3.9
3.9
3.9
3.9
3.9
3.9
3.9
3.9
3.9
3.9
3.9
3.9
3.9
3.9
3.9
3.9
3.9
3.9
3.9
3.9
3.9
3.9
3.9
3.9
3.9
3.9
3.9
3.9
3.9
3.9
3.9
3.9
3.9
3.9
3.9
3.9
3.9
3.9
3.9
3.9
3.9
3.9
3.9
3.9
3.9
3.9
3.9
3.9
3.9
3.9
3.9
3.9
3.9
3.9
3.9
3.9
3.9
3.9
3.9
3.9
3.9
3.9
SCALARS NADH float
LOOKUP_TABLE default
4
4
4
4
4
4
4
4
4
4
4
4
4
4
4
4
4
4
4
4
4
4
4
4
4
4
4
4
4
4
4
4
4
4
4
4
4
4
4
4
4
4
4
4
4
4
4
4
4
4
4
4
4
4
4
4
4
4
4
4
4
4
4
4
4
4
4
4
4
4
4
4
4
4
4
4
4
4
4
4
4
4
4
4
4
4
4
4
4
4
4
4
4
4
4
4
4
4
4
4
4
4
4
4
4
4
4
4
4
4
4
4
4
4
4
4
4
4
4
4
4
4
4
4
4
4
4
4
4
4
4
4
4
4
4
4
4
4
4
4
4
4
4
4
4
4
4
4
4
4
4
4
4
4
4
4
4
4
4
4
4
4
4
4
4
4
4
4
4
4
4
4
4
4
4
4
4
4
4
4
4
4
4
4
4
4
4
4
4
4
4
4
4
4
4
4
4
4
4
4
4
4
4
4
4
4
4
4
4
4
4
4
4
4
4
4
4
4
4
4
4
4
4
4
4
4
4
4
4
4
4
4
4
4
4
4
4
4
4
4
4
4
4
4
4
4
4
4
4
4
4
4
4
4
4
4
4
4
4
4
4
4
4
4
4
4
4
4
4
4
4
4
4
4
4
4
4
4
4
4
4
4
4
4
4
4
4
4
4
4
4
4
4
4
4
4
4
4
4
4
4
4
4
4
4
4
4
4
4
4
4
4
4
4
4
4
4
4
4
4
4
4
4
4
4
4
4
4
4
4
4
4
4
4
4
4
4
4
4
4
4
4
4
4
4
4
4
4
4
4
4
4
4
4
4
4
4
4
4
4
4
4
4
4
4
4
4
4
4
4
4
4
4
4
4
4
4
4
4
4
4
4
4
4
4
4
4
4
4
4
4
4
4
4
4
4
4
4
4
4
4
4
4
4
4
4
4
4
4
4
4
4
4
4
4
4
4
4
4
4
4
4
4
4
4
4
4
4
4
4
4
4
4
4
4
4
4
4
4
4
4
4
4
4
4
4
4
4
4
4
4
4
4
4
4
4
4
4
4
4
4
4
4
4
4
4
4
4
4
4
4
4
4
4
4
4
4
4
4
4
4
4
4
4
4
4
4
4
4
4
4
4
4
4
4
4
4
4
4
4
4
4
4
4
4
4
4
4
4
4
4
4
4
4
4
4
4
4
4
4
4
4
4
4
4
4
4
4
4
4
4
4
4
4
4
4
4
4
4
4
4
4
4
4
4
4
4
4
4
4
4
4
4
4
4
4
4
4
4
4
4
4
4
SCALARS NAD float
LOOKUP_TABLE default
5.90175e-25
5.90175e-25
5.90175e-25
5.90175e-25
5.90175e-25
5.90175e-25
5.90175e-25
5.90175e-25
5.90175e-25
5.90175e-25
5.90175e-25
5.90175e-25
5.90175e-25
5.90175e-25
5.90175e-25
5.90175e-25
5.90175e-25
5.90175e-25
5.90175e-25
5.90175e-25
5.90175e-25
5.90175e-25
5.90175e-25
5.90175e-25
5.90175e-25
5.90175e-25
5.90175e-25
5.90175e-25
5.90175e-25
5.90175e-25
5.90175e-25
5.90175e-25
5.90175e-25
5.90175e-25
5.90175e-25
5.90175e-25
5.90175e-25
5.90175e-25
5.90175e-25
5.90175e-25
5.90175e-25
5.90175e-25
5.90175e-25
5.90175e-25
5.90175e-25
5.90175e-25
5.90175e-25
5.90175e-25
5.90175e-25
5.90175e-25
5.90175e-25
5.90175e-25
5.90175e-25
5.90175e-25
5.90175e-25
5.90175e-25
5.90175e-25
5.90175e-25
5.90175e-25
5.90175e-25
5.90175e-25
5.90175e-25
5.90175e-25
5.90175e-25
5.90175e-25
5.90175e-25
5.90175e-25
5.90175e-25
5.90175e-25
5.90175e-25
5.90175e-25
5.90175e-25
5.90175e-25
5.90175e-25
5.90175e-25
5.90175e-25
5.90175e-25
5.90175e-25
5.90175e-25
5.90175e-25
5.90175e-25
5.90175e-25
5.90175e-25
5.90175e-25
5.90175e-25
5.90175e-25
5.90175e-25
5.90175e-25
5.90175e-25
5.90175e-25
5.90175e-25
5.90175e-25
5.90175e-25
5.90175e-25
5.90175e-25
5.90175e-25
5.90175e-25
5.90175e-25
5.90175e-25
5.90175e-25
5.90175e-25
5.90175e-25
5.90175e-25
5.90175e-25
5.90175e-25
5.90175e-25
5.90175e-25
5.90175e-25
5.90175e-25
5.90175e-25
5.90175e-25
5.90175e-25
5.90175e-25
5.90175e-25
5.90175e-25
5.90175e-25
5.90175e-25
5.90175e-25
5.90175e-25
5.90175e-25
5.90175e-25
5.90175e-25
5.90175e-25
5.90175e-25
5.90175e-25
5.90175e-25
5.90175e-25
5.90175e-25
5.90175e-25
5.90175e-25
5.90175e-25
5.90175e-25
5.90175e-25
5.90175e-25
5.90175e-25
5.90175e-25
5.90175e-25
5.90175e-25
5.90175e-25
5.90175e-25
5.90175e-25
5.90175e-25
5.90175e-25
5.90175e-25
5.90175e-25
5.90175e-25
5.90175e-25
5.90175e-25
5.90175e-25
5.90175e-25
5.90175e-25
5.90175e-25
5.90175e-25
5.90175e-25
5.90175e-25
5.90175e-25
5.90175e-25
5.90175e-25
5.90175e-25
5.90175e-25
5.90175e-25
5.90175e-25
5.90175e-25
5.90175e-25
5.90175e-25
5.90175e-25
5.90175e-25
5.90175e-25
5.90175e-25
5.90175e-25
5.90175e-25
5.90175e-25
5.90175e-25
5.90175e-25
5.90175e-25
5.90175e-25
5.90175e-25
5.90175e-25
5.90175e-25
5.90175e-25
5.90175e-25
5.90175e-25
5.90175e-25
5.90175e-25
5.90175e-25
5.90175e-25
5.90175e-25
5.90175e-25
5.90175e-25
5.90175e-25
5.90175e-25
5.90175e-25
5.90175e-25
5.90175e-25
5.90175e-25
5.90175e-25
5.90175e-25
5.90175e-25
5.90175e-25
5.90175e-25
5.90175e-25
5.90175e-25
5.90175e-25
5.90175e-25
5.90175e-25
5.90175e-25
5.90175e-25
5.90175e-25
5.90175e-25
5.90175e-25
5.90175e-25
5.90175e-25
5.90175e-25
5.90175e-25
5.90175e-25
5.90175e-25
5.90175e-25
5.90175e-25
5.90175e-25
5.90175e-25
5.90175e-25
5.90175e-25
5.90175e-25
5.90175e-25
5.90175e-25
5.90175e-25
5.90175e-25
5.90175e-25
5.90175e-25
5.90175e-25
5.90175e-25
5.90175e-25
5.90175e-25
5.90175e-25
5.90175e-25
5.90175e-25
5.90175e-25
5.90175e-25
5.90175e-25
5.90175e-25
5.90175e-25
5.90175e-25
5.90175e-25
5.90175e-25
5.90175e-25
5.90175e-25
5.90175e-25
5.90175e-25
5.90175e-25
5.90175e-25
5.90175e-25
5.90175e-25
5.90175e-25
5.90175e-25
5.90175e-25
5.90175e-25
5.90175e-25
5.90175e-25
5.90175e-25
5.90175e-25
5.90175e-25
5.90175e-25
5.90175e-25
5.90175e-25
5.90175e-25
5.90175e-25
5.90175e-25
5.90175e-25
5.90175e-25
5.90175e-25
5.90175e-25
5.90175e-25
5.90175e-25
5.90175e-25
5.90175e-25
5.90175e-25
5.90175e-25
5.90175e-25
5.90175e-25
5.90175e-25
5.90175e-25
5.90175e-25
5.90175e-25
5.90175e-25
5.90175e-25
5.90175e-25
5.90175e-25
5.90175e-25
5.90175e-25
5.90175e-25
5.90175e-25
5.90175e-25
5.90175e-25
5.90175e-25
5.90175e-25
5.90175e-25
5.90175e-25
5.90175e-25
5.90175e-25
5.90175e-25
5.90175e-25
5.90175e-25
5.90175e-25
5.90175e-25
5.90175e-25
5.90175e-25
5.90175e-25
5.90175e-25
5.90175e-25
5.90175e-25
5.90175e-25
5.90175e-25
5.90175e-25
5.90175e-25
5.90175e-25
5.90175e-25
5.90175e-25
5.90175e-25
5.90175e-25
5.90175e-25
5.90175e-25
5.90175e-25
5.90175e-25
5.90175e-25
5.90175e-25
5.90175e-25
5.90175e-25
5.90175e-25
5.90175e-25
5.90175e-25
5.90175e-25
5.90175e-25
5.90175e-25
5.90175e-25
5.90175e-25
5.90175e-25
5.90175e-25
5.90175e-25
5.90175e-25
5.90175e-25
5.90175e-25
5.90175e-25
5.90175e-25
5.90175e-25
5.90175e-25
5.90175e-25
5.90175e-25
5.90175e-25
5.90175e-25
5.90175e-25
5.90175e-25
5.90175e-25
5.90175e-25
5.90175e-25
5.90175e-25
5.90175e-25
5.90175e-25
5.90175e-25
5.90175e-25
5.90175e-25
5.90175e-25
5.90175e-25
5.90175e-25
5.90175e-25
5.90175e-25
5.90175e-25
5.90175e-25
5.90175e-25
5.90175e-25
5.90175e-25
5.90175e-25
5.90175e-25
5.90175e-25
5.90175e-25
5.90175e-25
5.90175e-25
5.90175e-25
5.90175e-25
5.90175e-25
5.90175e-25
5.90175e-25
5.90175e-25
5.90175e-25
5.90175e-25
5.90175e-25
5.90175e-25
5.90175e-25
5.90175e-25
5.90175e-25
5.90175e-25
5.90175e-25
5.90175e-25
5.90175e-25
5.90175e-25
5.90175e-25
5.90175e-25
5.90175e-25
5.90175e-25
5.90175e-25
5.90175e-25
5.90175e-25
5.90175e-25
5.90175e-25
5.90175e-25
5.90175e-25
5.90175e-25
5.90175e-25
5.90175e-25
5.90175e-25
5.90175e-25
5.90175e-25
5.90175e-25
5.90175e-25
5.90175e-25
5.90175e-25
5.90175e-25
5.90175e-25
5.90175e-25
5.90175e-25
5.90175e-25
5.90175e-25
5.90175e-25
5.90175e-25
5.90175e-25
5.90175e-25
5.90175e-25
5.90175e-25
5.90175e-25
5.90175e-25
5.90175e-25
5.90175e-25
5.90175e-25
5.90175e-25
5.90175e-25
5.90175e-25
5.90175e-25
5.90175e-25
5.90175e-25
5.90175e-25
5.90175e-25
5.90175e-25
5.90175e-25
5.90175e-25
5.90175e-25
5.90175e-25
5.90175e-25
5.90175e-25
5.90175e-25
5.90175e-25
5.90175e-25
5.90175e-25
5.90175e-25
5.90175e-25
5.90175e-25
5.90175e-25
5.90175e-25
5.90175e-25
5.90175e-25
5.90175e-25
5.90175e-25
5.90175e-25
5.90175e-25
5.90175e-25
5.90175e-25
5.90175e-25
5.90175e-25
5.90175e-25
5.90175e-25
5.90175e-25
5.90175e-25
5.90175e-25
5.90175e-25
5.90175e-25
5.90175e-25
5.90175e-25
5.90175e-25
5.90175e-25
5.90175e-25
5.90175e-25
5.90175e-25
5.90175e-25
5.90175e-25
5.90175e-25
5.90175e-25
5.90175e-25
5.90175e-25
5.90175e-25
5.90175e-25
5.90175e-25
5.90175e-25
5.90175e-25
5.90175e-25
5.90175e-25
5.90175e-25
5.90175e-25
5.90175e-25
5.90175e-25
5.90175e-25
5.90175e-25
5.90175e-25
5.90175e-25
5.90175e-25
5.90175e-25
5.90175e-25
5.90175e-25
5.90175e-25
5.90175e-25
5.90175e-25
5.90175e-25
5.90175e-25
5.90175e-25
5.90175e-25
5.90175e-25
5.90175e-25
5.90175e-25
5.90175e-25
5.90175e-25
5.90175e-25
5.90175e-25
5.90175e-25
5.90175e-25
5.90175e-25
5.90175e-25
5.90175e-25
5.90175e-25
5.90175e-25
5.90175e-25
5.90175e-25
5.90175e-25
5.90175e-25
5.90175e-25
5.90175e-25
5.90175e-25
5.90175e-25
5.90175e-25
5.90175e-25
5.90175e-25
5.90175e-25
5.90175e-25
5.90175e-25
5.90175e-25
5.90175e-25
5.90175e-25
5.90175e-25
5.90175e-25
5.90175e-25
5.90175e-25
5.90175e-25
5.90175e-25
5.90175e-25
5.90175e-25
5.90175e-25
5.90175e-25
5.90175e-25
5.90175e-25
5.90175e-25
5.90175e-25
5.90175e-25
5.90175e-25
5.90175e-25
5.90175e-25
5.90175e-25
5.90175e-25
SCALARS ROS float
LOOKUP_TABLE default
0.826532
0.826532
0.826532
0.826532
0.826532
0.826532
0.826532
0.826532
0.826532
0.826532
0.826532
0.826532
0.826532
0.826532
0.826532
0.826532
0.826532
0.826532
0.826532
0.826532
0.826532
0.826532
0.826532
0.826532
0.826532
0.826532
0.826532
0.826532
0.826532
0.826532
0.826532
0.826532
0.826532
0.826532
0.826532
0.826532
0.826532
0.826532
0.826532
0.826532
0.826532
0.826532
0.826532
0.826532
0.826532
0.826532
0.826532
0.826532
0.826532
0.826532
0.826532
0.826532
0.826532
0.826532
0.826532
0.826532
0.826532
0.826532
0.826532
0.826532
0.826532
0.826532
0.826532
0.826532
0.826532
0.826532
0.826532
0.826532
0.826532
0.826532
0.826532
0.826532
0.826532
0.826532
0.826532
0.826532
0.826532
0.826532
0.826532
0.826532
0.826532
0.826532
0.826532
0.826532
0.826532
0.826532
0.826532
0.826532
0.826532
0.826532
0.826532
0.826532
0.826532
0.826532
0.826532
0.826532
0.826532
0.826532
0.826532
0.826532
0.826532
0.826532
0.826532
0.826532
0.826532
0.826532
0.826532
0.826532
0.826532
0.826532
0.826532
0.826532
0.826532
0.826532
0.826532
0.826532
0.826532
0.826532
0.826532
0.826532
0.826532
0.826532
0.826532
0.826532
0.826532
0.826532
0.826532
0.826532
0.826532
0.826532
0.826532
0.826532
0.826532
0.826532
0.826532
0.826532
0.826532
0.826532
0.826532
0.826532
0.826532
0.826532
0.826532
0.826532
0.826532
0.826532
0.826532
0.826532
0.826532
0.826532
0.826532
0.826532
0.826532
0.826532
0.826532
0.826532
0.826532
0.826532
0.826532
0.826532
0.826532
0.826532
0.826532
0.826532
0.826532
0.826532
0.826532
0.826532
0.826532
0.826532
0.826532
0.826532
0.826532
0.826532
0.826532
0.826532
0.826532
0.826532
0.826532
0.826532
0.826532
0.826532
0.826532
0.826532
0.826532
0.826532
0.826532
0.826532
0.826532
0.826532
0.826532
0.826532
0.826532
0.826532
0.826532
0.826532
0.826532
0.826532
0.826532
0.826532
0.826532
0.826532
0.826532
0.826532
0.826532
0.826532
0.826532
0.826532
0.826532
0.826532
0.826532
0.826532
0.826532
0.826532
0.826532
0.826532
0.826532
0.826532
0.826532
0.826532
0.826532
0.826532
0.826532
0.826532
0.826532
0.826532
0.826532
0.826532
0.826532
0.826532
0.826532
0.826532
0.826532
0.826532
0.826532
0.826532
0.826532
0.826532
0.826532
0.826532
0.826532
0.826532
0.826532
0.826532
0.826532
0.826532
0.826532
0.826532
0.826532
0.826532
0.826532
0.826532
0.826532
0.826532
0.826532
0.826532
0.826532
0.826532
0.826532
0.826532
0.826532
0.826532
0.826532
0.826532
0.826532
0.826532
0.826532
0.826532
0.826532
0.826532
0.826532
0.826532
0.826532
0.826532
0.826532
0.826532
0.826532
0.826532
0.826532
0.826532
0.826532
0.826532
0.826532
0.826532
0.826532
0.826532
0.826532
0.826532
0.826532
0.826532
0.826532
0.826532
0.826532
0.826532
0.826532
0.826532
0.826532
0.826532
0.826532
0.826532
0.826532
0.826532
0.826532
0.826532
0.826532
0.826532
0.826532
0.826532
0.826532
0.826532
0.826532
0.826532
0.826532
0.826532
0.826532
0.826532
0.826532
0.826532
0.826532
0.826532
0.826532
0.826532
0.826532
0.826532
0.826532
0.826532
0.826532
0.826532
0.826532
0.826532
0.826532
0.826532
0.826532
0.826532
0.826532
0.826532
0.826532
0.826532
0.826532
0.826532
0.826532
0.826532
0.826532
0.826532
0.826532
0.826532
0.826532
0.826532
0.826532
0.826532
0.826532
0.826532
0.826532
0.826532
0.826532
0.826532
0.826532
0.826532
0.826532
0.826532
0.826532
0.826532
0.826532
0.826532
0.826532
0.826532
0.826532
0.826532
0.826532
0.826532
0.826532
0.826532
0.826532
0.826532
0.826532
0.826532
0.826532
0.826532
0.826532
0.826532
0.826532
0.826532
0.826532
0.826532
0.826532
0.826532
0.826532
0.826532
0.826532
0.826532
0.826532
0.826532
0.826532
0.826532
0.826532
0.826532
0.826532
0.826532
0.826532
0.826532
0.826532
0.826532
0.826532
0.826532
0.826532
0.826532
0.826532
0.826532
0.826532
0.826532
0.826532
0.826532
0.826532
0.826532
0.826532
0.826532
0.826532
0.826532
0.826532
0.826532
0.826532
0.826532
0.826532
0.826532
0.826532
0.826532
0.826532
0.826532
0.826532
0.826532
0.826532
0.826532
0.826532
0.826532
0.826532
0.826532
0.826532
0.826532
0.826532
0.826532
0.826532
0.826532
0.826532
0.826532
0.826532
0.826532
0.826532
0.826532
0.826532
0.826532
0.826532
0.826532
0.826532
0.826532
0.826532
0.826532
0.826532
0.826532
0.826532
0.826532
0.826532
0.826532
0.826532
0.826532
0.826532
0.826532
0.826532
0.826532
0.826532
0.826532
0.826532
0.826532
0.826532
0.826532
0.826532
0.826532
0.826532
0.826532
0.826532
0.826532
0.826532
0.826532
0.826532
0.826532
0.826532
0.826532
0.826532
0.826532
0.826532
0.826532
0.826532
0.826532
0.826532
0.826532
0.826532
0.826532
0.826532
0.826532
0.826532
0.826532
0.826532
0.826532
0.826532
0.826532
0.826532
0.826532
0.826532
0.826532
0.826532
0.826532
0.826532
0.826532
0.826532
0.826532
0.826532
0.826532
0.826532
0.826532
0.826532
0.826532
0.826532
0.826532
0.826532
0.826532
0.826532
0.826532
0.826532
0.826532
0.826532
0.826532
0.826532
0.826532
0.826532
0.826532
0.826532
0.826532
0.826532
0.826532
0.826532
0.826532
0.826532
0.826532
0.826532
0.826532
0.826532
0.826532
0.826532
0.826532
0.826532
0.826532
0.826532
0.826532
0.826532
0.826532
0.826532
0.826532
0.826532
0.826532
0.826532
0.826532
0.826532
0.826532
0.826532
SCALARS ALT float
LOOKUP_TABLE default
0
0
0
0
0
0
0
0
0
0
0
0
0
0
0
0
0
0
0
0
0
0
0
0
0
0
0
0
0
0
0
0
0
0
0
0
0
0
0
0
0
0
0
0
0
0
0
0
0
0
0
0
0
0
0
0
0
0
0
0
0
0
0
0
0
0
0
0
0
0
0
0
0
0
0
0
0
0
0
0
0
0
0
0
0
0
0
0
0
0
0
0
0
0
0
0
0
0
0
0
0
0
0
0
0
0
0
0
0
0
0
0
0
0
0
0
0
0
0
0
0
0
0
0
0
0
0
0
0
0
0
0
0
0
0
0
0
0
0
0
0
0
0
0
0
0
0
0
0
0
0
0
0
0
0
0
0
0
0
0
0
0
0
0
0
0
0
0
0
0
0
0
0
0
0
0
0
0
0
0
0
0
0
0
0
0
0
0
0
0
0
0
0
0
0
0
0
0
0
0
0
0
0
0
0
0
0
0
0
0
0
0
0
0
0
0
0
0
0
0
0
0
0
0
0
0
0
0
0
0
0
0
0
0
0
0
0
0
0
0
0
0
0
0
0
0
0
0
0
0
0
0
0
0
0
0
0
0
0
0
0
0
0
0
0
0
0
0
0
0
0
0
0
0
0
0
0
0
0
0
0
0
0
0
0
0
0
0
0
0
0
0
0
0
0
0
0
0
0
0
0
0
0
0
0
0
0
0
0
0
0
0
0
0
0
0
0
0
0
0
0
0
0
0
0
0
0
0
0
0
0
0
0
0
0
0
0
0
0
0
0
0
0
0
0
0
0
0
0
0
0
0
0
0
0
0
0
0
0
0
0
0
0
0
0
0
0
0
0
0
0
0
0
0
0
0
0
0
0
0
0
0
0
0
0
0
0
0
0
0
0
0
0
0
0
0
0
0
0
0
0
0
0
0
0
0
0
0
0
0
0
0
0
0
0
0
0
0
0
0
0
0
0
0
0
0
0
0
0
0
0
0
0
0
0
0
0
0
0
0
0
0
0
0
0
0
0
0
0
0
0
0
0
0
0
0
0
0
0
0
0
0
0
0
0
0
0
0
0
0
0
0
0
0
0
0
0
0
0
0
0
0
0
0
0
0
0
0
0
0
0
0
0
0
0
0
0
0
0
0
0
0
0
0
0
0
0
0
0
0
0
0
0
0
0
0
0
0
0
0
0
0
0
0
0
0
0
0
0
0
0
0
0
0
0
0
0
0
0
0
0
0
0
0
0
0
0
0
0
0
0
0
0
0
0
0
0
0
0
0
0
0
0
SCALARS AST float
LOOKUP_TABLE default
0
0
0
0
0
0
0
0
0
0
0
0
0
0
0
0
0
0
0
0
0
0
0
0
0
0
0
0
0
0
0
0
0
0
0
0
0
0
0
0
0
0
0
0
0
0
0
0
0
0
0
0
0
0
0
0
0
0
0
0
0
0
0
0
0
0
0
0
0
0
0
0
0
0
0
0
0
0
0
0
0
0
0
0
0
0
0
0
0
0
0
0
0
0
0
0
0
0
0
0
0
0
0
0
0
0
0
0
0
0
0
0
0
0
0
0
0
0
0
0
0
0
0
0
0
0
0
0
0
0
0
0
0
0
0
0
0
0
0
0
0
0
0
0
0
0
0
0
0
0
0
0
0
0
0
0
0
0
0
0
0
0
0
0
0
0
0
0
0
0
0
0
0
0
0
0
0
0
0
0
0
0
0
0
0
0
0
0
0
0
0
0
0
0
0
0
0
0
0
0
0
0
0
0
0
0
0
0
0
0
0
0
0
0
0
0
0
0
0
0
0
0
0
0
0
0
0
0
0
0
0
0
0
0
0
0
0
0
0
0
0
0
0
0
0
0
0
0
0
0
0
0
0
0
0
0
0
0
0
0
0
0
0
0
0
0
0
0
0
0
0
0
0
0
0
0
0
0
0
0
0
0
0
0
0
0
0
0
0
0
0
0
0
0
0
0
0
0
0
0
0
0
0
0
0
0
0
0
0
0
0
0
0
0
0
0
0
0
0
0
0
0
0
0
0
0
0
0
0
0
0
0
0
0
0
0
0
0
0
0
0
0
0
0
0
0
0
0
0
0
0
0
0
0
0
0
0
0
0
0
0
0
0
0
0
0
0
0
0
0
0
0
0
0
0
0
0
0
0
0
0
0
0
0
0
0
0
0
0
0
0
0
0
0
0
0
0
0
0
0
0
0
0
0
0
0
0
0
0
0
0
0
0
0
0
0
0
0
0
0
0
0
0
0
0
0
0
0
0
0
0
0
0
0
0
0
0
0
0
0
0
0
0
0
0
0
0
0
0
0
0
0
0
0
0
0
0
0
0
0
0
0
0
0
0
0
0
0
0
0
0
0
0
0
0
0
0
0
0
0
0
0
0
0
0
0
0
0
0
0
0
0
0
0
0
0
0
0
0
0
0
0
0
0
0
0
0
0
0
0
0
0
0
0
0
0
0
0
0
0
0
0
0
0
0
0
0
0
0
0
0
0
0
0
0
0
0
0
0
0
0
0
0
0
0
0
0
0
0
0
0
0
0
0
0
0
0
0
0
0
0
0
0
SCALARS TSIM float
LOOKUP_TABLE default
308.6
308.6
308.6
308.6
308.6
308.6
308.6
308.6
308.6
308.6
308.6
308.6
308.6
308.6
308.6
308.6
308.6
308.6
308.6
308.6
308.6
308.6
308.6
308.6
308.6
308.6
308.6
308.6
308.6
308.6
308.6
308.6
308.6
308.6
308.6
308.6
308.6
308.6
308.6
308.6
308.6
308.6
308.6
308.6
308.6
308.6
308.6
308.6
308.6
308.6
308.6
308.6
308.6
308.6
308.6
308.6
308.6
308.6
308.6
308.6
308.6
308.6
308.6
308.6
308.6
308.6
308.6
308.6
308.6
308.6
308.6
308.6
308.6
308.6
308.6
308.6
308.6
308.6
308.6
308.6
308.6
308.6
308.6
308.6
308.6
308.6
308.6
308.6
308.6
308.6
308.6
308.6
308.6
308.6
308.6
308.6
308.6
308.6
308.6
308.6
308.6
308.6
308.6
308.6
308.6
308.6
308.6
308.6
308.6
308.6
308.6
308.6
308.6
308.6
308.6
308.6
308.6
308.6
308.6
308.6
308.6
308.6
308.6
308.6
308.6
308.6
308.6
308.6
308.6
308.6
308.6
308.6
308.6
308.6
308.6
308.6
308.6
308.6
308.6
308.6
308.6
308.6
308.6
308.6
308.6
308.6
308.6
308.6
308.6
308.6
308.6
308.6
308.6
308.6
308.6
308.6
308.6
308.6
308.6
308.6
308.6
308.6
308.6
308.6
308.6
308.6
308.6
308.6
308.6
308.6
308.6
308.6
308.6
308.6
308.6
308.6
308.6
308.6
308.6
308.6
308.6
308.6
308.6
308.6
308.6
308.6
308.6
308.6
308.6
308.6
308.6
308.6
308.6
308.6
308.6
308.6
308.6
308.6
308.6
308.6
308.6
308.6
308.6
308.6
308.6
308.6
308.6
308.6
308.6
308.6
308.6
308.6
308.6
308.6
308.6
308.6
308.6
308.6
308.6
308.6
308.6
308.6
308.6
308.6
308.6
308.6
308.6
308.6
308.6
308.6
308.6
308.6
308.6
308.6
308.6
308.6
308.6
308.6
308.6
308.6
308.6
308.6
308.6
308.6
308.6
308.6
308.6
308.6
308.6
308.6
308.6
308.6
308.6
308.6
308.6
308.6
308.6
308.6
308.6
308.6
308.6
308.6
308.6
308.6
308.6
308.6
308.6
308.6
308.6
308.6
308.6
308.6
308.6
308.6
308.6
308.6
308.6
308.6
308.6
308.6
308.6
308.6
308.6
308.6
308.6
308.6
308.6
308.6
308.6
308.6
308.6
308.6
308.6
308.6
308.6
308.6
308.6
308.6
308.6
308.6
308.6
308.6
308.6
308.6
308.6
308.6
308.6
308.6
308.6
308.6
308.6
308.6
308.6
308.6
308.6
308.6
308.6
308.6
308.6
308.6
308.6
308.6
308.6
308.6
308.6
308.6
308.6
308.6
308.6
308.6
308.6
308.6
308.6
308.6
308.6
308.6
308.6
308.6
308.6
308.6
308.6
308.6
308.6
308.6
308.6
308.6
308.6
308.6
308.6
308.6
308.6
308.6
308.6
308.6
308.6
308.6
308.6
308.6
308.6
308.6
308.6
308.6
308.6
308.6
308.6
308.6
308.6
308.6
308.6
308.6
308.6
308.6
308.6
308.6
308.6
308.6
308.6
308.6
308.6
308.6
308.6
308.6
308.6
308.6
308.6
308.6
308.6
308.6
308.6
308.6
308.6
308.6
308.6
308.6
308.6
308.6
308.6
308.6
308.6
308.6
308.6
308.6
308.6
308.6
308.6
308.6
308.6
308.6
308.6
308.6
308.6
308.6
308.6
308.6
308.6
308.6
308.6
308.6
308.6
308.6
308.6
308.6
308.6
308.6
308.6
308.6
308.6
308.6
308.6
308.6
308.6
308.6
308.6
308.6
308.6
308.6
308.6
308.6
308.6
308.6
308.6
308.6
308.6
308.6
308.6
308.6
308.6
308.6
308.6
308.6
308.6
308.6
308.6
308.6
308.6
308.6
308.6
308.6
308.6
308.6
308.6
308.6
308.6
308.6
308.6
308.6
308.6
308.6
308.6
308.6
308.6
308.6
308.6
308.6
308.6
308.6
308.6
308.6
308.6
308.6
308.6
308.6
308.6
308.6
308.6
308.6
308.6
308.6
308.6
308.6
308.6
308.6
308.6
308.6
308.6
308.6
308.6
308.6
308.6
308.6
308.6
308.6
308.6
308.6
308.6
308.6
308.6
308.6
308.6
308.6
308.6
308.6
308.6
308.6
308.6
308.6
308.6
308.6
308.6
308.6
308.6
308.6
308.6
308.6
308.6
308.6
308.6
308.6
308.6
308.6
308.6
308.6
308.6
308.6
308.6
308.6
308.6
308.6
308.6
308.6
308.6
308.6
308.6
308.6
308.6
308.6
308.6
308.6
308.6
308.6
308.6
308.6
308.6
308.6
308.6
308.6
308.6
308.6
308.6
308.6
308.6
308.6
308.6
SCALARS VEXT float
LOOKUP_TABLE default
1.54014e-10
3.36206e-10
2.69582e-10
3.51235e-10
1.81302e-10
2.86149e-10
1.52304e-10
3.49459e-10
3.02449e-10
3.77887e-10
1.39453e-10
3.50531e-10
3.08768e-10
3.25203e-10
3.78343e-10
3.2105e-10
2.74624e-10
3.11713e-10
2.81467e-10
2.73879e-10
3.08266e-10
5.2853e-11
3.15851e-10
2.90912e-10
2.63734e-10
3.02986e-10
1.28455e-10
2.66783e-10
2.13283e-10
2.41006e-10
2.72814e-10
2.20461e-10
1.42378e-10
1.81117e-10
1.77727e-10
1.81533e-10
2.34178e-10
1.78198e-10
2.72562e-10
1.60015e-10
1.79291e-10
2.06344e-10
2.06375e-10
2.99406e-10
1.77954e-10
1.94343e-10
2.64622e-10
2.67472e-10
2.49859e-10
2.44191e-10
2.50355e-10
1.93059e-10
2.9121e-10
2.48036e-10
2.68205e-10
1.28914e-10
1.8974e-10
2.49856e-10
1.89742e-10
2.98505e-10
3.50637e-10
3.42276e-10
1.25995e-10
2.41384e-10
3.27817e-10
3.10571e-10
3.3912e-10
2.94268e-10
2.72177e-10
3.85819e-10
3.15981e-10
3.12545e-10
2.21527e-10
2.5102e-10
2.67879e-10
1.47226e-10
2.7243e-10
3.07701e-10
2.96759e-10
2.1284e-10
1.93798e-10
2.04316e-10
3.90593e-10
1.94304e-10
2.60414e-10
9.77299e-11
3.08174e-10
2.55893e-10
1.88445e-10
2.60779e-11
2.14944e-10
2.83649e-11
2.31112e-10
2.23064e-10
2.03339e-10
1.86669e-10
1.77976e-10
3.31784e-10
2.72649e-10
2.65395e-10
2.277e-10
2.2002e-10
1.86454e-10
3.14634e-10
3.19582e-10
2.87752e-10
2.51802e-10
2.57368e-10
1.97938e-10
3.82999e-10
2.47486e-10
1.34047e-10
1.78808e-10
3.44437e-10
3.22351e-10
2.39495e-10
2.20037e-10
1.47916e-10
2.28258e-10
2.38512e-10
2.06181e-10
3.69004e-10
3.83189e-10
3.28158e-10
3.61762e-10
2.81852e-10
1.58186e-10
3.58232e-10
1.61192e-10
2.06197e-10
1.65063e-10
3.4197e-10
3.32687e-10
3.35715e-10
2.2882e-10
1.33687e-10
1.54652e-10
2.46479e-10
2.99468e-10
1.33648e-10
1.91018e-10
2.89918e-10
2.21934e-10
3.54029e-10
1.80066e-10
2.89125e-10
2.62336e-10
2.54449e-10
1.62659e-10
2.09915e-10
2.32526e-10
3.29902e-10
1.9783e-10
2.99339e-10
3.45991e-10
3.51554e-10
2.29696e-10
1.96666e-10
1.95525e-10
3.02247e-10
2.54948e-10
1.96123e-10
1.30925e-10
1.91827e-10
1.89956e-10
3.23041e-10
1.99322e-10
2.01533e-10
2.19019e-10
1.94226e-10
2.82155e-10
2.03168e-10
1.80933e-10
2.21857e-10
2.14616e-10
2.51676e-10
2.79097e-10
2.71392e-10
2.27574e-10
2.70482e-10
2.12565e-10
3.13345e-10
3.36321e-10
1.91037e-10
3.28342e-10
1.91802e-10
3.24276e-10
2.97616e-10
2.76624e-10
2.84192e-10
3.31201e-10
1.61536e-10
2.10007e-10
1.96182e-10
3.3513e-10
3.30554e-10
3.06395e-10
3.3188e-10
3.39186e-10
2.84274e-10
3.49284e-10
2.36554e-10
2.14968e-10
3.79972e-10
2.27658e-10
3.45011e-10
2.75333e-10
1.79669e-10
2.10493e-10
3.456e-10
2.85635e-10
2.61688e-10
3.3763e-10
3.2964e-10
2.17076e-10
2.12092e-10
2.09543e-10
2.92249e-10
3.23682e-10
3.71999e-10
3.57579e-10
3.8896e-10
3.52444e-10
3.85171e-10
3.23281e-10
3.35438e-10
3.38097e-10
3.18679e-10
3.34767e-10
3.07004e-10
3.02429e-10
2.20041e-10
2.91273e-10
3.41348e-10
2.38531e-10
3.44725e-10
3.16623e-10
3.70042e-10
2.25983e-10
3.52011e-10
3.36076e-10
2.21334e-10
2.99085e-10
2.19885e-10
3.36906e-10
3.09335e-10
2.30423e-10
2.17359e-10
1.89879e-10
2.18367e-10
3.37405e-10
1.59576e-10
2.61809e-10
2.166e-10
2.41527e-10
3.5236e-10
3.40295e-10
1.047e-10
3.41574e-10
1.91184e-10
2.05034e-10
3.50375e-10
2.84817e-10
2.07558e-10
3.90114e-10
2.24303e-10
1.04704e-10
2.09642e-10
3.03423e-10
3.78089e-10
2.87943e-10
3.35654e-10
3.15808e-10
1.6436e-10
1.63307e-10
1.43527e-10
1.65031e-10
2.24307e-10
1.74262e-10
2.79521e-10
1.77096e-10
2.98647e-10
2.14353e-10
2.09971e-10
2.41354e-10
2.27578e-10
2.98759e-10
2.18218e-10
2.25411e-10
9.56099e-11
2.2143e-10
3.20815e-10
3.2107e-10
2.92949e-10
2.17727e-10
1.3796e-10
4.05734e-10
2.75188e-10
2.30949e-10
2.13211e-10
2.07461e-10
2.1998e-10
2.62145e-10
2.15864e-10
1.57532e-10
2.12892e-10
1.48083e-10
2.59376e-10
2.17514e-10
8.91195e-11
2.04705e-10
2.38146e-10
2.17633e-10
3.29197e-10
2.25737e-10
2.88407e-10
1.13917e-10
2.31714e-10
2.23372e-10
1.90584e-10
2.09749e-10
2.45798e-10
2.29032e-10
2.40242e-10
2.06958e-10
2.10048e-10
2.26406e-10
2.98243e-10
2.13915e-10
2.99837e-10
2.71248e-10
2.1095e-10
2.21904e-10
2.23663e-10
2.46364e-10
2.23185e-10
2.09524e-10
2.37449e-10
2.45125e-10
2.9155e-10
2.23573e-10
2.22921e-10
3.18382e-10
3.13898e-10
2.14114e-10
2.11005e-10
9.93834e-11
2.58725e-10
1.83501e-10
2.43419e-10
1.13865e-10
1.18193e-10
1.05603e-10
1.07341e-10
1.13865e-10
1.19987e-10
1.23633e-10
2.7016e-10
1.98087e-10
2.03135e-10
2.33377e-10
2.27923e-10
2.25121e-10
2.35909e-10
2.20377e-10
2.25447e-10
2.23661e-10
2.24291e-10
2.70854e-10
2.05485e-10
2.78515e-10
2.19033e-10
2.12059e-10
2.24609e-10
2.3489e-10
2.48825e-10
2.32562e-10
2.65476e-10
2.48818e-10
2.31531e-10
1.6805e-10
2.32159e-10
2.26304e-10
2.41e-10
2.34639e-10
2.22646e-10
2.11472e-10
2.32491e-10
2.41714e-10
3.269e-10
2.17865e-10
3.17848e-10
3.32681e-10
2.28435e-10
3.17669e-10
2.44479e-10
1.96925e-10
2.64756e-10
2.34272e-10
1.65367e-10
1.51945e-10
2.60943e-10
2.776e-10
2.37398e-10
1.97767e-10
2.35966e-10
1.16846e-10
2.34726e-10
2.20742e-10
1.15694e-10
4.19247e-11
4.58556e-11
2.03225e-10
2.18008e-10
2.52246e-10
2.43279e-10
2.13858e-11
2.2346e-11
2.39024e-10
2.41499e-10
2.28658e-10
8.77127e-11
2.04138e-10
2.33979e-10
2.41223e-10
2.08161e-10
1.83675e-10
9.14044e-11
3.44889e-10
2.19425e-10
2.6647e-10
2.70634e-10
1.95261e-10
2.46912e-10
1.90915e-10
2.10586e-10
1.0757e-10
1.60858e-10
2.47216e-10
2.4795e-10
2.13662e-10
2.2476e-10
2.31643e-10
2.44112e-10
2.33549e-10
1.18057e-10
2.02093e-10
2.31765e-10
2.16587e-10
3.24624e-10
1.18065e-10
1.76948e-10
1.82334e-10
1.70128e-10
1.09316e-10
1.09326e-10
1.95301e-10
1.60822e-10
2.28506e-10
1.26429e-10
1.30677e-10
4.23237e-11
4.23244e-11
9.53003e-11
1.42601e-10
9.58794e-11
1.9478e-10
2.07975e-10
2.24342e-10
2.52191e-10
2.28037e-10
2.10873e-10
1.66983e-10
1.07554e-10
2.10054e-10
2.16587e-10
2.0924e-10
1.20363e-10
1.05332e-10
8.6291e-11
2.08983e-10
2.13896e-10
1.74181e-10
1.9467e-10
1.7947e-10
1.62198e-10
2.19832e-10
1.6219e-10
1.94565e-10
1.86198e-10
1.12524e-10
1.38877e-10
1.35781e-10
2.32083e-10
9.59361e-11
1.00989e-10
9.8958e-11
2.18702e-10
9.11943e-11
8.9616e-11
1.53807e-10
8.34804e-11
1.75163e-10
1.75433e-10
8.56396e-11
1.94586e-10
9.42491e-11
9.45302e-11
1.05634e-10
9.02032e-11
8.78315e-11
1.24344e-10
1.04164e-10
9.54546e-11
9.04461e-11
1.77373e-10
2.01012e-10
9.88381e-11
1.95759e-10
8.21484e-11
1.98294e-10
1.58443e-10
8.57531e-11
7.20794e-11
8.10555e-11
1.07308e-10
1.71046e-10
1.3816e-10
5.69631e-11
6.32717e-11
1.89699e-10
5.36285e-11
5.3629e-11
6.07842e-11
6.85021e-11
8.19778e-11
9.07258e-11
1.51257e-10
1.39315e-10
1.89939e-10
5.40548e-11
5.40555e-11
1.64383e-10
7.16661e-11
1.36183e-10
6.49036e-11
6.47353e-11
8.52748e-11
1.40108e-10
1.45099e-10
1.54631e-10
1.41698e-10
1.40109e-10
3.04018e-11
2.26236e-10
3.88765e-11
3.75349e-11
1.8268e-10
1.81402e-10
3.88883e-11
2.70396e-11
3.81929e-11
1.68653e-10
SCALARS VLI float
LOOKUP_TABLE default
3.7707e-10
8.23125e-10
6.60011e-10
8.59921e-10
4.43877e-10
7.00571e-10
3.72883e-10
8.55571e-10
7.40479e-10
9.25173e-10
3.4142e-10
8.58197e-10
7.55949e-10
7.96188e-10
9.26289e-10
7.86019e-10
6.72356e-10
7.6316e-10
6.8911e-10
6.70532e-10
7.5472e-10
1.29399e-10
7.73291e-10
7.12232e-10
6.45692e-10
7.41794e-10
3.14494e-10
6.5316e-10
5.22175e-10
5.9005e-10
6.67923e-10
5.3975e-10
3.4858e-10
4.43425e-10
4.35124e-10
4.44444e-10
5.73334e-10
4.36278e-10
6.67306e-10
3.9176e-10
4.38954e-10
5.05188e-10
5.05263e-10
7.33028e-10
4.3568e-10
4.75805e-10
6.47867e-10
6.54845e-10
6.11723e-10
5.97846e-10
6.12939e-10
4.72662e-10
7.12962e-10
6.07262e-10
6.56639e-10
3.15617e-10
4.64536e-10
6.11715e-10
4.64541e-10
7.30822e-10
8.58455e-10
8.37985e-10
3.08469e-10
5.90974e-10
8.02586e-10
7.60364e-10
8.30259e-10
7.2045e-10
6.66364e-10
9.44592e-10
7.73608e-10
7.65197e-10
5.42359e-10
6.14567e-10
6.55841e-10
3.60449e-10
6.66984e-10
7.53337e-10
7.26549e-10
5.21091e-10
4.7447e-10
5.00222e-10
9.56279e-10
4.75709e-10
6.37567e-10
2.3927e-10
7.54496e-10
6.26498e-10
4.61364e-10
6.38459e-11
5.26242e-10
6.9445e-11
5.65825e-10
5.46122e-10
4.9783e-10
4.57018e-10
4.35734e-10
8.12299e-10
6.6752e-10
6.49761e-10
5.57473e-10
5.3867e-10
4.56491e-10
7.7031e-10
7.82425e-10
7.04496e-10
6.1648e-10
6.30108e-10
4.84608e-10
9.37687e-10
6.05913e-10
3.28183e-10
4.37772e-10
8.43276e-10
7.89204e-10
5.8635e-10
5.3871e-10
3.6214e-10
5.5884e-10
5.83944e-10
5.04787e-10
9.03423e-10
9.38152e-10
8.03421e-10
8.85693e-10
6.90051e-10
3.87283e-10
8.77051e-10
3.94642e-10
5.04827e-10
4.0412e-10
8.37237e-10
8.1451e-10
8.21922e-10
5.60215e-10
3.27304e-10
3.78631e-10
6.03448e-10
7.33181e-10
3.27208e-10
4.67666e-10
7.09799e-10
5.43354e-10
8.66762e-10
4.40852e-10
7.07858e-10
6.42271e-10
6.22962e-10
3.98233e-10
5.13929e-10
5.69287e-10
8.07692e-10
4.84341e-10
7.32865e-10
8.47082e-10
8.60702e-10
5.62359e-10
4.81493e-10
4.78699e-10
7.39985e-10
6.24183e-10
4.80163e-10
3.2054e-10
4.69645e-10
4.65064e-10
7.90894e-10
4.87995e-10
4.93409e-10
5.36218e-10
4.75519e-10
6.90793e-10
4.97412e-10
4.42975e-10
5.43166e-10
5.25439e-10
6.16172e-10
6.83306e-10
6.64441e-10
5.57165e-10
6.62214e-10
5.20418e-10
7.67155e-10
8.23406e-10
4.67711e-10
8.03871e-10
4.69585e-10
7.93918e-10
7.28647e-10
6.77253e-10
6.9578e-10
8.10873e-10
3.95484e-10
5.14155e-10
4.80307e-10
8.2049e-10
8.09288e-10
7.5014e-10
8.12533e-10
8.30421e-10
6.9598e-10
8.55143e-10
5.79148e-10
5.26301e-10
9.30277e-10
5.57368e-10
8.44682e-10
6.74091e-10
4.3988e-10
5.15346e-10
8.46124e-10
6.99314e-10
6.40685e-10
8.26612e-10
8.07049e-10
5.31463e-10
5.19259e-10
5.1302e-10
7.15507e-10
7.92463e-10
9.10757e-10
8.75453e-10
9.52282e-10
8.6288e-10
9.43005e-10
7.91482e-10
8.21244e-10
8.27756e-10
7.80214e-10
8.19603e-10
7.5163e-10
7.40429e-10
5.3872e-10
7.13116e-10
8.35714e-10
5.83989e-10
8.43982e-10
7.75181e-10
9.05965e-10
5.53268e-10
8.61819e-10
8.22807e-10
5.41888e-10
7.32243e-10
5.38339e-10
8.24839e-10
7.57338e-10
5.64139e-10
5.32154e-10
4.64876e-10
5.34622e-10
8.26059e-10
3.90687e-10
6.40981e-10
5.30296e-10
5.91324e-10
8.62675e-10
8.33137e-10
2.56334e-10
8.36267e-10
4.6807e-10
5.01979e-10
8.57814e-10
6.97311e-10
5.08159e-10
9.55108e-10
5.49157e-10
2.56344e-10
5.13262e-10
7.42864e-10
9.25667e-10
7.04963e-10
8.21774e-10
7.73186e-10
4.024e-10
3.99821e-10
3.51393e-10
4.04041e-10
5.49166e-10
4.26642e-10
6.84345e-10
4.3358e-10
7.31169e-10
5.24796e-10
5.14067e-10
5.90902e-10
5.57175e-10
7.31445e-10
5.34257e-10
5.51868e-10
2.34079e-10
5.42122e-10
7.85444e-10
7.86068e-10
7.17219e-10
5.33056e-10
3.37765e-10
9.93348e-10
6.73736e-10
5.65426e-10
5.21999e-10
5.07923e-10
5.38571e-10
6.41804e-10
5.28495e-10
3.85681e-10
5.21217e-10
3.62548e-10
6.35025e-10
5.32535e-10
2.18189e-10
5.01175e-10
5.83047e-10
5.32825e-10
8.05964e-10
5.52666e-10
7.061e-10
2.789e-10
5.673e-10
5.46876e-10
4.66602e-10
5.13522e-10
6.01781e-10
5.60734e-10
5.88179e-10
5.0669e-10
5.14255e-10
5.54305e-10
7.30181e-10
5.23722e-10
7.34084e-10
6.64089e-10
5.16463e-10
5.43283e-10
5.4759e-10
6.03166e-10
5.46418e-10
5.12973e-10
5.8134e-10
6.00135e-10
7.13796e-10
5.47367e-10
5.45773e-10
7.79487e-10
7.68509e-10
5.24211e-10
5.16598e-10
2.43318e-10
6.33431e-10
4.49261e-10
5.95958e-10
2.78774e-10
2.89369e-10
2.58545e-10
2.62801e-10
2.78774e-10
2.93762e-10
3.02687e-10
6.61426e-10
4.84971e-10
4.9733e-10
5.71372e-10
5.58019e-10
5.51159e-10
5.77571e-10
5.39543e-10
5.51956e-10
5.47585e-10
5.49125e-10
6.63125e-10
5.03084e-10
6.81881e-10
5.36254e-10
5.1918e-10
5.49904e-10
5.75075e-10
6.09193e-10
5.69377e-10
6.49959e-10
6.09176e-10
5.66853e-10
4.11432e-10
5.6839e-10
5.54056e-10
5.90035e-10
5.74461e-10
5.45098e-10
5.17741e-10
5.69201e-10
5.91783e-10
8.00342e-10
5.33394e-10
7.7818e-10
8.14494e-10
5.59272e-10
7.77741e-10
5.98552e-10
4.82126e-10
6.48197e-10
5.73562e-10
4.04863e-10
3.72004e-10
6.3886e-10
6.7964e-10
5.81217e-10
4.84188e-10
5.77709e-10
2.86072e-10
5.74673e-10
5.40438e-10
2.83251e-10
1.02643e-10
1.12267e-10
4.97551e-10
5.33744e-10
6.17568e-10
5.95613e-10
5.23585e-11
5.47092e-11
5.85196e-10
5.91257e-10
5.59817e-10
2.14745e-10
4.99787e-10
5.72846e-10
5.90579e-10
5.09635e-10
4.49687e-10
2.23783e-10
8.44384e-10
5.37214e-10
6.52392e-10
6.62586e-10
4.78052e-10
6.0451e-10
4.67411e-10
5.15573e-10
2.63361e-10
3.93825e-10
6.05254e-10
6.07051e-10
5.23103e-10
5.50274e-10
5.67126e-10
5.97654e-10
5.71793e-10
2.89036e-10
4.9478e-10
5.67424e-10
5.30264e-10
7.94769e-10
2.89055e-10
4.33217e-10
4.46405e-10
4.1652e-10
2.67636e-10
2.67661e-10
4.78152e-10
3.93736e-10
5.59445e-10
3.09532e-10
3.19934e-10
1.0362e-10
1.03622e-10
2.33321e-10
3.49127e-10
2.34739e-10
4.76874e-10
5.0918e-10
5.49252e-10
6.17432e-10
5.58297e-10
5.16275e-10
4.08821e-10
2.63322e-10
5.1427e-10
5.30265e-10
5.12277e-10
2.94682e-10
2.57883e-10
2.11264e-10
5.11647e-10
5.23677e-10
4.26443e-10
4.76606e-10
4.39392e-10
3.97106e-10
5.38208e-10
3.97086e-10
4.76349e-10
4.55864e-10
2.75491e-10
3.4001e-10
3.32429e-10
5.68203e-10
2.34878e-10
2.4725e-10
2.42276e-10
5.35443e-10
2.23269e-10
2.19405e-10
3.76562e-10
2.04383e-10
4.28847e-10
4.29509e-10
2.09669e-10
4.76401e-10
2.30748e-10
2.31436e-10
2.58622e-10
2.20842e-10
2.15036e-10
3.04428e-10
2.55023e-10
2.33699e-10
2.21437e-10
4.34259e-10
4.92134e-10
2.41983e-10
4.79273e-10
2.01122e-10
4.85479e-10
3.87912e-10
2.09947e-10
1.7647e-10
1.98446e-10
2.62721e-10
4.18769e-10
3.38254e-10
1.39461e-10
1.54907e-10
4.64435e-10
1.31297e-10
1.31299e-10
1.48817e-10
1.67712e-10
2.00704e-10
2.22122e-10
3.70318e-10
3.41081e-10
4.65022e-10
1.32341e-10
1.32343e-10
4.02455e-10
1.75458e-10
3.33413e-10
1.58902e-10
1.5849e-10
2.08776e-10
3.43023e-10
3.55243e-10
3.78578e-10
3.46916e-10
3.43025e-10
7.44319e-11
5.53889e-10
9.51805e-11
9.18957e-11
4.47252e-10
4.44121e-10
9.52093e-11
6.62004e-11
9.35067e-11
4.12909e-10
TENSORS Lagrange_strain float
-2.22045e-16 2.22045e-16 -1.10675e-15
2.22045e-16 0 -4.62223e-33
-1.10675e-15 -4.62223e-33 -2.22045e-16

4.44089e-16 -2.22045e-16 -2.35922e-16
-2.22045e-16 4.44089e-16 2.498e-16
-2.35922e-16 2.498e-16 -6.66134e-16

-8.88178e-16 0 2.77556e-17
0 0 -1.38778e-16
2.77556e-17 -1.38778e-16 -6.66134e-16

-4.44089e-16 3.05311e-16 5.27356e-16
3.05311e-16 0 -2.77556e-17
5.27356e-16 -2.77556e-17 -8.88178e-16

-8.88178e-16 -3.33067e-16 -1.38778e-17
-3.33067e-16 0 1.38778e-17
-1.38778e-17 1.38778e-17 -6.66134e-16

0 2.77556e-16 1.11022e-16
2.77556e-16 0 0
1.11022e-16 0 -8.88178e-16

-2.22045e-16 -1.38778e-17 -1.34094e-15
-1.38778e-17 0 -4.43547e-16
-1.34094e-15 -4.43547e-16 -2.22045e-16

8.88178e-16 2.22045e-16 3.08149e-33
2.22045e-16 4.44089e-16 -2.08167e-16
3.08149e-33 -2.08167e-16 -8.88178e-16

4.44089e-16 -1.11022e-16 2.22045e-16
-1.11022e-16 0 2.22045e-16
2.22045e-16 2.22045e-16 -6.66134e-16

-2.22045e-16 -4.75965e-17 -2.35922e-16
-4.75965e-17 -1.11022e-16 6.36969e-19
-2.35922e-16 6.36969e-19 -8.88178e-16

2.22045e-16 1.38778e-16 4.44089e-16
1.38778e-16 -1.11022e-16 -2.72352e-16
4.44089e-16 -2.72352e-16 -2.22045e-16

0 -1.11022e-16 -1.38778e-17
-1.11022e-16 0 -1.249e-16
-1.38778e-17 -1.249e-16 -8.88178e-16

8.88178e-16 4.44089e-16 0
4.44089e-16 4.44089e-16 4.44089e-16
0 4.44089e-16 -6.66134e-16

2.22045e-16 -1.97215e-31 4.57967e-16
-1.97215e-31 0 -2.22045e-16
4.57967e-16 -2.22045e-16 -6.66134e-16

1.11022e-15 0 4.71845e-16
0 4.44089e-16 -4.16334e-17
4.71845e-16 -4.16334e-17 -6.66134e-16

0 4.44089e-16 2.08167e-16
4.44089e-16 -1.11022e-16 2.2031e-16
2.08167e-16 2.2031e-16 -7.77156e-16

4.44089e-16 -8.32667e-17 -2.35922e-16
-8.32667e-17 2.22045e-16 4.16334e-17
-2.35922e-16 4.16334e-17 -6.66134e-16

-8.88178e-16 -6.93889e-18 -1.38778e-17
-6.93889e-18 0 2.60209e-18
-1.38778e-17 2.60209e-18 -6.66134e-16

0 2.22045e-16 -6.93889e-18
2.22045e-16 2.22045e-16 -4.16334e-17
-6.93889e-18 -4.16334e-17 -7.77156e-16

-1.11022e-16 -4.51028e-17 2.34723e-34
-4.51028e-17 0 -2.60209e-18
2.34723e-34 -2.60209e-18 -7.77156e-16

-2.22045e-16 2.22045e-16 1.09288e-16
2.22045e-16 -8.88178e-16 -8.32667e-17
1.09288e-16 -8.32667e-17 -6.66134e-16

-1.22125e-15 -2.56739e-16 8.89046e-16
-2.56739e-16 2.22045e-16 -1.38778e-16
8.89046e-16 -1.38778e-16 -8.88178e-16

-2.22045e-16 -2.77556e-16 -2.22045e-16
-2.77556e-16 0 3.46945e-18
-2.22045e-16 3.46945e-18 -4.44089e-16

-2.22045e-16 4.44089e-16 -2.42861e-16
4.44089e-16 -2.22045e-16 -9.24446e-33
-2.42861e-16 -9.24446e-33 -8.88178e-16

0 -6.59195e-17 3.747e-16
-6.59195e-17 0 1.8735e-16
3.747e-16 1.8735e-16 -5.55112e-16

0 6.93889e-18 -1.73472e-17
6.93889e-18 0 5.55112e-17
-1.73472e-17 5.55112e-17 -8.88178e-16

-6.66134e-16 -8.90241e-17 4.44089e-16
-8.90241e-17 0 -2.18148e-16
4.44089e-16 -2.18148e-16 -4.44089e-16

0 -9.86076e-32 -2.35922e-16
-9.86076e-32 0 1.94289e-16
-2.35922e-16 1.94289e-16 -5.55112e-16

2.22045e-16 2.60209e-17 -4.33681e-16
2.60209e-17 4.44089e-16 -3.81639e-16
-4.33681e-16 -3.81639e-16 -7.77156e-16

2.22045e-16 8.32667e-17 -1.38778e-17
8.32667e-17 -8.88178e-16 -1.38778e-17
-1.38778e-17 -1.38778e-17 -7.77156e-16

0 -4.996e-16 -5.55112e-17
-4.996e-16 -2.22045e-16 4.3715e-16
-5.55112e-17 4.3715e-16 -7.77156e-16

2.22045e-16 1.11022e-16 -4.62223e-33
1.11022e-16 -2.22045e-16 4.23273e-16
-4.62223e-33 4.23273e-16 -6.66134e-16

0 -3.9443e-31 4.42354e-16
-3.9443e-31 0 -4.44089e-16
4.42354e-16 -4.44089e-16 -3.33067e-16

-2.22045e-16 -2.498e-16 -1.2326e-32
-2.498e-16 -4.44089e-16 2.77556e-17
-1.2326e-32 2.77556e-17 -8.88178e-16

0 -8.74301e-16 -4.47559e-16
-8.74301e-16 4.44089e-16 1.38778e-16
-4.47559e-16 1.38778e-16 -7.77156e-16

2.22045e-16 -3.60822e-16 -4.16334e-17
-3.60822e-16 0 1.38778e-17
-4.16334e-17 1.38778e-17 -8.88178e-16

0 0 0
0 -2.22045e-16 2.22045e-16
0 2.22045e-16 -8.88178e-16

-8.88178e-16 1.11022e-16 5.55112e-17
1.11022e-16 6.66134e-16 5.55112e-17
5.55112e-17 5.55112e-17 -8.88178e-16

0 4.44089e-16 -1.11022e-16
4.44089e-16 0 -2.08167e-16
-1.11022e-16 -2.08167e-16 -8.88178e-16

0 3.45127e-31 4.4062e-16
3.45127e-31 0 3.81639e-16
4.4062e-16 3.81639e-16 -4.44089e-16

4.44089e-16 -2.77556e-17 -6.93889e-18
-2.77556e-17 2.22045e-16 -8.67362e-18
-6.93889e-18 -8.67362e-18 -5.55112e-16

-2.22045e-16 4.16334e-17 -1.14492e-16
4.16334e-17 0 8.32667e-17
-1.14492e-16 8.32667e-17 -8.88178e-16

-1.77636e-15 2.22045e-16 8.32667e-17
2.22045e-16 0 4.16334e-17
8.32667e-17 4.16334e-17 -7.77156e-16

-4.44089e-16 5.55112e-17 -2.35922e-16
5.55112e-17 -2.22045e-16 -2.22045e-16
-2.35922e-16 -2.22045e-16 -8.88178e-16

-1.11022e-16 1.38778e-16 2.22045e-16
1.38778e-16 0 -8.91648e-16
2.22045e-16 -8.91648e-16 -4.44089e-16

-2.22045e-16 1.38778e-17 -2.15106e-16
1.38778e-17 0 -3.46945e-18
-2.15106e-16 -3.46945e-18 -6.66134e-16

0 3.33067e-16 -4.4062e-16
3.33067e-16 0 0
-4.4062e-16 0 -6.66134e-16

0 1.66533e-16 -1.14492e-16
1.66533e-16 0 -1.38778e-17
-1.14492e-16 -1.38778e-17 -5.55112e-16

-1.11022e-16 -8.67362e-18 1.73472e-16
-8.67362e-18 0 4.54498e-16
1.73472e-16 4.54498e-16 -7.77156e-16

-1.11022e-16 2.77556e-17 1.15556e-33
2.77556e-17 0 -6.93889e-18
1.15556e-33 -6.93889e-18 -6.66134e-16

0 -2.08167e-16 2.08167e-16
-2.08167e-16 0 -6.93889e-18
2.08167e-16 -6.93889e-18 -6.66134e-16

-4.44089e-16 2.35922e-16 2.15106e-16
2.35922e-16 0 -3.46945e-18
2.15106e-16 -3.46945e-18 -6.66134e-16

0 4.44089e-16 -2.25514e-16
4.44089e-16 8.88178e-16 -2.77556e-17
-2.25514e-16 -2.77556e-17 -6.66134e-16

2.22045e-16 1.66533e-16 -2.01228e-16
1.66533e-16 0 6.93889e-18
-2.01228e-16 6.93889e-18 -6.66134e-16

-8.88178e-16 0 -4.16334e-17
0 -4.44089e-16 4.44089e-16
-4.16334e-17 4.44089e-16 -6.66134e-16

0 5.55112e-17 -4.44089e-16
5.55112e-17 -4.44089e-16 2.2031e-16
-4.44089e-16 2.2031e-16 -4.44089e-16

0 -1.11022e-16 1.59595e-16
-1.11022e-16 0 5.55112e-17
1.59595e-16 5.55112e-17 -7.77156e-16

-1.11022e-16 -2.22045e-16 -3.46945e-18
-2.22045e-16 0 -4.85723e-17
-3.46945e-18 -4.85723e-17 -6.66134e-16

4.44089e-16 2.22045e-16 4.30211e-16
2.22045e-16 6.66134e-16 -1.38778e-17
4.30211e-16 -1.38778e-17 -8.88178e-16

0 -1.70003e-16 3.46945e-18
-1.70003e-16 0 1.04083e-16
3.46945e-18 1.04083e-16 -8.88178e-16

0 0 -5.55112e-17
0 0 -1.11022e-16
-5.55112e-17 -1.11022e-16 -8.88178e-16

0 -2.77556e-17 1.94289e-16
-2.77556e-17 4.44089e-16 2.77556e-17
1.94289e-16 2.77556e-17 -6.66134e-16

0 1.97215e-31 1.14492e-16
1.97215e-31 0 8.84709e-16
1.14492e-16 8.84709e-16 -3.33067e-16

0 -2.77556e-17 -1.04083e-17
-2.77556e-17 2.22045e-16 -2.77556e-17
-1.04083e-17 -2.77556e-17 -7.77156e-16

-3.33067e-16 -5.55112e-17 3.46945e-18
-5.55112e-17 0 -5.55112e-17
3.46945e-18 -5.55112e-17 -7.77156e-16

0 -2.35922e-16 1.73472e-18
-2.35922e-16 4.44089e-16 -1.38778e-17
1.73472e-18 -1.38778e-17 -8.88178e-16

0 -3.33067e-16 2.77556e-17
-3.33067e-16 2.22045e-16 -2.77556e-17
2.77556e-17 -2.77556e-17 -6.66134e-16

-2.22045e-16 0 4.02456e-16
0 0 3.46945e-18
4.02456e-16 3.46945e-18 -8.88178e-16

2.22045e-16 0 4.16334e-17
0 0 -2.22045e-16
4.16334e-17 -2.22045e-16 -7.77156e-16

-2.22045e-16 6.07153e-18 -2.35922e-16
6.07153e-18 -1.11022e-16 2.26124e-16
-2.35922e-16 2.26124e-16 -7.77156e-16

-1.11022e-16 5.55112e-16 -2.15106e-16
5.55112e-16 -8.88178e-16 2.77556e-17
-2.15106e-16 2.77556e-17 -8.88178e-16

-8.88178e-16 1.94289e-16 -4.57967e-16
1.94289e-16 0 1.11022e-16
-4.57967e-16 1.11022e-16 -8.88178e-16

2.22045e-16 1.11022e-16 -3.46945e-18
1.11022e-16 4.44089e-16 4.44089e-16
-3.46945e-18 4.44089e-16 -4.44089e-16

-2.22045e-16 2.77556e-16 -2.77556e-17
2.77556e-16 -6.66134e-16 6.93889e-18
-2.77556e-17 6.93889e-18 -8.88178e-16

0 -3.33067e-16 -8.32667e-17
-3.33067e-16 0 4.44089e-16
-8.32667e-17 4.44089e-16 -5.55112e-16

-4.44089e-16 -2.77556e-17 -8.84709e-16
-2.77556e-17 -2.22045e-16 2.22045e-16
-8.84709e-16 2.22045e-16 -4.44089e-16

0 0 3.46945e-18
0 6.66134e-16 8.32667e-17
3.46945e-18 8.32667e-17 -8.88178e-16

0 -3.88578e-16 -1.38778e-17
-3.88578e-16 -4.44089e-16 1.38778e-17
-1.38778e-17 1.38778e-17 -8.88178e-16

2.22045e-16 3.88578e-16 2.70617e-16
3.88578e-16 0 -4.16334e-17
2.70617e-16 -4.16334e-17 -8.88178e-16

0 1.94289e-16 4.81482e-35
1.94289e-16 2.22045e-16 2.55872e-16
4.81482e-35 2.55872e-16 -6.66134e-16

0 1.80411e-16 1.38778e-17
1.80411e-16 0 -3.85109e-16
1.38778e-17 -3.85109e-16 -5.55112e-16

0 -7.77156e-16 -4.47559e-16
-7.77156e-16 -6.66134e-16 -7.70372e-34
-4.47559e-16 -7.70372e-34 -7.77156e-16

0 4.02456e-16 4.44089e-16
4.02456e-16 8.88178e-16 4.85723e-17
4.44089e-16 4.85723e-17 -6.66134e-16

-4.44089e-16 0 0
0 -1.11022e-16 7.91034e-16
0 7.91034e-16 -6.66134e-16

-2.22045e-16 -2.34188e-17 2.28983e-16
-2.34188e-17 2.22045e-16 4.49944e-16
2.28983e-16 4.49944e-16 -4.44089e-16

-1.11022e-16 -5.55112e-17 -1.54074e-33
-5.55112e-17 -4.44089e-16 4.30211e-16
-1.54074e-33 4.30211e-16 -4.44089e-16

0 1.04083e-17 -1.73472e-18
1.04083e-17 8.88178e-16 -4.71845e-16
-1.73472e-18 -4.71845e-16 -8.88178e-16

8.88178e-16 1.66533e-16 -6.93889e-17
1.66533e-16 0 0
-6.93889e-17 0 -7.77156e-16

0 2.22045e-16 -6.93889e-18
2.22045e-16 4.44089e-16 4.30211e-16
-6.93889e-18 4.30211e-16 -4.44089e-16

0 -1.88738e-15 8.32667e-17
-1.88738e-15 -1.11022e-16 -6.245e-16
8.32667e-17 -6.245e-16 -6.66134e-16

0 1.17961e-16 4.44089e-16
1.17961e-16 0 -1.66533e-16
4.44089e-16 -1.66533e-16 -6.66134e-16

-6.66134e-16 -2.08167e-16 -1.63758e-15
-2.08167e-16 -1.77636e-15 8.88178e-16
-1.63758e-15 8.88178e-16 -6.66134e-16

0 2.77556e-17 0
2.77556e-17 0 -8.32667e-17
0 -8.32667e-17 -7.77156e-16

8.88178e-16 3.33067e-16 -1.38778e-17
3.33067e-16 0 -2.22045e-16
-1.38778e-17 -2.22045e-16 -5.55112e-16

0 -1.11022e-16 -2.35922e-16
-1.11022e-16 -5.55112e-16 5.20417e-18
-2.35922e-16 5.20417e-18 -6.66134e-16

0 -1.9082e-17 4.42354e-16
-1.9082e-17 0 5.41234e-16
4.42354e-16 5.41234e-16 -6.66134e-16

0 0 3.46945e-18
0 -2.22045e-16 -6.8695e-16
3.46945e-18 -6.8695e-16 -5.55112e-16

0 -3.88578e-16 -4.44089e-16
-3.88578e-16 -7.77156e-16 1.38778e-16
-4.44089e-16 1.38778e-16 -7.77156e-16

0 0 -2.77556e-17
0 0 -6.93889e-18
-2.77556e-17 -6.93889e-18 -8.88178e-16

0 -8.76035e-17 -6.93889e-18
-8.76035e-17 -4.44089e-16 5.20417e-17
-6.93889e-18 5.20417e-17 -6.66134e-16

0 -1.11022e-16 1.38778e-17
-1.11022e-16 2.22045e-16 4.4062e-16
1.38778e-17 4.4062e-16 -5.55112e-16

0 2.42861e-16 -4.47559e-16
2.42861e-16 -2.22045e-16 4.51028e-16
-4.47559e-16 4.51028e-16 -4.44089e-16

-1.11022e-16 -8.32667e-17 2.22045e-16
-8.32667e-17 -2.22045e-16 4.47559e-16
2.22045e-16 4.47559e-16 -5.55112e-16

-6.66134e-16 1.66533e-16 -2.77556e-17
1.66533e-16 0 -2.77556e-16
-2.77556e-17 -2.77556e-16 -8.88178e-16

-2.22045e-16 -2.08167e-16 6.93889e-18
-2.08167e-16 -2.22045e-16 -1.94289e-16
6.93889e-18 -1.94289e-16 -8.88178e-16

0 -2.22045e-16 -2.01228e-16
-2.22045e-16 8.88178e-16 4.57967e-16
-2.01228e-16 4.57967e-16 -6.66134e-16

-1.11022e-16 -1.11022e-16 -1.04083e-17
-1.11022e-16 -2.22045e-16 2.35922e-16
-1.04083e-17 2.35922e-16 -8.88178e-16

4.44089e-16 -2.77556e-17 2.77556e-17
-2.77556e-17 -1.11022e-16 -3.27863e-16
2.77556e-17 -3.27863e-16 -7.77156e-16

0 0 0
0 0 2.77556e-16
0 2.77556e-16 -6.66134e-16

0 0 0
0 6.66134e-16 8.32667e-17
0 8.32667e-17 -8.88178e-16

0 1.66533e-16 4.44089e-16
1.66533e-16 2.22045e-16 -6.93889e-17
4.44089e-16 -6.93889e-17 -6.66134e-16

-1.11022e-16 0 8.67362e-19
0 -1.11022e-16 -4.57967e-16
8.67362e-19 -4.57967e-16 -4.44089e-16

-2.22045e-16 -2.22045e-16 4.3715e-16
-2.22045e-16 0 -4.51028e-16
4.3715e-16 -4.51028e-16 -6.66134e-16

-2.22045e-16 2.22045e-16 6.16298e-33
2.22045e-16 0 -2.08167e-16
6.16298e-33 -2.08167e-16 -6.66134e-16

-8.88178e-16 4.44089e-16 -1.80411e-16
4.44089e-16 -2.22045e-16 6.93889e-18
-1.80411e-16 6.93889e-18 -8.88178e-16

-3.33067e-16 5.55112e-17 1.17961e-16
5.55112e-17 0 -4.51028e-16
1.17961e-16 -4.51028e-16 -6.66134e-16

0 3.33067e-16 2.498e-16
3.33067e-16 -4.44089e-16 2.63678e-16
2.498e-16 2.63678e-16 -6.66134e-16

0 1.11022e-16 -4.44089e-16
1.11022e-16 0 1.04083e-17
-4.44089e-16 1.04083e-17 -6.66134e-16

0 -2.22045e-16 2.77556e-17
-2.22045e-16 2.22045e-16 6.93889e-18
2.77556e-17 6.93889e-18 -7.77156e-16

0 4.16334e-17 -2.21177e-16
4.16334e-17 -1.11022e-16 2.08167e-16
-2.21177e-16 2.08167e-16 -6.66134e-16

-8.88178e-16 1.73472e-18 -3.88578e-16
1.73472e-18 0 0
-3.88578e-16 0 -6.66134e-16

-4.44089e-16 1.11022e-16 4.44089e-16
1.11022e-16 0 1.38778e-17
4.44089e-16 1.38778e-17 -7.77156e-16

2.22045e-16 2.22045e-16 2.22045e-16
2.22045e-16 0 8.32667e-17
2.22045e-16 8.32667e-17 -8.88178e-16

0 1.17961e-16 2.08167e-17
1.17961e-16 0 2.35922e-16
2.08167e-17 2.35922e-16 -6.66134e-16

0 5.55112e-17 1.11022e-16
5.55112e-17 0 0
1.11022e-16 0 -6.66134e-16

-2.22045e-16 1.11022e-16 9.02056e-17
1.11022e-16 0 2.77556e-17
9.02056e-17 2.77556e-17 -8.88178e-16

1.33227e-15 4.44089e-16 5.55112e-17
4.44089e-16 -1.11022e-15 4.02456e-16
5.55112e-17 4.02456e-16 -6.66134e-16

4.44089e-16 3.46945e-18 1.38778e-17
3.46945e-18 0 1.38778e-17
1.38778e-17 1.38778e-17 -6.66134e-16

-1.11022e-16 -2.1684e-16 2.2237e-16
-2.1684e-16 2.22045e-16 -4.3715e-16
2.2237e-16 -4.3715e-16 -6.66134e-16

0 -2.08167e-16 4.3715e-16
-2.08167e-16 0 -3.64292e-16
4.3715e-16 -3.64292e-16 -6.66134e-16

-1.11022e-16 -6.66134e-16 6.93889e-18
-6.66134e-16 1.33227e-15 -2.22045e-16
6.93889e-18 -2.22045e-16 -8.88178e-16

1.55431e-15 0 -8.32667e-17
0 0 -2.25514e-16
-8.32667e-17 -2.25514e-16 -8.88178e-16

0 -2.22045e-16 2.28983e-16
-2.22045e-16 8.88178e-16 -3.08149e-33
2.28983e-16 -3.08149e-33 -8.88178e-16

2.22045e-16 -1.76942e-16 4.44089e-16
-1.76942e-16 -1.11022e-16 4.16334e-17
4.44089e-16 4.16334e-17 -8.88178e-16

0 -8.67362e-17 6.93889e-18
-8.67362e-17 0 1.38778e-17
6.93889e-18 1.38778e-17 -6.66134e-16

0 -5.91646e-31 -8.86444e-16
-5.91646e-31 0 3.05311e-16
-8.86444e-16 3.05311e-16 -8.88178e-16

0 9.71445e-17 3.46945e-18
9.71445e-17 -2.22045e-16 5.44703e-16
3.46945e-18 5.44703e-16 -5.55112e-16

0 1.11022e-16 -4.16334e-17
1.11022e-16 0 -3.43475e-16
-4.16334e-17 -3.43475e-16 -8.88178e-16

2.22045e-16 1.11022e-16 1.94289e-16
1.11022e-16 0 2.08167e-16
1.94289e-16 2.08167e-16 -8.88178e-16

-1.33227e-15 0 3.88578e-16
0 0 -1.38778e-17
3.88578e-16 -1.38778e-17 -6.66134e-16

0 5.55112e-17 5.20417e-18
5.55112e-17 0 3.46945e-17
5.20417e-18 3.46945e-17 -6.66134e-16

-2.22045e-16 5.55112e-17 0
5.55112e-17 4.44089e-16 2.498e-16
0 2.498e-16 -6.66134e-16

0 8.32667e-17 2.35922e-16
8.32667e-17 -1.11022e-16 4.44089e-16
2.35922e-16 4.44089e-16 -5.55112e-16

-1.11022e-16 1.11022e-16 -4.51028e-16
1.11022e-16 6.66134e-16 2.77556e-17
-4.51028e-16 2.77556e-17 -6.66134e-16

0 2.77556e-17 -5.51642e-16
2.77556e-17 0 -6.93889e-18
-5.51642e-16 -6.93889e-18 -6.66134e-16

4.44089e-16 0 -1.249e-16
0 0 0
-1.249e-16 0 -6.66134e-16

-4.44089e-16 -2.77556e-17 4.16334e-17
-2.77556e-17 4.44089e-16 3.53884e-16
4.16334e-17 3.53884e-16 -6.66134e-16

2.22045e-16 0 2.35922e-16
0 2.22045e-16 -1.04083e-17
2.35922e-16 -1.04083e-17 -5.55112e-16

0 -5.55112e-17 6.93889e-17
-5.55112e-17 0 2.77556e-17
6.93889e-17 2.77556e-17 -6.66134e-16

0 3.33067e-16 5.55112e-17
3.33067e-16 0 3.92048e-16
5.55112e-17 3.92048e-16 -6.66134e-16

0 0 0
0 -1.11022e-16 -2.77556e-16
0 -2.77556e-16 -7.77156e-16

0 0 1.38778e-17
0 -8.88178e-16 0
1.38778e-17 0 -8.88178e-16

-1.11022e-16 1.11022e-16 4.3715e-16
1.11022e-16 -2.22045e-16 -2.08167e-17
4.3715e-16 -2.08167e-17 -8.88178e-16

0 -1.66533e-16 2.32453e-16
-1.66533e-16 0 -2.08167e-16
2.32453e-16 -2.08167e-16 -6.66134e-16

0 0 2.22045e-16
0 4.44089e-16 1.38778e-17
2.22045e-16 1.38778e-17 -6.66134e-16

0 1.73472e-17 1.38778e-17
1.73472e-17 -6.66134e-16 -1.249e-16
1.38778e-17 -1.249e-16 -7.77156e-16

0 0 -6.93889e-18
0 0 -1.38778e-17
-6.93889e-18 -1.38778e-17 -6.66134e-16

-1.11022e-16 2.25514e-16 -2.28983e-16
2.25514e-16 -1.11022e-16 4.4062e-16
-2.28983e-16 4.4062e-16 -6.66134e-16

0 -2.22045e-16 2.2031e-16
-2.22045e-16 0 1.38778e-17
2.2031e-16 1.38778e-17 -6.66134e-16

4.44089e-16 -3.88578e-16 -2.77556e-17
-3.88578e-16 8.88178e-16 -1.38778e-17
-2.77556e-17 -1.38778e-17 -5.55112e-16

-4.44089e-16 1.47911e-31 -1.54074e-32
1.47911e-31 2.22045e-16 -2.56739e-16
-1.54074e-32 -2.56739e-16 -6.66134e-16

0 -1.66533e-16 6.93889e-18
-1.66533e-16 -2.22045e-16 -4.44089e-16
6.93889e-18 -4.44089e-16 -6.66134e-16

0 0 -4.47559e-16
0 -3.33067e-16 -1.04083e-17
-4.47559e-16 -1.04083e-17 -6.66134e-16

-1.11022e-16 -1.11022e-16 2.15106e-16
-1.11022e-16 -4.44089e-16 -4.3715e-16
2.15106e-16 -4.3715e-16 -5.55112e-16

0 4.16334e-17 4.57967e-16
4.16334e-17 0 -2.84495e-16
4.57967e-16 -2.84495e-16 -6.66134e-16

-4.44089e-16 5.11743e-17 1.10967e-35
5.11743e-17 -2.22045e-16 4.44198e-16
1.10967e-35 4.44198e-16 -8.88178e-16

4.44089e-16 1.66533e-16 -2.25514e-16
1.66533e-16 -4.44089e-16 -4.30211e-16
-2.25514e-16 -4.30211e-16 -6.66134e-16

0 2.22045e-16 -2.35922e-16
2.22045e-16 2.22045e-16 3.46945e-18
-2.35922e-16 3.46945e-18 -3.33067e-16

0 1.11022e-16 -1.12757e-16
1.11022e-16 0 -4.3715e-16
-1.12757e-16 -4.3715e-16 -6.66134e-16

0 8.32667e-17 0
8.32667e-17 2.22045e-16 -2.63678e-16
0 -2.63678e-16 -4.44089e-16

0 2.1684e-17 -6.93889e-18
2.1684e-17 0 1.35308e-16
-6.93889e-18 1.35308e-16 -6.66134e-16

0 -4.85723e-17 4.33681e-19
-4.85723e-17 0 -1.38778e-17
4.33681e-19 -1.38778e-17 -6.66134e-16

2.22045e-16 -1.11022e-16 -2.15106e-16
-1.11022e-16 0 4.3715e-16
-2.15106e-16 4.3715e-16 -6.66134e-16

0 2.08167e-17 -1.38778e-17
2.08167e-17 0 -3.46945e-16
-1.38778e-17 -3.46945e-16 -7.77156e-16

4.44089e-16 2.08167e-16 -4.3715e-16
2.08167e-16 2.22045e-16 -3.19189e-16
-4.3715e-16 -3.19189e-16 -4.44089e-16

0 1.11022e-16 4.16334e-17
1.11022e-16 -1.11022e-16 3.46945e-17
4.16334e-17 3.46945e-17 -6.66134e-16

0 3.33067e-16 -4.16334e-16
3.33067e-16 0 2.77556e-17
-4.16334e-16 2.77556e-17 -6.66134e-16

0 -5.55112e-17 -1.38778e-17
-5.55112e-17 -1.11022e-16 2.22045e-16
-1.38778e-17 2.22045e-16 -6.66134e-16

0 -6.10623e-16 6.93889e-17
-6.10623e-16 -2.22045e-16 -2.08167e-17
6.93889e-17 -2.08167e-17 -7.77156e-16

-4.44089e-16 1.11022e-16 3.08149e-33
1.11022e-16 0 1.38778e-17
3.08149e-33 1.38778e-17 -7.77156e-16

-3.33067e-16 0 -1.38778e-17
0 -2.22045e-16 -6.245e-17
-1.38778e-17 -6.245e-17 -6.66134e-16

0 6.66134e-16 -1.94289e-16
6.66134e-16 0 4.44089e-16
-1.94289e-16 4.44089e-16 -6.66134e-16

-7.77156e-16 -3.33067e-16 -2.08167e-16
-3.33067e-16 0 -2.77556e-17
-2.08167e-16 -2.77556e-17 -8.88178e-16

-2.22045e-16 -2.22045e-16 -4.47559e-16
-2.22045e-16 0 -6.93889e-18
-4.47559e-16 -6.93889e-18 -6.66134e-16

4.44089e-16 5.55112e-17 -2.22045e-16
5.55112e-17 0 0
-2.22045e-16 0 -8.88178e-16

0 8.32667e-17 6.93889e-18
8.32667e-17 0 -1.39645e-16
6.93889e-18 -1.39645e-16 -6.66134e-16

0 -3.33067e-16 1.38778e-17
-3.33067e-16 4.44089e-16 4.16334e-17
1.38778e-17 4.16334e-17 -8.88178e-16

-2.22045e-16 0 -3.46945e-18
0 4.44089e-16 -3.88578e-16
-3.46945e-18 -3.88578e-16 -8.88178e-16

0 2.22045e-16 -6.16298e-33
2.22045e-16 -4.44089e-16 -1.38778e-17
-6.16298e-33 -1.38778e-17 -8.88178e-16

-8.88178e-16 -1.11022e-16 2.08167e-16
-1.11022e-16 0 1.38778e-17
2.08167e-16 1.38778e-17 -6.66134e-16

0 -6.93889e-18 1.73472e-18
-6.93889e-18 8.88178e-16 -8.32667e-17
1.73472e-18 -8.32667e-17 -8.88178e-16

0 4.16334e-17 -4.57967e-16
4.16334e-17 -1.11022e-16 6.07153e-18
-4.57967e-16 6.07153e-18 -5.55112e-16

-1.11022e-16 2.22045e-16 -6.93889e-18
2.22045e-16 0 -2.08167e-17
-6.93889e-18 -2.08167e-17 -6.66134e-16

0 5.55112e-17 5.20417e-18
5.55112e-17 0 1.38778e-17
5.20417e-18 1.38778e-17 -6.66134e-16

0 3.34043e-16 -2.77556e-17
3.34043e-16 2.22045e-16 1.41543e-16
-2.77556e-17 1.41543e-16 -8.88178e-16

0 4.82253e-16 -4.71845e-16
4.82253e-16 -1.11022e-16 -1.38236e-16
-4.71845e-16 -1.38236e-16 -8.88178e-16

0 2.22045e-16 2.08167e-16
2.22045e-16 -4.44089e-16 -5.55112e-17
2.08167e-16 -5.55112e-17 -7.77156e-16

0 0 2.08167e-16
0 0 5.55112e-17
2.08167e-16 5.55112e-17 -6.66134e-16

-1.11022e-16 2.22045e-16 -1.38778e-17
2.22045e-16 -8.88178e-16 2.35922e-16
-1.38778e-17 2.35922e-16 -7.77156e-16

2.22045e-16 -3.33067e-16 -3.35235e-16
-3.33067e-16 8.88178e-16 -1.38778e-17
-3.35235e-16 -1.38778e-17 -8.88178e-16

0 -4.44089e-16 2.08167e-16
-4.44089e-16 -8.88178e-16 5.55112e-17
2.08167e-16 5.55112e-17 -6.66134e-16

0 -1.97215e-31 -2.08167e-16
-1.97215e-31 0 4.47559e-16
-2.08167e-16 4.47559e-16 -7.77156e-16

-2.22045e-16 0 2.22045e-16
0 -2.22045e-16 -6.93889e-18
2.22045e-16 -6.93889e-18 -6.66134e-16

-8.88178e-16 2.77556e-17 2.77556e-16
2.77556e-17 -2.22045e-16 -2.39392e-16
2.77556e-16 -2.39392e-16 -8.88178e-16

0 -2.22045e-16 2.08167e-17
-2.22045e-16 -2.22045e-16 -4.57967e-16
2.08167e-17 -4.57967e-16 -6.66134e-16

4.44089e-16 4.47559e-16 6.93889e-18
4.47559e-16 0 -5.55112e-17
6.93889e-18 -5.55112e-17 -6.66134e-16

0 2.77556e-17 1.94289e-16
2.77556e-17 -4.44089e-16 -4.44089e-16
1.94289e-16 -4.44089e-16 -8.88178e-16

0 0 2.42861e-16
0 0 0
2.42861e-16 0 -5.55112e-16

0 -3.88578e-16 1.38778e-17
-3.88578e-16 0 2.35922e-16
1.38778e-17 2.35922e-16 -8.88178e-16

0 -4.996e-16 -3.60822e-16
-4.996e-16 0 -2.1684e-16
-3.60822e-16 -2.1684e-16 -6.66134e-16

-1.11022e-16 -3.88578e-16 -1.94289e-16
-3.88578e-16 8.88178e-16 0
-1.94289e-16 0 -6.66134e-16

0 -4.16334e-17 -5.55112e-17
-4.16334e-17 0 -2.35922e-16
-5.55112e-17 -2.35922e-16 -7.77156e-16

-8.88178e-16 2.22045e-16 -1.94289e-16
2.22045e-16 0 -6.93889e-18
-1.94289e-16 -6.93889e-18 -7.77156e-16

-4.44089e-16 -3.33067e-16 -2.08167e-16
-3.33067e-16 0 2.77556e-17
-2.08167e-16 2.77556e-17 -5.55112e-16

4.44089e-16 -3.60822e-16 2.56739e-16
-3.60822e-16 4.44089e-16 -1.38778e-17
2.56739e-16 -1.38778e-17 -6.66134e-16

0 0 2.08167e-16
0 2.22045e-16 -1.38778e-17
2.08167e-16 -1.38778e-17 -5.55112e-16

0 -5.55112e-17 -2.15106e-16
-5.55112e-17 0 6.93889e-18
-2.15106e-16 6.93889e-18 -6.66134e-16

-6.66134e-16 2.22045e-16 1.2326e-32
2.22045e-16 0 -4.16334e-16
1.2326e-32 -4.16334e-16 -6.66134e-16

6.66134e-16 -6.93889e-18 1.38778e-17
-6.93889e-18 -2.22045e-16 -5.55112e-17
1.38778e-17 -5.55112e-17 -8.88178e-16

-2.22045e-16 -3.33067e-16 -2.498e-16
-3.33067e-16 0 2.77556e-17
-2.498e-16 2.77556e-17 -6.66134e-16

-1.11022e-16 -2.15163e-17 -1.38778e-17
-2.15163e-17 2.22045e-16 6.20706e-17
-1.38778e-17 6.20706e-17 -8.88178e-16

4.44089e-16 0 6.93889e-18
0 0 -2.498e-16
6.93889e-18 -2.498e-16 -8.88178e-16

0 5.55112e-17 -2.77556e-17
5.55112e-17 -2.22045e-16 0
-2.77556e-17 0 -8.88178e-16

2.22045e-16 0 1.38778e-16
0 0 -6.93889e-18
1.38778e-16 -6.93889e-18 -8.88178e-16

0 -1.38778e-17 0
-1.38778e-17 0 2.42861e-16
0 2.42861e-16 -6.66134e-16

-2.22045e-16 4.44089e-16 -2.08167e-16
4.44089e-16 0 2.22045e-16
-2.08167e-16 2.22045e-16 -8.88178e-16

0 0 -4.16334e-17
0 0 -2.63678e-16
-4.16334e-17 -2.63678e-16 -5.55112e-16

-4.44089e-16 -3.33067e-16 -4.4062e-16
-3.33067e-16 0 0
-4.4062e-16 0 -5.55112e-16

0 2.42861e-17 -4.3715e-16
2.42861e-17 6.66134e-16 1.249e-16
-4.3715e-16 1.249e-16 -8.88178e-16

1.11022e-15 4.44089e-16 0
4.44089e-16 -6.66134e-16 -1.38778e-17
0 -1.38778e-17 -6.66134e-16

4.44089e-16 2.22045e-16 4.71845e-16
2.22045e-16 2.22045e-16 -6.245e-17
4.71845e-16 -6.245e-17 -5.55112e-16

0 -9.21572e-18 2.60209e-18
-9.21572e-18 0 -1.11022e-16
2.60209e-18 -1.11022e-16 -6.66134e-16

-2.22045e-16 5.55112e-17 1.52656e-16
5.55112e-17 4.44089e-16 -6.93889e-17
1.52656e-16 -6.93889e-17 -6.66134e-16

0 -1.73472e-16 4.16334e-16
-1.73472e-16 -2.22045e-16 -2.63678e-16
4.16334e-16 -2.63678e-16 -8.88178e-16

0 4.16334e-17 1.44445e-34
4.16334e-17 0 -1.0842e-16
1.44445e-34 -1.0842e-16 -7.77156e-16

6.66134e-16 0 1.94289e-16
0 4.44089e-16 -6.93889e-18
1.94289e-16 -6.93889e-18 -7.77156e-16

0 -1.11022e-16 2.22045e-16
-1.11022e-16 2.22045e-16 -2.08167e-17
2.22045e-16 -2.08167e-17 -6.66134e-16

2.22045e-16 2.77556e-17 -1.94289e-16
2.77556e-17 -1.11022e-16 0
-1.94289e-16 0 -6.66134e-16

0 -1.30104e-18 4.45824e-16
-1.30104e-18 -2.22045e-16 2.498e-16
4.45824e-16 2.498e-16 -6.66134e-16

-2.22045e-16 -6.66134e-16 4.57967e-16
-6.66134e-16 -8.88178e-16 5.55112e-17
4.57967e-16 5.55112e-17 -8.88178e-16

4.44089e-16 2.01228e-16 1.2326e-32
2.01228e-16 0 1.04083e-16
1.2326e-32 1.04083e-16 -8.88178e-16

0 -5.55112e-17 4.44089e-16
-5.55112e-17 0 2.08167e-17
4.44089e-16 2.08167e-17 -5.55112e-16

4.44089e-16 2.77556e-17 1.249e-16
2.77556e-17 -4.44089e-16 -4.78784e-16
1.249e-16 -4.78784e-16 -7.77156e-16

0 -8.32667e-17 6.93889e-18
-8.32667e-17 0 -2.08167e-17
6.93889e-18 -2.08167e-17 -6.66134e-16

4.44089e-16 -4.16334e-17 5.55112e-17
-4.16334e-17 0 2.77556e-16
5.55112e-17 2.77556e-16 -4.44089e-16

0 1.11022e-16 4.16334e-17
1.11022e-16 0 -1.80411e-16
4.16334e-17 -1.80411e-16 -8.88178e-16

0 2.1684e-18 -1.30104e-18
2.1684e-18 0 3.05311e-16
-1.30104e-18 3.05311e-16 -6.66134e-16

4.44089e-16 2.6773e-17 1.73472e-18
2.6773e-17 2.22045e-16 -1.79869e-16
1.73472e-18 -1.79869e-16 -6.66134e-16

-2.22045e-16 1.97215e-31 2.11636e-16
1.97215e-31 0 4.44089e-16
2.11636e-16 4.44089e-16 -6.66134e-16

0 1.47451e-17 3.46945e-17
1.47451e-17 -1.11022e-16 -1.95156e-18
3.46945e-17 -1.95156e-18 -5.55112e-16

0 2.22045e-16 1.38778e-17
2.22045e-16 0 0
1.38778e-17 0 -6.66134e-16

4.44089e-16 1.18329e-30 -6.67869e-16
1.18329e-30 2.22045e-16 -8.95117e-16
-6.67869e-16 -8.95117e-16 -5.55112e-16

-3.33067e-16 -3.33067e-16 -6.93889e-18
-3.33067e-16 8.88178e-16 -1.38778e-17
-6.93889e-18 -1.38778e-17 -7.77156e-16

0 2.42861e-17 4.44089e-16
2.42861e-17 0 -1.73472e-18
4.44089e-16 -1.73472e-18 -6.66134e-16

0 -1.97215e-31 2.35922e-16
-1.97215e-31 0 -4.3715e-16
2.35922e-16 -4.3715e-16 -7.77156e-16

-6.66134e-16 -2.77556e-17 -1.38778e-16
-2.77556e-17 -1.11022e-16 0
-1.38778e-16 0 -8.88178e-16

0 3.46945e-17 0
3.46945e-17 6.66134e-16 -9.71445e-17
0 -9.71445e-17 -5.55112e-16

2.22045e-16 6.66134e-16 2.22045e-16
6.66134e-16 0 5.55112e-17
2.22045e-16 5.55112e-17 -6.66134e-16

-4.44089e-16 -5.55112e-16 4.44089e-16
-5.55112e-16 0 -2.08167e-16
4.44089e-16 -2.08167e-16 -7.77156e-16

4.44089e-16 -2.77556e-17 -2.42861e-16
-2.77556e-17 0 -1.73472e-18
-2.42861e-16 -1.73472e-18 -5.55112e-16

0 1.97215e-31 2.22045e-16
1.97215e-31 0 4.3715e-16
2.22045e-16 4.3715e-16 -6.66134e-16

0 1.11022e-16 -2.498e-16
1.11022e-16 -8.88178e-16 2.77556e-17
-2.498e-16 2.77556e-17 -8.88178e-16

0 -4.44089e-16 -3.46945e-18
-4.44089e-16 6.66134e-16 2.77556e-17
-3.46945e-18 2.77556e-17 -6.66134e-16

0 0 3.46945e-18
0 2.22045e-16 -1.38778e-17
3.46945e-18 -1.38778e-17 -6.66134e-16

-6.66134e-16 1.11022e-16 0
1.11022e-16 -4.44089e-16 -5.55112e-17
0 -5.55112e-17 -8.88178e-16

4.44089e-16 -2.77556e-16 4.30211e-16
-2.77556e-16 0 -6.93889e-18
4.30211e-16 -6.93889e-18 -6.66134e-16

0 1.11022e-16 1.38778e-17
1.11022e-16 -1.55431e-15 -2.08167e-16
1.38778e-17 -2.08167e-16 -8.88178e-16

-1.11022e-16 6.93889e-18 2.08167e-17
6.93889e-18 2.22045e-16 -9.02056e-17
2.08167e-17 -9.02056e-17 -7.77156e-16

0 0 2.77556e-17
0 2.22045e-16 -6.93889e-18
2.77556e-17 -6.93889e-18 -7.77156e-16

-1.11022e-16 0 -2.35922e-16
0 0 -1.38778e-17
-2.35922e-16 -1.38778e-17 -7.77156e-16

0 4.44089e-16 -2.46519e-32
4.44089e-16 0 -5.55112e-17
-2.46519e-32 -5.55112e-17 -7.77156e-16

4.44089e-16 2.08167e-17 0
2.08167e-17 6.66134e-16 6.93889e-17
0 6.93889e-17 -6.66134e-16

1.11022e-15 -1.66533e-16 2.22045e-16
-1.66533e-16 2.22045e-16 2.15106e-16
2.22045e-16 2.15106e-16 -6.66134e-16

-1.11022e-16 6.66134e-16 3.46945e-18
6.66134e-16 0 4.71845e-16
3.46945e-18 4.71845e-16 -7.77156e-16

0 0 5.55112e-17
0 6.66134e-16 -4.16334e-17
5.55112e-17 -4.16334e-17 -6.66134e-16

-2.22045e-16 4.51028e-17 5.75928e-16
4.51028e-17 0 -4.44089e-16
5.75928e-16 -4.44089e-16 -4.44089e-16

4.44089e-16 6.93889e-18 -4.61436e-16
6.93889e-18 0 5.96311e-19
-4.61436e-16 5.96311e-19 -5.55112e-16

0 3.88578e-16 4.16334e-17
3.88578e-16 -1.11022e-16 9.02056e-17
4.16334e-17 9.02056e-17 -6.66134e-16

0 -3.33067e-16 6.93889e-18
-3.33067e-16 -1.33227e-15 1.38778e-17
6.93889e-18 1.38778e-17 -8.88178e-16

-2.22045e-16 2.22045e-16 2.22045e-16
2.22045e-16 0 1.38778e-17
2.22045e-16 1.38778e-17 -8.88178e-16

0 -3.46945e-17 -5.55112e-17
-3.46945e-17 -2.22045e-16 2.7761e-16
-5.55112e-17 2.7761e-16 -8.88178e-16

2.22045e-16 -1.38778e-17 0
-1.38778e-17 0 -9.71445e-17
0 -9.71445e-17 -8.88178e-16

-6.66134e-16 5.27356e-16 -8.32667e-17
5.27356e-16 0 -7.39557e-32
-8.32667e-17 -7.39557e-32 -5.55112e-16

0 1.66533e-16 -6.93889e-18
1.66533e-16 -8.88178e-16 -6.93889e-18
-6.93889e-18 -6.93889e-18 -6.66134e-16

0 2.08167e-16 8.67362e-19
2.08167e-16 0 2.77556e-17
8.67362e-19 2.77556e-17 -7.77156e-16

2.22045e-16 5.55112e-17 6.93889e-18
5.55112e-17 6.66134e-16 2.77556e-17
6.93889e-18 2.77556e-17 -4.44089e-16

0 0 -2.77556e-17
0 -2.22045e-16 1.38778e-17
-2.77556e-17 1.38778e-17 -6.66134e-16

0 0 -2.15106e-16
0 -2.22045e-16 -2.08167e-17
-2.15106e-16 -2.08167e-17 -6.66134e-16

0 2.7929e-16 1.04083e-17
2.7929e-16 2.22045e-16 2.35922e-16
1.04083e-17 2.35922e-16 -5.55112e-16

0 2.77556e-17 -2.77556e-17
2.77556e-17 0 9.71445e-17
-2.77556e-17 9.71445e-17 -8.88178e-16

-3.33067e-16 3.9443e-31 -4.38885e-16
3.9443e-31 8.88178e-16 -4.71845e-16
-4.38885e-16 -4.71845e-16 -7.77156e-16

0 0 -1.17961e-16
0 0 -5.55112e-17
-1.17961e-16 -5.55112e-17 -8.88178e-16

-4.44089e-16 0 -2.22045e-16
0 2.22045e-16 0
-2.22045e-16 0 -8.88178e-16

-2.22045e-16 -2.22045e-16 -2.35922e-16
-2.22045e-16 0 -1.38778e-17
-2.35922e-16 -1.38778e-17 -8.88178e-16

0 -3.53884e-16 -6.93889e-18
-3.53884e-16 0 5.20417e-17
-6.93889e-18 5.20417e-17 -6.66134e-16

0 -4.33681e-16 4.45824e-16
-4.33681e-16 -7.77156e-16 6.16298e-33
4.45824e-16 6.16298e-33 -6.66134e-16

-1.33227e-15 -4.85723e-17 -2.77556e-17
-4.85723e-17 0 5.89806e-17
-2.77556e-17 5.89806e-17 -8.88178e-16

4.44089e-16 2.22045e-16 -5.55112e-17
2.22045e-16 -1.11022e-16 -2.15106e-16
-5.55112e-17 -2.15106e-16 -7.77156e-16

0 5.55112e-17 2.27249e-16
5.55112e-17 -2.22045e-16 4.92661e-16
2.27249e-16 4.92661e-16 -7.77156e-16

0 5.55112e-17 -1.73472e-17
5.55112e-17 4.44089e-16 -2.08167e-17
-1.73472e-17 -2.08167e-17 -5.55112e-16

0 3.33067e-16 -4.16334e-17
3.33067e-16 4.44089e-16 -2.77556e-17
-4.16334e-17 -2.77556e-17 -6.66134e-16

0 -4.16334e-17 -6.93889e-18
-4.16334e-17 -6.66134e-16 3.40006e-16
-6.93889e-18 3.40006e-16 -7.77156e-16

0 3.88578e-16 -2.77556e-17
3.88578e-16 -6.66134e-16 -6.93889e-18
-2.77556e-17 -6.93889e-18 -7.77156e-16

0 8.32667e-17 -3.46945e-17
8.32667e-17 -2.22045e-16 -1.63931e-16
-3.46945e-17 -1.63931e-16 -7.77156e-16

0 0 0
0 4.44089e-16 -4.16334e-16
0 -4.16334e-16 -5.55112e-16

-6.66134e-16 5.55112e-17 -2.01228e-16
5.55112e-17 2.22045e-16 2.08167e-17
-2.01228e-16 2.08167e-17 -5.55112e-16

4.44089e-16 5.55112e-17 2.1684e-16
5.55112e-17 -3.33067e-16 0
2.1684e-16 0 -6.66134e-16

2.22045e-16 -5.37764e-17 -5.20417e-18
-5.37764e-17 8.88178e-16 1.66533e-16
-5.20417e-18 1.66533e-16 -8.88178e-16

0 -5.55112e-17 3.46945e-18
-5.55112e-17 -6.66134e-16 -2.77556e-17
3.46945e-18 -2.77556e-17 -6.66134e-16

1.33227e-15 0 2.77556e-17
0 4.44089e-16 8.60423e-16
2.77556e-17 8.60423e-16 -8.88178e-16

2.22045e-16 2.77556e-16 1.04083e-17
2.77556e-16 2.22045e-16 1.38778e-17
1.04083e-17 1.38778e-17 -6.66134e-16

8.88178e-16 -6.10623e-16 2.35922e-16
-6.10623e-16 2.22045e-16 4.44089e-16
2.35922e-16 4.44089e-16 -7.77156e-16

0 -1.66533e-16 2.18575e-16
-1.66533e-16 2.22045e-16 -4.16334e-17
2.18575e-16 -4.16334e-17 -7.77156e-16

-8.88178e-16 5.55112e-17 -5.55112e-17
5.55112e-17 2.22045e-16 -2.22045e-16
-5.55112e-17 -2.22045e-16 -6.66134e-16

0 -1.11022e-16 2.32453e-16
-1.11022e-16 -4.44089e-16 4.23273e-16
2.32453e-16 4.23273e-16 -6.66134e-16

0 -4.16334e-16 -9.71445e-17
-4.16334e-16 2.22045e-16 5.20417e-18
-9.71445e-17 5.20417e-18 -8.88178e-16

0 -7.88861e-31 4.44089e-16
-7.88861e-31 0 -8.88178e-16
4.44089e-16 -8.88178e-16 -3.33067e-16

-3.33067e-16 4.02456e-16 1.38778e-17
4.02456e-16 -2.22045e-16 -2.77556e-17
1.38778e-17 -2.77556e-17 -8.88178e-16

4.44089e-16 1.38778e-17 -2.35922e-16
1.38778e-17 -3.33067e-16 1.04083e-17
-2.35922e-16 1.04083e-17 -6.66134e-16

0 -3.33067e-16 -1.38778e-17
-3.33067e-16 -2.22045e-16 -1.38778e-17
-1.38778e-17 -1.38778e-17 -6.66134e-16

0 1.75207e-16 4.57967e-16
1.75207e-16 -1.11022e-16 -1.249e-16
4.57967e-16 -1.249e-16 -7.77156e-16

-2.22045e-16 1.38778e-17 -4.44089e-16
1.38778e-17 -4.44089e-16 -6.93889e-18
-4.44089e-16 -6.93889e-18 -6.66134e-16

0 -2.22045e-16 9.24446e-33
-2.22045e-16 0 -1.31839e-16
9.24446e-33 -1.31839e-16 -7.77156e-16

2.22045e-16 -4.44089e-16 -5.55112e-17
-4.44089e-16 0 4.16334e-17
-5.55112e-17 4.16334e-17 -6.66134e-16

0 5.55112e-17 -6.93889e-18
5.55112e-17 4.44089e-16 -4.44089e-16
-6.93889e-18 -4.44089e-16 -6.66134e-16

0 0 -4.09395e-16
0 4.44089e-16 -2.08167e-17
-4.09395e-16 -2.08167e-17 -6.66134e-16

0 -1.42247e-16 -4.16334e-17
-1.42247e-16 -1.11022e-16 -2.08167e-16
-4.16334e-17 -2.08167e-16 -6.66134e-16

0 3.9443e-31 3.60822e-16
3.9443e-31 -4.44089e-16 4.44089e-16
3.60822e-16 4.44089e-16 -6.66134e-16

4.44089e-16 -1.11022e-16 -6.93889e-18
-1.11022e-16 -2.22045e-16 0
-6.93889e-18 0 -6.66134e-16

-6.66134e-16 0 -1.38778e-17
0 0 -2.35922e-16
-1.38778e-17 -2.35922e-16 -8.88178e-16

-1.33227e-15 0 -6.93889e-17
0 0 -4.57967e-16
-6.93889e-17 -4.57967e-16 -6.66134e-16

-2.22045e-16 -3.33067e-16 4.42354e-16
-3.33067e-16 0 0
4.42354e-16 0 -8.88178e-16

0 -2.77556e-17 -3.46945e-17
-2.77556e-17 2.22045e-16 5.20417e-18
-3.46945e-17 5.20417e-18 -6.66134e-16

0 2.15106e-16 -2.1684e-19
2.15106e-16 0 4.30211e-16
-2.1684e-19 4.30211e-16 -6.66134e-16

8.88178e-16 8.84709e-17 0
8.84709e-17 2.22045e-16 -2.08167e-17
0 -2.08167e-17 -6.66134e-16

0 7.63278e-17 4.85723e-17
7.63278e-17 4.44089e-16 -5.20417e-16
4.85723e-17 -5.20417e-16 -8.88178e-16

4.44089e-16 -3.33067e-16 3.46945e-18
-3.33067e-16 0 4.16334e-16
3.46945e-18 4.16334e-16 -6.66134e-16

-1.11022e-16 -2.77556e-17 1.30104e-18
-2.77556e-17 0 -3.88578e-16
1.30104e-18 -3.88578e-16 -7.77156e-16

0 0 -1.38778e-17
0 -5.55112e-16 5.55112e-17
-1.38778e-17 5.55112e-17 -7.77156e-16

-4.44089e-16 0 2.25514e-16
0 0 1.38778e-17
2.25514e-16 1.38778e-17 -7.77156e-16

6.66134e-16 1.66533e-16 6.93889e-18
1.66533e-16 4.44089e-16 -6.93889e-18
6.93889e-18 -6.93889e-18 -6.66134e-16

0 1.38778e-16 -2.77556e-17
1.38778e-16 0 -1.38778e-17
-2.77556e-17 -1.38778e-17 -5.55112e-16

4.44089e-16 -2.35922e-16 -1.54074e-33
-2.35922e-16 -1.11022e-16 -7.63278e-17
-1.54074e-33 -7.63278e-17 -8.88178e-16

-1.11022e-16 5.55112e-17 0
5.55112e-17 -8.88178e-16 -2.498e-16
0 -2.498e-16 -7.77156e-16

0 -1.66533e-16 -2.77556e-17
-1.66533e-16 0 -2.77556e-17
-2.77556e-17 -2.77556e-17 -7.77156e-16

0 -6.93889e-16 0
-6.93889e-16 -6.66134e-16 2.22045e-16
0 2.22045e-16 -8.88178e-16

0 -1.66533e-16 4.4062e-16
-1.66533e-16 -3.33067e-16 -4.44089e-16
4.4062e-16 -4.44089e-16 -4.44089e-16

6.66134e-16 -5.55112e-17 1.66533e-16
-5.55112e-17 0 1.38778e-17
1.66533e-16 1.38778e-17 -6.66134e-16

-3.33067e-16 -1.97215e-31 -2.22966e-16
-1.97215e-31 -4.44089e-16 4.51028e-16
-2.22966e-16 4.51028e-16 -5.55112e-16

-3.33067e-16 0 -2.28983e-16
0 -4.44089e-16 1.38778e-17
-2.28983e-16 1.38778e-17 -6.66134e-16

-2.22045e-16 4.51028e-17 -4.42788e-16
4.51028e-17 -4.44089e-16 1.33053e-15
-4.42788e-16 1.33053e-15 -2.22045e-16

-2.22045e-16 2.77556e-17 -4.45824e-16
2.77556e-17 0 -1.3288e-15
-4.45824e-16 -1.3288e-15 0

0 1.38778e-17 8.89913e-16
1.38778e-17 0 8.91648e-16
8.89913e-16 8.91648e-16 0

0 9.19403e-17 8.9902e-16
9.19403e-17 0 -1.55952e-15
8.9902e-16 -1.55952e-15 0

0 6.93889e-17 1.10675e-15
6.93889e-17 0 3.46945e-18
1.10675e-15 3.46945e-18 -2.22045e-16

0 -7.88861e-31 -8.84709e-16
-7.88861e-31 0 4.47559e-16
-8.84709e-16 4.47559e-16 2.22045e-16

0 1.11022e-16 -1.30625e-15
1.11022e-16 0 -4.45824e-16
-1.30625e-15 -4.45824e-16 0

0 -2.22045e-16 -2.22045e-16
-2.22045e-16 0 2.08167e-16
-2.22045e-16 2.08167e-16 -8.88178e-16

-6.66134e-16 -1.22125e-15 4.16334e-17
-1.22125e-15 0 4.30211e-16
4.16334e-17 4.30211e-16 -7.77156e-16

8.88178e-16 9.02056e-17 4.71845e-16
9.02056e-17 0 2.60209e-18
4.71845e-16 2.60209e-18 -6.66134e-16

0 8.32667e-17 -2.88889e-33
8.32667e-17 -1.11022e-16 -1.73472e-17
-2.88889e-33 -1.73472e-17 -6.66134e-16

0 -2.46519e-32 3.46945e-18
-2.46519e-32 -2.22045e-16 -2.77556e-17
3.46945e-18 -2.77556e-17 -6.66134e-16

0 0 -2.22045e-16
0 -4.44089e-16 0
-2.22045e-16 0 -7.77156e-16

0 4.16334e-16 -1.11022e-16
4.16334e-16 6.66134e-16 2.08167e-17
-1.11022e-16 2.08167e-17 -5.55112e-16

0 -1.11022e-16 6.93889e-18
-1.11022e-16 -4.44089e-16 0
6.93889e-18 0 -6.66134e-16

0 1.73472e-17 6.50521e-19
1.73472e-17 0 -4.16334e-17
6.50521e-19 -4.16334e-17 -5.55112e-16

0 5.55112e-17 -5.55112e-17
5.55112e-17 0 -2.91434e-16
-5.55112e-17 -2.91434e-16 -6.66134e-16

2.22045e-16 6.245e-17 -4.33681e-19
6.245e-17 0 -4.44089e-16
-4.33681e-19 -4.44089e-16 -5.55112e-16

4.44089e-16 -2.22045e-16 4.71845e-16
-2.22045e-16 4.44089e-16 0
4.71845e-16 0 -6.66134e-16

2.22045e-16 1.80411e-16 4.57967e-16
1.80411e-16 2.22045e-16 2.98372e-16
4.57967e-16 2.98372e-16 -6.66134e-16

2.22045e-16 -4.44089e-16 -6.93889e-18
-4.44089e-16 -2.22045e-16 0
-6.93889e-18 0 -4.44089e-16

0 4.44089e-16 -1.38778e-17
4.44089e-16 2.22045e-16 4.47559e-16
-1.38778e-17 4.47559e-16 -6.66134e-16

0 -1.52656e-16 -9.24446e-33
-1.52656e-16 0 -2.01228e-16
-9.24446e-33 -2.01228e-16 -7.77156e-16

0 9.02056e-17 1.54074e-33
9.02056e-17 -1.11022e-16 -3.95517e-16
1.54074e-33 -3.95517e-16 -6.66134e-16

0 -4.44089e-16 2.77556e-16
-4.44089e-16 -2.22045e-16 4.51028e-16
2.77556e-16 4.51028e-16 -6.66134e-16

-4.44089e-16 5.55112e-17 2.08167e-16
5.55112e-17 -2.22045e-16 6.93889e-18
2.08167e-16 6.93889e-18 -8.88178e-16

-2.22045e-16 2.77556e-17 1.34815e-33
2.77556e-17 0 2.42861e-17
1.34815e-33 2.42861e-17 -6.66134e-16

2.22045e-16 -3.46945e-18 -4.4062e-16
-3.46945e-18 8.88178e-16 -9.71445e-17
-4.4062e-16 -9.71445e-17 -5.55112e-16

0 5.55112e-17 -3.46945e-18
5.55112e-17 0 2.77556e-17
-3.46945e-18 2.77556e-17 -7.77156e-16

2.22045e-16 -4.64906e-16 -2.08167e-16
-4.64906e-16 0 4.33681e-18
-2.08167e-16 4.33681e-18 -7.77156e-16

4.44089e-16 0 2.28983e-16
0 -2.22045e-16 1.73472e-18
2.28983e-16 1.73472e-18 -6.66134e-16

-4.44089e-16 2.22045e-16 -1.66533e-16
2.22045e-16 6.66134e-16 -1.38778e-17
-1.66533e-16 -1.38778e-17 -4.44089e-16

-2.22045e-16 -4.44089e-16 0
-4.44089e-16 0 6.93889e-18
0 6.93889e-18 -6.66134e-16

0 1.11022e-16 -2.08167e-16
1.11022e-16 -1.11022e-16 -2.28983e-16
-2.08167e-16 -2.28983e-16 -8.88178e-16

-2.22045e-16 2.08167e-16 -4.51028e-16
2.08167e-16 -4.44089e-16 9.71445e-17
-4.51028e-16 9.71445e-17 -8.88178e-16

2.22045e-16 -1.94289e-16 -2.08167e-17
-1.94289e-16 4.44089e-16 4.85723e-16
-2.08167e-17 4.85723e-16 -6.66134e-16

-2.22045e-16 1.11022e-16 -2.22045e-16
1.11022e-16 2.22045e-16 -2.77556e-17
-2.22045e-16 -2.77556e-17 -7.77156e-16

-1.11022e-16 1.7911e-16 1.30104e-18
1.7911e-16 -1.11022e-16 -1.11022e-16
1.30104e-18 -1.11022e-16 -6.66134e-16

0 0 -2.1684e-18
0 0 -1.38778e-17
-2.1684e-18 -1.38778e-17 -6.66134e-16

0 3.33067e-16 -2.22045e-16
3.33067e-16 8.88178e-16 1.38778e-17
-2.22045e-16 1.38778e-17 -6.66134e-16

0 1.8735e-16 4.51028e-16
1.8735e-16 -1.11022e-16 1.66533e-16
4.51028e-16 1.66533e-16 -6.66134e-16

-2.22045e-16 -3.33067e-16 -1.249e-16
-3.33067e-16 -2.22045e-16 6.93889e-18
-1.249e-16 6.93889e-18 -7.77156e-16

-4.44089e-16 0 -4.16334e-17
0 0 3.46945e-18
-4.16334e-17 3.46945e-18 -6.66134e-16

0 5.55112e-17 -2.23779e-16
5.55112e-17 0 -6.93889e-17
-2.23779e-16 -6.93889e-17 -8.88178e-16

0 1.76942e-16 9.1073e-18
1.76942e-16 8.88178e-16 3.60822e-16
9.1073e-18 3.60822e-16 -6.66134e-16

-1.11022e-16 2.22045e-16 2.22045e-16
2.22045e-16 0 4.57967e-16
2.22045e-16 4.57967e-16 -8.88178e-16

0 -2.77556e-17 2.77556e-17
-2.77556e-17 0 -2.19443e-16
2.77556e-17 -2.19443e-16 -7.77156e-16

0 2.22045e-16 1.38778e-17
2.22045e-16 0 -1.38778e-17
1.38778e-17 -1.38778e-17 -8.88178e-16

-2.22045e-16 0 1.04083e-17
0 4.44089e-16 6.93889e-17
1.04083e-17 6.93889e-17 -7.77156e-16

-4.44089e-16 0 1.38778e-17
0 -4.44089e-16 -4.57967e-16
1.38778e-17 -4.57967e-16 -8.88178e-16

0 2.34188e-16 2.1684e-18
2.34188e-16 4.44089e-16 4.3715e-16
2.1684e-18 4.3715e-16 -6.66134e-16

0 4.44089e-16 0
4.44089e-16 -8.88178e-16 -3.88578e-16
0 -3.88578e-16 -8.88178e-16

-8.88178e-16 3.88578e-16 -2.77556e-17
3.88578e-16 0 4.16334e-17
-2.77556e-17 4.16334e-17 -6.66134e-16

2.22045e-16 -2.32453e-16 -2.21177e-16
-2.32453e-16 -8.88178e-16 1.38778e-17
-2.21177e-16 1.38778e-17 -5.55112e-16

0 -4.71845e-16 -4.16334e-16
-4.71845e-16 0 4.54498e-16
-4.16334e-16 4.54498e-16 -6.66134e-16

0 -1.66533e-16 1.11022e-16
-1.66533e-16 -4.44089e-16 1.38778e-17
1.11022e-16 1.38778e-17 -7.77156e-16

0 -1.59595e-16 3.62557e-16
-1.59595e-16 0 -9.08995e-16
3.62557e-16 -9.08995e-16 -2.22045e-16

0 -3.33067e-16 1.04083e-17
-3.33067e-16 -8.88178e-16 -2.77556e-17
1.04083e-17 -2.77556e-17 -7.77156e-16

0 -1.97215e-31 2.28983e-16
-1.97215e-31 -2.22045e-16 -4.02456e-16
2.28983e-16 -4.02456e-16 -6.66134e-16

-2.22045e-16 8.32667e-17 2.22045e-16
8.32667e-17 -6.66134e-16 8.84709e-16
2.22045e-16 8.84709e-16 -6.66134e-16

2.22045e-15 1.66533e-16 -1.66533e-16
1.66533e-16 -1.77636e-15 -5.55112e-17
-1.66533e-16 -5.55112e-17 -7.77156e-16

8.88178e-16 -1.38778e-16 -2.77556e-17
-1.38778e-16 4.44089e-16 -7.35523e-16
-2.77556e-17 -7.35523e-16 -5.55112e-16

0 -4.23273e-16 2.08167e-17
-4.23273e-16 0 -1.76223e-32
2.08167e-17 -1.76223e-32 -5.55112e-16

0 -8.67362e-17 -6.93889e-18
-8.67362e-17 -1.11022e-16 -6.93889e-18
-6.93889e-18 -6.93889e-18 -6.66134e-16

0 -5.55112e-17 -1.38778e-17
-5.55112e-17 2.22045e-16 -2.11636e-16
-1.38778e-17 -2.11636e-16 -6.66134e-16

2.22045e-16 4.85723e-16 -4.02456e-16
4.85723e-16 0 -4.38885e-16
-4.02456e-16 -4.38885e-16 -7.77156e-16

0 0 -2.77556e-17
0 8.88178e-16 1.38778e-17
-2.77556e-17 1.38778e-17 -6.66134e-16

-8.88178e-16 0 1.11022e-16
0 8.88178e-16 8.88178e-16
1.11022e-16 8.88178e-16 -8.88178e-16

0 -4.49944e-16 -2.63678e-16
-4.49944e-16 -1.11022e-16 2.22709e-16
-2.63678e-16 2.22709e-16 -7.77156e-16

-2.22045e-16 0 3.46945e-18
0 0 4.85723e-16
3.46945e-18 4.85723e-16 -8.88178e-16

-2.22045e-16 4.6187e-17 1.30104e-18
4.6187e-17 2.22045e-16 2.91434e-16
1.30104e-18 2.91434e-16 -8.88178e-16

-2.22045e-16 7.88861e-31 -4.44089e-16
7.88861e-31 -1.11022e-16 -8.84709e-16
-4.44089e-16 -8.84709e-16 -4.44089e-16

-2.22045e-16 -6.93889e-18 -2.77556e-17
-6.93889e-18 -3.33067e-16 4.16334e-17
-2.77556e-17 4.16334e-17 -7.77156e-16

0 0 0
0 2.22045e-16 0
0 0 -8.88178e-16

4.44089e-16 1.04083e-17 -2.35922e-16
1.04083e-17 -1.11022e-16 5.20417e-18
-2.35922e-16 5.20417e-18 -7.77156e-16

0 4.44089e-16 2.77556e-17
4.44089e-16 0 -4.57967e-16
2.77556e-17 -4.57967e-16 -7.77156e-16

4.44089e-16 -5.55112e-17 1.94289e-16
-5.55112e-17 0 6.93889e-18
1.94289e-16 6.93889e-18 -8.88178e-16

0 1.11022e-16 4.26742e-16
1.11022e-16 0 4.3715e-16
4.26742e-16 4.3715e-16 -4.44089e-16

0 -5.55112e-16 -2.35922e-16
-5.55112e-16 -3.33067e-16 -1.94289e-16
-2.35922e-16 -1.94289e-16 -6.66134e-16

-1.11022e-16 1.11022e-16 3.46945e-18
1.11022e-16 0 2.08167e-16
3.46945e-18 2.08167e-16 -6.66134e-16

0 2.22045e-16 -1.38778e-17
2.22045e-16 0 -3.33067e-16
-1.38778e-17 -3.33067e-16 -8.88178e-16

0 0 -2.18575e-16
0 0 1.38778e-17
-2.18575e-16 1.38778e-17 -7.77156e-16

-1.11022e-16 2.22045e-16 -4.30211e-16
2.22045e-16 -6.66134e-16 -2.08167e-16
-4.30211e-16 -2.08167e-16 -8.88178e-16

4.44089e-16 5.55112e-17 -2.22045e-16
5.55112e-17 2.22045e-16 0
-2.22045e-16 0 -6.66134e-16

0 0 2.22045e-16
0 0 -2.77556e-17
2.22045e-16 -2.77556e-17 -6.66134e-16

-2.22045e-16 1.66533e-16 -6.93889e-18
1.66533e-16 2.22045e-16 3.46945e-17
-6.93889e-18 3.46945e-17 -9.99201e-16

2.22045e-16 -1.67401e-16 2.48933e-16
-1.67401e-16 4.44089e-16 -8.7777e-16
2.48933e-16 -8.7777e-16 -4.44089e-16

-2.22045e-16 2.60209e-17 -2.42861e-17
2.60209e-17 -3.33067e-16 -4.44089e-16
-2.42861e-17 -4.44089e-16 -6.66134e-16

4.44089e-16 3.08781e-16 -4.33681e-18
3.08781e-16 4.44089e-16 1.94289e-16
-4.33681e-18 1.94289e-16 -4.44089e-16

0 0 2.77556e-17
0 0 3.46945e-17
2.77556e-17 3.46945e-17 -6.66134e-16

0 1.66533e-16 2.77556e-17
1.66533e-16 2.22045e-16 1.38778e-17
2.77556e-17 1.38778e-17 -7.77156e-16

4.44089e-16 -1.11022e-16 -4.61436e-16
-1.11022e-16 0 -1.38778e-17
-4.61436e-16 -1.38778e-17 -6.66134e-16

2.22045e-16 2.22045e-16 -1.2326e-32
2.22045e-16 -2.22045e-16 -2.77556e-17
-1.2326e-32 -2.77556e-17 -7.77156e-16

0 1.94289e-16 4.30211e-16
1.94289e-16 0 6.245e-17
4.30211e-16 6.245e-17 -6.66134e-16

4.44089e-16 -4.996e-16 2.25514e-16
-4.996e-16 2.22045e-16 -4.57967e-16
2.25514e-16 -4.57967e-16 -8.88178e-16

0 -1.11022e-16 -1.73472e-18
-1.11022e-16 -4.44089e-16 0
-1.73472e-18 0 -6.66134e-16

0 -1.04083e-17 0
-1.04083e-17 -2.22045e-16 2.77556e-16
0 2.77556e-16 -7.77156e-16

-2.22045e-16 5.55112e-17 -2.77556e-17
5.55112e-17 0 6.93889e-18
-2.77556e-17 6.93889e-18 -6.66134e-16

4.44089e-16 -4.44089e-16 -4.30211e-16
-4.44089e-16 -7.77156e-16 2.08167e-16
-4.30211e-16 2.08167e-16 -8.88178e-16

0 -1.38778e-17 -1.52656e-16
-1.38778e-17 4.44089e-16 1.38778e-17
-1.52656e-16 1.38778e-17 -7.77156e-16

4.44089e-16 1.97215e-31 4.44089e-16
1.97215e-31 2.22045e-16 2.18575e-16
4.44089e-16 2.18575e-16 -4.44089e-16

0 1.11022e-16 -3.67761e-16
1.11022e-16 0 4.16334e-17
-3.67761e-16 4.16334e-17 -8.88178e-16

0 -2.22045e-16 0
-2.22045e-16 0 1.66533e-16
0 1.66533e-16 -6.66134e-16

2.22045e-16 5.55112e-17 1.38778e-17
5.55112e-17 0 3.88578e-16
1.38778e-17 3.88578e-16 -6.66134e-16

0 1.38778e-17 -2.19443e-16
1.38778e-17 0 -8.32667e-17
-2.19443e-16 -8.32667e-17 -6.66134e-16

0 -1.45717e-16 2.77556e-17
-1.45717e-16 0 4.11997e-16
2.77556e-17 4.11997e-16 -6.66134e-16

8.88178e-16 1.38778e-17 1.80411e-16
1.38778e-17 0 1.38778e-17
1.80411e-16 1.38778e-17 -5.55112e-16

0 -5.55112e-17 2.56739e-16
-5.55112e-17 4.44089e-16 5.55112e-17
2.56739e-16 5.55112e-17 -6.66134e-16

-8.88178e-16 -1.94289e-16 -4.16334e-17
-1.94289e-16 0 2.08167e-17
-4.16334e-17 2.08167e-17 -6.66134e-16

-2.22045e-16 5.55112e-17 -2.15106e-16
5.55112e-17 -2.22045e-16 -4.44089e-16
-2.15106e-16 -4.44089e-16 -6.66134e-16

-1.11022e-16 3.9443e-31 4.38885e-16
3.9443e-31 1.77636e-15 4.996e-16
4.38885e-16 4.996e-16 -7.77156e-16

1.33227e-15 -2.23673e-16 -1.56206e-18
-2.23673e-16 0 -4.71845e-16
-1.56206e-18 -4.71845e-16 -7.77156e-16

0 0 -1.38778e-16
0 0 4.16334e-17
-1.38778e-16 4.16334e-17 -8.88178e-16

-2.22045e-16 -1.18329e-30 4.42354e-16
-1.18329e-30 4.44089e-16 -1.33227e-15
4.42354e-16 -1.33227e-15 -4.44089e-16

0 -2.22045e-16 2.77556e-17
-2.22045e-16 -6.66134e-16 -3.46945e-17
2.77556e-17 -3.46945e-17 -7.77156e-16

0 9.4369e-16 -4.44957e-16
9.4369e-16 0 -9.62965e-35
-4.44957e-16 -9.62965e-35 -8.88178e-16

-2.22045e-16 -4.44089e-16 -2.77556e-17
-4.44089e-16 2.22045e-16 2.08167e-17
-2.77556e-17 2.08167e-17 -7.77156e-16

-1.11022e-16 2.77556e-17 -2.23779e-16
2.77556e-17 0 -4.16334e-17
-2.23779e-16 -4.16334e-17 -7.77156e-16

-4.44089e-16 0 6.93889e-18
0 0 -5.55112e-17
6.93889e-18 -5.55112e-17 -8.88178e-16

0 -4.44089e-16 5.27356e-16
-4.44089e-16 0 3.46945e-18
5.27356e-16 3.46945e-18 -8.88178e-16

0 -1.66533e-16 -1.04083e-16
-1.66533e-16 0 1.38778e-16
-1.04083e-16 1.38778e-16 -6.66134e-16

-1.11022e-16 1.66533e-16 4.44089e-16
1.66533e-16 -4.44089e-16 0
4.44089e-16 0 -7.77156e-16

-4.44089e-16 0 -4.71845e-16
0 0 6.93889e-18
-4.71845e-16 6.93889e-18 -6.66134e-16

0 -1.249e-16 1.54074e-33
-1.249e-16 0 8.8124e-16
1.54074e-33 8.8124e-16 -4.44089e-16

0 -3.88578e-16 -3.747e-16
-3.88578e-16 0 -4.30211e-16
-3.747e-16 -4.30211e-16 -6.66134e-16

0 -2.22045e-16 0
-2.22045e-16 0 -2.498e-16
0 -2.498e-16 -6.66134e-16

4.44089e-16 1.11022e-16 4.57967e-16
1.11022e-16 0 9.71445e-17
4.57967e-16 9.71445e-17 -7.77156e-16

0 -8.37004e-17 -9.99201e-16
-8.37004e-17 0 2.1684e-18
-9.99201e-16 2.1684e-18 -4.44089e-16

0 2.22045e-16 -2.77556e-17
2.22045e-16 -8.88178e-16 4.57967e-16
-2.77556e-17 4.57967e-16 -7.77156e-16

0 -2.77556e-17 -4.47559e-16
-2.77556e-17 -2.22045e-16 -8.7777e-16
-4.47559e-16 -8.7777e-16 -4.44089e-16

0 0 -6.93889e-18
0 -8.88178e-16 -2.08167e-16
-6.93889e-18 -2.08167e-16 -8.88178e-16

-8.88178e-16 -2.77556e-17 -2.498e-16
-2.77556e-17 0 3.46945e-18
-2.498e-16 3.46945e-18 -7.77156e-16

4.44089e-16 -5.55112e-17 2.35922e-16
-5.55112e-17 2.22045e-16 0
2.35922e-16 0 -4.44089e-16

0 4.44089e-16 -2.01228e-16
4.44089e-16 8.88178e-16 5.55112e-17
-2.01228e-16 5.55112e-17 -6.66134e-16

8.88178e-16 0 2.91434e-16
0 -1.11022e-16 -1.04083e-17
2.91434e-16 -1.04083e-17 -6.66134e-16

-1.11022e-16 8.32667e-16 -2.1684e-16
8.32667e-16 0 2.77556e-17
-2.1684e-16 2.77556e-17 -7.77156e-16

0 0 1.38778e-17
0 0 -1.94289e-16
1.38778e-17 -1.94289e-16 -6.66134e-16

0 6.66134e-16 0
6.66134e-16 0 -2.22045e-16
0 -2.22045e-16 -8.88178e-16

-1.11022e-16 1.11022e-16 -2.28983e-16
1.11022e-16 0 -5.27356e-16
-2.28983e-16 -5.27356e-16 -7.77156e-16

0 2.77556e-17 0
2.77556e-17 0 1.38778e-17
0 1.38778e-17 -4.44089e-16

-1.77636e-15 -5.55112e-16 -8.32667e-16
-5.55112e-16 0 -2.08167e-17
-8.32667e-16 -2.08167e-17 -8.88178e-16

-4.44089e-16 -9.86076e-32 2.77556e-16
-9.86076e-32 2.22045e-16 -4.16334e-16
2.77556e-16 -4.16334e-16 -9.99201e-16

-1.11022e-16 1.38778e-16 -4.51028e-16
1.38778e-16 -1.11022e-16 1.73472e-18
-4.51028e-16 1.73472e-18 -5.55112e-16

0 -5.55112e-16 -3.88578e-16
-5.55112e-16 0 -4.47559e-16
-3.88578e-16 -4.47559e-16 -5.55112e-16

0 -9.71445e-17 -5.54244e-16
-9.71445e-17 0 1.78503e-15
-5.54244e-16 1.78503e-15 0

0 0 0
0 2.22045e-16 -2.88658e-15
0 -2.88658e-15 -2.22045e-16

0 2.77556e-17 4.47559e-16
2.77556e-17 4.44089e-16 1.21778e-15
4.47559e-16 1.21778e-15 0

-4.44089e-16 -1.11022e-16 0
-1.11022e-16 0 4.16334e-17
0 4.16334e-17 -7.77156e-16

2.22045e-16 -2.77556e-16 -6.62664e-16
-2.77556e-16 4.44089e-16 8.91648e-16
-6.62664e-16 8.91648e-16 -2.22045e-16

2.22045e-16 1.11022e-16 8.88612e-16
1.11022e-16 0 -1.33227e-15
8.88612e-16 -1.33227e-15 0

4.44089e-16 1.88217e-16 6.93889e-18
1.88217e-16 2.22045e-16 7.97973e-17
6.93889e-18 7.97973e-17 -7.77156e-16

0 1.38778e-17 1.3288e-15
1.38778e-17 0 1.34354e-15
1.3288e-15 1.34354e-15 -2.22045e-16

0 -8.95117e-16 1.73472e-18
-8.95117e-16 -8.88178e-16 -2.22045e-16
1.73472e-18 -2.22045e-16 -8.88178e-16

-2.22045e-16 5.55112e-17 -1.38778e-16
5.55112e-17 0 4.71845e-16
-1.38778e-16 4.71845e-16 -8.88178e-16

4.44089e-16 2.77556e-17 1.55605e-15
2.77556e-17 0 -8.88178e-16
1.55605e-15 -8.88178e-16 -2.22045e-16

2.22045e-16 -5.20417e-17 -4.02456e-16
-5.20417e-17 4.44089e-16 4.57967e-16
-4.02456e-16 4.57967e-16 -6.66134e-16

0 2.22045e-16 -4.33681e-16
2.22045e-16 2.22045e-16 -1.3288e-15
-4.33681e-16 -1.3288e-15 -4.44089e-16

-1.11022e-16 -1.249e-16 -4.42354e-16
-1.249e-16 0 -1.77462e-15
-4.42354e-16 -1.77462e-15 -2.22045e-16

2.22045e-16 2.22045e-16 -8.84709e-16
2.22045e-16 2.22045e-16 -5.41234e-16
-8.84709e-16 -5.41234e-16 -3.33067e-16

0 5.55112e-17 -1.73472e-18
5.55112e-17 -3.33067e-16 1.77983e-15
-1.73472e-18 1.77983e-15 -1.11022e-16

-1.11022e-16 -1.73472e-18 -4.40403e-16
-1.73472e-18 -2.22045e-16 6.80012e-16
-4.40403e-16 6.80012e-16 -4.44089e-16

2.22045e-16 3.46945e-17 4.33681e-19
3.46945e-17 0 -5.55112e-17
4.33681e-19 -5.55112e-17 -8.88178e-16

2.22045e-16 1.66533e-16 -4.44089e-16
1.66533e-16 -1.11022e-16 -3.46945e-18
-4.44089e-16 -3.46945e-18 -4.44089e-16

-2.22045e-16 -1.14492e-16 -4.43222e-16
-1.14492e-16 0 -7.80626e-16
-4.43222e-16 -7.80626e-16 -4.44089e-16

0 -9.73388e-18 1.3288e-15
-9.73388e-18 -2.22045e-16 3.02936e-18
1.3288e-15 3.02936e-18 0

0 0 -2.35922e-16
0 0 -2.08167e-17
-2.35922e-16 -2.08167e-17 -6.66134e-16

0 9.54098e-18 1.04083e-17
9.54098e-18 -4.44089e-16 -6.93889e-17
1.04083e-17 -6.93889e-17 -6.66134e-16

0 2.77556e-17 1.15556e-33
2.77556e-17 -2.22045e-16 4.51028e-16
1.15556e-33 4.51028e-16 -4.44089e-16

0 1.11022e-16 0
1.11022e-16 2.22045e-16 -2.70617e-16
0 -2.70617e-16 -4.44089e-16

4.44089e-16 2.77556e-16 8.96852e-16
2.77556e-16 2.22045e-16 8.41341e-16
8.96852e-16 8.41341e-16 0

4.44089e-16 4.44089e-16 4.16334e-17
4.44089e-16 0 -4.85723e-17
4.16334e-17 -4.85723e-17 -7.77156e-16

4.44089e-16 -1.38778e-17 6.93889e-18
-1.38778e-17 6.66134e-16 4.16334e-17
6.93889e-18 4.16334e-17 -6.66134e-16

-1.11022e-16 2.36658e-30 -1.32533e-15
2.36658e-30 0 -8.89913e-16
-1.32533e-15 -8.89913e-16 -2.22045e-16

0 5.55112e-17 -4.41487e-16
5.55112e-17 -6.66134e-16 8.7777e-16
-4.41487e-16 8.7777e-16 -4.44089e-16

-3.33067e-16 -2.36658e-30 -8.84709e-16
-2.36658e-30 0 1.32706e-15
-8.84709e-16 1.32706e-15 -2.22045e-16

0 -1.38778e-16 -2.2031e-16
-1.38778e-16 -4.44089e-16 4.47559e-16
-2.2031e-16 4.47559e-16 -4.44089e-16

-4.44089e-16 4.16334e-16 6.93889e-18
4.16334e-16 0 -5.55112e-17
6.93889e-18 -5.55112e-17 -6.66134e-16

-2.22045e-16 -2.77556e-17 -5.55112e-17
-2.77556e-17 0 -4.85723e-16
-5.55112e-17 -4.85723e-16 -7.77156e-16

8.88178e-16 -8.26227e-16 1.79654e-18
-8.26227e-16 -6.66134e-16 -4.16334e-16
1.79654e-18 -4.16334e-16 -8.88178e-16

-8.88178e-16 1.77636e-15 -2.77556e-17
1.77636e-15 0 -8.60423e-16
-2.77556e-17 -8.60423e-16 -8.88178e-16

-2.22045e-16 0 -1.38778e-17
0 4.44089e-16 -1.38778e-17
-1.38778e-17 -1.38778e-17 -8.88178e-16

-7.77156e-16 1.11022e-16 -1.73472e-18
1.11022e-16 -3.55271e-15 -3.85186e-34
-1.73472e-18 -3.85186e-34 -6.66134e-16

8.88178e-16 4.44089e-16 1.2326e-32
4.44089e-16 0 1.38778e-17
1.2326e-32 1.38778e-17 -8.88178e-16

0 -8.88178e-16 9.15934e-16
-8.88178e-16 0 6.93889e-16
9.15934e-16 6.93889e-16 -8.88178e-16

2.22045e-16 -1.45044e-16 2.78657e-19
-1.45044e-16 0 -9.15934e-16
2.78657e-19 -9.15934e-16 -8.88178e-16

0 2.22045e-16 -4.44089e-16
2.22045e-16 6.66134e-16 8.84709e-16
-4.44089e-16 8.84709e-16 -4.44089e-16

0 -1.11022e-16 -8.60423e-16
-1.11022e-16 0 3.33067e-16
-8.60423e-16 3.33067e-16 -6.66134e-16

4.44089e-16 5.55112e-17 -2.77556e-17
5.55112e-17 -2.22045e-16 1.11022e-16
-2.77556e-17 1.11022e-16 -6.66134e-16

-2.22045e-16 0 0
0 4.44089e-16 4.30211e-16
0 4.30211e-16 -6.66134e-16

-1.55431e-15 0 -4.16334e-17
0 0 4.23273e-16
-4.16334e-17 4.23273e-16 -8.88178e-16

-2.22045e-16 -4.30211e-16 0
-4.30211e-16 4.44089e-16 -4.71845e-16
0 -4.71845e-16 -6.66134e-16

0 -3.9443e-31 -4.44089e-16
-3.9443e-31 0 4.30211e-16
-4.44089e-16 4.30211e-16 -8.88178e-16

0 0 -2.77556e-17
0 2.22045e-16 2.91434e-16
-2.77556e-17 2.91434e-16 -7.77156e-16

-1.11022e-16 1.38778e-16 9.02056e-16
1.38778e-16 2.22045e-16 6.93889e-18
9.02056e-16 6.93889e-18 -4.44089e-16

0 -1.11022e-16 -4.30211e-16
-1.11022e-16 -2.22045e-16 4.16334e-17
-4.30211e-16 4.16334e-17 -7.77156e-16

-4.44089e-16 -5.55112e-17 -6.66134e-16
-5.55112e-17 -1.11022e-16 8.89913e-16
-6.66134e-16 8.89913e-16 -4.44089e-16

0 -2.34193e-30 -8.91648e-16
-2.34193e-30 2.22045e-16 1.33574e-15
-8.91648e-16 1.33574e-15 -2.22045e-16

0 2.22045e-16 2.18575e-16
2.22045e-16 0 -4.44089e-16
2.18575e-16 -4.44089e-16 -2.22045e-16

0 -6.93889e-18 3.46945e-18
-6.93889e-18 8.88178e-16 -1.38778e-16
3.46945e-18 -1.38778e-16 -7.77156e-16

2.22045e-16 -2.46519e-32 -5.72459e-17
-2.46519e-32 0 3.85186e-34
-5.72459e-17 3.85186e-34 -8.88178e-16

0 0 0
0 8.88178e-16 2.77556e-17
0 2.77556e-17 -6.66134e-16

-2.22045e-15 4.44089e-16 -2.77556e-17
4.44089e-16 0 1.38778e-17
-2.77556e-17 1.38778e-17 -6.66134e-16

-1.55431e-15 4.44089e-16 3.33067e-16
4.44089e-16 0 0
3.33067e-16 0 -8.88178e-16

0 0 0
0 0 -1.84575e-15
0 -1.84575e-15 -6.66134e-16

4.44089e-16 -1.97215e-31 4.71845e-16
-1.97215e-31 -6.66134e-16 -1.249e-16
4.71845e-16 -1.249e-16 -7.77156e-16

-1.33227e-15 -8.88178e-16 -5.27356e-16
-8.88178e-16 0 1.47911e-31
-5.27356e-16 1.47911e-31 -7.77156e-16

-3.55271e-15 2.22045e-15 -8.32667e-16
2.22045e-15 -3.55271e-15 8.74301e-16
-8.32667e-16 8.74301e-16 -5.55112e-16

4.44089e-16 -5.55112e-17 -1.66533e-16
-5.55112e-17 2.22045e-16 -2.77556e-17
-1.66533e-16 -2.77556e-17 -6.66134e-16

0 0 -3.60822e-16
0 0 0
-3.60822e-16 0 -6.66134e-16

-8.88178e-16 0 0
0 0 4.16334e-17
0 4.16334e-17 -7.77156e-16

5.32907e-15 1.77636e-15 0
1.77636e-15 0 1.80411e-15
0 1.80411e-15 -6.66134e-16

0 -6.66134e-16 1.11022e-16
-6.66134e-16 -1.33227e-15 -4.44089e-16
1.11022e-16 -4.44089e-16 -8.88178e-16

0 -8.88178e-16 -1.11022e-16
-8.88178e-16 -1.77636e-15 -4.85723e-16
-1.11022e-16 -4.85723e-16 -8.88178e-16

SCALARS pressure float
LOOKUP_TABLE default
-2.45396e-12
-1.11837e-12
2.06999e-12
2.47929e-12
1.34652e-12
1.24637e-12
-1.11755e-12
1.24794e-12
2.47872e-12
-2.76455e-12
-4.0994e-12
-2.86584e-12
-3.27724e-12
3.21793e-13
-3.6905e-12
-1.93886e-12
-3.68719e-12
5.25324e-13
3.21435e-13
-3.78929e-12
2.37719e-12
7.41852e-12
-2.45565e-12
8.35036e-13
-4.99427e-13
-1.01554e-12
-7.07076e-13
1.96533e-12
-7.79911e-12
2.06539e-12
-8.07794e-13
-2.86545e-12
-1.22092e-12
1.96372e-12
4.27813e-13
-6.46117e-12
4.43683e-12
-6.25729e-12
2.9934e-12
-4.20203e-12
-1.63252e-12
5.14995e-12
-4.98805e-13
5.3595e-12
9.37861e-13
-7.06009e-13
-2.76242e-12
4.12521e-12
-2.94464e-13
1.159e-13
1.55444e-12
-4.2026e-12
2.38039e-12
-1.7337e-12
2.06886e-12
-2.76242e-12
-1.3261e-12
-3.89343e-12
1.18488e-13
2.68598e-12
-1.63048e-12
5.28332e-13
-7.07034e-13
4.2556e-13
-8.11546e-13
2.5821e-12
-2.97197e-13
-8.83842e-14
-2.45439e-12
-2.35382e-12
-2.9703e-12
3.30518e-12
-1.83726e-12
-1.83714e-12
-2.24874e-12
-4.92109e-12
7.30832e-13
4.8464e-12
-1.21994e-12
-2.24954e-12
-2.24901e-12
2.6886e-12
-2.35358e-12
-6.15465e-12
9.37481e-13
3.50812e-12
1.55463e-12
-4.10071e-12
-5.64117e-12
-1.85464e-11
-6.03486e-13
1.96464e-11
-2.95417e-13
-2.25028e-12
9.38706e-13
-2.14594e-12
-8.99169e-14
-1.73409e-12
-2.93869e-13
-1.52854e-12
-2.96924e-12
-1.11764e-12
1.24602e-12
2.17899e-13
7.31499e-13
2.184e-13
-2.04464e-12
-1.11929e-12
-2.24857e-12
-3.79189e-12
1.04067e-12
-8.09461e-13
-4.71615e-12
-1.32375e-12
-8.08179e-13
3.81756e-12
-7.49475e-12
-3.68711e-12
5.25657e-13
-8.98116e-14
7.31225e-13
-2.04172e-12
-9.11253e-13
2.47918e-12
1.03842e-12
1.45424e-12
2.47863e-12
7.32076e-13
-3.98126e-13
-2.2493e-12
7.35304e-13
-1.63079e-12
5.25859e-13
2.99521e-12
-5.00806e-13
-6.06369e-13
-3.2765e-12
4.2493e-13
3.81495e-12
1.96819e-12
-5.01005e-13
6.28481e-13
1.14247e-12
8.34784e-13
-7.06133e-13
3.30248e-12
-5.84792e-12
-2.96979e-12
1.55488e-12
-9.09207e-14
-2.96964e-12
-3.27732e-12
-2.24885e-12
-3.89345e-12
3.22849e-13
-3.37989e-12
-2.65874e-12
1.37257e-14
-1.0147e-12
2.06866e-12
1.76039e-12
3.2089e-13
-4.20125e-12
-1.11799e-12
3.21041e-13
-3.07005e-12
-5.33201e-12
1.45307e-12
2.48027e-12
-1.32352e-12
-2.76422e-12
2.99446e-12
2.18972e-13
-2.04413e-12
-7.06212e-13
-8.07989e-13
-1.93789e-12
4.94567e-12
1.14513e-12
-7.08099e-12
1.55581e-12
3.71476e-12
-1.11845e-12
2.17155e-12
2.99594e-12
-8.08648e-13
-6.76977e-12
-3.79166e-12
2.37494e-12
-2.35231e-12
9.37201e-13
-9.11772e-13
-3.27694e-12
-2.4541e-12
4.74263e-12
1.7617e-12
-2.04306e-12
-1.11565e-12
-1.63252e-12
-1.52779e-12
-1.63255e-12
-2.45316e-12
1.96633e-12
-2.76174e-12
-1.7343e-12
1.65974e-12
1.14204e-12
9.37359e-13
2.19054e-13
-2.86712e-12
-4.3065e-12
2.19206e-13
-3.58414e-12
-3.58623e-12
-2.2494e-12
1.16206e-13
-4.81741e-12
4.7438e-12
-3.79162e-12
-9.13912e-13
-9.01086e-14
-9.13367e-14
3.0979e-12
-2.76146e-12
-7.08457e-13
3.09958e-12
1.65707e-12
5.56692e-12
1.96441e-12
9.36654e-13
-1.32616e-12
5.27524e-13
2.47946e-12
-3.48297e-12
1.55625e-12
1.03916e-12
2.58076e-12
-2.97717e-13
-2.76242e-12
1.3496e-12
1.14322e-12
6.31169e-13
-3.68599e-12
-4.20142e-12
-1.22272e-12
1.45096e-12
1.14373e-12
-6.03453e-13
-4.09927e-12
-7.07261e-13
4.23129e-13
-5.00733e-13
-3.89348e-12
-1.7337e-12
1.16479e-14
-1.91682e-13
2.27363e-12
-6.05496e-12
-1.21889e-12
9.3877e-13
2.17135e-12
7.41474e-12
-2.35198e-12
-6.03567e-13
-9.10477e-13
1.14263e-12
-7.79725e-12
2.37793e-12
-1.53053e-12
-3.68943e-12
-1.42565e-12
-2.35292e-12
-6.56807e-12
-6.15234e-12
3.71358e-12
-5.64146e-12
-3.48174e-12
2.16925e-12
6.30214e-13
-8.81752e-14
-5.74487e-12
5.25431e-12
2.58435e-12
1.34925e-12
-1.73332e-12
4.02258e-12
9.3628e-13
-1.73439e-12
-2.14597e-12
-8.08045e-13
-5.63847e-12
1.75807e-12
-5.33098e-12
1.65698e-12
3.22811e-13
-7.6937e-12
-1.7339e-12
-7.49276e-12
-1.11766e-12
-2.7624e-12
6.69535e-12
-7.05624e-13
2.78692e-12
-5.02301e-12
-1.52917e-12
-1.32404e-12
3.71358e-12
8.37008e-13
-1.42629e-12
-5.02235e-12
1.14427e-12
-1.63346e-12
-1.92087e-13
-5.64282e-12
-3.58495e-12
1.86186e-12
-8.09623e-13
-6.03489e-13
1.3621e-14
7.33518e-13
-3.07135e-12
2.58161e-12
-2.96998e-12
-1.08849e-11
-2.7628e-12
2.19313e-13
1.4512e-12
1.75887e-12
1.24648e-12
1.45061e-12
-1.83565e-12
1.03916e-12
2.37819e-12
-1.32269e-12
-1.63317e-12
1.17395e-13
1.04138e-12
-4.81875e-12
8.33311e-13
4.12567e-12
-3.48176e-12
-1.22142e-12
2.20221e-13
-1.42694e-12
-3.07123e-12
-7.38644e-12
-2.35176e-12
-5.02578e-12
-9.12238e-13
-1.11887e-12
-8.62217e-12
-1.0781e-11
-1.09868e-11
-1.18092e-11
-1.13981e-11
-8.72478e-12
-8.72477e-12
4.22187e-13
5.76665e-12
1.96473e-12
-3.68902e-12
2.4807e-12
2.0703e-12
-5.02586e-12
2.47946e-12
-9.11519e-13
1.14198e-13
2.18384e-13
-1.01714e-12
-1.11834e-12
4.25657e-13
2.47865e-12
1.9665e-12
1.14434e-12
3.50641e-12
2.37914e-12
3.5099e-12
-3.68829e-12
-6.87487e-12
-4.99659e-13
-1.01603e-12
-2.96901e-12
-3.17328e-12
1.24719e-12
-1.42689e-12
5.27092e-13
-5.22897e-12
2.19314e-13
2.37815e-12
2.89059e-12
1.86334e-12
2.37906e-12
2.27302e-12
-1.52828e-12
1.38612e-14
-3.37878e-12
1.55358e-12
2.58213e-12
2.0696e-12
1.38004e-14
-4.30465e-12
-9.12575e-13
-3.79257e-12
-1.63103e-12
-1.73363e-12
8.34252e-13
-4.71592e-12
-4.81794e-12
3.61107e-12
1.24644e-12
3.29851e-12
3.40408e-12
-3.38057e-12
7.32656e-13
-1.8356e-12
1.46486e-14
2.27333e-12
-1.36636e-11
1.14221e-12
-7.1821e-12
-5.33163e-12
-3.89315e-12
-3.58517e-12
-7.08334e-13
3.50972e-12
5.87249e-12
1.3695e-14
-6.0525e-12
1.65603e-12
-2.94931e-13
-4.20012e-12
-2.14627e-12
7.32954e-13
2.1731e-12
2.89132e-12
-9.12626e-13
-2.76266e-12
-3.37958e-12
1.04067e-12
3.19854e-12
7.33593e-13
4.43356e-12
-1.32275e-12
3.61036e-12
-5.01143e-13
-1.63165e-12
1.17907e-13
5.25541e-12
-6.77022e-12
-6.032e-13
-7.80019e-12
2.5829e-12
-2.96738e-12
-1.94177e-12
-7.39157e-12
3.71606e-12
3.18816e-13
3.21891e-13
1.24523e-12
-5.00718e-13
-1.21684e-12
-7.3404e-12
2.79105e-12
-4.61322e-12
8.44435e-12
1.13245e-11
1.36768e-14
2.48235e-12
1.86341e-12
3.71221e-12
4.2578e-13
5.25733e-12
4.02065e-12
-2.55707e-12
-3.48245e-12
-9.85724e-12
9.67488e-12
-4.20138e-12
-9.752e-12
-5.94914e-12
-2.6594e-12
3.19825e-13
-9.13402e-13
1.45276e-12
-6.05323e-13
-8.72717e-12
-3.99663e-12
-5.22802e-12
-2.86502e-12
2.58442e-12
-6.15856e-12
-5.53943e-12
-6.03258e-13
2.17117e-13
-1.22074e-12
-3.58516e-12
-5.02437e-12
-2.95539e-13
-4.92134e-12
-4.51041e-12
-5.43471e-12
-3.17415e-12
1.03842e-12
-6.56433e-12
-2.95796e-13
-6.25754e-12
-4.09862e-12
-1.11781e-12
-3.99614e-12
-4.20175e-12
-5.02419e-12
-6.66565e-12
-2.4541e-12
-8.72484e-12
-2.1462e-12
-1.83735e-12
-2.96632e-12
-5.33239e-12
-3.89301e-12
-7.07028e-13
-1.83765e-12
-9.1218e-13
-5.12684e-12
-4.20177e-12
-2.95342e-13
-5.02434e-12
2.06894e-12
-6.97617e-12
-4.5573e-12
7.21031e-12
-4.99977e-13
-2.71451e-12
-5.32991e-12
2.01638e-11
5.15692e-12
-4.40733e-12
8.64968e-12
3.0952e-12
-4.30622e-12
-3.7922e-12
-1.69005e-11
-1.42735e-11
1.86032e-12
-3.79101e-12
-8.91842e-14
-1.52891e-12
4.24219e-13
-1.83782e-12
2.47705e-12
1.55904e-12
-6.03053e-13
8.23922e-12
1.76337e-12
-1.28382e-11
6.28223e-12
-1.04738e-11
3.5071e-12
1.24538e-12
-3.69177e-12
-7.39295e-12
-1.35606e-11
1.11668e-13
-1.42993e-12
