# vtk DataFile Version 3.0
vtk output at time 80
ASCII
DATASET UNSTRUCTURED_GRID
POINTS 626 float
-3.68058e-05 0.000978749 0 3.68058e-05 0.000978749 0 -0.000829194 0.00052125 0 
-0.0008235 0.0005 0 -0.000866 0.0004575 0 -0.000866 -0.0004575 0 
-0.0008235 -0.0005 0 -0.000829194 -0.00052125 0 -3.68058e-05 -0.000978749 0 
3.68058e-05 -0.000978749 0 0.000829194 -0.00052125 0 0.000866 -0.0004575 0 
0.000866 0.0004575 0 0.000829194 0.00052125 0 8.5e-05 0 0 
-3.68058e-05 0.000978749 -0.001 3.68058e-05 0.000978749 -0.001 -0.000829194 0.00052125 -0.001 
-0.0008235 0.0005 -0.001 -0.000866 0.0004575 -0.001 -0.000866 -0.0004575 -0.001 
-0.0008235 -0.0005 -0.001 -0.000829194 -0.00052125 -0.001 -3.68058e-05 -0.000978749 -0.001 
3.68058e-05 -0.000978749 -0.001 0.000829194 -0.00052125 -0.001 0.000866 -0.0004575 -0.001 
0.000866 0.0004575 -0.001 0.000829194 0.00052125 -0.001 8.5e-05 0 -0.001 
8.46223e-17 0.0009575 0 -0.000715996 0.000586607 0 -0.000602797 0.000651965 0 
-0.000489599 0.000717321 0 -0.000376401 0.000782678 0 -0.000263202 0.000848036 0 
-0.000150004 0.000913393 0 -0.000835948 0.000469948 0 -0.000866 -0.000326786 0 
-0.000866 -0.000196071 0 -0.000866 -6.53571e-05 0 -0.000866 6.53571e-05 0 
-0.000866 0.000196071 0 -0.000866 0.000326786 0 -0.000835948 -0.000469948 0 
-0.000150004 -0.000913393 0 -0.000263202 -0.000848036 0 -0.000376401 -0.000782678 0 
-0.000489599 -0.000717321 0 -0.000602797 -0.000651965 0 -0.000715996 -0.000586607 0 
8.47648e-17 -0.0009575 0 0.000715996 -0.000586607 0 0.000602797 -0.000651965 0 
0.000489599 -0.000717321 0 0.000376401 -0.000782678 0 0.000263202 -0.000848036 0 
0.000150004 -0.000913393 0 0.000829194 -0.00047875 0 0.000866 0.000326786 0 
0.000866 0.000196071 0 0.000866 6.53571e-05 0 0.000866 -6.53571e-05 0 
0.000866 -0.000196071 0 0.000866 -0.000326786 0 0.000829194 0.00047875 0 
0.000150004 0.000913393 0 0.000263202 0.000848036 0 0.000376401 0.000782678 0 
0.000489599 0.000717321 0 0.000602797 0.000651965 0 0.000715996 0.000586607 0 
5.29966e-05 6.64557e-05 0 -1.89143e-05 8.28689e-05 0 -7.65824e-05 3.68801e-05 0 
-7.65824e-05 -3.68801e-05 0 -1.89143e-05 -8.28689e-05 0 5.29966e-05 -6.64557e-05 0 
8.46223e-17 0.0009575 -0.001 -0.000715996 0.000586607 -0.001 -0.000602797 0.000651965 -0.001 
-0.000489599 0.000717321 -0.001 -0.000376401 0.000782678 -0.001 -0.000263202 0.000848036 -0.001 
-0.000150004 0.000913393 -0.001 -0.000835948 0.000469948 -0.001 -0.000866 -0.000326786 -0.001 
-0.000866 -0.000196071 -0.001 -0.000866 -6.53571e-05 -0.001 -0.000866 6.53571e-05 -0.001 
-0.000866 0.000196071 -0.001 -0.000866 0.000326786 -0.001 -0.000835948 -0.000469948 -0.001 
-0.000150004 -0.000913393 -0.001 -0.000263202 -0.000848036 -0.001 -0.000376401 -0.000782678 -0.001 
-0.000489599 -0.000717321 -0.001 -0.000602797 -0.000651965 -0.001 -0.000715996 -0.000586607 -0.001 
8.47648e-17 -0.0009575 -0.001 0.000715996 -0.000586607 -0.001 0.000602797 -0.000651965 -0.001 
0.000489599 -0.000717321 -0.001 0.000376401 -0.000782678 -0.001 0.000263202 -0.000848036 -0.001 
0.000150004 -0.000913393 -0.001 0.000829194 -0.00047875 -0.001 0.000866 0.000326786 -0.001 
0.000866 0.000196071 -0.001 0.000866 6.53571e-05 -0.001 0.000866 -6.53571e-05 -0.001 
0.000866 -0.000196071 -0.001 0.000866 -0.000326786 -0.001 0.000829194 0.00047875 -0.001 
0.000150004 0.000913393 -0.001 0.000263202 0.000848036 -0.001 0.000376401 0.000782678 -0.001 
0.000489599 0.000717321 -0.001 0.000602797 0.000651965 -0.001 0.000715996 0.000586607 -0.001 
5.29966e-05 6.64557e-05 -0.001 -1.89143e-05 8.28689e-05 -0.001 -7.65824e-05 3.68801e-05 -0.001 
-7.65824e-05 -3.68801e-05 -0.001 -1.89143e-05 -8.28689e-05 -0.001 5.29966e-05 -6.64557e-05 -0.001 
0.000131234 6.38474e-05 0 0.00012964 -6.2443e-05 0 3.13827e-05 0.0001394 0 
3.12554e-05 -0.000136939 0 -0.000140461 8.25467e-19 0 -8.90565e-05 -0.000102707 0 
-9.04142e-05 0.000102872 0 -0.000765769 -0.00025965 0 -0.000756873 0.000262774 0 
-0.00015609 0.000787505 0 -0.000155807 -0.00079355 0 0.000605069 0.000528035 0 
0.000608694 -0.00052497 0 0.000744069 0.000116929 0 -0.000494418 0.000596218 0 
-0.000483866 -0.000584648 0 0.000269496 0.000702219 0 0.000263201 -0.000717324 0 
0.000754429 -0.000127825 0 -0.000748858 5.84659e-07 0 -0.000747838 0.000373886 0 
-0.0006542 0.000324842 0 -0.000645137 0.000210123 0 -0.000550884 0.000274171 0 
-0.000538857 0.000163195 0 -0.00045062 0.000224461 0 -0.000438393 0.000123907 0 
-0.000354088 0.000181668 0 -0.000363908 0.000282171 0 -0.000270361 0.000239477 0 
-0.000279138 0.000337653 0 -0.000188888 0.000294791 0 -0.000196448 0.000393271 0 
-0.000104767 0.000348259 0 -0.000113332 0.000449012 0 -2.01066e-05 0.000403223 0 
-2.89189e-05 0.000507105 0 6.9524e-05 0.000461596 0 -0.000213644 0.000490203 0 
7.33757e-05 0.000357726 0 0.000163331 0.00041299 0 0.000163359 0.000313022 0 
0.000248077 0.000366368 0 0.000250914 0.000265758 0 0.000335709 0.000322266 0 
0.000340555 0.000218148 0 0.000427299 0.000276717 0 0.000431508 0.000173093 0 
0.000328731 0.000425633 0 0.00034586 0.000114823 0 0.000435362 7.05241e-05 0 
0.000350892 1.5455e-05 0 0.000441547 -3.11896e-05 0 0.000353547 -8.47783e-05 0 
0.000445767 -0.000132964 0 0.000356135 -0.000186358 0 0.000449094 -0.000234674 0 
0.000359978 -0.000287876 0 0.00026856 -0.000240545 0 0.000271895 -0.000341045 0 
0.000181792 -0.00029305 0 0.00018533 -0.000392851 0 9.75701e-05 -0.00034483 0 
9.98764e-05 -0.000444884 0 8.75116e-06 -0.000396343 0 1.20916e-05 -0.000500496 0 
-7.83929e-05 -0.000449843 0 -8.1471e-05 -0.000347249 0 -0.000171566 -0.000403733 0 
-0.000169889 -0.000298891 0 -0.000259867 -0.000354132 0 -0.000257696 -0.000249137 0 
-0.00034313 -0.000299896 0 -0.000344514 -0.000199127 0 -0.000434309 -0.000250039 0 
-0.000169832 -0.000505815 0 -0.000435227 -0.000146227 0 0.000280331 -0.000442424 0 
-0.000340889 8.76793e-05 0 -0.000515252 4.06198e-05 0 6.50491e-05 0.000568253 0 
0.00053278 1.74743e-05 0 0.000522071 0.000229831 0 -0.00037162 0.000391659 0 
-0.000255272 -0.000150439 0 -0.000442893 -0.000350705 0 0.000450067 -0.000332559 0 
0.000545175 -0.000276306 0 -0.000527797 -0.000197598 0 0.000105306 -0.000551033 0 
1.45836e-05 -0.000609147 0 0.00017145 0.000214453 0 0.000515525 0.000341711 0 
0.000636086 0.000290368 0 -0.000558657 0.000404468 0 -4.01232e-05 0.000616718 0 
6.60192e-05 0.000696422 0 -0.000101806 0.0002546 0 0.000271142 -3.88908e-05 0 
0.000179455 -0.00018534 0 -8.79553e-05 -0.000254307 0 -0.000749267 -0.000373451 0 
-0.000655941 -0.000323397 0 0.000709746 0.000466718 0 0.000698426 -0.000473086 0 
-5.25801e-05 -0.00084886 0 -4.93005e-05 0.000848038 0 0.000617396 -0.000413362 0 
0.000702056 -0.000369817 0 0.000131459 -0.000679171 0 2.48171e-05 -0.000715924 0 
-0.000664217 -0.00042729 0 -0.000528828 -8.80444e-05 0 -0.000611101 -0.000136672 0 
-0.000426972 -4.45841e-05 0 0.000800669 0.000378216 0 0.000821144 -0.000415062 0 
7.2799e-05 0.00088254 0 6.81831e-05 -0.00087503 0 0.000104963 -0.000788946 0 
-7.40696e-05 -0.000660054 0 0.000126061 0.000809943 0 0.000764361 0.000295682 0 
0.000166862 0.000630623 0 0.000516462 -0.00046707 0 -0.000563585 -0.000389606 0 
-0.000622598 -1.40238e-05 0 0.000629891 0.000171529 0 2.5614e-06 -0.000299794 0 
8.6901e-05 -0.00024329 0 0.000272045 -0.000136982 0 -0.00075148 0.000138321 0 
0.000209366 -0.000599589 0 0.000324913 -0.000630055 0 0.000614044 0.00041245 0 
0.00049651 -0.000573327 0 0.000394822 -0.000507321 0 -0.000173714 -0.000206698 0 
0.000264897 5.63722e-05 0 0.000247997 0.000152811 0 -4.63327e-05 -0.000920208 0 
9.18688e-05 0.000258626 0 -5.54111e-06 0.000290558 0 -0.000184219 0.000201484 0 
-0.000263559 0.000142267 0 -0.000256427 5.13624e-05 0 -0.000336894 -2.06179e-06 0 
-0.000228499 -4.2388e-05 0 -0.00017589 0.000106626 0 -0.000769947 -0.000133367 0 
0.000767591 -0.000500293 0 -5.05874e-05 0.000737978 0 0.000754456 -3.51771e-06 0 
0.00064691 -6.15298e-05 0 0.000630483 -0.00018134 0 0.000749187 -0.000265543 0 
-0.000760805 -0.000462521 0 0.000638155 6.09315e-05 0 -4.46661e-05 0.000922995 0 
-2.37945e-05 0.000207237 0 0.000776979 0.000500181 0 -0.000605691 0.000527596 0 
-0.000377914 -0.000653727 0 -0.000372325 -0.000526022 0 -0.000275829 -0.000589621 0 
-0.000254285 -0.000710579 0 -0.000379307 0.000656222 0 -0.000379818 0.00052718 0 
-0.000266817 0.000721555 0 -0.000150544 0.000668174 0 0.000381963 0.00065079 0 
0.000493113 0.000590432 0 0.000505439 0.000463708 0 -0.000269094 0.000596608 0 
0.000385815 0.000532045 0 0.000283599 0.0005899 0 -0.000176405 -0.000108505 0 
-0.000278769 -0.000475415 0 0.000185395 2.33014e-06 0 0.000186773 0.000517571 0 
0.000540032 -8.68444e-05 0 -0.000600694 -0.000514877 0 -0.00063703 8.98033e-05 0 
-0.000459677 0.000335729 0 -0.000338836 -0.000100751 0 -0.000457327 0.000432721 0 
-8.72007e-06 -0.000210238 0 0.000156073 0.000129496 0 -7.70692e-05 -0.000555049 0 
0.00036091 -0.000389728 0 0.000531628 0.000120564 0 -0.000285451 0.000435562 0 
0.000192719 -0.000494604 0 0.00041642 0.00039368 0 -0.000135943 0.000554637 0 
-0.000170665 -0.000610079 0 -0.000666304 0.000434981 0 -0.000758736 0.000479231 0 
-0.000470189 -0.000458901 0 0.000203433 -8.59809e-05 0 0.000101846 0.000170114 0 
-0.00035513 -0.00040726 0 0.000100184 -0.000165831 0 2.96286e-05 0.00081537 0 
0.000720946 0.000381836 0 -0.000539809 -0.000292001 0 0.00052211 -0.000182426 0 
-6.41339e-05 -0.000753908 0 0.000638039 -0.000299861 0 -0.000605136 -0.000230182 0 
-3.41638e-05 -0.000145561 0 -0.000104037 0.000172396 0 -0.000808575 -0.00042774 0 
-0.000807207 -0.000465052 0 -0.00080817 0.000429771 0 -0.000806589 0.000469738 0 
-9.50634e-05 -0.000178909 0 0.000247777 0.000445058 0 1.48293e-05 -0.000814201 0 
-4.11555e-05 0.000140955 0 0.000276104 -0.000536845 0 0.000765969 -0.000436638 0 
0.000780871 -0.000362769 0 0.000424176 -0.000642018 0 0.00053413 -0.000368009 0 
-0.000416333 4.17911e-05 0 -0.000133891 -6.23822e-05 0 4.2574e-05 0.000206312 0 
0.000141163 -0.000121542 0 0.000707423 0.000212137 0 0.000172327 0.000723882 0 
7.72652e-06 -0.00090254 0 -0.000134435 5.66935e-05 0 -0.000188826 3.70894e-05 0 
0.000197119 8.09714e-05 0 1.27801e-05 0.000917296 0 0.000800767 0.00044758 0 
-0.000686682 0.000507104 0 9.35831e-05 0.000110457 0 -0.000696793 -0.000509595 0 
-0.00068446 -8.52012e-05 0 -0.000691033 -0.000201242 0 5.24052e-05 -0.000189075 0 
-0.000151818 -0.000701092 0 -0.000296988 0.000518087 0 9.31023e-05 -0.000108117 0 
0.00044261 -0.000416726 0 0.000197044 -0.000784423 0 -0.000516861 0.000504567 0 
0.000298997 0.000502377 0 0.000131234 6.38474e-05 -0.001 0.00012964 -6.2443e-05 -0.001 
3.13827e-05 0.0001394 -0.001 3.12554e-05 -0.000136939 -0.001 -0.000140461 8.25467e-19 -0.001 
-8.90565e-05 -0.000102707 -0.001 -9.04142e-05 0.000102872 -0.001 -0.000765769 -0.00025965 -0.001 
-0.000756873 0.000262774 -0.001 -0.00015609 0.000787505 -0.001 -0.000155807 -0.00079355 -0.001 
0.000605069 0.000528035 -0.001 0.000608694 -0.00052497 -0.001 0.000744069 0.000116929 -0.001 
-0.000494418 0.000596218 -0.001 -0.000483866 -0.000584648 -0.001 0.000269496 0.000702219 -0.001 
0.000263201 -0.000717324 -0.001 0.000754429 -0.000127825 -0.001 -0.000748858 5.84659e-07 -0.001 
-0.000747838 0.000373886 -0.001 -0.0006542 0.000324842 -0.001 -0.000645137 0.000210123 -0.001 
-0.000550884 0.000274171 -0.001 -0.000538857 0.000163195 -0.001 -0.00045062 0.000224461 -0.001 
-0.000438393 0.000123907 -0.001 -0.000354088 0.000181668 -0.001 -0.000363908 0.000282171 -0.001 
-0.000270361 0.000239477 -0.001 -0.000279138 0.000337653 -0.001 -0.000188888 0.000294791 -0.001 
-0.000196448 0.000393271 -0.001 -0.000104767 0.000348259 -0.001 -0.000113332 0.000449012 -0.001 
-2.01066e-05 0.000403223 -0.001 -2.89189e-05 0.000507105 -0.001 6.9524e-05 0.000461596 -0.001 
-0.000213644 0.000490203 -0.001 7.33757e-05 0.000357726 -0.001 0.000163331 0.00041299 -0.001 
0.000163359 0.000313022 -0.001 0.000248077 0.000366368 -0.001 0.000250914 0.000265758 -0.001 
0.000335709 0.000322266 -0.001 0.000340555 0.000218148 -0.001 0.000427299 0.000276717 -0.001 
0.000431508 0.000173093 -0.001 0.000328731 0.000425633 -0.001 0.00034586 0.000114823 -0.001 
0.000435362 7.05241e-05 -0.001 0.000350892 1.5455e-05 -0.001 0.000441547 -3.11896e-05 -0.001 
0.000353547 -8.47783e-05 -0.001 0.000445767 -0.000132964 -0.001 0.000356135 -0.000186358 -0.001 
0.000449094 -0.000234674 -0.001 0.000359978 -0.000287876 -0.001 0.00026856 -0.000240545 -0.001 
0.000271895 -0.000341045 -0.001 0.000181792 -0.00029305 -0.001 0.00018533 -0.000392851 -0.001 
9.75701e-05 -0.00034483 -0.001 9.98764e-05 -0.000444884 -0.001 8.75116e-06 -0.000396343 -0.001 
1.20916e-05 -0.000500496 -0.001 -7.83929e-05 -0.000449843 -0.001 -8.1471e-05 -0.000347249 -0.001 
-0.000171566 -0.000403733 -0.001 -0.000169889 -0.000298891 -0.001 -0.000259867 -0.000354132 -0.001 
-0.000257696 -0.000249137 -0.001 -0.00034313 -0.000299896 -0.001 -0.000344514 -0.000199127 -0.001 
-0.000434309 -0.000250039 -0.001 -0.000169832 -0.000505815 -0.001 -0.000435227 -0.000146227 -0.001 
0.000280331 -0.000442424 -0.001 -0.000340889 8.76793e-05 -0.001 -0.000515252 4.06198e-05 -0.001 
6.50491e-05 0.000568253 -0.001 0.00053278 1.74743e-05 -0.001 0.000522071 0.000229831 -0.001 
-0.00037162 0.000391659 -0.001 -0.000255272 -0.000150439 -0.001 -0.000442893 -0.000350705 -0.001 
0.000450067 -0.000332559 -0.001 0.000545175 -0.000276306 -0.001 -0.000527797 -0.000197598 -0.001 
0.000105306 -0.000551033 -0.001 1.45836e-05 -0.000609147 -0.001 0.00017145 0.000214453 -0.001 
0.000515525 0.000341711 -0.001 0.000636086 0.000290368 -0.001 -0.000558657 0.000404468 -0.001 
-4.01232e-05 0.000616718 -0.001 6.60192e-05 0.000696422 -0.001 -0.000101806 0.0002546 -0.001 
0.000271142 -3.88908e-05 -0.001 0.000179455 -0.00018534 -0.001 -8.79553e-05 -0.000254307 -0.001 
-0.000749267 -0.000373451 -0.001 -0.000655941 -0.000323397 -0.001 0.000709746 0.000466718 -0.001 
0.000698426 -0.000473086 -0.001 -5.25801e-05 -0.00084886 -0.001 -4.93005e-05 0.000848038 -0.001 
0.000617396 -0.000413362 -0.001 0.000702056 -0.000369817 -0.001 0.000131459 -0.000679171 -0.001 
2.48171e-05 -0.000715924 -0.001 -0.000664217 -0.00042729 -0.001 -0.000528828 -8.80444e-05 -0.001 
-0.000611101 -0.000136672 -0.001 -0.000426972 -4.45841e-05 -0.001 0.000800669 0.000378216 -0.001 
0.000821144 -0.000415062 -0.001 7.2799e-05 0.00088254 -0.001 6.81831e-05 -0.00087503 -0.001 
0.000104963 -0.000788946 -0.001 -7.40696e-05 -0.000660054 -0.001 0.000126061 0.000809943 -0.001 
0.000764361 0.000295682 -0.001 0.000166862 0.000630623 -0.001 0.000516462 -0.00046707 -0.001 
-0.000563585 -0.000389606 -0.001 -0.000622598 -1.40238e-05 -0.001 0.000629891 0.000171529 -0.001 
2.5614e-06 -0.000299794 -0.001 8.6901e-05 -0.00024329 -0.001 0.000272045 -0.000136982 -0.001 
-0.00075148 0.000138321 -0.001 0.000209366 -0.000599589 -0.001 0.000324913 -0.000630055 -0.001 
0.000614044 0.00041245 -0.001 0.00049651 -0.000573327 -0.001 0.000394822 -0.000507321 -0.001 
-0.000173714 -0.000206698 -0.001 0.000264897 5.63722e-05 -0.001 0.000247997 0.000152811 -0.001 
-4.63327e-05 -0.000920208 -0.001 9.18688e-05 0.000258626 -0.001 -5.54111e-06 0.000290558 -0.001 
-0.000184219 0.000201484 -0.001 -0.000263559 0.000142267 -0.001 -0.000256427 5.13624e-05 -0.001 
-0.000336894 -2.06179e-06 -0.001 -0.000228499 -4.2388e-05 -0.001 -0.00017589 0.000106626 -0.001 
-0.000769947 -0.000133367 -0.001 0.000767591 -0.000500293 -0.001 -5.05874e-05 0.000737978 -0.001 
0.000754456 -3.51771e-06 -0.001 0.00064691 -6.15298e-05 -0.001 0.000630483 -0.00018134 -0.001 
0.000749187 -0.000265543 -0.001 -0.000760805 -0.000462521 -0.001 0.000638155 6.09315e-05 -0.001 
-4.46661e-05 0.000922995 -0.001 -2.37945e-05 0.000207237 -0.001 0.000776979 0.000500181 -0.001 
-0.000605691 0.000527596 -0.001 -0.000377914 -0.000653727 -0.001 -0.000372325 -0.000526022 -0.001 
-0.000275829 -0.000589621 -0.001 -0.000254285 -0.000710579 -0.001 -0.000379307 0.000656222 -0.001 
-0.000379818 0.00052718 -0.001 -0.000266817 0.000721555 -0.001 -0.000150544 0.000668174 -0.001 
0.000381963 0.00065079 -0.001 0.000493113 0.000590432 -0.001 0.000505439 0.000463708 -0.001 
-0.000269094 0.000596608 -0.001 0.000385815 0.000532045 -0.001 0.000283599 0.0005899 -0.001 
-0.000176405 -0.000108505 -0.001 -0.000278769 -0.000475415 -0.001 0.000185395 2.33014e-06 -0.001 
0.000186773 0.000517571 -0.001 0.000540032 -8.68444e-05 -0.001 -0.000600694 -0.000514877 -0.001 
-0.00063703 8.98033e-05 -0.001 -0.000459677 0.000335729 -0.001 -0.000338836 -0.000100751 -0.001 
-0.000457327 0.000432721 -0.001 -8.72007e-06 -0.000210238 -0.001 0.000156073 0.000129496 -0.001 
-7.70692e-05 -0.000555049 -0.001 0.00036091 -0.000389728 -0.001 0.000531628 0.000120564 -0.001 
-0.000285451 0.000435562 -0.001 0.000192719 -0.000494604 -0.001 0.00041642 0.00039368 -0.001 
-0.000135943 0.000554637 -0.001 -0.000170665 -0.000610079 -0.001 -0.000666304 0.000434981 -0.001 
-0.000758736 0.000479231 -0.001 -0.000470189 -0.000458901 -0.001 0.000203433 -8.59809e-05 -0.001 
0.000101846 0.000170114 -0.001 -0.00035513 -0.00040726 -0.001 0.000100184 -0.000165831 -0.001 
2.96286e-05 0.00081537 -0.001 0.000720946 0.000381836 -0.001 -0.000539809 -0.000292001 -0.001 
0.00052211 -0.000182426 -0.001 -6.41339e-05 -0.000753908 -0.001 0.000638039 -0.000299861 -0.001 
-0.000605136 -0.000230182 -0.001 -3.41638e-05 -0.000145561 -0.001 -0.000104037 0.000172396 -0.001 
-0.000808575 -0.00042774 -0.001 -0.000807207 -0.000465052 -0.001 -0.00080817 0.000429771 -0.001 
-0.000806589 0.000469738 -0.001 -9.50634e-05 -0.000178909 -0.001 0.000247777 0.000445058 -0.001 
1.48293e-05 -0.000814201 -0.001 -4.11555e-05 0.000140955 -0.001 0.000276104 -0.000536845 -0.001 
0.000765969 -0.000436638 -0.001 0.000780871 -0.000362769 -0.001 0.000424176 -0.000642018 -0.001 
0.00053413 -0.000368009 -0.001 -0.000416333 4.17911e-05 -0.001 -0.000133891 -6.23822e-05 -0.001 
4.2574e-05 0.000206312 -0.001 0.000141163 -0.000121542 -0.001 0.000707423 0.000212137 -0.001 
0.000172327 0.000723882 -0.001 7.72652e-06 -0.00090254 -0.001 -0.000134435 5.66935e-05 -0.001 
-0.000188826 3.70894e-05 -0.001 0.000197119 8.09714e-05 -0.001 1.27801e-05 0.000917296 -0.001 
0.000800767 0.00044758 -0.001 -0.000686682 0.000507104 -0.001 9.35831e-05 0.000110457 -0.001 
-0.000696793 -0.000509595 -0.001 -0.00068446 -8.52012e-05 -0.001 -0.000691033 -0.000201242 -0.001 
5.24052e-05 -0.000189075 -0.001 -0.000151818 -0.000701092 -0.001 -0.000296988 0.000518087 -0.001 
9.31023e-05 -0.000108117 -0.001 0.00044261 -0.000416726 -0.001 0.000197044 -0.000784423 -0.001 
-0.000516861 0.000504567 -0.001 0.000298997 0.000502377 -0.001 

CELLS 563 3941
6 14 304 127 29 554 377 
6 143 259 55 393 509 103 
6 300 319 174 550 569 424 
6 259 349 55 509 599 103 
6 50 365 307 98 615 557 
6 299 320 164 549 570 414 
6 126 304 14 376 554 29 
6 298 319 300 548 569 550 
6 205 240 238 455 490 488 
6 257 308 145 507 558 395 
6 130 352 273 380 602 523 
6 295 320 299 545 570 549 
6 324 327 289 574 577 539 
6 235 258 143 485 508 393 
6 50 307 49 98 557 97 
6 207 283 279 457 533 529 
6 143 373 235 393 623 485 
6 145 308 252 395 558 502 
6 194 303 196 444 553 446 
6 279 306 207 529 556 457 
6 206 305 163 456 555 413 
6 51 357 9 99 607 24 
6 238 252 205 488 502 455 
6 293 317 209 543 567 459 
6 207 316 283 457 566 533 
6 142 301 249 392 551 499 
6 273 359 130 523 609 380 
6 211 327 324 461 577 574 
6 169 265 217 419 515 467 
6 7 365 50 22 615 98 
6 283 316 253 533 566 503 
6 159 268 223 409 518 473 
6 274 337 132 524 587 382 
6 232 361 329 482 611 579 
6 231 266 45 481 516 93 
6 229 362 330 479 612 580 
6 9 244 57 24 494 105 
6 230 276 52 480 526 100 
6 209 311 293 459 561 543 
6 131 342 302 381 592 552 
6 270 271 204 520 521 454 
6 66 243 1 114 493 16 
6 59 241 12 107 491 27 
6 280 306 279 530 556 529 
6 269 337 274 519 587 524 
6 179 256 224 429 506 474 
6 163 305 166 413 555 416 
6 201 303 194 451 553 444 
6 280 332 306 530 582 556 
6 186 255 225 436 505 475 
6 210 310 273 460 560 523 
6 153 270 204 403 520 454 
6 136 231 45 386 481 93 
6 171 265 169 421 515 419 
6 138 230 52 388 480 100 
6 225 354 325 475 604 575 
6 36 284 232 84 534 482 
6 161 268 159 411 518 409 
6 71 286 229 119 536 479 
6 290 303 201 540 553 451 
6 139 355 60 389 605 108 
6 60 355 248 108 605 498 
6 273 352 302 523 602 552 
6 235 373 245 485 623 495 
6 67 356 247 115 606 497 
6 221 295 277 471 545 527 
6 142 356 67 392 606 115 
6 139 283 253 389 533 503 
6 203 315 262 453 565 512 
6 41 257 145 89 507 395 
6 36 232 135 84 482 385 
6 71 229 137 119 479 387 
6 254 255 188 504 505 438 
6 233 350 334 483 600 584 
6 262 346 203 512 596 453 
6 304 325 127 554 575 377 
6 222 329 247 472 579 497 
6 218 298 260 468 548 510 
6 290 321 291 540 571 541 
6 272 310 240 522 560 490 
6 269 274 270 519 524 520 
6 244 245 57 494 495 105 
6 49 307 141 97 557 391 
6 225 325 256 475 575 506 
6 273 310 272 523 560 522 
6 312 368 255 562 618 505 
6 249 305 206 499 555 456 
6 228 331 251 478 581 501 
6 302 342 263 552 592 513 
6 338 339 44 588 589 92 
6 190 254 188 440 504 438 
6 37 341 340 85 591 590 
6 138 233 230 388 483 480 
6 228 335 331 478 585 581 
6 181 256 179 431 506 429 
6 195 263 226 445 513 476 
6 268 285 223 518 535 473 
6 290 291 288 540 541 538 
6 219 330 248 469 580 498 
6 201 321 290 451 571 540 
6 240 310 202 490 560 452 
6 188 255 186 438 505 436 
6 270 274 271 520 524 521 
6 262 349 259 512 599 509 
6 141 324 289 391 574 539 
6 296 301 142 546 551 392 
6 247 356 222 497 606 472 
6 239 252 238 489 502 488 
6 254 312 255 504 562 505 
6 54 261 53 102 511 101 
6 289 327 303 539 577 553 
6 268 353 285 518 603 535 
6 273 302 210 523 552 460 
6 292 299 293 542 549 543 
6 278 283 139 528 533 389 
6 175 265 171 425 515 421 
6 227 338 38 477 588 86 
6 264 360 265 514 610 515 
6 43 340 146 91 590 396 
6 165 268 161 415 518 411 
6 205 351 240 455 601 490 
6 64 281 63 112 531 111 
6 288 291 47 538 541 95 
6 135 295 294 385 545 544 
6 42 257 41 90 507 89 
6 245 373 57 495 623 105 
6 31 363 323 79 613 573 
6 292 293 140 542 543 390 
6 267 353 268 517 603 518 
6 155 270 153 405 520 403 
6 244 344 245 494 594 495 
6 61 278 139 109 528 389 
6 135 294 35 385 544 83 
6 69 297 296 117 547 546 
6 186 225 184 436 475 434 
6 329 361 243 579 611 493 
6 255 328 225 505 578 475 
6 213 332 280 463 582 530 
6 39 275 133 87 525 383 
6 330 362 241 580 612 491 
6 195 226 193 445 476 443 
6 211 324 251 461 574 501 
6 151 153 152 401 403 402 
6 295 299 294 545 549 544 
6 265 313 217 515 563 467 
6 258 259 143 508 509 393 
6 251 331 211 501 581 461 
6 149 151 150 399 401 400 
6 293 370 317 543 620 567 
6 153 204 152 403 454 402 
6 151 152 150 401 402 400 
6 33 292 140 81 542 390 
6 210 263 197 460 513 447 
6 301 305 249 551 555 499 
6 298 300 297 548 550 547 
6 68 296 142 116 546 392 
6 321 369 291 571 619 541 
6 179 224 177 429 474 427 
6 167 267 165 417 517 415 
6 259 346 262 509 596 512 
6 303 327 196 553 577 446 
6 269 270 155 519 520 405 
6 265 360 313 515 610 563 
6 223 269 157 473 519 407 
6 157 269 155 407 519 405 
6 144 279 278 394 529 528 
6 169 217 167 419 467 417 
6 177 264 175 427 514 425 
6 267 268 165 517 518 415 
6 159 223 157 409 473 407 
6 232 277 135 482 527 385 
6 193 254 190 443 504 440 
6 217 267 167 467 517 417 
6 249 356 142 499 606 392 
6 184 256 181 434 506 431 
6 248 355 219 498 605 469 
6 229 260 137 479 510 387 
6 149 150 148 399 400 398 
6 64 348 281 112 598 531 
6 311 374 293 561 624 543 
6 264 265 175 514 515 425 
6 297 300 296 547 550 546 
6 141 289 288 391 539 538 
6 197 263 195 447 513 445 
6 218 260 219 468 510 469 
6 224 264 177 474 514 427 
6 137 298 297 387 548 547 
6 277 295 135 527 545 385 
6 133 228 227 383 478 477 
6 261 349 262 511 599 512 
6 221 277 222 471 527 472 
6 256 325 224 506 575 474 
6 199 210 197 449 460 447 
6 226 254 193 476 504 443 
6 144 278 62 394 528 110 
6 279 283 278 529 533 528 
6 289 290 288 539 540 538 
6 137 297 70 387 547 118 
6 34 294 292 82 544 542 
6 235 236 216 485 486 466 
6 141 288 48 391 538 96 
6 178 306 180 428 556 430 
6 185 186 184 435 436 434 
6 63 281 144 111 531 394 
6 225 256 184 475 506 434 
6 46 291 136 94 541 386 
6 147 149 148 397 399 398 
6 271 272 204 521 522 454 
6 233 334 234 483 584 484 
6 145 275 40 395 525 88 
6 220 322 287 470 572 537 
6 280 334 213 530 584 463 
6 144 280 279 394 530 529 
6 140 287 32 390 537 80 
6 154 155 153 404 405 403 
6 334 350 213 584 600 463 
6 176 177 175 426 427 425 
6 260 298 137 510 548 387 
6 33 140 32 81 390 80 
6 49 141 48 97 391 96 
6 56 143 55 104 393 103 
6 68 142 67 116 392 115 
6 63 144 62 111 394 110 
6 61 139 60 109 389 108 
6 148 308 257 398 558 507 
6 71 137 70 119 387 118 
6 53 138 52 101 388 100 
6 46 136 45 94 386 93 
6 36 135 35 84 385 83 
6 43 146 134 91 396 384 
6 133 227 38 383 477 86 
6 192 193 190 442 443 440 
6 293 374 140 543 624 390 
6 34 292 33 82 542 81 
6 207 306 178 457 556 428 
6 43 134 42 91 384 90 
6 39 133 38 87 383 86 
6 41 145 40 89 395 88 
6 194 195 193 444 445 443 
6 69 296 68 117 546 116 
6 294 299 292 544 549 542 
6 173 175 171 423 425 421 
6 260 330 219 510 580 469 
6 183 184 181 433 434 431 
6 134 257 42 384 507 90 
6 55 349 54 103 599 102 
6 163 165 161 413 415 411 
6 166 167 165 416 417 415 
6 210 302 263 460 552 513 
6 271 273 272 521 523 522 
6 53 261 138 101 511 388 
6 217 326 267 467 576 517 
6 289 303 290 539 553 540 
6 178 179 177 428 429 427 
6 238 240 202 488 490 452 
6 62 278 61 110 528 109 
6 35 294 34 83 544 82 
6 284 361 232 534 611 482 
6 70 297 69 118 547 117 
6 224 304 264 474 554 514 
6 156 157 155 406 407 405 
6 48 288 47 96 538 95 
6 221 320 295 471 570 545 
6 187 188 186 437 438 436 
6 47 291 46 95 541 94 
6 151 154 153 401 404 403 
6 286 362 229 536 612 479 
6 168 169 167 418 419 417 
6 40 275 39 88 525 87 
6 307 324 141 557 574 391 
6 300 301 296 550 551 546 
6 32 287 31 80 537 79 
6 147 220 149 397 470 399 
6 333 344 231 583 594 481 
6 299 370 293 549 620 543 
6 271 359 273 521 609 523 
6 224 325 304 474 575 554 
6 228 237 227 478 487 477 
6 305 375 343 555 625 593 
6 218 319 298 468 569 548 
6 240 351 272 490 601 522 
6 277 329 222 527 579 472 
6 253 355 139 503 605 389 
6 158 159 157 408 409 407 
6 236 246 216 486 496 466 
6 192 194 193 442 444 443 
6 220 309 149 470 559 399 
6 183 185 184 433 435 434 
6 196 197 195 446 447 445 
6 276 347 58 526 597 106 
6 136 333 231 386 583 481 
6 67 247 66 115 497 114 
6 60 248 59 108 498 107 
6 261 262 250 511 512 500 
6 173 176 175 423 426 425 
6 344 357 231 594 607 481 
6 144 281 280 394 531 530 
6 152 205 150 402 455 400 
6 163 166 165 413 416 415 
6 185 187 186 435 437 436 
6 233 234 230 483 484 480 
6 170 171 169 420 421 419 
6 146 147 134 396 397 384 
6 176 178 177 426 428 427 
6 285 337 223 535 587 473 
6 154 156 155 404 406 405 
6 263 342 226 513 592 476 
6 235 245 236 485 495 486 
6 160 161 159 410 411 409 
6 58 347 242 106 597 492 
6 166 168 167 416 418 417 
6 287 374 220 537 624 470 
6 189 190 188 439 440 438 
6 148 257 134 398 507 384 
6 194 196 195 444 446 445 
6 252 308 205 502 558 455 
6 285 345 337 535 595 587 
6 301 375 305 551 625 555 
6 180 181 179 430 431 429 
6 281 348 234 531 598 484 
6 198 199 197 448 449 447 
6 151 309 154 401 559 404 
6 228 367 335 478 617 585 
6 54 349 261 102 599 511 
6 156 158 157 406 408 407 
6 168 170 169 418 420 419 
6 200 202 199 450 452 449 
6 147 148 134 397 398 384 
6 158 160 159 408 410 409 
6 150 308 148 400 558 398 
6 253 316 208 503 566 458 
6 232 329 277 482 579 527 
6 178 180 179 428 430 429 
6 191 192 190 441 442 440 
6 214 238 202 464 488 452 
6 172 173 171 422 423 421 
6 187 189 188 437 439 438 
6 162 163 161 412 413 411 
6 228 251 237 478 501 487 
6 215 258 235 465 508 485 
6 182 183 181 432 433 431 
6 202 310 199 452 560 449 
6 219 253 208 469 503 458 
6 222 249 206 472 499 456 
6 196 198 197 446 448 447 
6 229 330 260 479 580 510 
6 132 358 274 382 608 524 
6 149 309 151 399 559 401 
6 226 312 254 476 562 504 
6 154 309 209 404 559 459 
6 77 129 76 125 379 124 
6 73 128 72 121 378 120 
6 76 131 75 124 381 123 
6 74 132 73 122 382 121 
6 75 130 74 123 380 122 
6 14 127 77 29 377 125 
6 72 126 14 120 376 29 
6 133 367 228 383 617 478 
6 237 282 227 487 532 477 
6 239 366 252 489 616 502 
6 200 214 202 450 464 452 
6 192 201 194 442 451 444 
6 170 172 171 420 422 421 
6 220 311 309 470 561 559 
6 198 200 199 448 450 449 
6 189 191 190 439 441 440 
6 146 323 322 396 573 572 
6 160 162 161 410 412 411 
6 251 307 237 501 557 487 
6 199 310 210 449 560 460 
6 57 373 56 105 623 104 
6 214 239 238 464 489 488 
6 182 212 183 432 462 433 
6 180 182 181 430 432 431 
6 146 322 147 396 572 397 
6 172 218 208 422 468 458 
6 172 208 173 422 458 423 
6 162 221 206 412 471 456 
6 162 206 163 412 456 413 
6 176 207 178 426 457 428 
6 272 351 204 522 601 454 
6 198 211 200 448 461 450 
6 182 213 212 432 463 462 
6 234 334 281 484 584 531 
6 154 209 156 404 459 406 
6 185 203 187 435 453 437 
6 168 174 170 418 424 420 
6 189 215 191 439 465 441 
6 215 216 191 465 466 441 
6 221 222 206 471 472 456 
6 158 164 160 408 414 410 
6 218 219 208 468 469 458 
6 205 308 150 455 558 400 
6 191 314 192 441 564 442 
6 215 235 216 465 485 466 
6 215 318 258 465 568 508 
6 152 351 205 402 601 455 
6 138 261 250 388 511 500 
6 192 314 201 442 564 451 
6 234 347 230 484 597 480 
6 226 342 312 476 592 562 
6 138 250 233 388 500 483 
6 147 322 220 397 572 470 
6 216 314 191 466 564 441 
6 306 332 180 556 582 430 
6 222 356 249 472 606 499 
6 128 345 285 378 595 535 
6 314 321 201 564 571 451 
6 212 315 183 462 565 433 
6 312 342 336 562 592 586 
6 282 339 338 532 589 588 
6 340 341 323 590 591 573 
6 309 311 209 559 561 459 
6 183 315 185 433 565 435 
6 208 316 173 458 566 423 
6 173 316 176 423 566 426 
6 3 341 37 18 591 85 
6 44 339 6 92 589 21 
6 252 366 145 502 616 395 
6 246 321 314 496 571 564 
6 246 314 216 496 564 466 
6 126 364 313 376 614 563 
6 156 317 158 406 567 408 
6 275 367 133 525 617 383 
6 176 316 207 426 566 457 
6 185 315 203 435 565 453 
6 180 332 182 430 582 432 
6 302 352 131 552 602 381 
6 251 324 307 501 574 557 
6 187 318 189 437 568 439 
6 172 319 218 422 569 468 
6 162 320 221 412 570 471 
6 305 343 166 555 593 416 
6 170 319 172 420 569 422 
6 158 317 164 408 567 414 
6 209 317 156 459 567 406 
6 285 353 128 535 603 378 
6 223 337 269 473 587 519 
6 160 320 162 410 570 412 
6 211 331 200 461 581 450 
6 174 319 170 424 569 420 
6 203 318 187 453 568 437 
6 189 318 215 439 568 465 
6 198 327 211 448 577 461 
6 164 320 160 414 570 410 
6 326 353 267 576 603 517 
6 236 344 333 486 594 583 
6 196 327 198 446 577 448 
6 219 355 253 469 605 503 
6 281 334 280 531 584 530 
6 274 359 271 524 609 521 
6 164 370 299 414 620 549 
6 174 375 300 424 625 550 
6 287 363 31 537 613 79 
6 243 361 1 493 611 16 
6 241 362 12 491 612 27 
6 307 365 237 557 615 487 
6 166 343 168 416 593 418 
6 200 331 214 450 581 464 
6 313 326 217 563 576 467 
6 9 357 244 24 607 494 
6 1 361 30 16 611 78 
6 12 362 65 27 612 113 
6 337 345 132 587 595 382 
6 242 348 64 492 598 112 
6 231 357 266 481 607 516 
6 182 332 213 432 582 463 
6 245 344 236 495 594 486 
6 258 346 259 508 596 509 
6 145 366 275 395 616 525 
6 291 369 136 541 619 386 
6 236 333 246 486 583 496 
6 331 335 214 581 585 464 
6 312 336 129 562 586 379 
6 315 372 262 565 622 512 
6 220 374 311 470 624 561 
6 140 374 287 390 624 537 
6 126 360 304 376 610 554 
6 230 347 276 480 597 526 
6 313 364 326 563 614 576 
6 56 373 143 104 623 393 
6 239 367 366 489 617 616 
6 204 351 152 454 601 402 
6 300 375 301 550 625 551 
6 214 335 239 464 585 489 
6 247 329 243 497 579 493 
6 262 372 250 512 622 500 
6 248 330 241 498 580 491 
6 318 346 258 568 596 508 
6 333 369 246 583 619 496 
6 282 338 227 532 588 477 
6 146 340 323 396 590 573 
6 304 360 264 554 610 514 
6 366 367 275 616 617 525 
6 129 336 76 379 586 124 
6 73 345 128 121 595 378 
6 76 336 131 124 586 381 
6 250 350 233 500 600 483 
6 129 371 328 379 621 578 
6 132 345 73 382 595 121 
6 168 343 174 418 593 424 
6 131 352 75 381 602 123 
6 66 247 243 114 497 493 
6 59 248 241 107 498 491 
6 74 358 132 122 608 382 
6 203 346 318 453 596 568 
6 313 360 126 563 610 376 
6 128 364 72 378 614 120 
6 128 353 326 378 603 576 
6 77 371 129 125 621 379 
6 129 368 312 379 618 562 
6 244 357 344 494 607 594 
6 328 354 225 578 604 475 
6 326 364 128 576 614 378 
6 75 352 130 123 602 380 
6 350 372 212 600 622 462 
6 136 369 333 386 619 583 
6 325 354 127 575 604 377 
6 213 350 212 463 600 462 
6 130 358 74 380 608 122 
6 250 372 350 500 622 600 
6 317 370 164 567 620 414 
6 72 364 126 120 614 376 
6 328 368 129 578 618 379 
6 127 371 77 377 621 125 
6 336 342 131 586 592 381 
6 212 372 315 462 622 565 
6 234 348 347 484 598 597 
6 8 266 51 23 516 99 
6 10 276 58 25 526 106 
6 246 369 321 496 619 571 
6 30 284 0 78 534 15 
6 65 286 13 113 536 28 
6 58 242 11 106 492 26 
6 266 357 51 516 607 99 
6 255 368 328 505 618 578 
6 347 348 242 597 598 492 
6 322 363 287 572 613 537 
6 323 363 322 573 613 572 
6 335 367 239 585 617 489 
6 30 361 284 78 611 534 
6 65 362 286 113 612 536 
6 237 365 282 487 615 532 
6 130 359 358 380 609 608 
6 343 375 174 593 625 424 
6 354 371 127 604 621 377 
6 328 371 354 578 621 604 
6 358 359 274 608 609 524 
6 0 284 36 15 534 84 
6 45 266 8 93 516 23 
6 52 276 10 100 526 25 
6 11 242 64 26 492 112 
6 13 286 71 28 536 119 
6 2 323 3 17 573 18 
6 31 323 2 79 573 17 
6 323 341 3 573 591 18 
6 37 340 4 85 590 19 
6 4 340 43 19 590 91 
6 38 338 5 86 588 20 
6 5 338 44 20 588 92 
6 6 282 7 21 532 22 
6 6 339 282 21 589 532 
6 282 365 7 532 615 22 

CELL_TYPES 563
13
13
13
13
13
13
13
13
13
13
13
13
13
13
13
13
13
13
13
13
13
13
13
13
13
13
13
13
13
13
13
13
13
13
13
13
13
13
13
13
13
13
13
13
13
13
13
13
13
13
13
13
13
13
13
13
13
13
13
13
13
13
13
13
13
13
13
13
13
13
13
13
13
13
13
13
13
13
13
13
13
13
13
13
13
13
13
13
13
13
13
13
13
13
13
13
13
13
13
13
13
13
13
13
13
13
13
13
13
13
13
13
13
13
13
13
13
13
13
13
13
13
13
13
13
13
13
13
13
13
13
13
13
13
13
13
13
13
13
13
13
13
13
13
13
13
13
13
13
13
13
13
13
13
13
13
13
13
13
13
13
13
13
13
13
13
13
13
13
13
13
13
13
13
13
13
13
13
13
13
13
13
13
13
13
13
13
13
13
13
13
13
13
13
13
13
13
13
13
13
13
13
13
13
13
13
13
13
13
13
13
13
13
13
13
13
13
13
13
13
13
13
13
13
13
13
13
13
13
13
13
13
13
13
13
13
13
13
13
13
13
13
13
13
13
13
13
13
13
13
13
13
13
13
13
13
13
13
13
13
13
13
13
13
13
13
13
13
13
13
13
13
13
13
13
13
13
13
13
13
13
13
13
13
13
13
13
13
13
13
13
13
13
13
13
13
13
13
13
13
13
13
13
13
13
13
13
13
13
13
13
13
13
13
13
13
13
13
13
13
13
13
13
13
13
13
13
13
13
13
13
13
13
13
13
13
13
13
13
13
13
13
13
13
13
13
13
13
13
13
13
13
13
13
13
13
13
13
13
13
13
13
13
13
13
13
13
13
13
13
13
13
13
13
13
13
13
13
13
13
13
13
13
13
13
13
13
13
13
13
13
13
13
13
13
13
13
13
13
13
13
13
13
13
13
13
13
13
13
13
13
13
13
13
13
13
13
13
13
13
13
13
13
13
13
13
13
13
13
13
13
13
13
13
13
13
13
13
13
13
13
13
13
13
13
13
13
13
13
13
13
13
13
13
13
13
13
13
13
13
13
13
13
13
13
13
13
13
13
13
13
13
13
13
13
13
13
13
13
13
13
13
13
13
13
13
13
13
13
13
13
13
13
13
13
13
13
13
13
13
13
13
13
13
13
13
13
13
13
13
13
13
13
13
13
13
13
13
13
13
13
13
13
13
13
13
13
13
13
13
13
13
13
13
13
13
13
13
13
13
13
13
13
13
13
13
13
13
13
13
13
13
13
13
13
13
13
13
13
13
13
13
13

POINT_DATA 626
VECTORS displacement float
-1.74037e-06 3.08999e-05 1.80215e-05
1.73207e-06 3.09189e-05 1.80665e-05
-2.59407e-05 1.69625e-05 1.80534e-05
-2.57956e-05 1.60045e-05 1.80181e-05
-2.76716e-05 1.39486e-05 1.80355e-05
-2.76645e-05 -1.39948e-05 1.80609e-05
-2.57668e-05 -1.60427e-05 1.80722e-05
-2.59369e-05 -1.69805e-05 1.81332e-05
-1.67396e-06 -3.09036e-05 1.80179e-05
1.75186e-06 -3.09051e-05 1.80682e-05
2.58982e-05 -1.69503e-05 1.801e-05
2.76679e-05 -1.39126e-05 1.80098e-05
2.76235e-05 1.39652e-05 1.8058e-05
2.58696e-05 1.69626e-05 1.80125e-05
0 0 0
-1.74037e-06 3.08999e-05 -1.80215e-05
1.73207e-06 3.09189e-05 -1.80665e-05
-2.59407e-05 1.69625e-05 -1.80534e-05
-2.57956e-05 1.60045e-05 -1.80181e-05
-2.76716e-05 1.39486e-05 -1.80355e-05
-2.76645e-05 -1.39948e-05 -1.80609e-05
-2.57668e-05 -1.60427e-05 -1.80722e-05
-2.59369e-05 -1.69805e-05 -1.81332e-05
-1.67396e-06 -3.09036e-05 -1.80179e-05
1.75186e-06 -3.09051e-05 -1.80682e-05
2.58982e-05 -1.69503e-05 -1.801e-05
2.76679e-05 -1.39126e-05 -1.80098e-05
2.76235e-05 1.39652e-05 -1.8058e-05
2.58696e-05 1.69626e-05 -1.80125e-05
0 0 0
2.48151e-08 3.01013e-05 1.80007e-05
-2.11047e-05 1.86793e-05 1.75175e-05
-1.72037e-05 1.97996e-05 1.68903e-05
-1.39835e-05 2.10185e-05 1.65253e-05
-1.11877e-05 2.26267e-05 1.65192e-05
-8.50892e-06 2.47908e-05 1.68708e-05
-5.55729e-06 2.75742e-05 1.75053e-05
-2.64032e-05 1.46534e-05 1.8e-05
-2.67221e-05 -8.99682e-06 1.75451e-05
-2.57621e-05 -5.02762e-06 1.68954e-05
-2.52118e-05 -1.63371e-06 1.65418e-05
-2.52148e-05 1.60539e-06 1.65447e-05
-2.57544e-05 5.01501e-06 1.68936e-05
-2.67084e-05 8.96994e-06 1.75317e-05
-2.63901e-05 -1.46997e-05 1.80287e-05
-5.53058e-06 -2.75886e-05 1.74975e-05
-8.46152e-06 -2.47998e-05 1.68702e-05
-1.1151e-05 -2.26461e-05 1.65266e-05
-1.39473e-05 -2.10515e-05 1.65299e-05
-1.71862e-05 -1.98349e-05 1.69061e-05
-2.10983e-05 -1.8716e-05 1.753e-05
8.96293e-08 -3.00861e-05 1.79959e-05
2.10881e-05 -1.85919e-05 1.74793e-05
1.72159e-05 -1.97281e-05 1.68424e-05
1.40104e-05 -2.09756e-05 1.64821e-05
1.12059e-05 -2.2555e-05 1.65166e-05
8.56593e-06 -2.47382e-05 1.68437e-05
5.64395e-06 -2.75789e-05 1.75028e-05
2.60786e-05 -1.50332e-05 1.79949e-05
2.66703e-05 8.92388e-06 1.74694e-05
2.56782e-05 5.0417e-06 1.68779e-05
2.5164e-05 1.62085e-06 1.64937e-05
2.51612e-05 -1.59699e-06 1.6492e-05
2.57067e-05 -4.98959e-06 1.68578e-05
2.66525e-05 -8.90265e-06 1.74776e-05
2.60617e-05 1.50344e-05 1.79919e-05
5.62243e-06 2.75702e-05 1.74774e-05
8.49346e-06 2.47648e-05 1.68807e-05
1.11979e-05 2.2603e-05 1.64998e-05
1.39811e-05 2.09865e-05 1.64952e-05
1.71929e-05 1.97593e-05 1.68546e-05
2.10791e-05 1.86016e-05 1.74932e-05
0 0 0
0 0 0
0 0 0
0 0 0
0 0 0
0 0 0
2.48151e-08 3.01013e-05 -1.80007e-05
-2.11047e-05 1.86793e-05 -1.75175e-05
-1.72037e-05 1.97996e-05 -1.68903e-05
-1.39835e-05 2.10185e-05 -1.65253e-05
-1.11877e-05 2.26267e-05 -1.65192e-05
-8.50892e-06 2.47908e-05 -1.68708e-05
-5.55729e-06 2.75742e-05 -1.75053e-05
-2.64032e-05 1.46534e-05 -1.8e-05
-2.67221e-05 -8.99682e-06 -1.75451e-05
-2.57621e-05 -5.02762e-06 -1.68954e-05
-2.52118e-05 -1.63371e-06 -1.65418e-05
-2.52148e-05 1.60539e-06 -1.65447e-05
-2.57544e-05 5.01501e-06 -1.68936e-05
-2.67084e-05 8.96994e-06 -1.75317e-05
-2.63901e-05 -1.46997e-05 -1.80287e-05
-5.53058e-06 -2.75886e-05 -1.74975e-05
-8.46152e-06 -2.47998e-05 -1.68702e-05
-1.1151e-05 -2.26461e-05 -1.65266e-05
-1.39473e-05 -2.10515e-05 -1.65299e-05
-1.71862e-05 -1.98349e-05 -1.69061e-05
-2.10983e-05 -1.8716e-05 -1.753e-05
8.96293e-08 -3.00861e-05 -1.79959e-05
2.10881e-05 -1.85919e-05 -1.74793e-05
1.72159e-05 -1.97281e-05 -1.68424e-05
1.40104e-05 -2.09756e-05 -1.64821e-05
1.12059e-05 -2.2555e-05 -1.65166e-05
8.56593e-06 -2.47382e-05 -1.68437e-05
5.64395e-06 -2.75789e-05 -1.75028e-05
2.60786e-05 -1.50332e-05 -1.79949e-05
2.66703e-05 8.92388e-06 -1.74694e-05
2.56782e-05 5.0417e-06 -1.68779e-05
2.5164e-05 1.62085e-06 -1.64937e-05
2.51612e-05 -1.59699e-06 -1.6492e-05
2.57067e-05 -4.98959e-06 -1.68578e-05
2.66525e-05 -8.90265e-06 -1.74776e-05
2.60617e-05 1.50344e-05 -1.79919e-05
5.62243e-06 2.75702e-05 -1.74774e-05
8.49346e-06 2.47648e-05 -1.68807e-05
1.11979e-05 2.2603e-05 -1.64998e-05
1.39811e-05 2.09865e-05 -1.64952e-05
1.71929e-05 1.97593e-05 -1.68546e-05
2.10791e-05 1.86016e-05 -1.74932e-05
0 0 0
0 0 0
0 0 0
0 0 0
0 0 0
0 0 0
1.79141e-06 8.57661e-07 4.5457e-06
1.73562e-06 -8.24073e-07 4.45439e-06
4.31406e-07 1.8473e-06 4.48868e-06
4.35547e-07 -1.7784e-06 4.34986e-06
-1.84516e-06 2.09312e-08 4.41604e-06
-1.12168e-06 -1.30724e-06 4.14508e-06
-1.15776e-06 1.30516e-06 4.19378e-06
-2.24747e-05 -7.27561e-06 1.69691e-05
-2.21587e-05 7.35933e-06 1.69379e-05
-4.85193e-06 2.28597e-05 1.69063e-05
-4.84941e-06 -2.30924e-05 1.69332e-05
1.73919e-05 1.56088e-05 1.68992e-05
1.75392e-05 -1.55099e-05 1.69084e-05
2.10383e-05 3.15875e-06 1.62953e-05
-1.39299e-05 1.71224e-05 1.64489e-05
-1.35686e-05 -1.67131e-05 1.63806e-05
7.75473e-06 1.97865e-05 1.63021e-05
7.67183e-06 -2.0276e-05 1.63732e-05
2.14364e-05 -3.43814e-06 1.63709e-05
-2.10676e-05 6.5706e-09 1.62178e-05
-2.23818e-05 1.0981e-05 1.74216e-05
-1.87193e-05 9.23916e-06 1.65971e-05
-1.79529e-05 5.78587e-06 1.60078e-05
-1.49593e-05 7.43609e-06 1.54591e-05
-1.42014e-05 4.30073e-06 1.4804e-05
-1.15142e-05 5.73469e-06 1.40706e-05
-1.08409e-05 3.06389e-06 1.3351e-05
-8.38751e-06 4.29822e-06 1.23839e-05
-9.0445e-06 7.00233e-06 1.34337e-05
-6.19466e-06 5.48016e-06 1.167e-05
-6.81761e-06 8.23653e-06 1.30581e-05
-4.27492e-06 6.66481e-06 1.14319e-05
-4.79251e-06 9.59489e-06 1.3072e-05
-2.39722e-06 7.98118e-06 1.17039e-05
-2.80842e-06 1.11496e-05 1.34522e-05
-4.74679e-07 9.58044e-06 1.24803e-05
-7.37181e-07 1.29761e-05 1.41175e-05
1.72835e-06 1.14996e-05 1.35121e-05
-5.5258e-06 1.268e-05 1.44121e-05
1.68252e-06 8.21145e-06 1.17284e-05
3.9979e-06 1.0105e-05 1.31289e-05
3.69974e-06 7.08721e-06 1.14596e-05
6.05791e-06 8.95264e-06 1.30914e-05
5.75804e-06 6.0975e-06 1.17164e-05
8.34489e-06 8.00768e-06 1.34693e-05
8.09311e-06 5.18723e-06 1.24797e-05
1.09365e-05 7.0857e-06 1.41227e-05
1.0729e-05 4.31597e-06 1.34763e-05
8.51681e-06 1.10198e-05 1.44359e-05
7.92562e-06 2.63972e-06 1.17083e-05
1.06294e-05 1.73448e-06 1.30821e-05
7.93667e-06 3.58217e-07 1.1437e-05
1.07895e-05 -7.57919e-07 1.31022e-05
8.09931e-06 -1.93485e-06 1.169e-05
1.10808e-05 -3.30761e-06 1.34611e-05
8.45665e-06 -4.41714e-06 1.24235e-05
1.14853e-05 -5.99328e-06 1.40853e-05
8.94145e-06 -7.12686e-06 1.34054e-05
6.13819e-06 -5.48607e-06 1.16224e-05
6.63411e-06 -8.2879e-06 1.29965e-05
4.09902e-06 -6.57858e-06 1.12927e-05
4.5163e-06 -9.53596e-06 1.29666e-05
2.23889e-06 -7.84636e-06 1.15785e-05
2.48093e-06 -1.09846e-05 1.33285e-05
2.2494e-07 -9.35923e-06 1.23332e-05
3.29483e-07 -1.27494e-05 1.40099e-05
-1.91243e-06 -1.11331e-05 1.33545e-05
-1.83828e-06 -7.9096e-06 1.15634e-05
-4.16139e-06 -9.8594e-06 1.30632e-05
-3.80819e-06 -6.72035e-06 1.12989e-05
-6.33569e-06 -8.64847e-06 1.30774e-05
-5.88235e-06 -5.68936e-06 1.16095e-05
-8.48633e-06 -7.42409e-06 1.33572e-05
-8.15493e-06 -4.72076e-06 1.23882e-05
-1.10779e-05 -6.39254e-06 1.40459e-05
-4.36465e-06 -1.31021e-05 1.44089e-05
-1.07918e-05 -3.64492e-06 1.34166e-05
7.21456e-06 -1.13546e-05 1.42485e-05
-7.72998e-06 1.97968e-06 1.14743e-05
-1.3195e-05 1.0334e-06 1.41866e-05
1.72631e-06 1.50583e-05 1.49262e-05
1.3746e-05 4.61499e-07 1.43631e-05
1.38207e-05 6.09021e-06 1.49058e-05
-9.67846e-06 1.01799e-05 1.45075e-05
-5.40804e-06 -3.19295e-06 1.01661e-05
-1.16946e-05 -9.28226e-06 1.48634e-05
1.18631e-05 -8.74603e-06 1.47616e-05
1.47576e-05 -7.46136e-06 1.53763e-05
-1.39371e-05 -5.23539e-06 1.48359e-05
2.7913e-06 -1.44927e-05 1.47706e-05
4.23857e-07 -1.64724e-05 1.53708e-05
3.51334e-06 4.39057e-06 9.56622e-06
1.39876e-05 9.2838e-06 1.54644e-05
1.79009e-05 8.13143e-06 1.62715e-05
-1.56494e-05 1.13763e-05 1.62045e-05
-1.09229e-06 1.67416e-05 1.54681e-05
1.90362e-06 1.95889e-05 1.62818e-05
-2.08884e-06 5.21251e-06 9.58268e-06
5.54591e-06 -7.83467e-07 9.57925e-06
3.58082e-06 -3.67829e-06 9.068e-06
-1.77707e-06 -5.17109e-06 9.43496e-06
-2.24302e-05 -1.09921e-05 1.74423e-05
-1.87666e-05 -9.22593e-06 1.66211e-05
2.11117e-05 1.41403e-05 1.74735e-05
2.07183e-05 -1.42929e-05 1.74036e-05
-1.76138e-06 -2.54029e-05 1.74788e-05
-1.67907e-06 2.53669e-05 1.74835e-05
1.76832e-05 -1.18868e-05 1.66571e-05
2.06106e-05 -1.07329e-05 1.70849e-05
3.7693e-06 -1.89536e-05 1.61107e-05
7.67203e-07 -2.03117e-05 1.64533e-05
-1.93722e-05 -1.26289e-05 1.7112e-05
-1.3709e-05 -2.30322e-06 1.44471e-05
-1.65655e-05 -3.69539e-06 1.54504e-05
-1.03597e-05 -1.09467e-06 1.29306e-05
2.44097e-05 1.10541e-05 1.76191e-05
2.54531e-05 -1.2382e-05 1.78151e-05
2.64427e-06 2.66799e-05 1.7628e-05
2.51627e-06 -2.63681e-05 1.75969e-05
3.33357e-06 -2.29929e-05 1.69982e-05
-2.05047e-06 -1.82895e-05 1.59226e-05
4.05183e-06 2.37509e-05 1.70992e-05
2.25756e-05 8.36531e-06 1.70882e-05
4.60596e-06 1.72848e-05 1.56996e-05
1.44031e-05 -1.30976e-05 1.61087e-05
-1.57614e-05 -1.09664e-05 1.61856e-05
-1.67723e-05 -3.80815e-07 1.53505e-05
1.72774e-05 4.67979e-06 1.5698e-05
6.54241e-08 -6.37789e-06 1.02513e-05
1.73922e-06 -4.8415e-06 9.07848e-06
5.84182e-06 -2.93117e-06 1.03618e-05
-2.14082e-05 3.74439e-06 1.64294e-05
5.71994e-06 -1.62478e-05 1.54805e-05
9.06839e-06 -1.74701e-05 1.59692e-05
1.75426e-05 1.18616e-05 1.66423e-05
1.39709e-05 -1.63547e-05 1.63719e-05
1.07224e-05 -1.37663e-05 1.55228e-05
-3.54282e-06 -4.21408e-06 9.48602e-06
5.39131e-06 1.13685e-06 9.48432e-06
5.2104e-06 3.21815e-06 1.00315e-05
-1.74643e-06 -2.83051e-05 1.78438e-05
1.88931e-06 5.2912e-06 9.56955e-06
-1.13659e-07 6.09605e-06 1.0023e-05
-3.77942e-06 4.12175e-06 9.56352e-06
-5.61438e-06 3.02971e-06 1.0269e-05
-5.15803e-06 1.03917e-06 9.19937e-06
-7.51593e-06 -6.16441e-08 1.11545e-05
-4.32828e-06 -8.09143e-07 8.36914e-06
-3.10431e-06 1.86976e-06 7.36303e-06
-2.2044e-05 -3.60191e-06 1.64862e-05
2.33657e-05 -1.56604e-05 1.78031e-05
-1.50461e-06 2.11322e-05 1.6652e-05
2.12262e-05 -8.4378e-08 1.61969e-05
1.75931e-05 -1.64411e-06 1.55541e-05
1.73191e-05 -4.93354e-06 1.57428e-05
2.18544e-05 -7.43873e-06 1.6883e-05
-2.3142e-05 -1.42297e-05 1.77997e-05
1.72962e-05 1.64619e-06 1.54814e-05
-1.73067e-06 2.84234e-05 1.7861e-05
-4.21494e-07 3.67833e-06 7.48406e-06
2.37307e-05 1.57146e-05 1.78514e-05
-1.74678e-05 1.56155e-05 1.69442e-05
-1.06085e-05 -1.84353e-05 1.62262e-05
-1.0083e-05 -1.43187e-05 1.55444e-05
-7.49543e-06 -1.60684e-05 1.55946e-05
-7.30975e-06 -2.00869e-05 1.6366e-05
-1.06866e-05 1.85043e-05 1.62379e-05
-1.03303e-05 1.43604e-05 1.55919e-05
-7.75946e-06 2.04581e-05 1.64148e-05
-4.24588e-06 1.85788e-05 1.60245e-05
1.07418e-05 1.83149e-05 1.61973e-05
1.38685e-05 1.69064e-05 1.64016e-05
1.40187e-05 1.29513e-05 1.60228e-05
-7.34946e-06 1.62615e-05 1.5611e-05
1.05078e-05 1.45231e-05 1.56177e-05
7.73599e-06 1.60659e-05 1.55865e-05
-3.11216e-06 -1.89615e-06 7.38211e-06
-7.24595e-06 -1.2402e-05 1.46e-05
3.00463e-06 4.03045e-08 6.59126e-06
4.86472e-06 1.35009e-05 1.45929e-05
1.40534e-05 -2.25674e-06 1.45454e-05
-1.72606e-05 -1.51907e-05 1.69148e-05
-1.73379e-05 2.41634e-06 1.55704e-05
-1.21849e-05 8.89744e-06 1.49176e-05
-7.69395e-06 -2.28905e-06 1.1536e-05
-1.24293e-05 1.17932e-05 1.55127e-05
-1.42541e-07 -3.74904e-06 7.54286e-06
2.72649e-06 2.26897e-06 7.24111e-06
-2.00063e-06 -1.46267e-05 1.47825e-05
9.35005e-06 -1.00521e-05 1.43648e-05
1.38384e-05 3.15273e-06 1.45411e-05
-7.3283e-06 1.11815e-05 1.4236e-05
4.98921e-06 -1.27543e-05 1.43447e-05
1.1014e-05 1.04136e-05 1.48938e-05
-3.59062e-06 1.46615e-05 1.48822e-05
-4.62785e-06 -1.65896e-05 1.55216e-05
-1.9474e-05 1.28704e-05 1.71301e-05
-2.30869e-05 1.48322e-05 1.78104e-05
-1.28837e-05 -1.26651e-05 1.57846e-05
3.75557e-06 -1.58392e-06 7.89503e-06
1.76199e-06 2.91829e-06 7.07389e-06
-9.21564e-06 -1.05924e-05 1.45069e-05
1.7254e-06 -2.81932e-06 6.92078e-06
9.92916e-07 2.40757e-05 1.72769e-05
2.13315e-05 1.11749e-05 1.72671e-05
-1.46406e-05 -7.94033e-06 1.54582e-05
1.36859e-05 -4.77859e-06 1.46653e-05
-1.90659e-06 -2.17263e-05 1.67724e-05
1.80302e-05 -8.40505e-06 1.63115e-05
-1.66514e-05 -6.31815e-06 1.57546e-05
-4.32338e-07 -1.91983e-06 4.79155e-06
-1.8029e-06 2.99135e-06 7.16648e-06
-2.50083e-05 -1.29594e-05 1.78891e-05
-2.50833e-05 -1.44819e-05 1.79687e-05
-2.50015e-05 1.30112e-05 1.78729e-05
-2.50742e-05 1.46243e-05 1.79488e-05
-1.64619e-06 -3.12057e-06 7.19916e-06
6.31787e-06 1.13503e-05 1.40527e-05
5.32736e-07 -2.4045e-05 1.72707e-05
-5.22099e-07 1.8072e-06 4.63831e-06
7.39541e-06 -1.43204e-05 1.51261e-05
2.32626e-05 -1.31866e-05 1.76961e-05
2.3592e-05 -1.05198e-05 1.74588e-05
1.19685e-05 -1.81805e-05 1.62643e-05
1.47058e-05 -1.01299e-05 1.57677e-05
-1.00115e-05 9.99688e-07 1.27336e-05
-1.73777e-06 -8.14848e-07 4.71665e-06
7.68002e-07 3.70324e-06 7.5618e-06
2.33991e-06 -1.99447e-06 6.5456e-06
2.01228e-05 5.88811e-06 1.64242e-05
5.06144e-06 2.05615e-05 1.64665e-05
3.41457e-07 -2.7632e-05 1.7821e-05
-1.72899e-06 7.08198e-07 4.59969e-06
-3.20715e-06 6.22207e-07 6.81402e-06
3.57228e-06 1.47338e-06 7.62517e-06
4.9825e-07 2.82745e-05 1.78941e-05
2.47172e-05 1.37103e-05 1.78853e-05
-2.02938e-05 1.55089e-05 1.73972e-05
1.17718e-06 1.36272e-06 4.45343e-06
-2.06044e-05 -1.57011e-05 1.74955e-05
-1.89675e-05 -2.3184e-06 1.5918e-05
-1.95265e-05 -5.57579e-06 1.63032e-05
9.04452e-07 -3.24334e-06 6.99568e-06
-4.35865e-06 -1.97563e-05 1.62928e-05
-7.9244e-06 1.38119e-05 1.50749e-05
1.16425e-06 -1.30251e-06 4.33305e-06
1.1915e-05 -1.121e-05 1.52655e-05
6.12236e-06 -2.26579e-05 1.67902e-05
-1.4498e-05 1.43313e-05 1.62946e-05
7.91624e-06 1.32997e-05 1.49222e-05
1.79141e-06 8.57661e-07 -4.5457e-06
1.73562e-06 -8.24073e-07 -4.45439e-06
4.31406e-07 1.8473e-06 -4.48868e-06
4.35547e-07 -1.7784e-06 -4.34986e-06
-1.84516e-06 2.09312e-08 -4.41604e-06
-1.12168e-06 -1.30724e-06 -4.14508e-06
-1.15776e-06 1.30516e-06 -4.19378e-06
-2.24747e-05 -7.27561e-06 -1.69691e-05
-2.21587e-05 7.35933e-06 -1.69379e-05
-4.85193e-06 2.28597e-05 -1.69063e-05
-4.84941e-06 -2.30924e-05 -1.69332e-05
1.73919e-05 1.56088e-05 -1.68992e-05
1.75392e-05 -1.55099e-05 -1.69084e-05
2.10383e-05 3.15875e-06 -1.62953e-05
-1.39299e-05 1.71224e-05 -1.64489e-05
-1.35686e-05 -1.67131e-05 -1.63806e-05
7.75473e-06 1.97865e-05 -1.63021e-05
7.67183e-06 -2.0276e-05 -1.63732e-05
2.14364e-05 -3.43814e-06 -1.63709e-05
-2.10676e-05 6.5706e-09 -1.62178e-05
-2.23818e-05 1.0981e-05 -1.74216e-05
-1.87193e-05 9.23916e-06 -1.65971e-05
-1.79529e-05 5.78587e-06 -1.60078e-05
-1.49593e-05 7.43609e-06 -1.54591e-05
-1.42014e-05 4.30073e-06 -1.4804e-05
-1.15142e-05 5.73469e-06 -1.40706e-05
-1.08409e-05 3.06389e-06 -1.3351e-05
-8.38751e-06 4.29822e-06 -1.23839e-05
-9.0445e-06 7.00233e-06 -1.34337e-05
-6.19466e-06 5.48016e-06 -1.167e-05
-6.81761e-06 8.23653e-06 -1.30581e-05
-4.27492e-06 6.66481e-06 -1.14319e-05
-4.79251e-06 9.59489e-06 -1.3072e-05
-2.39722e-06 7.98118e-06 -1.17039e-05
-2.80842e-06 1.11496e-05 -1.34522e-05
-4.74679e-07 9.58044e-06 -1.24803e-05
-7.37181e-07 1.29761e-05 -1.41175e-05
1.72835e-06 1.14996e-05 -1.35121e-05
-5.5258e-06 1.268e-05 -1.44121e-05
1.68252e-06 8.21145e-06 -1.17284e-05
3.9979e-06 1.0105e-05 -1.31289e-05
3.69974e-06 7.08721e-06 -1.14596e-05
6.05791e-06 8.95264e-06 -1.30914e-05
5.75804e-06 6.0975e-06 -1.17164e-05
8.34489e-06 8.00768e-06 -1.34693e-05
8.09311e-06 5.18723e-06 -1.24797e-05
1.09365e-05 7.0857e-06 -1.41227e-05
1.0729e-05 4.31597e-06 -1.34763e-05
8.51681e-06 1.10198e-05 -1.44359e-05
7.92562e-06 2.63972e-06 -1.17083e-05
1.06294e-05 1.73448e-06 -1.30821e-05
7.93667e-06 3.58217e-07 -1.1437e-05
1.07895e-05 -7.57919e-07 -1.31022e-05
8.09931e-06 -1.93485e-06 -1.169e-05
1.10808e-05 -3.30761e-06 -1.34611e-05
8.45665e-06 -4.41714e-06 -1.24235e-05
1.14853e-05 -5.99328e-06 -1.40853e-05
8.94145e-06 -7.12686e-06 -1.34054e-05
6.13819e-06 -5.48607e-06 -1.16224e-05
6.63411e-06 -8.2879e-06 -1.29965e-05
4.09902e-06 -6.57858e-06 -1.12927e-05
4.5163e-06 -9.53596e-06 -1.29666e-05
2.23889e-06 -7.84636e-06 -1.15785e-05
2.48093e-06 -1.09846e-05 -1.33285e-05
2.2494e-07 -9.35923e-06 -1.23332e-05
3.29483e-07 -1.27494e-05 -1.40099e-05
-1.91243e-06 -1.11331e-05 -1.33545e-05
-1.83828e-06 -7.9096e-06 -1.15634e-05
-4.16139e-06 -9.8594e-06 -1.30632e-05
-3.80819e-06 -6.72035e-06 -1.12989e-05
-6.33569e-06 -8.64847e-06 -1.30774e-05
-5.88235e-06 -5.68936e-06 -1.16095e-05
-8.48633e-06 -7.42409e-06 -1.33572e-05
-8.15493e-06 -4.72076e-06 -1.23882e-05
-1.10779e-05 -6.39254e-06 -1.40459e-05
-4.36465e-06 -1.31021e-05 -1.44089e-05
-1.07918e-05 -3.64492e-06 -1.34166e-05
7.21456e-06 -1.13546e-05 -1.42485e-05
-7.72998e-06 1.97968e-06 -1.14743e-05
-1.3195e-05 1.0334e-06 -1.41866e-05
1.72631e-06 1.50583e-05 -1.49262e-05
1.3746e-05 4.61499e-07 -1.43631e-05
1.38207e-05 6.09021e-06 -1.49058e-05
-9.67846e-06 1.01799e-05 -1.45075e-05
-5.40804e-06 -3.19295e-06 -1.01661e-05
-1.16946e-05 -9.28226e-06 -1.48634e-05
1.18631e-05 -8.74603e-06 -1.47616e-05
1.47576e-05 -7.46136e-06 -1.53763e-05
-1.39371e-05 -5.23539e-06 -1.48359e-05
2.7913e-06 -1.44927e-05 -1.47706e-05
4.23857e-07 -1.64724e-05 -1.53708e-05
3.51334e-06 4.39057e-06 -9.56622e-06
1.39876e-05 9.2838e-06 -1.54644e-05
1.79009e-05 8.13143e-06 -1.62715e-05
-1.56494e-05 1.13763e-05 -1.62045e-05
-1.09229e-06 1.67416e-05 -1.54681e-05
1.90362e-06 1.95889e-05 -1.62818e-05
-2.08884e-06 5.21251e-06 -9.58268e-06
5.54591e-06 -7.83467e-07 -9.57925e-06
3.58082e-06 -3.67829e-06 -9.068e-06
-1.77707e-06 -5.17109e-06 -9.43496e-06
-2.24302e-05 -1.09921e-05 -1.74423e-05
-1.87666e-05 -9.22593e-06 -1.66211e-05
2.11117e-05 1.41403e-05 -1.74735e-05
2.07183e-05 -1.42929e-05 -1.74036e-05
-1.76138e-06 -2.54029e-05 -1.74788e-05
-1.67907e-06 2.53669e-05 -1.74835e-05
1.76832e-05 -1.18868e-05 -1.66571e-05
2.06106e-05 -1.07329e-05 -1.70849e-05
3.7693e-06 -1.89536e-05 -1.61107e-05
7.67203e-07 -2.03117e-05 -1.64533e-05
-1.93722e-05 -1.26289e-05 -1.7112e-05
-1.3709e-05 -2.30322e-06 -1.44471e-05
-1.65655e-05 -3.69539e-06 -1.54504e-05
-1.03597e-05 -1.09467e-06 -1.29306e-05
2.44097e-05 1.10541e-05 -1.76191e-05
2.54531e-05 -1.2382e-05 -1.78151e-05
2.64427e-06 2.66799e-05 -1.7628e-05
2.51627e-06 -2.63681e-05 -1.75969e-05
3.33357e-06 -2.29929e-05 -1.69982e-05
-2.05047e-06 -1.82895e-05 -1.59226e-05
4.05183e-06 2.37509e-05 -1.70992e-05
2.25756e-05 8.36531e-06 -1.70882e-05
4.60596e-06 1.72848e-05 -1.56996e-05
1.44031e-05 -1.30976e-05 -1.61087e-05
-1.57614e-05 -1.09664e-05 -1.61856e-05
-1.67723e-05 -3.80815e-07 -1.53505e-05
1.72774e-05 4.67979e-06 -1.5698e-05
6.54241e-08 -6.37789e-06 -1.02513e-05
1.73922e-06 -4.8415e-06 -9.07848e-06
5.84182e-06 -2.93117e-06 -1.03618e-05
-2.14082e-05 3.74439e-06 -1.64294e-05
5.71994e-06 -1.62478e-05 -1.54805e-05
9.06839e-06 -1.74701e-05 -1.59692e-05
1.75426e-05 1.18616e-05 -1.66423e-05
1.39709e-05 -1.63547e-05 -1.63719e-05
1.07224e-05 -1.37663e-05 -1.55228e-05
-3.54282e-06 -4.21408e-06 -9.48602e-06
5.39131e-06 1.13685e-06 -9.48432e-06
5.2104e-06 3.21815e-06 -1.00315e-05
-1.74643e-06 -2.83051e-05 -1.78438e-05
1.88931e-06 5.2912e-06 -9.56955e-06
-1.13659e-07 6.09605e-06 -1.0023e-05
-3.77942e-06 4.12175e-06 -9.56352e-06
-5.61438e-06 3.02971e-06 -1.0269e-05
-5.15803e-06 1.03917e-06 -9.19937e-06
-7.51593e-06 -6.16441e-08 -1.11545e-05
-4.32828e-06 -8.09143e-07 -8.36914e-06
-3.10431e-06 1.86976e-06 -7.36303e-06
-2.2044e-05 -3.60191e-06 -1.64862e-05
2.33657e-05 -1.56604e-05 -1.78031e-05
-1.50461e-06 2.11322e-05 -1.6652e-05
2.12262e-05 -8.4378e-08 -1.61969e-05
1.75931e-05 -1.64411e-06 -1.55541e-05
1.73191e-05 -4.93354e-06 -1.57428e-05
2.18544e-05 -7.43873e-06 -1.6883e-05
-2.3142e-05 -1.42297e-05 -1.77997e-05
1.72962e-05 1.64619e-06 -1.54814e-05
-1.73067e-06 2.84234e-05 -1.7861e-05
-4.21494e-07 3.67833e-06 -7.48406e-06
2.37307e-05 1.57146e-05 -1.78514e-05
-1.74678e-05 1.56155e-05 -1.69442e-05
-1.06085e-05 -1.84353e-05 -1.62262e-05
-1.0083e-05 -1.43187e-05 -1.55444e-05
-7.49543e-06 -1.60684e-05 -1.55946e-05
-7.30975e-06 -2.00869e-05 -1.6366e-05
-1.06866e-05 1.85043e-05 -1.62379e-05
-1.03303e-05 1.43604e-05 -1.55919e-05
-7.75946e-06 2.04581e-05 -1.64148e-05
-4.24588e-06 1.85788e-05 -1.60245e-05
1.07418e-05 1.83149e-05 -1.61973e-05
1.38685e-05 1.69064e-05 -1.64016e-05
1.40187e-05 1.29513e-05 -1.60228e-05
-7.34946e-06 1.62615e-05 -1.5611e-05
1.05078e-05 1.45231e-05 -1.56177e-05
7.73599e-06 1.60659e-05 -1.55865e-05
-3.11216e-06 -1.89615e-06 -7.38211e-06
-7.24595e-06 -1.2402e-05 -1.46e-05
3.00463e-06 4.03045e-08 -6.59126e-06
4.86472e-06 1.35009e-05 -1.45929e-05
1.40534e-05 -2.25674e-06 -1.45454e-05
-1.72606e-05 -1.51907e-05 -1.69148e-05
-1.73379e-05 2.41634e-06 -1.55704e-05
-1.21849e-05 8.89744e-06 -1.49176e-05
-7.69395e-06 -2.28905e-06 -1.1536e-05
-1.24293e-05 1.17932e-05 -1.55127e-05
-1.42541e-07 -3.74904e-06 -7.54286e-06
2.72649e-06 2.26897e-06 -7.24111e-06
-2.00063e-06 -1.46267e-05 -1.47825e-05
9.35005e-06 -1.00521e-05 -1.43648e-05
1.38384e-05 3.15273e-06 -1.45411e-05
-7.3283e-06 1.11815e-05 -1.4236e-05
4.98921e-06 -1.27543e-05 -1.43447e-05
1.1014e-05 1.04136e-05 -1.48938e-05
-3.59062e-06 1.46615e-05 -1.48822e-05
-4.62785e-06 -1.65896e-05 -1.55216e-05
-1.9474e-05 1.28704e-05 -1.71301e-05
-2.30869e-05 1.48322e-05 -1.78104e-05
-1.28837e-05 -1.26651e-05 -1.57846e-05
3.75557e-06 -1.58392e-06 -7.89503e-06
1.76199e-06 2.91829e-06 -7.07389e-06
-9.21564e-06 -1.05924e-05 -1.45069e-05
1.7254e-06 -2.81932e-06 -6.92078e-06
9.92916e-07 2.40757e-05 -1.72769e-05
2.13315e-05 1.11749e-05 -1.72671e-05
-1.46406e-05 -7.94033e-06 -1.54582e-05
1.36859e-05 -4.77859e-06 -1.46653e-05
-1.90659e-06 -2.17263e-05 -1.67724e-05
1.80302e-05 -8.40505e-06 -1.63115e-05
-1.66514e-05 -6.31815e-06 -1.57546e-05
-4.32338e-07 -1.91983e-06 -4.79155e-06
-1.8029e-06 2.99135e-06 -7.16648e-06
-2.50083e-05 -1.29594e-05 -1.78891e-05
-2.50833e-05 -1.44819e-05 -1.79687e-05
-2.50015e-05 1.30112e-05 -1.78729e-05
-2.50742e-05 1.46243e-05 -1.79488e-05
-1.64619e-06 -3.12057e-06 -7.19916e-06
6.31787e-06 1.13503e-05 -1.40527e-05
5.32736e-07 -2.4045e-05 -1.72707e-05
-5.22099e-07 1.8072e-06 -4.63831e-06
7.39541e-06 -1.43204e-05 -1.51261e-05
2.32626e-05 -1.31866e-05 -1.76961e-05
2.3592e-05 -1.05198e-05 -1.74588e-05
1.19685e-05 -1.81805e-05 -1.62643e-05
1.47058e-05 -1.01299e-05 -1.57677e-05
-1.00115e-05 9.99688e-07 -1.27336e-05
-1.73777e-06 -8.14848e-07 -4.71665e-06
7.68002e-07 3.70324e-06 -7.5618e-06
2.33991e-06 -1.99447e-06 -6.5456e-06
2.01228e-05 5.88811e-06 -1.64242e-05
5.06144e-06 2.05615e-05 -1.64665e-05
3.41457e-07 -2.7632e-05 -1.7821e-05
-1.72899e-06 7.08198e-07 -4.59969e-06
-3.20715e-06 6.22207e-07 -6.81402e-06
3.57228e-06 1.47338e-06 -7.62517e-06
4.9825e-07 2.82745e-05 -1.78941e-05
2.47172e-05 1.37103e-05 -1.78853e-05
-2.02938e-05 1.55089e-05 -1.73972e-05
1.17718e-06 1.36272e-06 -4.45343e-06
-2.06044e-05 -1.57011e-05 -1.74955e-05
-1.89675e-05 -2.3184e-06 -1.5918e-05
-1.95265e-05 -5.57579e-06 -1.63032e-05
9.04452e-07 -3.24334e-06 -6.99568e-06
-4.35865e-06 -1.97563e-05 -1.62928e-05
-7.9244e-06 1.38119e-05 -1.50749e-05
1.16425e-06 -1.30251e-06 -4.33305e-06
1.1915e-05 -1.121e-05 -1.52655e-05
6.12236e-06 -2.26579e-05 -1.67902e-05
-1.4498e-05 1.43313e-05 -1.62946e-05
7.91624e-06 1.32997e-05 -1.49222e-05
SCALARS effective_fluid_pressure_TPM float
LOOKUP_TABLE default
663.81
663.81
663.81
663.81
663.81
663.81
663.81
663.81
663.81
663.81
663.81
663.81
663.81
663.81
133
663.81
663.81
663.81
663.81
663.81
663.81
663.81
663.81
663.81
663.81
663.81
663.81
663.81
663.81
133
663.81
559.372
519.809
501.991
501.762
518.937
558.993
663.81
561.034
519.903
502.433
502.542
519.836
560.657
663.81
558.661
518.809
501.936
502.153
520.303
560.673
663.81
557.919
518.154
500.727
501.422
518.004
558.506
663.81
557.56
519.092
501.059
500.991
518.526
557
663.81
557.715
519.106
501.231
501.093
518.514
558.719
133
133
133
133
133
133
663.81
559.372
519.809
501.991
501.762
518.937
558.993
663.81
561.034
519.903
502.433
502.542
519.836
560.657
663.81
558.661
518.809
501.936
502.153
520.303
560.673
663.81
557.919
518.154
500.727
501.422
518.004
558.506
663.81
557.56
519.092
501.059
500.991
518.526
557
663.81
557.715
519.106
501.231
501.093
518.514
558.719
133
133
133
133
133
133
228.044
226.119
226.83
223.905
225.317
219.652
220.666
528.289
527.301
525.684
527.06
525.711
526.762
497.896
502.731
500.774
498.136
500.647
500.429
493.527
561.549
518.126
494.228
479.966
460.629
442.589
424.397
401.521
426.617
384.703
417.105
379.062
417.268
385.387
426.733
403.694
443.69
428.418
449.554
385.995
418.665
379.656
417.679
385.625
427.105
403.622
443.8
427.504
450.149
385.47
417.531
379.073
417.886
384.995
426.942
402.318
442.865
425.799
383.491
415.508
375.764
414.717
382.466
423.77
400.249
441.018
424.576
382.203
417.144
376.028
417.462
383.286
424.616
401.613
441.988
449.943
426.072
445.312
380.18
443.981
464.55
448.039
464.024
452.698
350.42
462.769
460.306
477.674
462.038
459.913
477.579
336.824
480.045
505.021
502.786
480.111
505.327
337.236
337.048
325.737
333.969
562.423
518.8
566.614
561.412
566.93
566.784
520.943
541.807
497.81
512.887
541.153
450.744
476.804
414.03
578.527
609.963
578.68
575.049
533.66
493.669
537.326
537.023
484.247
497.297
502.503
472.376
484.295
352.261
325.986
354.685
502.613
476.943
487.562
520.015
501.199
477.14
335.092
334.955
347.224
612.375
336.925
347.095
336.812
352.716
328.753
372.723
310.265
288.441
503.876
607.322
520.235
492.912
477.551
485.561
525.617
599.3
475.792
614.823
291.044
614.722
527.841
493.722
477.459
478.63
500.488
494.027
478.657
501.681
494.36
492.934
501.433
494.434
479.103
479.268
478.273
288.946
453.867
271.632
454.274
452.905
526.125
478.693
464.474
381.546
479.726
292.314
285.741
460.738
448.919
453.253
445.149
447.977
462.859
462.517
479.171
542.545
600.658
486.695
299.929
282.128
452.291
278.837
551.308
551.067
479.991
457.284
525.349
507.342
487.789
233.504
284.221
613.433
635.198
614.066
635.554
284.941
440.644
552.146
230.267
466.798
589.246
565.069
494.999
489.245
409.417
231.897
292.74
270.818
507.052
508.346
606.756
229.446
276.655
294.071
617.795
617.708
557.567
226.313
561.571
487.513
502.561
280.517
503.23
465.627
223.803
472.817
518.71
502.148
461.702
228.044
226.119
226.83
223.905
225.317
219.652
220.666
528.289
527.301
525.684
527.06
525.711
526.762
497.896
502.731
500.774
498.136
500.647
500.429
493.527
561.549
518.126
494.228
479.966
460.629
442.589
424.397
401.521
426.617
384.703
417.105
379.062
417.268
385.387
426.733
403.694
443.69
428.418
449.554
385.995
418.665
379.656
417.679
385.625
427.105
403.622
443.8
427.504
450.149
385.47
417.531
379.073
417.886
384.995
426.942
402.318
442.865
425.799
383.491
415.508
375.764
414.717
382.466
423.77
400.249
441.018
424.576
382.203
417.144
376.028
417.462
383.286
424.616
401.613
441.988
449.943
426.072
445.312
380.18
443.981
464.55
448.039
464.024
452.698
350.42
462.769
460.306
477.674
462.038
459.913
477.579
336.824
480.045
505.021
502.786
480.111
505.327
337.236
337.048
325.737
333.969
562.423
518.8
566.614
561.412
566.93
566.784
520.943
541.807
497.81
512.887
541.153
450.744
476.804
414.03
578.527
609.963
578.68
575.049
533.66
493.669
537.326
537.023
484.247
497.297
502.503
472.376
484.295
352.261
325.986
354.685
502.613
476.943
487.562
520.015
501.199
477.14
335.092
334.955
347.224
612.375
336.925
347.095
336.812
352.716
328.753
372.723
310.265
288.441
503.876
607.322
520.235
492.912
477.551
485.561
525.617
599.3
475.792
614.823
291.044
614.722
527.841
493.722
477.459
478.63
500.488
494.027
478.657
501.681
494.36
492.934
501.433
494.434
479.103
479.268
478.273
288.946
453.867
271.632
454.274
452.905
526.125
478.693
464.474
381.546
479.726
292.314
285.741
460.738
448.919
453.253
445.149
447.977
462.859
462.517
479.171
542.545
600.658
486.695
299.929
282.128
452.291
278.837
551.308
551.067
479.991
457.284
525.349
507.342
487.789
233.504
284.221
613.433
635.198
614.066
635.554
284.941
440.644
552.146
230.267
466.798
589.246
565.069
494.999
489.245
409.417
231.897
292.74
270.818
507.052
508.346
606.756
229.446
276.655
294.071
617.795
617.708
557.567
226.313
561.571
487.513
502.561
280.517
503.23
465.627
223.803
472.817
518.71
502.148
461.702

CELL_DATA 563
TENSORS stress float
164.304 -24.8968 -1.32161e-12
-24.8968 28.0267 -5.28999e-12
-1.32161e-12 -5.28999e-12 -12.6989

-40.2452 -21.2713 2.02786e-12
-21.2713 -7.33723 -1.33168e-12
2.02786e-12 -1.33168e-12 -10.2124

-9.91987 27.9804 1.03088e-12
27.9804 -1.10957 -2.915e-12
1.03088e-12 -2.915e-12 -6.3541

-40.3329 -29.7724 -1.71655e-12
-29.7724 -12.8152 -1.19845e-12
-1.71655e-12 -1.19845e-12 -10.5781

-22.6367 19.8852 -1.22657e-12
19.8852 -1.92173 5.8827e-13
-1.22657e-12 5.8827e-13 -22.9663

-27.0804 -18.0341 -2.05436e-12
-18.0341 15.8502 1.54721e-12
-2.05436e-12 1.54721e-12 -6.40492

160.959 26.4584 -1.71004e-12
26.4584 27.9042 3.62732e-12
-1.71004e-12 3.62732e-12 -13.3564

-5.94942 29.8893 -9.37324e-13
29.8893 -10.0895 -5.5896e-13
-9.37324e-13 -5.5896e-13 -7.26581

34.5517 5.47082 -4.34971e-12
5.47082 -19.056 -1.0086e-12
-4.34971e-12 -1.0086e-12 -4.12555

11.8324 -7.46008 2.20061e-12
-7.46008 -48.1752 -4.23809e-13
2.20061e-12 -4.23809e-13 -8.93108

103.963 16.2778 -2.62427e-12
16.2778 -8.49267 2.32584e-12
-2.62427e-12 2.32584e-12 -22.5058

-34.559 -13.4229 -7.14688e-13
-13.4229 18.921 1.43352e-12
-7.14688e-13 1.43352e-12 -7.17034

-6.01386 27.7701 2.76342e-12
27.7701 -4.58129 -8.14164e-13
2.76342e-12 -8.14164e-13 -6.15199

-35.4712 -14.3076 1.71103e-12
-14.3076 7.8268 3.78364e-13
1.71103e-12 3.78364e-13 -9.11514

-23.5989 33.2313 -2.94224e-12
33.2313 -24.9352 -8.10805e-13
-2.94224e-12 -8.10805e-13 -21.3164

21.2618 0.559776 8.44954e-13
0.559776 -32.2661 1.77895e-12
8.44954e-13 1.77895e-12 -5.58413

-48.8463 -17.9265 1.69419e-12
-17.9265 6.32697 -1.4948e-12
1.69419e-12 -1.4948e-12 -12.9201

11.6328 -2.65888 7.81301e-13
-2.65888 -43.1516 7.98842e-13
7.81301e-13 7.98842e-13 -8.02126

-11.3299 26.6152 4.45333e-12
26.6152 19.4692 -6.89226e-13
4.45333e-12 -6.89226e-13 -6.09084

21.7139 -4.18625 -2.24295e-12
-4.18625 -35.218 -8.53317e-13
-2.24295e-12 -8.53317e-13 -6.73519

-24.4267 8.6499 4.36244e-12
8.6499 32.0531 1.98834e-12
4.36244e-12 1.98834e-12 -4.93363

-11.7813 6.27062 -1.17284e-11
6.27062 -11.9399 -2.39779e-12
-1.17284e-11 -2.39779e-12 -75.4284

22.6895 1.87174 3.11987e-12
1.87174 -33.397 -1.78294e-12
3.11987e-12 -1.78294e-12 -6.67209

-12.3628 -27.6532 1.04775e-12
-27.6532 1.59354 -5.98632e-12
1.04775e-12 -5.98632e-12 -6.59715

21.2539 6.8339 3.73568e-12
6.8339 -34.2299 -2.91915e-12
3.73568e-12 -2.91915e-12 -6.80038

-37.82 19.0691 -2.4077e-13
19.0691 2.64696 -4.69165e-12
-2.4077e-13 -4.69165e-12 -9.44172

106.376 4.1734 3.64982e-12
4.1734 20.5204 -7.07671e-12
3.64982e-12 -7.07671e-12 -12.1061

-5.2924 30.6763 2.38506e-12
30.6763 -7.25869 -2.1189e-12
2.38506e-12 -2.1189e-12 -7.43318

27.8175 36.9989 2.05465e-12
36.9989 26.3986 -2.78533e-12
2.05465e-12 -2.78533e-12 -8.65131

-9.41756 10.2998 6.84312e-12
10.2998 -32.8495 -1.35669e-12
6.84312e-12 -1.35669e-12 -49.3864

19.785 14.184 4.18391e-12
14.184 -29.2936 -3.48595e-12
4.18391e-12 -3.48595e-12 -5.99401

-4.21777 -17.744 -3.79992e-12
-17.744 59.5201 -1.64964e-12
-3.79992e-12 -1.64964e-12 -8.49549

66.1224 -42.0322 1.0445e-12
-42.0322 70.9706 1.03029e-12
1.0445e-12 1.03029e-12 -11.3139

-48.0966 5.97138 6.47246e-12
5.97138 7.25115 2.61953e-12
6.47246e-12 2.61953e-12 -40.938

-26.2288 -4.82703 -9.00613e-13
-4.82703 1.75333 -2.4869e-13
-9.00613e-13 -2.4869e-13 -37.7088

-1.46546 20.9785 -4.86426e-13
20.9785 -39.4128 -1.69198e-12
-4.86426e-13 -1.69198e-12 -41.0037

-43.8701 5.05395 6.26684e-12
5.05395 0.5125 1.23338e-12
6.26684e-12 1.23338e-12 -52.0622

-2.75435 -9.14994 -3.81325e-13
-9.14994 -20.7188 3.05853e-12
-3.81325e-13 3.05853e-12 -35.808

-3.96697 -27.9348 -1.86577e-12
-27.9348 -4.60042 -4.27273e-12
-1.86577e-12 -4.27273e-12 -5.98793

65.4369 41.4522 -8.28967e-13
41.4522 72.9947 -1.58214e-12
-8.28967e-13 -1.58214e-12 -11.0265

60.0169 -17.9129 1.84031e-12
-17.9129 0.10088 -3.85233e-12
1.84031e-12 -3.85233e-12 -8.07142

-41.7032 -3.69591 -3.00352e-13
-3.69591 -1.18328 6.53551e-13
-3.00352e-13 6.53551e-13 -52.5956

-14.5581 19.5076 -4.46139e-12
19.5076 -28.4841 2.0659e-12
-4.46139e-12 2.0659e-12 -52.7035

18.0996 -12.2448 1.4803e-14
-12.2448 -29.8324 -1.17402e-12
1.4803e-14 -1.17402e-12 -6.21559

38.0692 -43.2187 -2.9227e-12
-43.2187 41.6897 6.37594e-12
-2.9227e-12 6.37594e-12 -14.5929

58.0097 -18.0272 2.20268e-12
-18.0272 -2.31222 2.74447e-12
2.20268e-12 2.74447e-12 -7.93268

-21.3989 17.048 7.39897e-12
17.048 30.2558 2.58993e-12
7.39897e-12 2.58993e-12 -5.72937

-11.3499 19.2966 -8.58572e-14
19.2966 25.4516 6.00113e-12
-8.58572e-14 6.00113e-12 -3.92461

20.7414 -16.264 3.29988e-12
-16.264 -33.0421 5.27178e-12
3.29988e-12 5.27178e-12 -7.30369

12.5697 -34.1172 2.93691e-13
-34.1172 46.3225 4.36392e-12
2.93691e-13 4.36392e-12 -10.4194

62.2165 19.1435 5.92119e-14
19.1435 2.78678 8.50875e-13
5.92119e-14 8.50875e-13 -8.43764

46.4067 -25.2346 -6.04672e-12
-25.2346 5.11233 1.74675e-13
-6.04672e-12 1.74675e-13 -5.62657

-31.8234 19.4382 -6.59472e-13
19.4382 -4.27412 -1.27158e-12
-6.59472e-13 -1.27158e-12 -26.0237

36.9507 29.5875 4.78314e-12
29.5875 14.4729 8.28966e-15
4.78314e-12 8.28966e-15 -5.44912

-27.3835 -21.7623 6.58732e-13
-21.7623 -8.21235 1.99833e-12
6.58732e-13 1.99833e-12 -25.1883

64.7233 -42.6351 -1.76451e-12
-42.6351 43.9664 -6.17462e-12
-1.76451e-12 -6.17462e-12 -9.5455

-27.6836 5.44453 7.64426e-13
5.44453 2.66363 2.91619e-13
7.64426e-13 2.91619e-13 -38.2131

-5.55603 -5.31969 -5.02679e-12
-5.31969 57.2578 2.07715e-12
-5.02679e-12 2.07715e-12 -5.46617

-0.201063 10.3609 2.70954e-12
10.3609 -24.7869 -6.86344e-12
2.70954e-12 -6.86344e-12 -38.2745

-26.4281 21.3651 4.84057e-13
21.3651 12.1894 6.00409e-13
4.84057e-13 6.00409e-13 -6.86322

4.71399 5.74188 -3.30832e-12
5.74188 -55.9097 4.5682e-12
-3.30832e-12 4.5682e-12 -13.9523

0.540279 11.4324 -4.8832e-12
11.4324 -33.9779 -1.48059e-12
-4.8832e-12 -1.48059e-12 -14.8067

106.131 31.7712 -3.19034e-12
31.7712 37.729 -8.17124e-14
-3.19034e-12 -8.17124e-14 -7.5468

-35.4097 -6.02215 -7.81597e-14
-6.02215 10.5773 -3.32179e-13
-7.81597e-14 -3.32179e-13 -13.4495

-35.2778 9.49851 -2.15694e-12
9.49851 1.23206 5.70566e-12
-2.15694e-12 5.70566e-12 -14.9267

-42.4906 -2.87497 -1.88338e-12
-2.87497 21.0606 -3.30994e-13
-1.88338e-12 -3.30994e-13 -11.2175

-44.805 23.3464 -1.22706e-12
23.3464 -5.87875 2.85105e-12
-1.22706e-12 2.85105e-12 -13.8933

9.94724 8.44439 -1.5327e-12
8.44439 -42.2824 -1.17417e-12
-1.5327e-12 -1.17417e-12 -9.06276

-12.3096 -28.176 -1.98893e-12
-28.176 1.68086 1.51701e-12
-1.98893e-12 1.51701e-12 -6.6684

1.30635 -1.70767 9.28591e-13
-1.70767 -55.3278 -4.20034e-13
9.28591e-13 -4.20034e-13 -11.2821

-31.8129 -19.2147 -4.82429e-13
-19.2147 -4.58272 -1.06197e-12
-4.82429e-13 -1.06197e-12 -25.8934

-27.9077 21.2586 -1.82461e-12
21.2586 -8.34172 -4.07355e-12
-1.82461e-12 -4.07355e-12 -25.9517

-0.66662 -16.5492 4.38375e-12
-16.5492 61.5328 -6.13435e-13
4.38375e-12 -6.13435e-13 -7.97045

-0.649102 -27.8716 2.72552e-12
-27.8716 -21.3138 -2.97747e-12
2.72552e-12 -2.97747e-12 -12.7652

-14.0626 -25.078 -1.3222e-12
-25.078 7.38911 1.68399e-12
-1.3222e-12 1.68399e-12 -5.23187

91.4726 -31.6568 -2.61717e-12
-31.6568 19.4003 1.6603e-12
-2.61717e-12 1.6603e-12 -16.3862

-33.6292 3.21567 4.65613e-12
3.21567 9.17929 4.34023e-13
4.65613e-12 4.34023e-13 -18.521

2.74367 28.8773 1.09483e-12
28.8773 -24.3689 1.59014e-12
1.09483e-12 1.59014e-12 -11.295

-38.347 19.6191 2.72582e-12
19.6191 5.21651 4.09154e-13
2.72582e-12 4.09154e-13 -9.21983

50.0739 7.98248 9.73444e-13
7.98248 -16.938 -2.2542e-12
9.73444e-13 -2.2542e-12 -7.07718

59.8935 -33.8719 4.59011e-12
-33.8719 33.7015 4.60195e-12
4.59011e-12 4.60195e-12 -7.01857

-18.9182 -10.5625 1.83646e-12
-10.5625 -0.537326 -1.811e-12
1.83646e-12 -1.811e-12 -25.3692

-33.846 23.8449 2.52687e-12
23.8449 -11.997 -2.15736e-12
2.52687e-12 -2.15736e-12 -14.5093

58.0193 -32.3211 -2.62072e-12
-32.3211 18.0322 -9.0156e-12
-2.62072e-12 -9.0156e-12 -10.1631

66.7118 10.7687 2.11742e-12
10.7687 8.48071 1.77532e-12
2.11742e-12 1.77532e-12 -5.11066

7.62571 -21.1669 3.49557e-12
-21.1669 88.2696 -4.45273e-12
3.49557e-12 -4.45273e-12 -11.9023

-33.9115 14.3929 3.85654e-12
14.3929 20.1899 -2.60532e-14
3.85654e-12 -2.60532e-14 -7.53756

8.45458 23.0906 -1.29792e-12
23.0906 -26.0146 -6.38571e-12
-1.29792e-12 -6.38571e-12 -11.2773

34.7707 42.1204 -5.26275e-12
42.1204 46.0809 -6.51331e-14
-5.26275e-12 -6.51331e-14 -14.4545

-4.38548 16.4675 1.80345e-12
16.4675 -35.4549 1.30015e-12
1.80345e-12 1.30015e-12 -73.1034

-5.97716 -4.10062 9.56568e-13
-4.10062 57.8171 6.38304e-13
9.56568e-13 6.38304e-13 -5.4583

-1.81649 -16.5926 7.70569e-12
-16.5926 -39.3055 -8.49794e-12
7.70569e-12 -8.49794e-12 -73.9248

-3.32323 -27.2709 1.65912e-12
-27.2709 -29.9594 -1.07351e-12
1.65912e-12 -1.07351e-12 -21.5047

8.9447 27.3609 -4.63866e-12
27.3609 -29.9278 2.61717e-12
-4.63866e-12 2.61717e-12 -11.2365

45.6058 -24.3588 -9.72259e-13
-24.3588 5.00374 2.75543e-12
-9.72259e-13 2.75543e-12 -5.25233

10.0567 31.2601 7.27122e-13
31.2601 47.0499 2.10439e-12
7.27122e-13 2.10439e-12 -9.66097

14.2226 -10.6857 -6.90411e-13
-10.6857 82.661 -8.44835e-12
-6.90411e-13 -8.44835e-12 -6.4826

-38.5431 21.92 1.34988e-12
21.92 2.93436 -4.73399e-13
1.34988e-12 -4.73399e-13 -8.55385

1.19095 16.756 -2.28588e-12
16.756 -25.6636 4.36332e-12
-2.28588e-12 4.36332e-12 -18.5252

-26.4784 15.1202 1.08062e-13
15.1202 18.4064 -2.224e-12
1.08062e-13 -2.224e-12 -5.70211

43.5593 15.9187 3.0802e-12
15.9187 -7.27569 -5.30983e-12
3.0802e-12 -5.30983e-12 -4.08558

12.5391 -21.43 -4.40122e-12
-21.43 57.8255 -4.10338e-12
-4.40122e-12 -4.10338e-12 -4.73798

65.8469 -29.3338 -1.28608e-12
-29.3338 18.5821 -7.06694e-12
-1.28608e-12 -7.06694e-12 -9.3678

-32.3068 -24.5169 -1.79886e-12
-24.5169 -7.26587 -2.91619e-13
-1.79886e-12 -2.91619e-13 -8.9611

-22.616 27.3884 2.0209e-12
27.3884 -10.3283 -4.35059e-12
2.0209e-12 -4.35059e-12 -9.26826

-38.262 23.134 -1.00216e-12
23.134 1.9862 -5.4848e-12
-1.00216e-12 -5.4848e-12 -8.50994

-51.4342 13.1378 -8.00785e-13
13.1378 11.897 3.96897e-12
-8.00785e-13 3.96897e-12 -16.4314

23.4306 9.35065 6.1231e-12
9.35065 -29.4225 -5.12035e-13
6.1231e-12 -5.12035e-13 -5.31684

3.73733 -4.65739 8.38736e-13
-4.65739 79.2617 4.03588e-12
8.38736e-13 4.03588e-12 -9.56306

-44.8336 -36.7455 -3.63295e-12
-36.7455 -19.7829 4.61853e-13
-3.63295e-12 4.61853e-13 -14.7404

-16.0462 27.4036 -5.84451e-12
27.4036 1.33533 -4.49004e-12
-5.84451e-12 -4.49004e-12 -6.90813

-5.03653 2.1675 -1.13513e-11
2.1675 82.4865 -6.30725e-12
-1.13513e-11 -6.30725e-12 -13.4635

68.8895 34.544 -1.55372e-12
34.544 15.4372 -9.98313e-13
-1.55372e-12 -9.98313e-13 -10.7394

-31.2811 -22.9217 3.01403e-12
-22.9217 -4.62275 1.08476e-12
3.01403e-12 1.08476e-12 -8.51613

11.7157 5.71942 -2.23673e-12
5.71942 -48.224 -3.09012e-13
-2.23673e-12 -3.09012e-13 -8.62623

42.9667 27.1465 -7.38964e-13
27.1465 10.4197 4.42905e-12
-7.38964e-13 4.42905e-12 -5.09802

-9.38935 12.7151 -3.90502e-13
12.7151 -14.0075 -2.06265e-12
-3.90502e-13 -2.06265e-12 -36.9486

70.1786 24.2834 -8.95284e-13
24.2834 23.7369 -2.55973e-12
-8.95284e-13 -2.55973e-12 -6.83457

-10.5577 -13.0239 -2.87266e-12
-13.0239 -13.8898 4.51668e-12
-2.87266e-12 4.51668e-12 -37.2856

-4.37998 0.777933 -2.44456e-12
0.777933 59.2646 3.82154e-12
-2.44456e-12 3.82154e-12 -4.84831

38.2676 -2.2301 -1.4353e-12
-2.2301 -23.7643 5.11965e-12
-1.4353e-12 5.11965e-12 -5.83584

3.58394 -15.7299 -4.50854e-12
-15.7299 -53.8432 7.8663e-13
-4.50854e-12 7.8663e-13 -21.0762

-42.1795 24.3315 -6.93737e-13
24.3315 -11.7089 -1.57948e-12
-6.93737e-13 -1.57948e-12 -11.1461

-46.7032 -13.5037 8.08909e-13
-13.5037 11.0406 -1.29615e-12
8.08909e-13 -1.29615e-12 -12.3286

5.79529 -7.98095 -2.45063e-12
-7.98095 -70.7993 2.32777e-12
-2.45063e-12 2.32777e-12 -14.8513

-49.4241 -22.2296 2.18788e-13
-22.2296 3.73806 -6.02303e-12
2.18788e-13 -6.02303e-12 -22.0539

-17.4174 -6.5836 1.56023e-12
-6.5836 -13.0848 -1.83261e-13
1.56023e-12 -1.83261e-13 -34.6961

-28.6632 -29.8384 1.4578e-12
-29.8384 -9.37798 5.25209e-13
1.4578e-12 5.25209e-13 -8.97989

15.6414 11.4326 5.03479e-12
11.4326 80.0055 5.31249e-12
5.03479e-12 5.31249e-12 -6.56624

42.1913 -28.0879 -4.12944e-12
-28.0879 11.0187 8.71007e-12
-4.12944e-12 8.71007e-12 -5.06108

-47.0614 -13.7384 -2.06894e-12
-13.7384 4.1853 -5.77375e-12
-2.06894e-12 -5.77375e-12 -29.2319

2.95812 0.504063 -3.0805e-13
0.504063 -56.6803 -1.81558e-13
-3.0805e-13 -1.81558e-13 -10.9842

-39.2466 -21.4737 2.4265e-12
-21.4737 -8.8354 -2.27522e-12
2.4265e-12 -2.27522e-12 -14.7428

-40.1013 25.6386 1.92424e-12
25.6386 -14.6574 7.86038e-14
1.92424e-12 7.86038e-14 -11.2891

32.1817 -31.4011 -2.69414e-12
-31.4011 38.3401 4.51076e-12
-2.69414e-12 4.51076e-12 -4.67213

-31.3947 -7.06612 -5.51514e-12
-7.06612 1.69822 2.15561e-12
-5.51514e-12 2.15561e-12 -40.8914

36.5344 -33.0167 6.14619e-12
-33.0167 71.8687 -6.10593e-12
6.14619e-12 -6.10593e-12 -7.18625

16.5741 -19.1362 3.01507e-12
-19.1362 -25.8129 4.88498e-13
3.01507e-12 4.88498e-13 -7.12404

1.49905 1.96736 2.30904e-12
1.96736 -51.2719 2.20624e-12
2.30904e-12 2.20624e-12 -15.3414

-12.8424 17.8327 3.63472e-12
17.8327 -16.9165 -2.75335e-14
3.63472e-12 -2.75335e-14 -40.9588

10.6794 20.1425 -1.90544e-12
20.1425 59.321 -1.42109e-13
-1.90544e-12 -1.42109e-13 -4.38013

4.3068 27.1487 -4.05601e-12
27.1487 -16.1867 2.11949e-12
-4.05601e-12 2.11949e-12 -8.11145

30.8325 -24.4571 2.3365e-12
-24.4571 -8.11964 -1.72188e-12
2.3365e-12 -1.72188e-12 -4.87747

-37.7022 -17.7977 8.52707e-13
-17.7977 2.39477 -1.81188e-13
8.52707e-13 -1.81188e-13 -9.84702

55.3863 35.0031 -2.69059e-12
35.0031 42.2428 -1.8936e-12
-2.69059e-12 -1.8936e-12 -6.67265

-39.9232 -21.7803 -1.6307e-12
-21.7803 2.53032 1.95399e-12
-1.6307e-12 1.95399e-12 -9.3777

2.95791 30.7796 -2.36966e-12
30.7796 -17.3514 -2.48542e-12
-2.36966e-12 -2.48542e-12 -9.06436

18.4936 -25.1865 1.0741e-12
-25.1865 -19.3769 7.64722e-13
1.0741e-12 7.64722e-13 -6.33725

-15.62 -25.0698 3.1705e-12
-25.0698 5.8813 1.17476e-12
3.1705e-12 1.17476e-12 -5.77061

42.6192 -18.648 -9.27258e-13
-18.648 -9.15296 2.54611e-13
-9.27258e-13 2.54611e-13 -5.37882

27.3673 -18.8077 3.40528e-12
-18.8077 -20.3265 1.58925e-12
3.40528e-12 1.58925e-12 -5.68923

-41.2972 -25.2787 9.69447e-13
-25.2787 -14.9293 8.15644e-14
9.69447e-13 8.15644e-14 -11.5447

29.7042 35.8961 4.07615e-12
35.8961 25.1591 6.09054e-12
4.07615e-12 6.09054e-12 -8.66367

-28.4538 15.3423 4.41129e-13
15.3423 18.4758 -2.97007e-12
4.41129e-13 -2.97007e-12 -5.86718

-23.0558 26.362 1.36839e-12
26.362 -12.5192 1.04657e-12
1.36839e-12 1.04657e-12 -9.94039

-41.9997 25.4142 2.12634e-12
25.4142 -11.5648 2.10646e-12
2.12634e-12 2.10646e-12 -10.9718

-37.203 11.5956 -1.61605e-12
11.5956 11.8166 1.69109e-12
-1.61605e-12 1.69109e-12 -9.06397

64.2512 -8.20985 1.85807e-12
-8.20985 3.17914 -2.46247e-12
1.85807e-12 -2.46247e-12 -4.27297

8.70475 18.569 1.03206e-12
18.569 59.0882 -3.8393e-12
1.03206e-12 -3.8393e-12 -4.18472

-25.5575 -24.325 -1.84031e-12
-24.325 0.45677 -6.41857e-13
-1.84031e-12 -6.41857e-13 -7.2054

-1.14185 25.6092 -3.20869e-12
25.6092 13.7198 4.29286e-13
-3.20869e-12 4.29286e-13 -4.08511

32.2971 -35.5562 5.86198e-13
-35.5562 21.6397 4.47642e-12
5.86198e-13 4.47642e-12 -8.50487

59.3941 38.2428 1.3974e-13
38.2428 17.781 -4.81985e-13
1.3974e-13 -4.81985e-13 -13.7548

12.0829 -33.2435 2.81493e-12
-33.2435 42.8086 -6.03488e-12
2.81493e-12 -6.03488e-12 -9.56239

30.4769 -31.0961 -5.07683e-12
-31.0961 36.7274 -9.03692e-12
-5.07683e-12 -9.03692e-12 -4.42773

11.7415 -6.82256 -8.71303e-13
-6.82256 -48.7246 -1.5831e-12
-8.71303e-13 -1.5831e-12 -8.75455

25.2109 30.28 4.14246e-12
30.28 40.9943 1.61648e-12
4.14246e-12 1.61648e-12 -4.4779

62.5435 13.2673 -3.52192e-12
13.2673 5.20543 -7.04622e-13
-3.52192e-12 -7.04622e-13 -4.3278

-7.02709 13.3509 3.46967e-12
13.3509 61.2029 -6.16159e-12
3.46967e-12 -6.16159e-12 -8.71377

11.6944 -22.2954 5.5298e-12
-22.2954 55.6379 -1.36898e-12
5.5298e-12 -1.36898e-12 -4.32368

-47.1502 -1.08986 4.12411e-13
-1.08986 12.3794 -1.80419e-12
4.12411e-13 -1.80419e-12 -22.111

-5.9165 2.24278 -8.16976e-13
2.24278 58.871 -3.66285e-12
-8.16976e-13 -3.66285e-12 -5.27939

6.23793 31.0262 -2.94638e-12
31.0262 47.7503 1.60464e-12
-2.94638e-12 1.60464e-12 -9.68006

-39.6331 12.0804 -3.17206e-12
12.0804 12.8144 1.62241e-13
-3.17206e-12 1.62241e-13 -9.2954

40.642 -27.5893 -1.87346e-12
-27.5893 8.33072 1.34411e-12
-1.87346e-12 1.34411e-12 -5.65754

7.51983 20.509 -3.2685e-13
20.509 -47.357 -2.96208e-12
-3.2685e-13 -2.96208e-12 -16.4468

-3.41477 26.209 1.26299e-12
26.209 -31.4127 7.4459e-13
1.26299e-12 7.4459e-13 -22.2013

15.7395 -18.5256 1.89064e-12
-18.5256 -29.9466 2.10469e-12
1.89064e-12 2.10469e-12 -8.17116

4.41799 -1.79978 -7.03674e-12
-1.79978 -34.0533 -3.67114e-13
-7.03674e-12 -3.67114e-13 -24.381

-14.3082 -31.7385 5.88862e-13
-31.7385 -11.9046 -4.45954e-12
5.88862e-13 -4.45954e-12 -9.03442

56.0871 23.2802 -6.04198e-12
23.2802 0.800603 -1.85452e-12
-6.04198e-12 -1.85452e-12 -8.30752

-27.7636 30.0919 1.30829e-12
30.0919 -9.21484 -3.01033e-12
1.30829e-12 -3.01033e-12 -8.78455

-26.9412 29.138 3.57936e-13
29.138 -9.18021 2.22696e-12
3.57936e-13 2.22696e-12 -8.66226

28.5577 30.5987 3.43074e-12
30.5987 40.3125 -2.04873e-13
3.43074e-12 -2.04873e-13 -4.47187

0.342134 27.0227 -2.10202e-13
27.0227 -19.8023 7.75972e-13
-2.10202e-13 7.75972e-13 -11.754

64.3595 3.51812 -3.47811e-12
3.51812 -11.8209 2.0316e-12
-3.47811e-12 2.0316e-12 -10.0374

-14.8659 31.7427 1.6751e-12
31.7427 -20.7503 4.70142e-13
1.6751e-12 4.70142e-13 -12.422

-37.8583 -12.5698 -3.04075e-12
-12.5698 8.16108 -1.16174e-12
-3.04075e-12 -1.16174e-12 -13.9933

-0.473644 24.2207 3.03135e-12
24.2207 -29.9303 -1.27898e-13
3.03135e-12 -1.27898e-13 -20.7236

-23.6729 -29.51 6.16159e-12
-29.51 -11.9069 1.06581e-14
6.16159e-12 1.06581e-14 -8.82743

-38.0621 -4.88593 4.42498e-13
-4.88593 18.8026 -8.89955e-13
4.42498e-13 -8.89955e-13 -11.7072

69.7888 -24.5078 3.09323e-12
-24.5078 17.9724 -4.36096e-12
3.09323e-12 -4.36096e-12 -7.07671

39.888 29.6315 1.022e-12
29.6315 13.4421 1.73846e-12
1.022e-12 1.73846e-12 -5.23215

-4.30336 14.6663 -2.72182e-12
14.6663 60.4321 6.46594e-13
-2.72182e-12 6.46594e-13 -8.42046

1.60815 -1.13674 2.54522e-12
-1.13674 -55.9933 -5.48376e-13
2.54522e-12 -5.48376e-13 -11.1876

9.59146 0.00213524 4.35207e-13
0.00213524 -44.6532 7.42924e-15
4.35207e-13 7.42924e-15 -8.4246

-31.0089 23.0713 -7.51695e-13
23.0713 -4.32818 2.73589e-12
-7.51695e-13 2.73589e-12 -8.44493

-34.6804 23.8163 -6.33271e-13
23.8163 -13.1632 -2.25825e-12
-6.33271e-13 -2.25825e-12 -14.7815

-43.2784 -24.3242 -9.56106e-13
-24.3242 -12.5838 1.73328e-12
-9.56106e-13 1.73328e-12 -11.4465

-38.9705 -0.672012 -3.50164e-13
-0.672012 20.9967 2.56802e-12
-3.50164e-13 2.56802e-12 -10.476

-40.7115 25.5316 -2.49549e-12
25.5316 -13.1921 1.04938e-12
-2.49549e-12 1.04938e-12 -11.1508

32.2458 -10.285 1.5626e-12
-10.285 -25.1028 -3.38307e-12
1.5626e-12 -3.38307e-12 -6.01486

8.67835 -32.7634 8.60941e-13
-32.7634 22.7397 -1.82077e-12
8.60941e-13 -1.82077e-12 -7.00164

2.39119 -2.2971 -3.54354e-12
-2.2971 -49.8449 -1.96465e-12
-3.54354e-12 -1.96465e-12 -14.7412

36.6566 -34.4378 -3.67232e-12
-34.4378 24.4136 1.75978e-12
-3.67232e-12 1.75978e-12 -7.73049

-38.2061 19.0414 1.55431e-14
19.0414 -7.07588 -2.73263e-12
1.55431e-14 -2.73263e-12 -14.4186

7.85182 -26.4171 -2.5242e-12
-26.4171 -27.9319 3.37804e-12
-2.5242e-12 3.37804e-12 -10.9485

63.8056 -9.66968 2.63848e-12
-9.66968 5.65253 1.85348e-12
2.63848e-12 1.85348e-12 -5.09594

6.02436 -23.1385 -4.15312e-12
-23.1385 -35.3864 -1.15463e-14
-4.15312e-12 -1.15463e-14 -17.6973

0.141739 2.35304 -2.42325e-13
2.35304 -56.0436 -3.43732e-12
-2.42325e-13 -3.43732e-12 -11.5236

-4.05316 -23.2683 -8.941e-13
-23.2683 -23.3573 7.16316e-13
-8.941e-13 7.16316e-13 -16.6828

11.0119 -25.7994 -2.76756e-12
-25.7994 -29.4198 -1.6002e-12
-2.76756e-12 -1.6002e-12 -9.71662

10.1767 -8.52711 4.39648e-13
-8.52711 -43.3917 -1.91047e-12
4.39648e-13 -1.91047e-12 -9.26566

-35.3342 -23.0153 -2.70746e-12
-23.0153 -12.6179 2.22083e-12
-2.70746e-12 2.22083e-12 -15.0707

23.6061 -31.2739 3.24955e-12
-31.2739 5.69266 -7.3778e-13
3.24955e-12 -7.3778e-13 -5.8864

11.0326 -24.5315 -1.40391e-12
-24.5315 -27.4325 2.81345e-12
-1.40391e-12 2.81345e-12 -10.0302

46.5344 10.8411 5.13959e-13
10.8411 -16.0921 -4.22003e-12
5.13959e-13 -4.22003e-12 -6.80901

-14.1532 26.2798 2.99612e-12
26.2798 -15.6058 1.90233e-12
2.99612e-12 1.90233e-12 -14.0893

-45.1447 -37.5232 -3.75492e-12
-37.5232 -20.5642 -1.52937e-12
-3.75492e-12 -1.52937e-12 -14.8884

-43.6054 37.1764 1.58007e-12
37.1764 -21.2163 1.28734e-12
1.58007e-12 1.28734e-12 -14.7392

-61.0401 -28.5052 2.59829e-13
-28.5052 -7.48024 6.98108e-13
2.59829e-13 6.98108e-13 -15.1684

-58.2776 26.9998 2.18914e-12
26.9998 -6.25759 2.99375e-12
2.18914e-12 2.99375e-12 -14.4486

5.58648 -8.50728 6.31939e-13
-8.50728 -70.8957 1.59517e-12
6.31939e-13 1.59517e-12 -14.6796

4.3863 9.25143 -3.34355e-12
9.25143 -68.6697 -7.40149e-15
-3.34355e-12 -7.40149e-15 -14.4082

9.00244 -9.82399 1.64727e-12
-9.82399 -40.7976 -2.99967e-12
1.64727e-12 -2.99967e-12 -9.59495

-24.2788 32.0392 -5.2065e-12
32.0392 -24.7513 -1.98527e-12
-5.2065e-12 -1.98527e-12 -21.0971

-25.4633 -32.7753 4.98771e-12
-32.7753 -25.0369 4.37204e-12
4.98771e-12 4.37204e-12 -21.4206

-53.7916 16.0303 -2.21719e-12
16.0303 3.39206 -3.03106e-12
-2.21719e-12 -3.03106e-12 -21.3542

-52.2962 -15.7636 1.39888e-12
-15.7636 3.28782 -1.09394e-12
1.39888e-12 -1.09394e-12 -21.0281

6.09623 -3.74138 -1.6227e-12
-3.74138 -43.822 1.39858e-12
-1.6227e-12 1.39858e-12 -25.7044

6.90015 3.60443 3.30003e-12
3.60443 -46.2397 -1.24907e-12
3.30003e-12 -1.24907e-12 -26.0799

-15.5994 9.81551 1.82535e-12
9.81551 46.1554 -4.86722e-13
1.82535e-12 -4.86722e-13 -5.8567

-22.8668 -24.7178 -1.61323e-12
-24.7178 -14.5194 1.86073e-12
-1.61323e-12 1.86073e-12 -10.311

-56.4696 -36.3009 2.7139e-12
-36.3009 -14.4989 4.21781e-12
2.7139e-12 4.21781e-12 -13.4107

33.2825 -4.6537 1.99307e-12
-4.6537 -19.8058 6.35233e-13
1.99307e-12 6.35233e-13 -3.94791

3.42415 -16.6543 -2.13488e-12
-16.6543 -52.5041 -6.44818e-13
-2.13488e-12 -6.44818e-13 -21.4836

3.66491 16.1365 -1.70382e-13
16.1365 -51.7615 1.39355e-12
-1.70382e-13 1.39355e-12 -21.357

6.53936 0.121609 -1.52974e-12
0.121609 -76.5729 -8.76106e-13
-1.52974e-12 -8.76106e-13 -13.2779

-7.56295 23.3255 -9.82029e-13
23.3255 39.8412 -3.32534e-12
-9.82029e-13 -3.32534e-12 -6.89522

-56.7546 36.0854 9.96166e-13
36.0854 -13.9787 3.92664e-12
9.96166e-13 3.92664e-12 -13.3625

-39.7019 -23.3415 3.69186e-13
-23.3415 2.55534 1.59043e-12
3.69186e-13 1.59043e-12 -8.78517

37.0293 23.3025 1.59991e-12
23.3025 -8.60113 5.35868e-12
1.59991e-12 5.35868e-12 -5.76647

4.72179 23.8031 2.31637e-12
23.8031 -38.1377 8.91731e-13
2.31637e-12 8.91731e-13 -18.9441

23.9551 -31.2457 1.92557e-12
-31.2457 6.38723 -2.60414e-12
1.92557e-12 -2.60414e-12 -5.65666

2.42519 -3.225 -6.87746e-13
-3.225 -48.2576 2.93099e-13
-6.87746e-13 2.93099e-13 -14.7112

-60.314 -34.08 3.01529e-12
-34.08 -14.3171 -2.80768e-12
3.01529e-12 -2.80768e-12 -14.0032

-17.4219 8.30173 -4.06625e-12
8.30173 45.5861 1.65675e-12
-4.06625e-12 1.65675e-12 -5.78883

-9.45762 21.765 1.88383e-12
21.765 40.3299 2.70717e-12
1.88383e-12 2.70717e-12 -6.66315

58.469 35.7097 -1.21029e-12
35.7097 36.9975 -3.62022e-12
-1.21029e-12 -3.62022e-12 -6.95113

70.3225 1.57524 3.6285e-12
1.57524 -5.5528 5.31234e-12
3.6285e-12 5.31234e-12 -10.3985

-30.6869 -22.7525 -8.73375e-13
-22.7525 -13.3264 5.15969e-12
-8.73375e-13 5.15969e-12 -14.4351

32.7553 31.127 -1.14753e-12
31.127 69.6416 7.43701e-13
-1.14753e-12 7.43701e-13 -6.71761

-19.3332 23.5565 9.74924e-13
23.5565 7.6689 -2.10794e-13
9.74924e-13 -2.10794e-13 -5.50754

47.5265 -5.33813 -7.92255e-12
-5.33813 -17.4054 -2.41259e-12
-7.92255e-12 -2.41259e-12 -6.83092

33.1414 11.1912 -5.21065e-12
11.1912 -23.5899 -1.9084e-12
-5.21065e-12 -1.9084e-12 -6.01533

6.23857 0.428868 1.25692e-12
0.428868 -77.3683 -2.56418e-12
1.25692e-12 -2.56418e-12 -13.4233

-58.7963 -28.9619 -2.7461e-12
-28.9619 -6.27403 -5.23137e-13
-2.7461e-12 -5.23137e-13 -14.667

-28.2668 -6.30283 5.6289e-12
-6.30283 -11.3294 3.06362e-12
5.6289e-12 3.06362e-12 -51.4616

-44.5925 37.3224 -2.85313e-12
37.3224 -20.7628 -2.05972e-12
-2.85313e-12 -2.05972e-12 -14.7432

93.595 1.66068 1.02318e-12
1.66068 16.5978 2.76823e-12
1.02318e-12 2.76823e-12 -6.08396

10.0058 -32.717 -5.93303e-12
-32.717 21.2562 -4.12352e-12
-5.93303e-12 -4.12352e-12 -6.81772

-56.8013 36.5258 3.23149e-13
36.5258 -14.5373 -2.63019e-12
3.23149e-13 -2.63019e-12 -13.4785

-35.0015 -11.1083 -3.24444e-13
-11.1083 19.1319 1.41694e-12
-3.24444e-13 1.41694e-12 -8.30428

-5.47538 -25.4604 -3.97608e-13
-25.4604 37.2611 -9.20153e-13
-3.97608e-13 -9.20153e-13 -6.99691

-58.314 28.7613 -2.98916e-12
28.7613 -6.25751 -1.27542e-12
-2.98916e-12 -1.27542e-12 -14.5843

28.4286 -26.0849 2.52598e-12
-26.0849 -4.90566 -1.7728e-12
2.52598e-12 -1.7728e-12 -4.70263

-21.1183 10.4597 -1.68754e-12
10.4597 -18.517 -6.31273e-12
-1.68754e-12 -6.31273e-12 -51.5569

3.41654 30.8062 -5.45934e-13
30.8062 27.0955 -2.56506e-12
-5.45934e-13 -2.56506e-12 -6.74235

6.12486 8.10739 2.43627e-12
8.10739 -72.1261 9.76996e-14
2.43627e-12 9.76996e-14 -14.9534

-11.52 30.1205 1.4347e-12
30.1205 -20.5547 -7.38076e-13
1.4347e-12 -7.38076e-13 -11.526

-30.7281 23.2788 -1.38896e-12
23.2788 -5.08878 -3.48255e-12
-1.38896e-12 -3.48255e-12 -8.45079

-25.8033 -32.4109 -2.97836e-13
-32.4109 -24.0559 4.03677e-13
-2.97836e-13 4.03677e-13 -21.5097

9.1825 -23.1376 -5.24084e-12
-23.1376 -27.8587 -1.72603e-12
-5.24084e-12 -1.72603e-12 -11.4038

-37.5742 10.4446 1.8003e-12
10.4446 8.90832 -2.09077e-12
1.8003e-12 -2.09077e-12 -25.2713

-22.989 -23.3805 1.75652e-12
-23.3805 4.94035 -7.89887e-13
1.75652e-12 -7.89887e-13 -6.25521

88.612 -9.68795 -1.08453e-11
-9.68795 10.7575 2.69355e-12
-1.08453e-11 2.69355e-12 -10.0701

83.8555 -14.2529 3.1406e-12
-14.2529 2.77559 9.93576e-13
3.1406e-12 9.93576e-13 -13.2325

5.87271 16.4923 6.10475e-13
16.4923 -33.8529 3.7564e-12
6.10475e-13 3.7564e-12 -22.3241

-16.3869 22.4517 -3.44317e-13
22.4517 16.1894 -8.94692e-13
-3.44317e-13 -8.94692e-13 -5.08362

-3.90498 29.097 -2.72848e-12
29.097 -12.2042 4.358e-13
-2.72848e-12 4.358e-13 -8.38388

50.878 0.687109 -7.30675e-13
0.687109 -6.52494 4.97124e-12
-7.30675e-13 4.97124e-12 -3.64802

-48.0305 6.55496 2.12312e-12
6.55496 14.75 7.90479e-13
2.12312e-12 7.90479e-13 -18.9109

10.0925 16.5018 -3.13231e-13
16.5018 -35.9968 2.29357e-12
-3.13231e-13 2.29357e-12 -9.11834

-4.50321 -25.7062 2.86822e-12
-25.7062 35.4704 4.56761e-12
2.86822e-12 4.56761e-12 -6.75648

-39.1029 -2.56564 -8.12369e-13
-2.56564 21.4537 1.85215e-12
-8.12369e-13 1.85215e-12 -10.6499

-7.97876 13.3371 -2.67993e-12
13.3371 44.3041 1.44122e-12
-2.67993e-12 1.44122e-12 -3.9548

3.72473 -29.6454 -2.19084e-12
-29.6454 -17.3276 -2.59703e-12
-2.19084e-12 -2.59703e-12 -8.90673

21.3736 -29.8832 6.58436e-13
-29.8832 14.7197 -5.36637e-12
6.58436e-13 -5.36637e-12 -3.92821

6.85688 31.5555 6.20304e-12
31.5555 25.3381 -3.97312e-13
6.20304e-12 -3.97312e-13 -6.8381

2.7777 -14.9846 -3.50446e-12
-14.9846 -39.1711 1.00971e-12
-3.50446e-12 1.00971e-12 -63.1531

-46.052 2.03737 -2.58393e-12
2.03737 11.4338 -2.97481e-12
-2.58393e-12 -2.97481e-12 -22.7041

-55.3135 20.2508 9.53904e-13
20.2508 3.08635 -5.02591e-12
9.53904e-13 -5.02591e-12 -22.8636

5.90016 15.4022 1.07973e-12
15.4022 -58.6789 4.96847e-12
1.07973e-12 4.96847e-12 -22.9834

-18.879 -26.1291 -1.89774e-13
-26.1291 -12.8847 -3.03431e-12
-1.89774e-13 -3.03431e-12 -9.63546

41.2523 17.918 7.36478e-12
17.918 -6.2632 1.96199e-12
7.36478e-12 1.96199e-12 -3.8713

-44.578 -5.28038 9.45734e-13
-5.28038 4.52689 2.03837e-12
9.45734e-13 2.03837e-12 -39.0502

7.48198 -18.9433 -9.61009e-13
-18.9433 -39.8022 -3.98881e-12
-9.61009e-13 -3.98881e-12 -11.6365

30.221 -15.5636 1.76984e-12
-15.5636 -20.4662 -2.27255e-12
1.76984e-12 -2.27255e-12 -4.8059

-9.62261 11.5788 5.07002e-12
11.5788 44.2182 -1.62004e-12
5.07002e-12 -1.62004e-12 -3.8689

8.30979 -25.6795 2.26604e-12
-25.6795 32.9155 -3.54206e-12
2.26604e-12 -3.54206e-12 -3.64555

-10.2197 -25.2149 1.92202e-12
-25.2149 -19.0579 -6.7583e-12
1.92202e-12 -6.7583e-12 -23.1208

16.9615 31.8903 5.63756e-12
31.8903 11.166 -3.47574e-13
5.63756e-12 -3.47574e-13 -5.75423

-1.06671 -25.0752 4.41958e-12
-25.0752 -30.6922 -5.76724e-13
4.41958e-12 -5.76724e-13 -20.8437

47.9569 2.59174 1.02318e-12
2.59174 -8.39772 -1.8557e-12
1.02318e-12 -1.8557e-12 -3.54338

6.50511 -28.8773 1.4649e-12
-28.8773 71.8828 -2.49401e-12
1.4649e-12 -2.49401e-12 -14.5854

21.7385 -29.168 -7.34227e-14
-29.168 13.9287 -1.34944e-12
-7.34227e-14 -1.34944e-12 -3.94043

35.2611 32.1001 -2.71901e-12
32.1001 73.9726 -9.75812e-13
-2.71901e-12 -9.75812e-13 -5.48243

-45.1799 -11.8484 -1.72216e-12
-11.8484 13.8883 5.83237e-13
-1.72216e-12 5.83237e-13 -15.2941

-14.3961 -13.7914 7.18388e-13
-13.7914 43.2816 -1.72425e-12
7.18388e-13 -1.72425e-12 -5.68078

-19.1955 -23.9298 -4.73858e-12
-23.9298 -19.7844 3.14415e-12
-4.73858e-12 3.14415e-12 -64.0928

2.42725 23.7203 -3.16192e-12
23.7203 35.9242 5.3646e-13
-3.16192e-12 5.3646e-13 -3.72252

-15.1481 -32.6497 -1.97797e-12
-32.6497 -21.072 2.36936e-12
-1.97797e-12 2.36936e-12 -14.2835

-14.541 -11.9371 5.27874e-13
-11.9371 45.4252 4.9513e-12
5.27874e-13 4.9513e-12 -5.74768

7.81675 -19.0717 -6.69094e-14
-19.0717 -43.0219 -3.70666e-13
-6.69094e-14 -3.70666e-13 -12.6062

6.52575 23.8264 3.06954e-12
23.8264 35.0906 -2.69296e-12
3.06954e-12 -2.69296e-12 -3.45452

23.1202 -4.964 -6.27646e-14
-4.964 -30.608 1.61674e-12
-6.27646e-14 1.61674e-12 -5.35974

36.865 -30.2975 3.6664e-12
-30.2975 122.389 -3.69956e-12
3.6664e-12 -3.69956e-12 -6.30533

-26.8109 20.9668 -1.90366e-12
20.9668 8.41313 2.23762e-12
-1.90366e-12 2.23762e-12 -7.12217

40.244 -19.2817 -4.1922e-13
-19.2817 -11.3543 4.53326e-12
-4.1922e-13 4.53326e-12 -5.73391

6.51061 -21.3957 4.09154e-12
-21.3957 -45.4514 -3.97608e-13
4.09154e-12 -3.97608e-13 -24.9138

20.6533 31.6854 -1.70649e-12
31.6854 9.52948 -7.00891e-12
-1.70649e-12 -7.00891e-12 -5.8145

13.8844 -29.9046 -2.53368e-12
-29.9046 -7.59256 -1.2097e-12
-2.53368e-12 -1.2097e-12 -5.94284

6.73973 20.837 1.64195e-12
20.837 -27.7294 -1.87465e-12
1.64195e-12 -1.87465e-12 -11.0868

-38.185 -28.0111 3.51038e-12
-28.0111 -14.0053 2.0548e-12
3.51038e-12 2.0548e-12 -11.0395

8.62193 -26.1694 -1.95636e-12
-26.1694 31.0985 4.05009e-13
-1.95636e-12 4.05009e-13 -3.64695

15.2924 28.9186 2.23821e-12
28.9186 19.1078 -1.90544e-12
2.23821e-12 -1.90544e-12 -3.89279

28.5736 26.1335 -7.83492e-12
26.1335 -5.62599 -3.14474e-12
-7.83492e-12 -3.14474e-12 -4.8071

7.89518 -14.5774 3.34251e-13
-14.5774 -36.7931 6.51212e-12
3.34251e-13 6.51212e-12 -13.9619

-6.83166 -16.5824 -5.77316e-13
-16.5824 41.246 1.16529e-12
-5.77316e-13 1.16529e-12 -3.96922

17.4001 -17.5275 -2.13163e-12
-17.5275 -30.9297 -1.34811e-12
-2.13163e-12 -1.34811e-12 -7.09521

19.7944 16.8703 1.10904e-12
16.8703 -31.5952 5.13071e-13
1.10904e-12 5.13071e-13 -7.32597

-33.6024 -9.36316 8.46101e-13
-9.36316 8.7365 -1.78109e-12
8.46101e-13 -1.78109e-12 -23.936

43.3331 -13.4005 -3.34547e-12
-13.4005 -8.35628 -1.89552e-12
-3.34547e-12 -1.89552e-12 -3.81402

-19.3404 0.5934 1.36557e-12
0.5934 43.0461 5.55408e-13
1.36557e-12 5.55408e-13 -4.78084

27.9913 18.513 -3.70963e-12
18.513 -18.1614 3.20544e-12
-3.70963e-12 3.20544e-12 -4.74986

25.4684 27.543 -3.16192e-12
27.543 -3.77194 -3.25369e-12
-3.16192e-12 -3.25369e-12 -4.77574

-6.70596 -15.6531 4.12944e-12
-15.6531 43.6986 4.07378e-12
4.12944e-12 4.07378e-12 -3.85859

-19.8668 -1.19916 -2.18492e-12
-1.19916 42.0311 8.1594e-13
-2.18492e-12 8.1594e-13 -4.69174

-5.46102 29.0664 5.31545e-12
29.0664 -23.594 3.86417e-12
5.31545e-12 3.86417e-12 -16.7606

-37.1894 -10.8977 1.95651e-12
-10.8977 21.6286 2.04873e-12
1.95651e-12 2.04873e-12 -7.81849

27.0786 -26.6567 -4.63274e-12
-26.6567 -5.52251 -4.23247e-12
-4.63274e-12 -4.23247e-12 -4.94884

40.6238 21.2865 -5.69618e-13
21.2865 -8.35898 3.49528e-12
-5.69618e-13 3.49528e-12 -5.47658

12.349 23.6106 7.56136e-13
23.6106 -27.0668 5.22249e-13
7.56136e-13 5.22249e-13 -8.65283

-37.7109 5.45914 -8.87068e-13
5.45914 23.2566 1.83379e-12
-8.87068e-13 1.83379e-12 -8.5834

18.5469 29.0031 -5.41611e-12
29.0031 17.3355 -9.75812e-13
-5.41611e-12 -9.75812e-13 -3.95732

-9.96393 22.9104 -2.39808e-13
22.9104 -14.8804 -1.0744e-12
-2.39808e-13 -1.0744e-12 -23.9691

68.1385 -59.5989 -1.62477e-12
-59.5989 36.2159 -5.29828e-12
-1.62477e-12 -5.29828e-12 -23.0662

17.4886 -24.9917 1.26121e-12
-24.9917 -17.9532 -1.83498e-12
1.26121e-12 -1.83498e-12 -6.41188

10.0167 7.05796 7.99065e-13
7.05796 82.371 4.41247e-12
7.99065e-13 4.41247e-12 -7.19948

11.8905 -28.8249 3.6741e-12
-28.8249 -3.87464 1.18424e-13
3.6741e-12 1.18424e-13 -5.16491

-66.9944 -52.6362 -2.7498e-12
-52.6362 142.942 -1.04213e-12
-2.7498e-12 -1.04213e-12 -49.7534

-68.4354 51.3881 -8.5502e-13
51.3881 142.23 2.78059e-12
-8.5502e-13 2.78059e-12 -49.9417

19.413 117.011 -2.4869e-13
117.011 63.9179 -8.57388e-13
-2.4869e-13 -8.57388e-13 -48.447

20.371 -116.954 9.40285e-13
-116.954 60.8187 4.64221e-13
9.40285e-13 4.64221e-13 -48.811

157.417 -1.3613 -8.76336e-13
-1.3613 -79.2212 2.59954e-14
-8.76336e-13 2.59954e-14 -48.9967

110.057 -91.0131 1.85689e-12
-91.0131 -36.7769 -4.33431e-13
1.85689e-12 -4.33431e-13 -50.3893

110.109 91.54 -3.60008e-13
91.54 -36.5871 -1.7882e-12
-3.60008e-13 -1.7882e-12 -50.2619

7.82689 14.2981 1.13835e-12
14.2981 -42.5831 4.50306e-13
1.13835e-12 4.50306e-13 -15.0471

-11.7631 25.4757 -2.64825e-12
25.4757 -27.3422 -1.90218e-12
-2.64825e-12 -1.90218e-12 -35.0536

12.4086 6.59122 2.04873e-12
6.59122 -40.4432 -1.41672e-12
2.04873e-12 -1.41672e-12 -8.24013

26.1924 21.7361 6.19356e-13
21.7361 -19.4885 -3.55627e-12
6.19356e-13 -3.55627e-12 -5.84975

-21.1879 17.7055 -1.23102e-12
17.7055 29.7973 4.96906e-12
-1.23102e-12 4.96906e-12 -6.16323

22.4758 28.8352 -1.33937e-12
28.8352 -0.777322 -1.92912e-12
-1.33937e-12 -1.92912e-12 -4.73549

4.04399 -29.5958 4.70735e-12
-29.5958 -17.4271 3.28715e-12
4.70735e-12 3.28715e-12 -8.49112

25.9331 27.9667 -6.21725e-12
27.9667 -2.30045 -6.22317e-12
-6.21725e-12 -6.22317e-12 -4.73654

-19.309 -2.83572 -3.43074e-12
-2.83572 42.9722 4.36984e-13
-3.43074e-12 4.36984e-13 -4.77545

-13.3795 -26.0354 5.88507e-12
-26.0354 -25.7796 2.44782e-12
5.88507e-12 2.44782e-12 -35.4356

-19.8026 -4.85254 -9.14972e-13
-4.85254 41.68 4.09391e-12
-9.14972e-13 4.09391e-12 -4.74863

-1.82347 22.9638 4.79261e-12
22.9638 -24.3203 1.18187e-12
4.79261e-12 1.18187e-12 -16.1142

44.8801 26.8138 2.45493e-12
26.8138 8.08357 1.68103e-12
2.45493e-12 1.68103e-12 -5.38593

-52.3839 -13.1854 8.70415e-14
-13.1854 0.149167 -5.14581e-12
8.70415e-14 -5.14581e-12 -20.5706

20.2323 13.6969 2.53368e-12
13.6969 -31.0741 2.55085e-12
2.53368e-12 2.55085e-12 -7.03582

13.6668 -29.9206 -3.06422e-12
-29.9206 -6.68025 -4.05986e-12
-3.06422e-12 -4.05986e-12 -5.83408

29.5617 -24.6588 1.10963e-12
-24.6588 -7.86122 3.09501e-12
1.10963e-12 3.09501e-12 -4.82991

5.75007 -16.0387 5.55822e-12
-16.0387 -32.2585 9.02981e-14
5.55822e-12 9.02981e-14 -22.2037

12.5975 27.8657 6.1758e-13
27.8657 -13.6106 4.02049e-13
6.1758e-13 4.02049e-13 -6.41366

23.2531 23.924 -2.21334e-12
23.924 -17.9063 -1.65971e-12
-2.21334e-12 -1.65971e-12 -5.9606

-31.009 -2.78611 -1.24678e-12
-2.78611 30.0617 -2.79717e-12
-1.24678e-12 -2.79717e-12 -6.3926

-28.5688 5.85992 -3.87081e-12
5.85992 33.2433 -4.59484e-13
-3.87081e-12 -4.59484e-13 -6.05737

34.4676 2.64082 3.381e-13
2.64082 -26.131 5.32815e-12
3.381e-13 5.32815e-12 -6.1434

50.5339 -7.27409 -5.28999e-12
-7.27409 -14.0616 -1.70071e-12
-5.28999e-12 -1.70071e-12 -6.78998

11.013 30.4167 -1.58688e-13
30.4167 -4.78088 7.90301e-12
-1.58688e-13 7.90301e-12 -5.965

17.4253 -26.0967 2.14347e-13
-26.0967 -17.4175 -5.92504e-12
2.14347e-13 -5.92504e-12 -6.34631

-0.0832833 -21.2051 1.29496e-12
-21.2051 -27.8923 8.41993e-13
1.29496e-12 8.41993e-13 -17.1281

4.92337 -31.5638 -2.39453e-12
-31.5638 4.84606 3.49765e-12
-2.39453e-12 3.49765e-12 -5.93606

-8.21445 -27.7247 2.78296e-12
-27.7247 18.5328 -2.68585e-12
2.78296e-12 -2.68585e-12 -6.13164

-1.65115 29.8214 4.23661e-12
29.8214 10.4199 2.31282e-12
4.23661e-12 2.31282e-12 -5.80123

-25.9622 -9.55652 8.12905e-13
-9.55652 32.8929 -6.95148e-13
8.12905e-13 -6.95148e-13 -5.78625

-31.2543 -1.542 -8.92767e-13
-1.542 31.577 -3.80614e-12
-8.92767e-13 -3.80614e-12 -6.21832

-38.8286 5.73417 4.4655e-13
5.73417 23.8899 9.65154e-13
4.4655e-13 9.65154e-13 -9.16813

-17.1845 -21.0429 1.22598e-12
-21.0429 26.5078 2.44131e-12
1.22598e-12 2.44131e-12 -5.7731

13.0395 24.0566 -6.29422e-13
24.0566 -28.0384 1.21148e-12
-6.29422e-13 1.21148e-12 -9.18996

21.5044 -9.56815 6.49554e-13
-9.56815 -31.6377 -2.64085e-12
6.49554e-13 -2.64085e-12 -6.59181

-27.0965 7.44848 2.64309e-12
7.44848 34.2544 -1.20733e-12
2.64309e-12 -1.20733e-12 -5.87279

-35.1575 -9.67866 -1.72716e-12
-9.67866 22.2613 -4.61261e-13
-1.72716e-12 -4.61261e-13 -8.17123

-29.0924 -16.2942 2.12393e-12
-16.2942 19.3009 1.98774e-12
2.12393e-12 1.98774e-12 -6.65516

36.8827 -8.22119 -3.35731e-12
-8.22119 -20.197 -7.588e-13
-3.35731e-12 -7.588e-13 -5.10503

-14.7762 -32.271 2.37055e-12
-32.271 -21.5773 -3.43843e-12
2.37055e-12 -3.43843e-12 -12.966

-22.7754 9.30093 9.39249e-13
9.30093 33.2463 1.49806e-13
9.39249e-13 1.49806e-13 -4.78887

-0.750913 -18.1706 -3.56692e-12
-18.1706 -35.0747 -3.85603e-12
-3.56692e-12 -3.85603e-12 -33.1977

4.88859 24.7772 -9.82917e-13
24.7772 75.1339 -2.95112e-12
-9.82917e-13 -2.95112e-12 -14.353

-14.109 -26.565 3.33274e-12
-26.565 -16.3143 2.34627e-13
3.33274e-12 2.34627e-13 -14.6095

-6.3429 -30.1322 -3.30935e-12
-30.1322 -23.55 -3.4935e-12
-3.30935e-12 -3.4935e-12 -17.0508

-31.2024 -0.699052 -8.24304e-13
-0.699052 31.4271 -5.05551e-12
-8.24304e-13 -5.05551e-12 -6.34294

28.4225 -16.5851 -2.25716e-12
-16.5851 -18.0193 3.83367e-12
-2.25716e-12 3.83367e-12 -4.43839

-37.7195 12.812 -8.13997e-13
12.812 11.1388 9.88839e-14
-8.13997e-13 9.88839e-14 -10.9678

-8.91165 -3.17159 -4.56265e-12
-3.17159 110.81 -2.6598e-12
-4.56265e-12 -2.6598e-12 -22.7257

-31.5338 14.2416 -2.52857e-12
14.2416 21.2995 -2.67934e-12
-2.52857e-12 -2.67934e-12 -7.11686

12.3908 -29.4239 -5.88921e-12
-29.4239 -2.51582 -8.4673e-14
-5.88921e-12 -8.4673e-14 -4.92797

33.5329 25.0679 3.99976e-12
25.0679 123.79 -1.6982e-12
3.99976e-12 -1.6982e-12 -6.27657

-13.4688 26.0344 -1.34633e-12
26.0344 -19.0522 -1.57504e-13
-1.34633e-12 -1.57504e-13 -58.7477

-9.52925 -27.7393 -2.61361e-12
-27.7393 -22.7525 -5.88137e-12
-2.61361e-12 -5.88137e-12 -59.3965

-2.862 -30.3504 1.94866e-12
-30.3504 -7.30743 9.99793e-13
1.94866e-12 9.99793e-13 -7.27914

3.84666 -31.0916 -2.45493e-12
-31.0916 5.61853 -1.22154e-12
-2.45493e-12 -1.22154e-12 -6.06336

25.094 20.7806 -4.52083e-12
20.7806 -16.9992 2.3368e-12
-4.52083e-12 2.3368e-12 -4.97594

31.7303 14.9729 -3.06599e-12
14.9729 -23.2542 2.70125e-12
-3.06599e-12 2.70125e-12 -5.95524

-9.46245 3.07308 2.29772e-12
3.07308 -9.80511 1.38492e-11
2.29772e-12 1.38492e-11 -80.731

-5.53296 -6.97951 -2.47861e-12
-6.97951 -14.0051 5.00089e-12
-2.47861e-12 5.00089e-12 -80.0853

11.7215 4.81285 -4.20997e-13
4.81285 -43.1069 -9.61897e-13
-4.20997e-13 -9.61897e-13 -7.81471

-34.9779 6.71647 2.18107e-12
6.71647 24.3183 -3.65041e-12
2.18107e-12 -3.65041e-12 -7.553

-36.0304 6.72064 -8.41776e-13
6.72064 24.375 -3.06658e-12
-8.41776e-13 -3.06658e-12 -8.29682

74.4097 58.5404 -3.59061e-12
58.5404 34.0483 -2.72138e-12
-3.59061e-12 -2.72138e-12 -21.9299

-6.90997 -28.1382 -5.26394e-13
-28.1382 16.833 1.25056e-12
-5.26394e-13 1.25056e-12 -6.11834

8.15271 17.932 4.2899e-13
17.932 -44.7713 3.40972e-12
4.2899e-13 3.40972e-12 -12.8696

32.6286 9.51826 -3.41179e-12
9.51826 -19.0408 -2.60429e-12
-3.41179e-12 -2.60429e-12 -4.07672

3.37713 -26.6645 7.3778e-13
-26.6645 13.4521 7.36004e-13
7.3778e-13 7.36004e-13 -3.83045

26.1755 -20.1927 8.41993e-13
-20.1927 -20.2812 4.43586e-12
8.41993e-13 4.43586e-12 -5.86194

65.2169 60.1373 1.11318e-13
60.1373 34.1721 6.19356e-12
1.11318e-13 6.19356e-12 -23.9221

-13.2127 30.9972 -2.14554e-12
30.9972 -16.845 2.56476e-12
-2.14554e-12 2.56476e-12 -12.7605

-18.5681 -19.7429 1.83261e-12
-19.7429 28.3473 2.92092e-12
1.83261e-12 2.92092e-12 -5.97091

11.1463 28.7928 -6.49554e-13
28.7928 -13.2947 2.21334e-12
-6.49554e-13 2.21334e-12 -6.43012

-31.7992 -4.1362 5.61847e-13
-4.1362 30.0774 -1.74261e-12
5.61847e-13 -1.74261e-12 -6.35205

-14.5669 19.5665 2.49874e-13
19.5665 27.1221 7.44294e-13
2.49874e-13 7.44294e-13 -4.42089

7.45944 30.451 1.59872e-13
30.451 -1.66995 1.4951e-12
1.59872e-13 1.4951e-12 -5.65919

-9.32705 -22.4242 -2.67934e-12
-22.4242 23.0953 -1.60287e-12
-2.67934e-12 -1.60287e-12 -4.17821

4.57726 -27.2923 -4.10753e-12
-27.2923 11.4217 -3.14948e-12
-4.10753e-12 -3.14948e-12 -3.94154

24.1834 11.2386 -8.63724e-12
11.2386 101.86 -8.97179e-12
-8.63724e-12 -8.97179e-12 -12.4611

37.3732 -33.3954 -3.42008e-12
-33.3954 69.1335 -1.03029e-12
-3.42008e-12 -1.03029e-12 -5.74271

-25.2822 -11.6646 -4.32987e-13
-11.6646 31.2951 4.6434e-12
-4.32987e-13 4.6434e-12 -5.64723

16.0577 26.4253 3.94114e-12
26.4253 -15.4686 7.86985e-12
3.94114e-12 7.86985e-12 -6.21209

4.94146 29.4124 1.92972e-12
29.4124 1.63145 3.19448e-12
1.92972e-12 3.19448e-12 -4.98938

-9.83569 -21.3872 6.94852e-13
-21.3872 25.0626 2.60295e-12
6.94852e-13 2.60295e-12 -4.03647

-21.5889 -11.757 6.08106e-12
-11.757 32.0081 -1.69938e-12
6.08106e-12 -1.69938e-12 -4.63784

10.4366 28.3466 1.85156e-12
28.3466 -0.157622 1.82254e-12
1.85156e-12 1.82254e-12 -4.67309

-21.8003 -13.8476 2.62664e-12
-13.8476 29.3988 -1.247e-12
2.62664e-12 -1.247e-12 -4.84696

6.91172 27.8017 7.24398e-12
27.8017 72.9168 1.74083e-12
7.24398e-12 1.74083e-12 -14.356

-45.7261 -4.0309 1.27266e-13
-4.0309 14.0141 -9.74628e-13
1.27266e-13 -9.74628e-13 -19.9202

0.870231 30.9593 -2.93691e-12
30.9593 7.49906 1.78998e-12
-2.93691e-12 1.78998e-12 -6.0899

9.69584 14.8675 1.74468e-12
14.8675 -36.3467 4.13003e-13
1.74468e-12 4.13003e-13 -10.9643

9.90384 -15.8916 -6.61397e-13
-15.8916 -39.3203 -2.66217e-12
-6.61397e-13 -2.66217e-12 -13.0427

85.4219 -24.1614 -9.78654e-12
-24.1614 7.58582 4.03233e-12
-9.78654e-12 4.03233e-12 -12.9977

-23.1558 -21.2195 -5.25358e-12
-21.2195 10.4886 9.52719e-13
-5.25358e-12 9.52719e-13 -6.15909

-16.5656 26.6382 -8.45842e-13
26.6382 1.77282 -9.30811e-13
-8.45842e-13 -9.30811e-13 -6.58097

-26.1377 -21.6775 2.67815e-12
-21.6775 -5.35588 4.11023e-12
2.67815e-12 4.11023e-12 -23.8105

-41.4981 14.0707 -8.10685e-12
14.0707 -3.55138 -4.54836e-12
-8.10685e-12 -4.54836e-12 -63.9681

-0.893235 9.42427 -1.26181e-12
9.42427 -44.1522 -3.57314e-12
-1.26181e-12 -3.57314e-12 -64.0693

-20.3364 32.6281 -5.51618e-12
32.6281 -23.1508 -2.58416e-12
-5.51618e-12 -2.58416e-12 -24.2737

-11.3908 25.9438 -2.66898e-12
25.9438 22.5494 5.96856e-12
-2.66898e-12 5.96856e-12 -5.92783

16.0006 26.6009 4.6132e-12
26.6009 -17.2513 -1.2168e-13
4.6132e-12 -1.2168e-13 -6.54406

30.336 45.1042 1.91847e-13
45.1042 47.43 -5.80277e-14
1.91847e-13 -5.80277e-14 -15.2297

-44.782 -11.3147 1.54099e-13
-11.3147 -1.80391 4.9285e-12
1.54099e-13 4.9285e-12 -61.5308

-8.27868 -3.42295 7.19095e-12
-3.42295 -12.7188 -6.10504e-12
7.19095e-12 -6.10504e-12 -77.0309

-14.6505 -0.207757 2.20816e-12
-0.207757 -6.40355 -3.52096e-12
2.20816e-12 -3.52096e-12 -77.1747

27.5573 -53.7185 5.46289e-12
-53.7185 70.9647 2.74033e-12
5.46289e-12 2.74033e-12 -24.4444

-11.6609 -11.5722 -6.44729e-12
-11.5722 -16.1678 1.11082e-12
-6.44729e-12 1.11082e-12 -37.3385

-32.5348 8.79076 5.13389e-12
8.79076 -9.39603 3.5684e-12
5.13389e-12 3.5684e-12 -49.4195

18.2128 -26.14 4.5001e-12
-26.14 -19.5054 -3.71703e-12
4.5001e-12 -3.71703e-12 -6.50109

-39.3393 1.00764 3.02018e-13
1.00764 11.9526 -3.05533e-13
3.02018e-13 -3.05533e-13 -19.6768

-30.1348 -20.2223 -9.29183e-13
-20.2223 6.28971 2.01972e-12
-9.29183e-13 2.01972e-12 -7.20582

10.5114 6.24098 -1.78405e-12
6.24098 -52.2681 -1.88605e-12
-1.78405e-12 -1.88605e-12 -9.62184

-49.6971 15.5597 9.89903e-14
15.5597 10.1403 -1.90929e-12
9.89903e-14 -1.90929e-12 -13.5031

-40.1922 7.17425 5.29391e-14
7.17425 16.5024 4.34319e-12
5.29391e-14 4.34319e-12 -13.7457

16.3659 20.3468 -2.96059e-14
20.3468 -25.784 4.43941e-12
-2.96059e-14 4.43941e-12 -7.59714

-9.14964 -3.11238 -9.26666e-13
-3.11238 108.157 3.59061e-12
-9.26666e-13 3.59061e-12 -23.1552

-3.31456 -27.5618 5.77553e-12
-27.5618 -3.62182 4.32839e-12
5.77553e-12 4.32839e-12 -5.82424

-7.31881 -26.0572 5.31782e-12
-26.0572 -14.0504 -2.76756e-12
5.31782e-12 -2.76756e-12 -9.79267

-14.1659 -31.4099 -1.22065e-12
-31.4099 -21.7268 -1.46994e-12
-1.22065e-12 -1.46994e-12 -12.7289

90.5238 32.6945 -1.67214e-12
32.6945 20.8194 3.61725e-12
-1.67214e-12 3.61725e-12 -16.5594

-23.0614 -20.0687 -3.46715e-12
-20.0687 -17.3467 -2.55055e-13
-3.46715e-12 -2.55055e-13 -44.319

72.4696 54.2412 -1.20082e-12
54.2412 91.4517 1.84031e-12
-1.20082e-12 1.84031e-12 -6.20778

-36.1325 -21.3888 1.63025e-12
-21.3888 -6.77968 1.46135e-12
1.63025e-12 1.46135e-12 -13.0154

14.999 14.6162 -1.85333e-12
14.6162 -37.6655 -2.38639e-12
-1.85333e-12 -2.38639e-12 -8.16481

44.4714 -14.5405 -1.72307e-12
-14.5405 -8.26096 -8.15644e-13
-1.72307e-12 -8.15644e-13 -4.42907

-21.183 23.9921 9.4443e-14
23.9921 4.94374 6.88634e-13
9.4443e-14 6.88634e-13 -5.96904

17.3326 20.381 1.17772e-12
20.381 -26.7331 -5.22367e-12
1.17772e-12 -5.22367e-12 -6.94225

-51.021 11.3726 4.1116e-12
11.3726 7.69067 -3.95743e-12
4.1116e-12 -3.95743e-12 -29.9234

-7.27204 -31.5078 -5.27904e-12
-31.5078 -12.7983 7.72982e-12
-5.27904e-12 7.72982e-12 -8.10633

2.78756 19.7662 1.00867e-12
19.7662 -45.9254 7.47846e-12
1.00867e-12 7.47846e-12 -29.9154

-24.6162 -18.4023 -9.42357e-13
-18.4023 17.7945 2.13163e-13
-9.42357e-13 2.13163e-13 -5.47531

-42.2432 4.27407 3.88967e-12
4.27407 17.8272 3.25606e-12
3.88967e-12 3.25606e-12 -12.7021

-4.09009 9.9047 1.35773e-12
9.9047 -40.1801 -2.09314e-13
1.35773e-12 -2.09314e-13 -47.4324

-2.68355 -8.49486 -5.63342e-12
-8.49486 -38.2156 -5.30687e-13
-5.63342e-12 -5.30687e-13 -47.2881

81.5367 18.4805 1.80241e-12
18.4805 1.66353 5.08985e-12
1.80241e-12 5.08985e-12 -14.4885

3.88573 7.94714 -4.35089e-12
7.94714 -45.0801 -1.09838e-12
-4.35089e-12 -1.09838e-12 -10.9974

35.7293 7.7253 -6.27202e-12
7.7253 184.244 -1.7953e-12
-6.27202e-12 -1.7953e-12 -9.86406

39.9974 -11.3665 -3.56541e-12
-11.3665 190.036 5.07801e-12
-3.56541e-12 5.07801e-12 -7.49914

53.6029 56.339 2.67875e-12
56.339 158.951 -3.52903e-12
2.67875e-12 -3.52903e-12 -11.606

1.7031 -28.8839 -1.58155e-12
-28.8839 -24.6341 5.15943e-12
-1.58155e-12 5.15943e-12 -11.9392

15.9527 -49.1116 1.30385e-12
-49.1116 99.2016 -1.83794e-12
1.30385e-12 -1.83794e-12 -21.7488

54.3494 -55.8813 -2.69059e-12
-55.8813 149.679 7.27596e-12
-2.69059e-12 7.27596e-12 -13.7684

-2.16419 26.1624 4.09746e-13
26.1624 17.5315 2.57809e-12
4.09746e-13 2.57809e-12 -3.99926

134.665 73.7526 8.76336e-13
73.7526 84.825 2.67164e-12
8.76336e-13 2.67164e-12 -10.2669

-18.6784 13.016 2.29624e-12
13.016 -3.88764 -2.81049e-12
2.29624e-12 -2.81049e-12 -26.7041

3.73371 0.0422607 1.70738e-12
0.0422607 -26.128 4.25941e-12
1.70738e-12 4.25941e-12 -26.7073

143.813 -73.0398 -4.00746e-12
-73.0398 85.1515 1.01371e-12
-4.00746e-12 1.01371e-12 -8.30717

-21.348 -23.3718 1.77221e-12
-23.3718 12.2176 2.88066e-12
1.77221e-12 2.88066e-12 -6.48649

89.1481 34.6706 -2.5769e-12
34.6706 41.2728 9.17784e-13
-2.5769e-12 9.17784e-13 -11.6063

71.995 63.409 -3.96483e-12
63.409 149.411 3.71377e-12
-3.96483e-12 3.71377e-12 -9.78148

26.0712 21.5935 -1.71241e-12
21.5935 99.9151 -7.23806e-12
-1.71241e-12 -7.23806e-12 -13.0887

73.6784 -65.8349 -4.51431e-12
-65.8349 150.859 -9.09495e-13
-4.51431e-12 -9.09495e-13 -9.51188

25.6752 -12.361 8.22453e-13
-12.361 104.787 -4.83169e-13
8.22453e-13 -4.83169e-13 -12.4878

-28.5966 6.82345 9.37176e-13
6.82345 3.10128 -1.57711e-12
9.37176e-13 -1.57711e-12 -37.7601

37.633 -45.8932 3.55627e-12
-45.8932 49.5411 -1.89715e-12
3.55627e-12 -1.89715e-12 -15.5717

14.3514 47.4546 -4.35918e-12
47.4546 94.6685 3.24481e-13
-4.35918e-12 3.24481e-13 -22.2494

173.026 37.8594 -8.76336e-13
37.8594 47.8812 3.5841e-12
-8.76336e-13 3.5841e-12 -9.62945

7.00267 -29.2193 -1.59872e-12
-29.2193 -14.3265 -6.98671e-12
-1.59872e-12 -6.98671e-12 -7.14655

-38.3303 12.866 2.5886e-12
12.866 6.42072 2.12038e-12
2.5886e-12 2.12038e-12 -15.2575

88.3043 -38.0487 -3.99562e-12
-38.0487 34.0549 -2.50585e-12
-3.99562e-12 -2.50585e-12 -14.1569

6.02635 -28.7365 2.11209e-12
-28.7365 -16.1374 -1.70945e-12
2.11209e-12 -1.70945e-12 -8.01862

168.895 -36.2927 9.4739e-14
-36.2927 34.7857 2.87237e-12
9.4739e-14 2.87237e-12 -13.393

-5.71323 -28.253 -7.90479e-12
-28.253 -14.4415 2.0739e-12
-7.90479e-12 2.0739e-12 -9.29382

-17.7534 -25.2386 -2.9603e-12
-25.2386 12.0504 -4.60846e-12
-2.9603e-12 -4.60846e-12 -5.93072

118.631 69.3721 1.81425e-12
69.3721 95.9963 -8.57388e-13
1.81425e-12 -8.57388e-13 -11.5056

29.3111 -22.8941 -2.29861e-12
-22.8941 97.5806 -2.69296e-12
-2.29861e-12 -2.69296e-12 -14.3989

117.714 -71.6012 4.46695e-12
-71.6012 93.4599 1.73609e-12
4.46695e-12 1.73609e-12 -12.5215

22.1645 50.6576 4.06075e-12
50.6576 73.5907 -3.07902e-14
4.06075e-12 -3.07902e-14 -24.831

-1.53578 -30.1442 9.05942e-13
-30.1442 -6.54037 1.33552e-12
9.05942e-13 1.33552e-12 -6.99115

-7.02632 -14.6069 8.49306e-12
-14.6069 -21.8694 -3.63857e-13
8.49306e-12 -3.63857e-13 -32.535

-11.8643 11.0646 1.21713e-11
11.0646 -16.3858 7.52583e-12
1.21713e-11 7.52583e-12 -77.5968

-26.1014 -5.14948 -6.49007e-12
-5.14948 -6.37276 -1.67757e-11
-6.49007e-12 -1.67757e-11 -77.4316

-38.8538 13.0534 3.02504e-12
13.0534 13.7115 2.30986e-12
3.02504e-12 2.30986e-12 -10.2206

-14.4463 -10.6401 -1.48718e-12
-10.6401 -17.2712 7.51991e-14
-1.48718e-12 7.51991e-14 -78.5574

-25.8355 4.08389 -8.99725e-13
4.08389 -5.89978 -8.32134e-12
-8.99725e-13 -8.32134e-12 -78.6992

-3.62278 7.41294 5.18963e-12
7.41294 -27.7915 8.48506e-13
5.18963e-12 8.48506e-13 -77.789

-43.8688 -12.0843 7.29683e-12
-12.0843 2.90871 -9.69521e-12
7.29683e-12 -9.69521e-12 -67.9875

11.9157 -30.4142 -3.61785e-12
-30.4142 75.9878 -1.78583e-12
-3.61785e-12 -1.78583e-12 -14.7388

0.518143 -12.9422 -3.98289e-12
-12.9422 -39.8959 6.76407e-12
-3.98289e-12 6.76407e-12 -45.1661

-16.3105 -34.336 3.82923e-12
-34.336 -22.0193 -1.32709e-12
3.82923e-12 -1.32709e-12 -23.5354

-2.41644 -18.1355 5.83652e-12
-18.1355 -29.8237 -1.05101e-14
5.83652e-12 -1.05101e-14 -33.545

12.707 15.4242 1.05279e-12
15.4242 -37.6314 -5.31693e-12
1.05279e-12 -5.31693e-12 -9.60887

-46.7943 9.83974 -1.30137e-12
9.83974 8.85481 -1.36383e-11
-1.30137e-12 -1.36383e-11 -69.9777

3.4529 19.1805 -2.58179e-12
19.1805 -41.3709 -7.86989e-12
-2.58179e-12 -7.86989e-12 -70.0933

1.46813 11.282 -2.23406e-12
11.282 -23.9069 -4.73414e-12
-2.23406e-12 -4.73414e-12 -31.7895

109.152 -15.3107 9.12811e-12
-15.3107 -12.5866 -1.74379e-12
9.12811e-12 -1.74379e-12 -25.0918

-14.2914 24.9086 3.76232e-12
24.9086 10.3604 -1.88294e-12
3.76232e-12 -1.88294e-12 -5.80185

76.4253 -61.259 4.43616e-12
-61.259 37.2342 -8.95284e-13
4.43616e-12 -8.95284e-13 -22.4552

75.9471 -57.3732 5.23907e-12
-57.3732 99.0259 -1.33108e-12
5.23907e-12 -1.33108e-12 -5.62547

117.967 -36.4876 1.22308e-11
-36.4876 40.4872 1.7728e-12
1.22308e-11 1.7728e-12 -7.4421

-50.9907 -5.14646 2.11135e-12
-5.14646 3.33092 -1.96391e-12
2.11135e-12 -1.96391e-12 -60.5099

-50.3562 2.88449 6.15508e-13
2.88449 3.12556 1.44877e-12
6.15508e-13 1.44877e-12 -59.9838

-11.9482 -24.3966 3.13823e-13
-24.3966 -34.9188 -1.72477e-12
3.13823e-13 -1.72477e-12 -59.0204

-8.97132 -21.7069 -8.68601e-13
-21.7069 -37.7971 -2.27907e-12
-8.68601e-13 -2.27907e-12 -59.3292

-14.6683 26.072 1.48e-12
26.072 -32.9483 -3.44325e-12
1.48e-12 -3.44325e-12 -60.6009

-18.111 3.08861 2.54463e-13
3.08861 -13.1315 3.70689e-12
2.54463e-13 3.70689e-12 -75.2875

-9.92192 -20.4588 -5.4925e-12
-20.4588 -32.5719 7.68785e-12
-5.4925e-12 7.68785e-12 -56.5964

-26.5816 -18.5235 -3.95683e-13
-18.5235 -14.1641 5.35657e-12
-3.95683e-13 5.35657e-12 -71.0938

-15.4367 2.42607 4.346e-12
2.42607 -12.8219 -2.08094e-11
4.346e-12 -2.08094e-11 -77.6755

-6.0143 -20.4762 1.36824e-12
-20.4762 -41.387 1.07766e-13
1.36824e-12 1.07766e-13 -60.3575

-6.7418 20.9046 1.17225e-11
20.9046 -40.0466 2.47565e-12
1.17225e-11 2.47565e-12 -59.8698

-14.2768 -3.44744 1.08566e-11
-3.44744 -11.3629 -1.06507e-11
1.08566e-11 -1.06507e-11 -76.6921

-11.2351 -3.10583 -1.75084e-11
-3.10583 -17.6435 3.80648e-11
-1.75084e-11 3.80648e-11 -73.8624

-24.1426 12.082 -1.79871e-12
12.082 -13.3702 -7.77356e-12
-1.79871e-12 -7.77356e-12 -69.7928

-22.0293 26.8645 4.28013e-12
26.8645 -26.2062 8.41165e-12
4.28013e-12 8.41165e-12 -57.4407

VECTORS fluid_flux_TPM float
-8.71076e-05 3.09904e-05 -1.74664e-20
3.55516e-06 6.87369e-06 2.0026e-20
-1.2771e-05 -1.02123e-05 -3.54687e-21
-4.16511e-06 4.24856e-06 5.23021e-21
2.26788e-05 -6.30556e-06 -7.88213e-21
2.75394e-06 -1.5883e-05 -1.12127e-21
-8.56852e-05 -3.10547e-05 -5.29082e-21
-1.38747e-05 -1.04534e-05 -4.6272e-21
2.20929e-05 9.44367e-07 -1.35892e-20
1.13692e-05 -3.90307e-06 -5.18624e-21
5.45271e-05 1.24669e-05 -1.47914e-20
2.34369e-06 -1.71721e-05 -9.0563e-21
1.3594e-05 1.12392e-05 -8.29489e-21
2.65894e-06 1.3767e-05 5.67313e-21
2.05548e-05 -2.94313e-06 7.35773e-22
-1.63114e-05 -2.72552e-07 1.11866e-20
2.75029e-06 1.40809e-05 1.40661e-20
1.01685e-05 -2.38877e-06 -8.19378e-21
9.88582e-06 1.72003e-05 -1.12294e-20
-1.48294e-05 1.88309e-06 4.22854e-21
-3.59635e-06 -2.12768e-05 -1.27168e-20
3.40591e-05 5.93432e-05 1.50803e-20
1.5677e-05 1.62924e-06 -8.9429e-21
1.12128e-05 -1.12668e-05 -3.38696e-21
-1.50591e-05 -3.32821e-06 9.81117e-21
-6.76163e-07 -1.11166e-05 -2.23889e-22
6.28194e-05 -4.90157e-06 4.52093e-21
1.4048e-05 1.02357e-05 -3.19324e-21
-2.5117e-05 -2.06167e-05 -9.5997e-21
4.90608e-05 -1.27989e-05 5.71013e-22
-1.65615e-05 -6.03085e-06 1.51764e-21
5.53042e-06 -3.19953e-05 8.26124e-22
4.75918e-05 -4.79833e-05 -2.31875e-21
-4.91718e-06 -4.11974e-05 -1.66254e-20
-2.96382e-05 3.69608e-05 2.42539e-20
-3.82008e-05 -1.63753e-05 -1.03805e-21
3.26641e-05 4.31642e-05 1.29453e-20
-4.46869e-05 -8.71595e-06 3.24433e-20
1.43563e-05 -1.10677e-05 -1.15721e-20
4.64091e-05 5.00486e-05 -7.86031e-21
3.20879e-05 -1.40036e-05 -1.21918e-21
3.36009e-05 -4.22942e-05 -3.02982e-20
-1.98733e-05 -5.03199e-05 -4.12473e-21
-1.58781e-05 6.34903e-06 1.19007e-20
3.04862e-05 -2.92758e-05 6.53617e-22
-3.02943e-05 1.09767e-05 9.42327e-21
-4.04497e-06 -2.03452e-05 -1.30164e-21
7.87618e-06 2.01864e-05 -1.24467e-20
-1.63223e-05 5.92064e-06 1.59095e-20
-1.77967e-05 2.86897e-05 7.5341e-21
3.2367e-05 1.5271e-05 -4.13441e-21
2.93277e-05 -1.00623e-05 -1.1488e-20
-1.56477e-05 1.57411e-05 2.1374e-20
-2.35118e-05 -2.06647e-05 -9.4566e-21
-2.11143e-05 -5.12669e-06 1.77332e-20
-4.47343e-05 2.70425e-05 -7.50635e-21
-2.93377e-05 -3.7978e-05 -9.97718e-21
6.35564e-06 -3.05895e-05 -1.16825e-21
-4.76518e-05 6.47578e-06 -6.61036e-21
6.06656e-06 1.36801e-05 -7.18743e-21
-5.56992e-06 -8.16372e-06 -1.43792e-21
-6.57543e-06 -1.79223e-05 -3.83444e-21
5.70704e-05 2.48273e-05 -1.25178e-20
9.23212e-06 1.81225e-05 3.30252e-21
1.22821e-05 -1.44276e-05 -1.70786e-20
-1.6388e-06 -2.07278e-05 -1.54785e-20
4.61577e-06 -8.7949e-06 -8.98005e-21
-1.00783e-05 -5.55832e-06 -4.84806e-21
-1.05897e-05 1.19149e-05 1.57011e-20
2.55495e-06 -4.08759e-06 -9.2438e-21
-1.5026e-05 -1.58242e-05 -7.05936e-21
-2.13396e-05 5.16028e-06 -9.02217e-22
-3.55205e-06 3.44389e-05 5.66614e-21
-1.78507e-05 1.06983e-05 1.40914e-20
-9.05979e-06 1.45971e-05 1.99848e-20
-6.02801e-05 7.68354e-06 -2.76122e-21
7.80911e-06 -2.16559e-05 -2.06232e-20
-1.88579e-05 -8.88947e-06 -9.70824e-21
1.93125e-06 1.161e-05 -9.23182e-21
2.62684e-05 5.0833e-06 -5.74589e-21
3.41263e-05 -2.89383e-05 -7.56305e-21
2.21209e-05 2.05318e-05 4.3921e-21
1.18941e-05 -2.81916e-06 -7.24533e-21
-3.21142e-05 2.40382e-05 -4.50047e-22
3.7857e-05 4.83987e-06 -3.79396e-21
-4.97387e-06 4.93534e-05 2.04909e-21
-1.73886e-06 -1.6837e-05 -1.46838e-21
1.81022e-05 9.94273e-06 -6.90276e-21
2.9281e-05 3.02474e-05 -6.57246e-21
5.49506e-05 3.79674e-05 -1.38525e-20
-5.32439e-06 3.07352e-05 -3.28554e-21
5.91024e-05 -3.5469e-05 -1.90941e-20
-2.70932e-05 5.33477e-06 1.99469e-20
1.78179e-05 1.09888e-05 -1.73718e-20
-2.96051e-05 9.89157e-06 9.82284e-21
1.66327e-05 2.84857e-05 5.83288e-21
1.01567e-05 -4.43315e-05 -1.40408e-20
1.91304e-06 1.16068e-05 -3.47139e-21
-1.47833e-05 -1.75997e-05 -1.76084e-20
3.06608e-06 1.74537e-05 -7.27906e-22
2.63744e-05 5.25111e-06 -6.48227e-21
-1.5424e-05 3.31706e-05 1.1268e-20
4.05015e-05 -1.33163e-05 -2.03e-21
-3.76846e-06 7.44608e-06 1.17063e-20
9.94085e-06 5.89207e-06 -1.14878e-20
-2.27772e-06 -1.1311e-05 4.81046e-21
3.21711e-06 -1.92292e-05 -8.62095e-21
1.74481e-05 3.88749e-06 -7.20532e-21
-7.92656e-06 4.09218e-05 7.36053e-21
-9.79387e-06 2.47556e-07 2.4416e-20
9.30725e-06 1.18713e-05 -1.47766e-20
-2.17364e-06 -4.16622e-05 -1.01545e-21
4.19703e-05 1.2849e-05 -1.03112e-20
4.41712e-06 -7.44412e-06 -9.02401e-21
-1.11318e-05 -3.54949e-06 -1.1221e-20
-2.92901e-05 -1.24711e-05 -4.4265e-21
1.57847e-05 4.10991e-05 -8.07313e-21
-4.3432e-05 -1.55551e-05 -8.66892e-22
1.59992e-05 -4.10755e-05 -1.58704e-20
-3.69491e-06 -3.18811e-05 2.8549e-21
2.18121e-05 6.51386e-07 -1.33182e-20
-7.16278e-06 1.8375e-05 1.2183e-20
-1.60939e-06 3.96474e-06 -7.5106e-21
-3.68183e-06 -1.65191e-05 -2.16633e-20
5.22357e-06 -8.29207e-06 -5.76664e-21
9.34876e-06 1.58448e-05 2.09332e-20
3.30619e-05 1.06402e-05 -3.65685e-20
8.60503e-06 -7.44898e-06 -1.7397e-20
-8.26013e-06 -4.51042e-05 6.43057e-21
2.55206e-05 -1.87964e-05 -1.28575e-20
4.9723e-06 2.77389e-05 1.53376e-20
-2.81286e-06 -2.83828e-06 -2.72711e-21
-8.61622e-06 -8.31579e-06 -1.50762e-20
-4.7709e-06 4.41706e-08 4.64584e-21
-2.28445e-05 2.85595e-05 3.98192e-21
1.87409e-05 -3.73312e-05 -3.30557e-20
-2.65465e-05 4.26619e-05 4.37437e-21
-1.63522e-05 9.52404e-06 1.01675e-20
2.52465e-06 1.21843e-05 -1.61644e-20
-2.29599e-05 -3.49482e-05 -1.40083e-20
1.39191e-05 3.34246e-05 -6.69114e-21
1.74867e-05 9.35779e-06 -5.87503e-21
2.27835e-05 -8.51224e-06 1.41698e-21
-1.25188e-06 -1.12518e-05 -8.31446e-21
-3.38698e-05 -3.15196e-05 5.24325e-22
-2.74796e-06 1.12898e-05 6.5958e-21
1.72259e-05 1.01595e-05 -4.96751e-21
1.88645e-05 -8.8102e-06 -7.36069e-21
8.23311e-06 -1.43274e-05 -3.56022e-21
2.43269e-05 -1.07819e-05 -5.3542e-21
1.89862e-05 -8.98681e-06 -1.05004e-20
4.6349e-06 2.05633e-07 -2.35277e-20
2.57087e-05 2.01959e-05 -1.06374e-20
-2.73813e-06 -1.70095e-05 9.89832e-21
-1.04672e-05 -4.45152e-06 3.6313e-21
1.12464e-06 -3.88535e-06 -7.16514e-21
-3.15151e-06 1.58279e-05 -8.73766e-21
-3.4841e-05 2.76484e-06 5.2878e-21
-1.21063e-05 -3.32175e-05 3.93038e-21
-7.86946e-06 9.7672e-06 2.9401e-21
1.35487e-05 1.66199e-05 -1.15515e-20
2.65355e-05 -1.87212e-05 -3.79896e-21
-3.67466e-05 -2.03263e-05 -3.38634e-21
1.73817e-05 -2.74731e-05 -3.31283e-21
2.27757e-05 -2.71825e-05 1.94677e-21
-1.09312e-05 3.78045e-06 1.40171e-20
-1.98045e-05 -2.8805e-05 -7.2282e-21
-3.48373e-05 -5.78444e-06 6.22671e-21
-3.84725e-06 -3.17036e-05 -3.46517e-22
1.54286e-05 -3.16597e-05 -5.96931e-21
-9.09569e-06 -2.61686e-05 -1.37535e-20
4.57576e-06 3.13667e-05 -8.48739e-21
-1.57325e-05 -2.84872e-05 -4.51048e-21
2.93553e-06 -1.62727e-05 1.80307e-21
-2.47091e-05 1.82378e-05 3.61797e-21
-1.50129e-05 -1.2097e-05 -1.99772e-20
-2.73208e-05 -5.16617e-06 -1.31498e-21
1.5649e-05 -9.17045e-06 -8.32612e-21
-4.30129e-06 2.39245e-05 1.47732e-21
1.22178e-05 -9.31308e-06 -1.86122e-20
-2.95498e-05 -1.31484e-05 8.14589e-21
-8.82107e-06 -7.44908e-06 1.40668e-21
9.07107e-06 7.53164e-06 -9.51301e-21
2.14003e-05 2.86649e-05 -3.65177e-21
-1.74881e-05 -1.07966e-05 -4.81866e-21
-3.24665e-05 -7.50125e-07 3.98511e-21
-1.63174e-05 -5.01006e-06 1.2104e-20
-4.57289e-06 -1.65635e-05 -2.32268e-20
1.76635e-05 2.12141e-05 -1.2524e-20
-1.09442e-05 5.86766e-06 1.68805e-20
6.35391e-07 -2.05309e-05 -8.21199e-21
-4.18883e-05 1.0838e-05 2.49626e-21
2.48298e-05 2.0221e-05 -1.02426e-20
3.79028e-06 3.27446e-05 -7.54349e-21
-2.42894e-06 3.79268e-06 1.65063e-20
-9.03995e-06 2.50896e-07 5.24399e-21
4.34973e-06 7.75061e-06 -9.94911e-21
-1.168e-05 3.39766e-06 -2.47837e-21
-2.07104e-06 -3.78031e-06 -1.912e-20
1.65804e-06 2.07353e-05 1.00185e-20
4.46692e-06 4.4906e-07 -5.89216e-21
-1.95146e-05 4.751e-06 1.15006e-20
-1.72771e-05 1.93347e-05 1.25405e-21
-3.1035e-06 1.15645e-05 5.8576e-21
-2.91809e-05 1.83722e-05 4.29893e-22
-9.33247e-06 8.96848e-06 7.79846e-21
1.72904e-05 -1.16e-05 -1.3272e-20
3.65586e-05 -3.56023e-06 -2.04495e-22
-2.11159e-05 1.12842e-05 2.02487e-20
2.23017e-06 4.49286e-06 -7.08481e-21
2.17494e-05 -4.33948e-06 -1.68302e-20
-1.72584e-05 1.03408e-05 2.1825e-20
-9.85988e-06 5.53255e-06 1.36206e-20
1.18171e-05 3.73842e-06 -3.08224e-20
2.1853e-05 -1.34546e-05 -8.05569e-21
-1.73594e-05 9.94439e-06 1.1948e-20
-2.50067e-05 -5.29669e-06 -3.15941e-21
-1.6742e-05 -4.35714e-06 9.06156e-22
9.86423e-06 6.29171e-09 -2.56882e-20
1.01616e-05 1.95043e-07 5.04254e-21
4.38571e-06 8.30721e-06 1.91737e-20
4.82393e-06 -8.78723e-06 -4.69951e-21
-5.0043e-06 8.40985e-06 1.265e-20
-5.26031e-06 -8.64737e-06 -4.36573e-21
9.89886e-06 -7.39911e-06 -9.41569e-21
-2.03035e-05 3.23134e-06 3.33876e-21
-2.00361e-05 -3.28009e-06 2.91193e-20
-1.28198e-05 1.58576e-05 2.29103e-20
-1.28995e-05 -1.59118e-05 -4.20749e-21
7.47701e-06 -1.98202e-05 -2.15068e-20
7.19708e-06 1.97405e-05 -1.32532e-20
1.55617e-06 2.58534e-05 -6.71966e-22
1.12268e-05 -3.13286e-06 -2.26009e-20
2.35695e-06 -3.86187e-06 -2.30628e-20
-2.13856e-05 1.42003e-06 4.62948e-21
7.66775e-06 -1.94897e-05 1.42259e-21
7.26448e-06 1.96382e-05 -1.95678e-20
4.76297e-06 -5.26052e-08 -6.74269e-21
8.95739e-06 2.43731e-05 -1.40836e-21
-2.23954e-06 -4.0115e-06 -2.21674e-21
2.31479e-06 -1.13033e-05 -8.12468e-21
-2.24033e-05 -1.21369e-05 4.51291e-21
-2.1333e-05 -1.14811e-05 -1.62263e-20
-2.18658e-05 1.36122e-05 1.16626e-20
3.24706e-06 -1.22727e-05 8.09749e-22
-1.56335e-06 3.37786e-06 2.29997e-20
-5.86471e-07 -2.55376e-05 5.95734e-21
-7.71047e-06 -2.43928e-05 -1.57795e-22
3.26625e-05 3.03235e-05 -1.13253e-20
3.54082e-05 -1.81277e-06 3.84862e-22
-1.26957e-05 -3.62803e-06 2.81234e-20
-2.28634e-05 -4.13342e-05 -8.64746e-21
8.29395e-06 1.37309e-05 -1.41602e-20
-2.52046e-05 3.02963e-06 6.57747e-21
2.00401e-05 5.77919e-06 -1.03752e-20
-4.52756e-06 -3.27141e-08 1.91919e-21
-4.65964e-06 -8.40244e-06 -1.5241e-20
-7.06323e-06 -3.92865e-05 -1.90392e-20
-9.69649e-06 -8.37352e-08 -1.67043e-21
-4.86138e-05 -1.81342e-06 1.16355e-21
1.72871e-05 -1.90812e-05 -3.69801e-21
2.42628e-06 3.99415e-06 -1.18038e-21
-1.20549e-07 -1.74922e-05 -1.15051e-20
-9.8059e-06 2.40539e-05 1.61867e-20
-4.36682e-06 8.61679e-06 7.18651e-21
2.05305e-05 -1.35888e-05 -9.09691e-21
-3.76138e-05 -1.35366e-05 -4.93599e-21
-1.52465e-05 -2.03405e-05 -1.19688e-20
4.97079e-06 8.37871e-06 -1.63921e-20
1.66106e-05 5.15403e-06 -3.13624e-21
-4.75788e-06 -7.32914e-06 -5.07346e-21
1.9772e-05 3.54302e-06 -3.4845e-20
1.81659e-05 -9.8135e-06 -8.19364e-21
-3.48353e-07 2.71397e-05 1.47008e-20
8.30979e-06 -1.36495e-05 -1.11134e-20
4.87394e-05 2.19754e-06 -3.74151e-21
-4.23025e-05 1.14392e-05 -8.44282e-21
2.28313e-05 1.15418e-05 -2.41729e-21
-6.4446e-06 -1.71574e-05 4.19944e-21
-1.53305e-05 -8.60721e-06 -2.87976e-21
2.87496e-05 -2.10211e-07 -1.08198e-20
-6.91087e-07 -2.42246e-05 -1.93768e-20
-1.26013e-05 -1.08605e-05 -5.97811e-21
1.02107e-05 -2.34688e-05 -9.74947e-21
-4.95993e-07 2.05293e-05 5.97037e-21
7.90741e-06 2.60337e-05 6.0031e-21
1.72456e-05 -9.87151e-06 -6.95051e-21
-1.89233e-05 1.92736e-05 1.39548e-21
1.65061e-05 2.00029e-05 -7.32962e-21
-6.21499e-05 1.60023e-05 1.42124e-21
-1.00966e-05 2.59834e-05 5.33828e-21
1.25034e-05 -1.52288e-05 -1.80004e-20
-7.01993e-06 -1.83746e-05 -1.47212e-20
-1.18383e-05 4.49976e-06 2.0527e-20
-2.58598e-05 -7.03679e-06 1.04439e-20
-6.37788e-06 3.88088e-05 1.2352e-20
-1.25897e-05 1.18875e-05 1.0309e-20
2.07493e-05 -4.46979e-06 -8.68385e-21
-6.86324e-06 -2.57605e-05 2.49671e-21
-1.48492e-05 2.38598e-05 1.59237e-20
-2.17614e-05 1.2549e-05 2.1336e-20
-2.05426e-05 -1.5036e-05 -1.39362e-20
1.80054e-05 -2.06287e-05 -1.47847e-20
-2.74949e-05 -1.45436e-06 1.04803e-20
1.23514e-05 -4.07551e-05 -3.24371e-21
1.93608e-05 -1.8888e-05 3.60947e-21
2.46997e-05 4.30238e-05 1.07062e-21
1.96881e-06 1.98413e-05 1.46723e-20
2.95745e-06 -2.53878e-05 -6.90123e-21
-4.15834e-05 4.69003e-05 -1.88523e-21
-1.26854e-05 -2.43798e-05 -1.57233e-20
1.63457e-05 -6.41209e-06 -7.79013e-21
-2.40752e-06 2.57386e-05 -6.25064e-21
1.28662e-05 -1.18113e-05 8.65672e-22
1.38623e-05 2.42809e-05 -7.25231e-21
1.72073e-05 -1.39867e-06 -3.17171e-21
2.2091e-05 -6.31308e-05 -2.85975e-21
-5.86837e-06 -1.28426e-05 7.19864e-22
-2.31542e-05 1.00741e-05 1.14044e-20
-1.99946e-05 1.86956e-05 1.16023e-20
2.15838e-05 1.45484e-05 -8.18651e-21
1.86482e-05 -1.07426e-05 -6.84743e-21
1.49325e-05 1.25774e-05 -8.07025e-21
-5.42106e-06 4.53636e-08 2.89862e-20
1.53834e-05 -2.30567e-05 -2.13261e-21
-1.69681e-05 -2.03827e-05 -8.91591e-21
2.25322e-05 9.76094e-06 -5.47067e-22
1.27899e-05 -1.19743e-05 -3.11624e-21
9.54143e-06 -2.48191e-05 -3.84291e-21
1.66374e-05 -6.92397e-06 -8.63534e-21
-1.57851e-05 -7.53504e-06 8.22349e-21
1.29524e-06 -2.62698e-05 -1.34946e-20
-2.60729e-05 4.4674e-06 1.43718e-20
2.38736e-06 2.45108e-05 -4.98054e-21
2.05579e-05 6.61892e-06 -6.33372e-21
-2.16923e-05 -1.06882e-05 -4.60734e-21
-8.9652e-06 2.55767e-05 9.99882e-21
-1.49323e-06 -2.41565e-05 -1.38475e-20
1.94415e-05 1.18223e-05 -1.36198e-21
-1.76642e-06 1.80616e-05 2.3944e-21
-2.01127e-05 1.3685e-05 2.13395e-20
2.34799e-05 1.14001e-05 -1.52659e-21
-1.70934e-05 -9.97312e-06 2.76925e-21
9.52283e-08 -1.98095e-05 -1.09139e-20
1.83583e-05 1.99579e-05 -1.63921e-20
-2.21261e-05 -1.42858e-05 -8.23002e-21
4.82859e-05 -3.39352e-05 3.59265e-21
1.78739e-05 -1.08084e-05 -7.40723e-21
8.99038e-06 4.30302e-05 -1.3476e-20
1.70121e-05 -1.36608e-05 7.02265e-21
-1.9843e-05 8.69184e-05 1.67362e-21
-1.9733e-05 -8.64339e-05 -4.91172e-21
5.71085e-05 7.16168e-05 3.85231e-21
5.68471e-05 -7.12904e-05 -9.63154e-22
9.05221e-05 -8.10755e-11 4.37573e-21
-7.80938e-05 3.75977e-05 -1.95912e-20
-7.73501e-05 -3.72412e-05 -6.04525e-21
1.22182e-05 1.18039e-05 -1.37353e-20
2.93313e-05 2.18653e-05 -4.43743e-21
1.14334e-05 3.32867e-06 -7.38964e-21
1.88315e-05 9.73901e-06 -9.41432e-21
4.98295e-06 2.01443e-05 4.42612e-22
-1.8808e-05 -1.49615e-05 -1.49577e-20
1.70165e-05 -1.02012e-05 -1.96663e-21
1.98271e-05 1.45305e-05 -6.08315e-21
-3.16263e-06 2.4333e-05 -8.72508e-21
2.9404e-05 -1.9968e-05 -2.66794e-20
3.78911e-06 -2.37097e-05 -1.17294e-20
2.19335e-05 5.22035e-06 -6.56276e-21
2.9857e-05 1.10117e-05 -4.32616e-21
1.41914e-05 1.41261e-05 1.1617e-20
1.58629e-05 6.58539e-06 -5.84002e-21
-1.84754e-05 1.0923e-05 1.64073e-20
-2.25347e-05 9.02543e-06 1.45195e-20
2.29009e-05 -1.12494e-05 -1.33558e-20
-1.82451e-05 -9.98565e-06 -9.56468e-21
-1.85312e-05 -1.05693e-05 8.60234e-22
-3.43279e-07 -2.07417e-05 -1.50282e-20
-8.59491e-08 -2.11342e-05 -1.09095e-20
-2.01017e-05 -1.00421e-06 9.62063e-21
2.66646e-05 -4.01387e-06 -8.10663e-21
1.8089e-05 1.13278e-05 1.6427e-21
-1.7842e-05 1.09315e-05 2.01009e-20
-1.53424e-05 1.66035e-05 4.73211e-21
1.60018e-05 -1.37357e-05 5.69873e-21
-1.10094e-05 1.74414e-05 3.92902e-21
-1.42069e-05 -1.4871e-05 -8.16134e-21
-1.15364e-06 2.1184e-05 -7.11148e-21
-1.28583e-06 2.09421e-05 -2.60161e-21
8.9656e-08 -1.98094e-05 -1.52081e-20
6.10316e-06 -1.97123e-05 -3.50974e-21
-1.71198e-05 -9.92328e-06 -1.31931e-20
1.5567e-05 -5.48333e-06 -9.59834e-21
6.62488e-07 2.14508e-05 -1.22328e-22
3.00621e-07 1.84846e-05 -3.79971e-21
-2.34262e-06 1.68363e-05 -4.32281e-21
2.18808e-05 -5.52031e-06 -1.36297e-20
-1.6521e-05 5.37133e-06 2.6673e-20
4.1522e-06 2.14905e-05 -2.08169e-21
-3.2519e-05 1.29037e-05 1.42753e-20
9.75154e-06 4.16771e-05 -2.13777e-21
-1.70326e-05 4.56238e-06 9.7886e-21
1.96601e-05 -1.16157e-05 -1.27808e-20
9.44609e-07 2.09934e-05 -1.92722e-21
-2.04558e-05 6.69126e-06 1.4561e-20
2.44132e-06 -1.62424e-05 -2.17719e-21
1.81867e-06 -5.79369e-05 -6.77012e-21
2.00395e-06 1.74645e-05 -5.42368e-22
-1.6941e-05 1.40052e-05 2.23922e-20
1.78316e-05 6.38882e-05 1.0307e-22
4.57126e-05 3.76599e-05 -8.30746e-21
5.20001e-05 -3.52113e-05 -2.5993e-20
1.4797e-05 -1.01544e-05 -2.50596e-21
-1.57657e-05 1.40203e-05 1.12312e-20
-2.0192e-05 -7.91109e-06 4.4685e-21
-1.96213e-05 -6.81405e-06 7.80029e-21
5.91873e-05 -2.45898e-05 -1.7519e-20
5.73524e-05 2.38534e-05 -4.85957e-21
1.08808e-05 3.8128e-06 -2.63178e-21
7.65554e-07 1.95553e-05 -2.37954e-21
7.8336e-08 1.95367e-05 1.79807e-21
-4.83199e-05 -3.68736e-05 -6.75086e-21
1.14109e-05 -1.71503e-05 -3.27933e-21
1.17187e-05 1.24495e-05 -1.16299e-20
-2.13917e-05 -3.39164e-06 4.34148e-21
-1.40276e-05 1.71809e-05 8.58017e-21
-1.88653e-05 9.15659e-06 1.91852e-20
4.75814e-05 3.36497e-05 -3.50474e-21
1.57871e-05 7.05289e-06 -8.77131e-21
-5.55965e-06 2.00056e-05 1.86037e-21
-1.69574e-05 -1.17349e-05 -1.55372e-21
1.8539e-06 -2.05177e-05 -2.44298e-20
-8.9385e-06 -1.92436e-05 1.78291e-21
-1.7228e-05 -1.17592e-05 -1.01869e-20
1.05664e-05 -1.89122e-05 -2.36742e-21
1.41049e-05 -1.69681e-05 3.51972e-22
-2.4363e-06 -6.13589e-05 -8.12966e-21
2.61471e-05 -4.10729e-05 -5.75846e-21
1.74541e-06 -2.07599e-05 -8.89364e-21
1.79365e-05 1.13413e-05 -8.63216e-21
-1.44586e-05 -1.48871e-05 -3.17352e-21
-9.82877e-06 1.96859e-05 2.56569e-21
-5.03297e-06 2.09809e-05 -6.26565e-21
1.66067e-05 1.4226e-05 -7.50227e-21
6.05146e-06 -1.9837e-05 -5.36723e-21
-1.33886e-05 -4.03074e-05 -6.1747e-21
-1.986e-06 2.50106e-05 -2.56022e-21
1.47735e-05 1.44371e-05 -1.11972e-20
-1.29426e-05 -1.02046e-05 -1.85659e-21
-1.34986e-05 1.05956e-05 1.41874e-20
4.42859e-05 -1.88884e-05 5.33599e-21
7.55368e-06 -1.33836e-05 -1.32621e-21
-8.30694e-06 -1.26116e-05 6.80028e-21
2.13045e-05 6.35602e-06 -3.50649e-20
1.09787e-05 -5.06056e-05 -2.96307e-20
-3.84105e-05 -3.48613e-05 -4.07939e-21
2.32787e-05 6.19979e-06 -2.18888e-22
-9.31662e-06 -1.82588e-05 -3.72892e-21
1.86826e-05 9.47124e-06 -8.64959e-21
-2.85279e-05 -3.25112e-05 -7.97853e-21
9.67559e-06 4.99896e-05 1.03761e-20
3.42789e-05 -5.97876e-05 -2.73443e-20
-3.47024e-05 -5.96927e-05 -1.38047e-21
2.77741e-05 -5.1954e-05 -4.70314e-21
-1.26825e-05 4.35821e-05 -5.90262e-21
-6.26759e-06 3.89319e-05 1.55763e-20
-1.8708e-05 8.93522e-06 1.68538e-20
5.97032e-06 2.42133e-05 1.66313e-20
-2.38847e-06 1.26386e-05 5.84654e-21
1.01076e-05 3.22928e-06 -1.07927e-20
-3.18484e-06 1.61859e-05 1.59237e-21
-2.47116e-07 2.09666e-05 8.53135e-21
1.66401e-05 9.73868e-06 4.16766e-23
1.70967e-06 5.76501e-05 5.94581e-21
-1.46993e-05 1.07195e-05 1.76259e-20
1.59299e-05 -6.23881e-06 -1.47276e-20
1.68513e-05 -4.5033e-06 -1.86534e-20
-6.05867e-05 -8.75857e-06 2.8452e-21
-3.45649e-05 1.6722e-05 4.86625e-21
-4.34589e-05 -5.24805e-05 -2.54234e-21
8.6463e-06 8.33544e-06 1.67756e-20
1.41924e-05 7.28376e-06 -7.82575e-21
2.67712e-05 -4.19064e-06 -1.43736e-20
-8.09442e-06 -1.32267e-05 -7.79194e-21
1.71953e-05 8.41843e-06 -2.25948e-23
7.32685e-06 -2.9999e-05 -2.29597e-20
-1.36971e-05 1.01925e-05 9.9376e-21
-2.23478e-05 -2.13971e-05 -1.75992e-20
-5.82863e-06 1.62778e-05 -1.77366e-21
-3.26724e-06 2.06537e-05 1.35972e-22
3.3809e-05 2.12711e-05 -1.02597e-20
3.60698e-05 -1.92597e-05 -2.59958e-20
-4.20181e-05 -1.16089e-05 4.14426e-21
7.62459e-06 7.67642e-06 -1.05092e-20
-4.05121e-06 0.000101228 -5.99505e-22
8.62581e-07 -0.000104331 -3.79653e-21
5.23869e-05 8.75295e-05 3.08181e-21
-1.908e-05 8.44766e-06 1.5152e-20
-2.63409e-05 5.64784e-05 -5.09331e-21
5.29649e-05 -8.45283e-05 -3.76333e-21
-1.1706e-05 -1.82599e-05 -5.08695e-21
7.78968e-05 6.74068e-05 2.21492e-21
2.39654e-05 -1.79549e-05 -2.9737e-20
-3.60255e-06 -2.97868e-05 -1.98368e-20
8.16703e-05 -6.57613e-05 7.72767e-22
-6.73617e-06 1.45005e-05 2.56691e-21
-5.37645e-05 -3.4781e-05 -2.05272e-21
-4.29561e-05 -9.30112e-05 7.57638e-21
-2.40805e-05 -5.77306e-05 -3.44546e-21
-4.39159e-05 9.40161e-05 -4.22187e-21
-1.00793e-05 6.40017e-05 -1.94525e-21
1.5614e-05 3.70638e-05 1.50583e-20
-2.79192e-05 3.71943e-05 3.68345e-21
-2.52389e-05 -5.5114e-05 -1.13947e-20
0.000100232 1.72938e-05 1.7241e-21
-1.69069e-05 1.07539e-05 1.56864e-20
-5.90542e-06 1.63132e-05 -5.46075e-21
-5.0694e-05 3.75936e-05 -1.1484e-20
-1.72552e-05 9.93214e-06 2.0328e-20
9.90705e-05 -1.52427e-05 7.06752e-21
-1.53415e-05 7.78917e-06 9.99884e-21
7.1837e-06 -1.44769e-05 -2.5096e-21
-7.7867e-05 -6.08709e-05 -3.26857e-21
-2.58443e-05 5.76433e-05 7.46786e-21
-7.90173e-05 6.02988e-05 -9.74325e-21
2.45098e-05 5.1882e-05 3.17746e-21
-1.47495e-05 1.05695e-05 2.3625e-20
-2.05052e-05 2.44476e-05 1.2549e-20
-2.84899e-05 4.97633e-05 1.48287e-20
-5.67082e-05 2.16213e-07 4.19731e-21
-9.43068e-07 1.62762e-05 -1.00484e-21
-2.88043e-05 -5.03516e-05 -2.92089e-20
-5.81282e-05 -2.31668e-07 6.69463e-21
-2.83224e-05 4.86346e-05 -1.27992e-20
-1.517e-05 6.61841e-05 1.85009e-20
-1.78409e-05 4.12085e-05 6.66022e-21
-3.38603e-05 2.71054e-05 -5.1209e-21
2.43533e-05 -6.04935e-06 -1.7976e-20
3.79568e-05 -2.19236e-06 -3.30785e-20
1.34656e-05 8.19033e-06 -4.69133e-21
-1.04549e-05 -7.38934e-05 -2.80296e-20
-6.93602e-05 -2.79395e-05 8.99482e-22
3.70874e-05 7.31673e-07 -8.4289e-21
5.82899e-05 -1.08775e-05 -3.92451e-22
-1.05706e-05 -1.34805e-05 -6.30426e-22
-5.07622e-05 3.75799e-05 -5.59778e-21
-4.60736e-05 5.3932e-05 -4.64751e-21
6.22815e-05 -2.22031e-05 3.26053e-21
-2.81445e-05 -5.04406e-05 -1.56806e-20
-2.87436e-05 4.97235e-05 1.27538e-20
-5.71888e-05 -1.16926e-06 2.51211e-20
-2.65431e-05 5.05393e-05 -4.28433e-21
-5.78878e-05 -8.173e-07 4.49912e-21
6.59942e-05 1.73639e-05 -1.73695e-20
5.63145e-05 1.29055e-06 -4.18197e-20
5.08382e-05 -2.92423e-05 -2.57367e-20
2.48915e-05 -5.93401e-05 -5.7668e-21
2.98855e-05 -4.88001e-05 -1.54268e-20
2.91347e-05 4.86241e-05 -1.13796e-20
2.43267e-05 5.80044e-05 -9.78508e-21
7.5713e-05 -2.00131e-05 7.40874e-21
4.62091e-05 2.90351e-05 -2.39834e-21
4.65694e-05 1.37304e-05 -2.49353e-21
TENSORS solid_stress_TPM float
374.554 -24.8968 -1.32161e-12
-24.8968 238.277 -5.28999e-12
-1.32161e-12 -5.28999e-12 197.551

456.298 -21.2713 2.02786e-12
-21.2713 489.206 -1.33168e-12
2.02786e-12 -1.33168e-12 486.331

454.172 27.9804 1.03088e-12
27.9804 462.982 -2.915e-12
1.03088e-12 -2.915e-12 457.738

454.328 -29.7724 -1.71655e-12
-29.7724 481.846 -1.19845e-12
-1.71655e-12 -1.19845e-12 484.083

526.82 19.8852 -1.22657e-12
19.8852 547.535 5.8827e-13
-1.22657e-12 5.8827e-13 526.49

436.644 -18.0341 -2.05436e-12
-18.0341 479.575 1.54721e-12
-2.05436e-12 1.54721e-12 457.32

371.851 26.4584 -1.71004e-12
26.4584 238.796 3.62732e-12
-1.71004e-12 3.62732e-12 197.536

472.904 29.8893 -9.37324e-13
29.8893 468.764 -5.5896e-13
-9.37324e-13 -5.5896e-13 471.588

470.803 5.47082 -4.34971e-12
5.47082 417.195 -1.0086e-12
-4.34971e-12 -1.0086e-12 432.126

503.443 -7.46008 2.20061e-12
-7.46008 443.436 -4.23809e-13
2.20061e-12 -4.23809e-13 482.68

359.789 16.2778 -2.62427e-12
16.2778 247.334 2.32584e-12
-2.62427e-12 2.32584e-12 233.321

444.101 -13.4229 -7.14688e-13
-13.4229 497.581 1.43352e-12
-7.14688e-13 1.43352e-12 471.49

466.134 27.7701 2.76342e-12
27.7701 467.567 -8.14164e-13
2.76342e-12 -8.14164e-13 465.996

456.328 -14.3076 1.71103e-12
-14.3076 499.626 3.78364e-13
1.71103e-12 3.78364e-13 482.685

512.102 33.2313 -2.94224e-12
33.2313 510.765 -8.10805e-13
-2.94224e-12 -8.10805e-13 514.384

488.389 0.559776 8.44954e-13
0.559776 434.861 1.77895e-12
8.44954e-13 1.77895e-12 461.543

456.876 -17.9265 1.69419e-12
-17.9265 512.049 -1.4948e-12
1.69419e-12 -1.4948e-12 492.802

493.164 -2.65888 7.81301e-13
-2.65888 438.38 7.98842e-13
7.81301e-13 7.98842e-13 473.51

418.161 26.6152 4.45333e-12
26.6152 448.96 -6.89226e-13
4.45333e-12 -6.89226e-13 423.4

481.212 -4.18625 -2.24295e-12
-4.18625 424.28 -8.53317e-13
-2.24295e-12 -8.53317e-13 452.763

424.654 8.6499 4.36244e-12
8.6499 481.134 1.98834e-12
4.36244e-12 1.98834e-12 444.147

633.011 6.27062 -1.17284e-11
6.27062 632.852 -2.39779e-12
-1.17284e-11 -2.39779e-12 569.364

478.39 1.87174 3.11987e-12
1.87174 422.303 -1.78294e-12
3.11987e-12 -1.78294e-12 449.028

446.472 -27.6532 1.04775e-12
-27.6532 460.428 -5.98632e-12
1.04775e-12 -5.98632e-12 452.237

480.282 6.8339 3.73568e-12
6.8339 424.798 -2.91915e-12
3.73568e-12 -2.91915e-12 452.228

449.065 19.0691 -2.4077e-13
19.0691 489.532 -4.69165e-12
-2.4077e-13 -4.69165e-12 477.444

377.122 4.1734 3.64982e-12
4.1734 291.266 -7.07671e-12
3.64982e-12 -7.07671e-12 258.64

461.959 30.6763 2.38506e-12
30.6763 459.993 -2.1189e-12
2.38506e-12 -2.1189e-12 459.819

384.375 36.9989 2.05465e-12
36.9989 382.956 -2.78533e-12
2.05465e-12 -2.78533e-12 347.906

585.934 10.2998 6.84312e-12
10.2998 562.502 -1.35669e-12
6.84312e-12 -1.35669e-12 545.965

490.898 14.184 4.18391e-12
14.184 441.82 -3.48595e-12
4.18391e-12 -3.48595e-12 465.119

352.355 -17.744 -3.79992e-12
-17.744 416.093 -1.64964e-12
-3.79992e-12 -1.64964e-12 348.077

330.565 -42.0322 1.0445e-12
-42.0322 335.413 1.03029e-12
1.0445e-12 1.03029e-12 253.129

530.532 5.97138 6.47246e-12
5.97138 585.88 2.61953e-12
6.47246e-12 2.61953e-12 537.691

553.093 -4.82703 -9.00613e-13
-4.82703 581.075 -2.4869e-13
-9.00613e-13 -2.4869e-13 541.613

576.998 20.9785 -4.86426e-13
20.9785 539.05 -1.69198e-12
-4.86426e-13 -1.69198e-12 537.459

555.251 5.05395 6.26684e-12
5.05395 599.634 1.23338e-12
6.26684e-12 1.23338e-12 547.059

572.796 -9.14994 -3.81325e-13
-9.14994 554.832 3.05853e-12
-3.81325e-13 3.05853e-12 539.743

466.393 -27.9348 -1.86577e-12
-27.9348 465.76 -4.27273e-12
-1.86577e-12 -4.27273e-12 464.372

329.95 41.4522 -8.28967e-13
41.4522 337.508 -1.58214e-12
-8.28967e-13 -1.58214e-12 253.486

413.9 -17.9129 1.84031e-12
-17.9129 353.984 -3.85233e-12
1.84031e-12 -3.85233e-12 345.812

558.365 -3.69591 -3.00352e-13
-3.69591 598.885 6.53551e-13
-3.00352e-13 6.53551e-13 547.473

585.407 19.5076 -4.46139e-12
19.5076 571.481 2.0659e-12
-4.46139e-12 2.0659e-12 547.262

490.105 -12.2448 1.4803e-14
-12.2448 442.174 -1.17402e-12
1.4803e-14 -1.17402e-12 465.79

341.227 -43.2187 -2.9227e-12
-43.2187 344.848 6.37594e-12
-2.9227e-12 6.37594e-12 288.565

416.919 -18.0272 2.20268e-12
-18.0272 356.597 2.74447e-12
2.20268e-12 2.74447e-12 350.976

412.387 17.048 7.39897e-12
17.048 464.042 2.58993e-12
7.39897e-12 2.58993e-12 428.056

428.968 19.2966 -8.58572e-14
19.2966 465.77 6.00113e-12
-8.58572e-14 6.00113e-12 436.394

485.992 -16.264 3.29988e-12
-16.264 432.208 5.27178e-12
3.29988e-12 5.27178e-12 457.947

355.065 -34.1172 2.93691e-13
-34.1172 388.818 4.36392e-12
2.93691e-13 4.36392e-12 332.076

409.627 19.1435 5.92119e-14
19.1435 350.197 8.50875e-13
5.92119e-14 8.50875e-13 338.973

424.545 -25.2346 -6.04672e-12
-25.2346 383.251 1.74675e-13
-6.04672e-12 1.74675e-13 372.512

519.06 19.4382 -6.59472e-13
19.4382 546.609 -1.27158e-12
-6.59472e-13 -1.27158e-12 524.86

415.774 29.5875 4.78314e-12
29.5875 393.297 8.28966e-15
4.78314e-12 8.28966e-15 373.375

521.314 -21.7623 6.58732e-13
-21.7623 540.485 1.99833e-12
6.58732e-13 1.99833e-12 523.509

363.551 -42.6351 -1.76451e-12
-42.6351 342.794 -6.17462e-12
-1.76451e-12 -6.17462e-12 289.282

552.516 5.44453 7.64426e-13
5.44453 582.864 2.91619e-13
7.64426e-13 2.91619e-13 541.987

373.169 -5.31969 -5.02679e-12
-5.31969 435.983 2.07715e-12
-5.02679e-12 2.07715e-12 373.259

579.817 10.3609 2.70954e-12
10.3609 555.232 -6.86344e-12
2.70954e-12 -6.86344e-12 541.744

434.385 21.3651 4.84057e-13
21.3651 473.003 6.00409e-13
4.84057e-13 6.00409e-13 453.95

512.727 5.74188 -3.30832e-12
5.74188 452.103 4.5682e-12
-3.30832e-12 4.5682e-12 494.061

521.596 11.4324 -4.8832e-12
11.4324 487.078 -1.48059e-12
-4.8832e-12 -1.48059e-12 506.249

383.167 31.7712 -3.19034e-12
31.7712 314.765 -8.17124e-14
-3.19034e-12 -8.17124e-14 269.489

481.317 -6.02215 -7.81597e-14
-6.02215 527.304 -3.32179e-13
-7.81597e-14 -3.32179e-13 503.277

486.315 9.49851 -2.15694e-12
9.49851 522.825 5.70566e-12
-2.15694e-12 5.70566e-12 506.666

455.745 -2.87497 -1.88338e-12
-2.87497 519.296 -3.30994e-13
-1.88338e-12 -3.30994e-13 487.018

463.724 23.3464 -1.22706e-12
23.3464 502.651 2.85105e-12
-1.22706e-12 2.85105e-12 494.636

495.942 8.44439 -1.5327e-12
8.44439 443.712 -1.17417e-12
-1.5327e-12 -1.17417e-12 476.932

444.814 -28.176 -1.98893e-12
-28.176 458.804 1.51701e-12
-1.98893e-12 1.51701e-12 450.455

500.867 -1.70767 9.28591e-13
-1.70767 444.233 -4.20034e-13
9.28591e-13 -4.20034e-13 488.279

518.674 -19.2147 -4.82429e-13
-19.2147 545.904 -1.06197e-12
-4.82429e-13 -1.06197e-12 524.594

522.44 21.2586 -1.82461e-12
21.2586 542.006 -4.07355e-12
-1.82461e-12 -4.07355e-12 524.396

352.904 -16.5492 4.38375e-12
-16.5492 415.104 -6.13435e-13
4.38375e-12 -6.13435e-13 345.6

505.194 -27.8716 2.72552e-12
-27.8716 484.53 -2.97747e-12
2.72552e-12 -2.97747e-12 493.078

449.02 -25.078 -1.3222e-12
-25.078 470.472 1.68399e-12
-1.3222e-12 1.68399e-12 457.851

357.366 -31.6568 -2.61717e-12
-31.6568 285.294 1.6603e-12
-2.61717e-12 1.6603e-12 249.507

497.691 3.21567 4.65613e-12
3.21567 540.499 4.34023e-13
4.65613e-12 4.34023e-13 512.799

500.908 28.8773 1.09483e-12
28.8773 473.796 1.59014e-12
1.09483e-12 1.59014e-12 486.87

447.75 19.6191 2.72582e-12
19.6191 491.313 4.09154e-13
2.72582e-12 4.09154e-13 476.877

439.507 7.98248 9.73444e-13
7.98248 372.495 -2.2542e-12
9.73444e-13 -2.2542e-12 382.356

385.883 -33.8719 4.59011e-12
-33.8719 359.691 4.60195e-12
4.59011e-12 4.60195e-12 318.971

536.82 -10.5625 1.83646e-12
-10.5625 555.201 -1.811e-12
1.83646e-12 -1.811e-12 530.369

481.888 23.8449 2.52687e-12
23.8449 503.737 -2.15736e-12
2.52687e-12 -2.15736e-12 501.225

384.803 -32.3211 -2.62072e-12
-32.3211 344.816 -9.0156e-12
-2.62072e-12 -9.0156e-12 316.62

421.557 10.7687 2.11742e-12
10.7687 363.326 1.77532e-12
2.11742e-12 1.77532e-12 349.734

307.232 -21.1669 3.49557e-12
-21.1669 387.875 -4.45273e-12
3.49557e-12 -4.45273e-12 287.704

433.779 14.3929 3.85654e-12
14.3929 487.88 -2.60532e-14
3.85654e-12 -2.60532e-14 460.153

508.886 23.0906 -1.29792e-12
23.0906 474.417 -6.38571e-12
-1.29792e-12 -6.38571e-12 489.154

337.764 42.1204 -5.26275e-12
42.1204 349.074 -6.51331e-14
-5.26275e-12 -6.51331e-14 288.538

633.095 16.4675 1.80345e-12
16.4675 602.026 1.30015e-12
1.80345e-12 1.30015e-12 564.377

372.348 -4.10062 9.56568e-13
-4.10062 436.142 6.38304e-13
9.56568e-13 6.38304e-13 372.867

635.993 -16.5926 7.70569e-12
-16.5926 598.504 -8.49794e-12
7.70569e-12 -8.49794e-12 563.885

533.049 -27.2709 1.65912e-12
-27.2709 506.413 -1.07351e-12
1.65912e-12 -1.07351e-12 514.868

504.471 27.3609 -4.63866e-12
27.3609 465.599 2.61717e-12
-4.63866e-12 2.61717e-12 484.29

426.272 -24.3588 -9.72259e-13
-24.3588 385.67 2.75543e-12
-9.72259e-13 2.75543e-12 375.414

358.42 31.2601 7.27122e-13
31.2601 395.413 2.10439e-12
7.27122e-13 2.10439e-12 338.702

339.348 -10.6857 -6.90411e-13
-10.6857 407.786 -8.44835e-12
-6.90411e-13 -8.44835e-12 318.643

452.404 21.92 1.34988e-12
21.92 493.881 -4.73399e-13
1.34988e-12 -4.73399e-13 482.393

532.228 16.756 -2.28588e-12
16.756 505.374 4.36332e-12
-2.28588e-12 4.36332e-12 512.512

442.77 15.1202 1.08062e-13
15.1202 487.655 -2.224e-12
1.08062e-13 -2.224e-12 463.546

450.775 15.9187 3.0802e-12
15.9187 399.94 -5.30983e-12
3.0802e-12 -5.30983e-12 403.131

373.945 -21.43 -4.40122e-12
-21.43 419.231 -4.10338e-12
-4.40122e-12 -4.10338e-12 356.667

389.15 -29.3338 -1.28608e-12
-29.3338 341.885 -7.06694e-12
-1.28608e-12 -7.06694e-12 313.936

454.26 -24.5169 -1.79886e-12
-24.5169 479.301 -2.91619e-13
-1.79886e-12 -2.91619e-13 477.606

465.693 27.3884 2.0209e-12
27.3884 477.981 -4.35059e-12
2.0209e-12 -4.35059e-12 479.041

451.519 23.134 -1.00216e-12
23.134 491.767 -5.4848e-12
-1.00216e-12 -5.4848e-12 481.271

465.565 13.1378 -8.00785e-13
13.1378 528.897 3.96897e-12
-8.00785e-13 3.96897e-12 500.568

490.072 9.35065 6.1231e-12
9.35065 437.219 -5.12035e-13
6.1231e-12 -5.12035e-13 461.324

327.258 -4.65739 8.38736e-13
-4.65739 402.782 4.03588e-12
8.38736e-13 4.03588e-12 313.957

461.86 -36.7455 -3.63295e-12
-36.7455 486.911 4.61853e-13
-3.63295e-12 4.61853e-13 491.953

445.159 27.4036 -5.84451e-12
27.4036 462.541 -4.49004e-12
-5.84451e-12 -4.49004e-12 454.298

305.256 2.1675 -1.13513e-11
2.1675 392.779 -6.30725e-12
-1.13513e-11 -6.30725e-12 296.83

385.433 34.544 -1.55372e-12
34.544 331.981 -9.98313e-13
-1.55372e-12 -9.98313e-13 305.804

452.648 -22.9217 3.01403e-12
-22.9217 479.306 1.08476e-12
3.01403e-12 1.08476e-12 475.413

500.582 5.71942 -2.23673e-12
5.71942 440.643 -3.09012e-13
-2.23673e-12 -3.09012e-13 480.24

421.739 27.1465 -7.38964e-13
27.1465 389.192 4.42905e-12
-7.38964e-13 4.42905e-12 373.674

569.574 12.7151 -3.90502e-13
12.7151 564.956 -2.06265e-12
-3.90502e-13 -2.06265e-12 542.015

395.595 24.2834 -8.95284e-13
24.2834 349.153 -2.55973e-12
-8.95284e-13 -2.55973e-12 318.582

568.2 -13.0239 -2.87266e-12
-13.0239 564.868 4.51668e-12
-2.87266e-12 4.51668e-12 541.472

374.548 0.777933 -2.44456e-12
0.777933 438.193 3.82154e-12
-2.44456e-12 3.82154e-12 374.08

460.743 -2.2301 -1.4353e-12
-2.2301 398.711 5.11965e-12
-1.4353e-12 5.11965e-12 416.64

537.298 -15.7299 -4.50854e-12
-15.7299 479.871 7.8663e-13
-4.50854e-12 7.8663e-13 512.638

456.536 24.3315 -6.93737e-13
24.3315 487.006 -1.57948e-12
-6.93737e-13 -1.57948e-12 487.569

460.539 -13.5037 8.08909e-13
-13.5037 518.282 -1.29615e-12
8.08909e-13 -1.29615e-12 494.913

514.126 -7.98095 -2.45063e-12
-7.98095 437.531 2.32777e-12
-2.45063e-12 2.32777e-12 493.479

487.535 -22.2296 2.18788e-13
-22.2296 540.697 -6.02303e-12
2.18788e-13 -6.02303e-12 514.905

555.115 -6.5836 1.56023e-12
-6.5836 559.447 -1.83261e-13
1.56023e-12 -1.83261e-13 537.836

463.142 -29.8384 1.4578e-12
-29.8384 482.427 5.25209e-13
1.4578e-12 5.25209e-13 482.825

341.228 11.4326 5.03479e-12
11.4326 405.592 5.31249e-12
5.03479e-12 5.31249e-12 319.02

421.838 -28.0879 -4.12944e-12
-28.0879 390.665 8.71007e-12
-4.12944e-12 8.71007e-12 374.585

506.557 -13.7384 -2.06894e-12
-13.7384 557.804 -5.77375e-12
-2.06894e-12 -5.77375e-12 524.386

500.247 0.504063 -3.0805e-13
0.504063 440.609 -1.81558e-13
-3.0805e-13 -1.81558e-13 486.305

476.187 -21.4737 2.4265e-12
-21.4737 506.599 -2.27522e-12
2.4265e-12 -2.27522e-12 500.691

458.385 25.6386 1.92424e-12
25.6386 483.829 7.86038e-14
1.92424e-12 7.86038e-14 487.198

393.846 -31.4011 -2.69414e-12
-31.4011 400.004 4.51076e-12
-2.69414e-12 4.51076e-12 356.992

551.199 -7.06612 -5.51514e-12
-7.06612 584.292 2.15561e-12
-5.51514e-12 2.15561e-12 541.703

346.721 -33.0167 6.14619e-12
-33.0167 382.055 -6.10593e-12
6.14619e-12 -6.10593e-12 303

490.081 -19.1362 3.01507e-12
-19.1362 447.694 4.88498e-13
3.01507e-12 4.88498e-13 466.383

518.855 1.96736 2.30904e-12
1.96736 466.084 2.20624e-12
2.30904e-12 2.20624e-12 502.015

569.592 17.8327 3.63472e-12
17.8327 565.518 -2.75335e-14
3.63472e-12 -2.75335e-14 541.475

374.746 20.1425 -1.90544e-12
20.1425 423.388 -1.42109e-13
-1.90544e-12 -1.42109e-13 359.687

488.296 27.1487 -4.05601e-12
27.1487 467.802 2.11949e-12
-4.05601e-12 2.11949e-12 475.877

453.668 -24.4571 2.3365e-12
-24.4571 414.716 -1.72188e-12
2.3365e-12 -1.72188e-12 417.958

454.013 -17.7977 8.52707e-13
-17.7977 494.109 -1.81188e-13
8.52707e-13 -1.81188e-13 481.868

378.649 35.0031 -2.69059e-12
35.0031 365.506 -1.8936e-12
-2.69059e-12 -1.8936e-12 316.59

448.461 -21.7803 -1.6307e-12
-21.7803 490.914 1.95399e-12
-1.6307e-12 1.95399e-12 479.006

484.712 30.7796 -2.36966e-12
30.7796 464.403 -2.48542e-12
-2.36966e-12 -2.48542e-12 472.69

479.555 -25.1865 1.0741e-12
-25.1865 441.684 7.64722e-13
1.0741e-12 7.64722e-13 454.724

447.524 -25.0698 3.1705e-12
-25.0698 469.025 1.17476e-12
3.1705e-12 1.17476e-12 457.374

444.652 -18.648 -9.27258e-13
-18.648 392.879 2.54611e-13
-9.27258e-13 2.54611e-13 396.654

469.906 -18.8077 3.40528e-12
-18.8077 422.212 1.58925e-12
3.40528e-12 1.58925e-12 436.849

458.286 -25.2787 9.69447e-13
-25.2787 484.654 8.15644e-14
9.69447e-13 8.15644e-14 488.039

385.97 35.8961 4.07615e-12
35.8961 381.425 6.09054e-12
4.07615e-12 6.09054e-12 347.602

443.811 15.3423 4.41129e-13
15.3423 490.74 -2.97007e-12
4.41129e-13 -2.97007e-12 466.397

468.656 26.362 1.36839e-12
26.362 479.193 1.04657e-12
1.36839e-12 1.04657e-12 481.771

455.434 25.4142 2.12634e-12
25.4142 485.869 2.10646e-12
2.12634e-12 2.10646e-12 486.462

457.094 11.5956 -1.61605e-12
11.5956 506.113 1.69109e-12
-1.61605e-12 1.69109e-12 485.233

431.29 -8.20985 1.85807e-12
-8.20985 370.218 -2.46247e-12
1.85807e-12 -2.46247e-12 362.766

376.23 18.569 1.03206e-12
18.569 426.613 -3.8393e-12
1.03206e-12 -3.8393e-12 363.34

451.609 -24.325 -1.84031e-12
-24.325 477.623 -6.41857e-13
-1.84031e-12 -6.41857e-13 469.961

440.065 25.6092 -3.20869e-12
25.6092 454.926 4.29286e-13
-3.20869e-12 4.29286e-13 437.122

390.374 -35.5562 5.86198e-13
-35.5562 379.717 4.47642e-12
5.86198e-13 4.47642e-12 349.572

368.406 38.2428 1.3974e-13
38.2428 326.793 -4.81985e-13
1.3974e-13 -4.81985e-13 295.257

363.12 -33.2435 2.81493e-12
-33.2435 393.845 -6.03488e-12
2.81493e-12 -6.03488e-12 341.474

397.336 -31.0961 -5.07683e-12
-31.0961 403.587 -9.03692e-12
-5.07683e-12 -9.03692e-12 362.431

502.039 -6.82256 -8.71303e-13
-6.82256 441.573 -1.5831e-12
-8.71303e-13 -1.5831e-12 481.543

392.579 30.28 4.14246e-12
30.28 408.363 1.61648e-12
4.14246e-12 1.61648e-12 362.891

429.043 13.2673 -3.52192e-12
13.2673 371.705 -7.04622e-13
-3.52192e-12 -7.04622e-13 362.172

349.645 13.3509 3.46967e-12
13.3509 417.874 -6.16159e-12
3.46967e-12 -6.16159e-12 347.958

378.923 -22.2954 5.5298e-12
-22.2954 422.866 -1.36898e-12
5.5298e-12 -1.36898e-12 362.905

490.418 -1.08986 4.12411e-13
-1.08986 549.947 -1.80419e-12
4.12411e-13 -1.80419e-12 515.457

372.321 2.24278 -8.16976e-13
2.24278 437.108 -3.66285e-12
-8.16976e-13 -3.66285e-12 372.958

357.373 31.0262 -2.94638e-12
31.0262 398.885 1.60464e-12
-2.94638e-12 1.60464e-12 341.455

457.277 12.0804 -3.17206e-12
12.0804 509.724 1.62241e-13
-3.17206e-12 1.62241e-13 487.615

420.807 -27.5893 -1.87346e-12
-27.5893 388.495 1.34411e-12
-1.87346e-12 1.34411e-12 374.507

523.885 20.509 -3.2685e-13
20.509 469.008 -2.96208e-12
-3.2685e-13 -2.96208e-12 499.918

534.032 26.209 1.26299e-12
26.209 506.034 7.4459e-13
1.26299e-12 7.4459e-13 515.245

494.014 -18.5256 1.89064e-12
-18.5256 448.328 2.10469e-12
1.89064e-12 2.10469e-12 470.103

553.647 -1.79978 -7.03674e-12
-1.79978 515.176 -3.67114e-13
-7.03674e-12 -3.67114e-13 524.848

472.535 -31.7385 5.88862e-13
-31.7385 474.939 -4.45954e-12
5.88862e-13 -4.45954e-12 477.809

411.97 23.2802 -6.04198e-12
23.2802 356.684 -1.85452e-12
-6.04198e-12 -1.85452e-12 347.576

463.448 30.0919 1.30829e-12
30.0919 481.997 -3.01033e-12
1.30829e-12 -3.01033e-12 482.427

463.71 29.138 3.57936e-13
29.138 481.471 2.22696e-12
3.57936e-13 2.22696e-12 481.989

393.36 30.5987 3.43074e-12
30.5987 405.114 -2.04873e-13
3.43074e-12 -2.04873e-13 360.33

502.036 27.0227 -2.10202e-13
27.0227 481.891 7.75972e-13
-2.10202e-13 7.75972e-13 489.94

414.718 3.51812 -3.47811e-12
3.51812 338.538 2.0316e-12
-3.47811e-12 2.0316e-12 340.322

492.327 31.7427 1.6751e-12
31.7427 486.442 4.70142e-13
1.6751e-12 4.70142e-13 494.771

475.568 -12.5698 -3.04075e-12
-12.5698 521.588 -1.16174e-12
-3.04075e-12 -1.16174e-12 499.433

536.03 24.2207 3.03135e-12
24.2207 506.574 -1.27898e-13
3.03135e-12 -1.27898e-13 515.78

467.44 -29.51 6.16159e-12
-29.51 479.206 1.06581e-14
6.16159e-12 1.06581e-14 482.285

463.829 -4.88593 4.42498e-13
-4.88593 520.694 -8.89955e-13
4.42498e-13 -8.89955e-13 490.184

400.343 -24.5078 3.09323e-12
-24.5078 348.526 -4.36096e-12
3.09323e-12 -4.36096e-12 323.477

418.328 29.6315 1.022e-12
29.6315 391.882 1.73846e-12
1.022e-12 1.73846e-12 373.207

351.841 14.6663 -2.72182e-12
14.6663 416.576 6.46594e-13
-2.72182e-12 6.46594e-13 347.724

499.719 -1.13674 2.54522e-12
-1.13674 442.117 -5.48376e-13
2.54522e-12 -5.48376e-13 486.923

491.677 0.00213524 4.35207e-13
0.00213524 437.432 7.42924e-15
4.35207e-13 7.42924e-15 473.661

452.261 23.0713 -7.51695e-13
23.0713 478.942 2.73589e-12
-7.51695e-13 2.73589e-12 474.825

480.539 23.8163 -6.33271e-13
23.8163 502.056 -2.25825e-12
-6.33271e-13 -2.25825e-12 500.438

455.878 -24.3242 -9.56106e-13
-24.3242 486.573 1.73328e-12
-9.56106e-13 1.73328e-12 487.71

457.121 -0.672012 -3.50164e-13
-0.672012 517.089 2.56802e-12
-3.50164e-13 2.56802e-12 485.616

458.172 25.5316 -2.49549e-12
25.5316 485.691 1.04938e-12
-2.49549e-12 1.04938e-12 487.732

464.823 -10.285 1.5626e-12
-10.285 407.475 -3.38307e-12
1.5626e-12 -3.38307e-12 426.563

400.266 -32.7634 8.60941e-13
-32.7634 414.328 -1.82077e-12
8.60941e-13 -1.82077e-12 384.586

517.249 -2.2971 -3.54354e-12
-2.2971 465.013 -1.96465e-12
-3.54354e-12 -1.96465e-12 500.116

391.294 -34.4378 -3.67232e-12
-34.4378 379.051 1.75978e-12
-3.67232e-12 1.75978e-12 346.907

477.246 19.0414 1.55431e-14
19.0414 508.376 -2.73263e-12
1.55431e-14 -2.73263e-12 501.034

505.292 -26.4171 -2.5242e-12
-26.4171 469.508 3.37804e-12
-2.5242e-12 3.37804e-12 486.491

424.358 -9.66968 2.63848e-12
-9.66968 366.205 1.85348e-12
2.63848e-12 1.85348e-12 355.456

529.389 -23.1385 -4.15312e-12
-23.1385 487.978 -1.15463e-14
-4.15312e-12 -1.15463e-14 505.667

500.087 2.35304 -2.42325e-13
2.35304 443.902 -3.43732e-12
-2.42325e-13 -3.43732e-12 488.422

520.337 -23.2683 -8.941e-13
-23.2683 501.033 7.16316e-13
-8.941e-13 7.16316e-13 507.708

501.204 -25.7994 -2.76756e-12
-25.7994 460.773 -1.6002e-12
-2.76756e-12 -1.6002e-12 480.476

498.024 -8.52711 4.39648e-13
-8.52711 444.455 -1.91047e-12
4.39648e-13 -1.91047e-12 478.582

481.459 -23.0153 -2.70746e-12
-23.0153 504.176 2.22083e-12
-2.70746e-12 2.22083e-12 501.723

427.886 -31.2739 3.24955e-12
-31.2739 409.973 -7.3778e-13
3.24955e-12 -7.3778e-13 398.394

502.453 -24.5315 -1.40391e-12
-24.5315 463.988 2.81345e-12
-1.40391e-12 2.81345e-12 481.39

440.559 10.8411 5.13959e-13
10.8411 377.933 -4.22003e-12
5.13959e-13 -4.22003e-12 387.216

499.233 26.2798 2.99612e-12
26.2798 497.781 1.90233e-12
2.99612e-12 1.90233e-12 499.297

463.032 -37.5232 -3.75492e-12
-37.5232 487.613 -1.52937e-12
-3.75492e-12 -1.52937e-12 493.289

464.138 37.1764 1.58007e-12
37.1764 486.527 1.28734e-12
1.58007e-12 1.28734e-12 493.004

445.651 -28.5052 2.59829e-13
-28.5052 499.211 6.98108e-13
2.59829e-13 6.98108e-13 491.522

447.88 26.9998 2.18914e-12
26.9998 499.9 2.99375e-12
2.18914e-12 2.99375e-12 491.709

512.235 -8.50728 6.31939e-13
-8.50728 435.753 1.59517e-12
6.31939e-13 1.59517e-12 491.969

510.402 9.25143 -3.34355e-12
9.25143 437.346 -7.40149e-15
-3.34355e-12 -7.40149e-15 491.607

500.847 -9.82399 1.64727e-12
-9.82399 451.047 -2.99967e-12
1.64727e-12 -2.99967e-12 482.25

510.036 32.0392 -5.2065e-12
32.0392 509.564 -1.98527e-12
-5.2065e-12 -1.98527e-12 513.218

508.815 -32.7753 4.98771e-12
-32.7753 509.241 4.37204e-12
4.98771e-12 4.37204e-12 512.858

481.051 16.0303 -2.21719e-12
16.0303 538.235 -3.03106e-12
-2.21719e-12 -3.03106e-12 513.489

482.242 -15.7636 1.39888e-12
-15.7636 537.826 -1.09394e-12
1.39888e-12 -1.09394e-12 513.51

555.932 -3.74138 -1.6227e-12
-3.74138 506.014 1.39858e-12
-1.6227e-12 1.39858e-12 524.131

557.482 3.60443 3.30003e-12
3.60443 504.342 -1.24907e-12
3.30003e-12 -1.24907e-12 524.502

386.743 9.81551 1.82535e-12
9.81551 448.498 -4.86722e-13
1.82535e-12 -4.86722e-13 396.486

471.645 -24.7178 -1.61323e-12
-24.7178 479.992 1.86073e-12
-1.61323e-12 1.86073e-12 484.201

442.791 -36.3009 2.7139e-12
-36.3009 484.761 4.21781e-12
2.7139e-12 4.21781e-12 485.85

472.893 -4.6537 1.99307e-12
-4.6537 419.804 6.35233e-13
1.99307e-12 6.35233e-13 435.662

539.355 -16.6543 -2.13488e-12
-16.6543 483.427 -6.44818e-13
-2.13488e-12 -6.44818e-13 514.448

540.074 16.1365 -1.70382e-13
16.1365 484.648 1.39355e-12
-1.70382e-13 1.39355e-12 515.052

506.04 0.121609 -1.52974e-12
0.121609 422.928 -8.76106e-13
-1.52974e-12 -8.76106e-13 486.223

384.229 23.3255 -9.82029e-13
23.3255 431.633 -3.32534e-12
-9.82029e-13 -3.32534e-12 384.897

441.665 36.0854 9.96166e-13
36.0854 484.441 3.92664e-12
9.96166e-13 3.92664e-12 485.057

451.902 -23.3415 3.69186e-13
-23.3415 494.159 1.59043e-12
3.69186e-13 1.59043e-12 482.818

442.561 23.3025 1.59991e-12
23.3025 396.931 5.35868e-12
1.59991e-12 5.35868e-12 399.766

530.09 23.8031 2.31637e-12
23.8031 487.23 8.91731e-13
2.31637e-12 8.91731e-13 506.424

427.825 -31.2457 1.92557e-12
-31.2457 410.257 -2.60414e-12
1.92557e-12 -2.60414e-12 398.213

519.009 -3.225 -6.87746e-13
-3.225 468.326 2.93099e-13
-6.87746e-13 2.93099e-13 501.872

438.735 -34.08 3.01529e-12
-34.08 484.732 -2.80768e-12
3.01529e-12 -2.80768e-12 485.046

388.614 8.30173 -4.06625e-12
8.30173 451.622 1.65675e-12
-4.06625e-12 1.65675e-12 400.247

385.314 21.765 1.88383e-12
21.765 435.102 2.70717e-12
1.88383e-12 2.70717e-12 388.109

383.288 35.7097 -1.21029e-12
35.7097 361.817 -3.62022e-12
-1.21029e-12 -3.62022e-12 317.868

407.57 1.57524 3.6285e-12
1.57524 331.694 5.31234e-12
3.6285e-12 5.31234e-12 326.849

484.685 -22.7525 -8.73375e-13
-22.7525 502.045 5.15969e-12
-8.73375e-13 5.15969e-12 500.937

351.381 31.127 -1.14753e-12
31.127 388.267 7.43701e-13
-1.14753e-12 7.43701e-13 311.908

450.652 23.5565 9.74924e-13
23.5565 477.654 -2.10794e-13
9.74924e-13 -2.10794e-13 464.478

441.511 -5.33813 -7.92255e-12
-5.33813 376.579 -2.41259e-12
-7.92255e-12 -2.41259e-12 387.154

463.423 11.1912 -5.21065e-12
11.1912 406.692 -1.9084e-12
-5.21065e-12 -1.9084e-12 424.267

504.559 0.428868 1.25692e-12
0.428868 420.952 -2.56418e-12
1.25692e-12 -2.56418e-12 484.897

448.664 -28.9619 -2.7461e-12
-28.9619 501.186 -5.23137e-13
-2.7461e-12 -5.23137e-13 492.793

571.534 -6.30283 5.6289e-12
-6.30283 588.471 3.06362e-12
5.6289e-12 3.06362e-12 548.339

462.421 37.3224 -2.85313e-12
37.3224 486.251 -2.05972e-12
-2.85313e-12 -2.05972e-12 492.27

408.14 1.66068 1.02318e-12
1.66068 331.143 2.76823e-12
1.02318e-12 2.76823e-12 308.461

403.629 -32.717 -5.93303e-12
-32.717 414.88 -4.12352e-12
-5.93303e-12 -4.12352e-12 386.806

442.469 36.5258 3.23149e-13
36.5258 484.733 -2.63019e-12
3.23149e-13 -2.63019e-12 485.792

443.994 -11.1083 -3.24444e-13
-11.1083 498.128 1.41694e-12
-3.24444e-13 1.41694e-12 470.692

385.507 -25.4604 -3.97608e-13
-25.4604 428.243 -9.20153e-13
-3.97608e-13 -9.20153e-13 383.985

448.764 28.7613 -2.98916e-12
28.7613 500.82 -1.27542e-12
-2.98916e-12 -1.27542e-12 492.493

452.004 -26.0849 2.52598e-12
-26.0849 418.67 -1.7728e-12
2.52598e-12 -1.7728e-12 418.873

578.563 10.4597 -1.68754e-12
10.4597 581.164 -6.31273e-12
-1.68754e-12 -6.31273e-12 548.124

397.737 30.8062 -5.45934e-13
30.8062 421.416 -2.56506e-12
-5.45934e-13 -2.56506e-12 387.578

514.862 8.10739 2.43627e-12
8.10739 436.611 9.76996e-14
2.43627e-12 9.76996e-14 493.784

493.011 30.1205 1.4347e-12
30.1205 483.977 -7.38076e-13
1.4347e-12 -7.38076e-13 493.005

452.764 23.2788 -1.38896e-12
23.2788 478.403 -3.48255e-12
-1.38896e-12 -3.48255e-12 475.041

509.87 -32.4109 -2.97836e-13
-32.4109 511.618 4.03677e-13
-2.97836e-13 4.03677e-13 514.164

509.475 -23.1376 -5.24084e-12
-23.1376 472.434 -1.72603e-12
-5.24084e-12 -1.72603e-12 488.889

510.568 10.4446 1.8003e-12
10.4446 557.05 -2.09077e-12
1.8003e-12 -2.09077e-12 522.871

451.473 -23.3805 1.75652e-12
-23.3805 479.402 -7.89887e-13
1.75652e-12 -7.89887e-13 468.207

393.837 -9.68795 -1.08453e-11
-9.68795 315.982 2.69355e-12
-1.08453e-11 2.69355e-12 295.155

386.725 -14.2529 3.1406e-12
-14.2529 305.645 9.93576e-13
3.1406e-12 9.93576e-13 289.637

546.665 16.4923 6.10475e-13
16.4923 506.939 3.7564e-12
6.10475e-13 3.7564e-12 518.468

435.82 22.4517 -3.44317e-13
22.4517 468.396 -8.94692e-13
-3.44317e-13 -8.94692e-13 447.123

475.207 29.097 -2.72848e-12
29.097 466.908 4.358e-13
-2.72848e-12 4.358e-13 470.729

449.601 0.687109 -7.30675e-13
0.687109 392.198 4.97124e-12
-7.30675e-13 4.97124e-12 395.075

477.593 6.55496 2.12312e-12
6.55496 540.373 7.90479e-13
2.12312e-12 7.90479e-13 506.712

506.507 16.5018 -3.13231e-13
16.5018 460.417 2.29357e-12
-3.13231e-13 2.29357e-12 487.296

389.403 -25.7062 2.86822e-12
-25.7062 429.376 4.56761e-12
2.86822e-12 4.56761e-12 387.149

455.609 -2.56564 -8.12369e-13
-2.56564 516.165 1.85215e-12
-8.12369e-13 1.85215e-12 484.062

399.996 13.3371 -2.67993e-12
13.3371 452.279 1.44122e-12
-2.67993e-12 1.44122e-12 404.02

486.133 -29.6454 -2.19084e-12
-29.6454 465.081 -2.59703e-12
-2.19084e-12 -2.59703e-12 473.502

429.64 -29.8832 6.58436e-13
-29.8832 422.986 -5.36637e-12
6.58436e-13 -5.36637e-12 404.338

399.115 31.5555 6.20304e-12
31.5555 417.597 -3.97312e-13
6.20304e-12 -3.97312e-13 385.421

622.904 -14.9846 -3.50446e-12
-14.9846 580.955 1.00971e-12
-3.50446e-12 1.00971e-12 556.973

493.728 2.03737 -2.58393e-12
2.03737 551.214 -2.97481e-12
-2.58393e-12 -2.97481e-12 517.076

482.735 20.2508 9.53904e-13
20.2508 541.135 -5.02591e-12
9.53904e-13 -5.02591e-12 515.185

543.792 15.4022 1.07973e-12
15.4022 479.213 4.96847e-12
1.07973e-12 4.96847e-12 514.908

473 -26.1291 -1.89774e-13
-26.1291 478.994 -3.03431e-12
-1.89774e-13 -3.03431e-12 482.243

451.421 17.918 7.36478e-12
17.918 403.905 1.96199e-12
7.36478e-12 1.96199e-12 406.297

530.7 -5.28038 9.45734e-13
-5.28038 579.805 2.03837e-12
9.45734e-13 2.03837e-12 536.227

511.351 -18.9433 -9.61009e-13
-18.9433 464.067 -3.98881e-12
-9.61009e-13 -3.98881e-12 492.233

473.223 -15.5636 1.76984e-12
-15.5636 422.536 -2.27255e-12
1.76984e-12 -2.27255e-12 438.196

401.403 11.5788 5.07002e-12
11.5788 455.244 -1.62004e-12
5.07002e-12 -1.62004e-12 407.157

410.306 -25.6795 2.26604e-12
-25.6795 434.912 -3.54206e-12
2.26604e-12 -3.54206e-12 398.351

531.168 -25.2149 1.92202e-12
-25.2149 522.329 -6.7583e-12
1.92202e-12 -6.7583e-12 518.267

422.412 31.8903 5.63756e-12
31.8903 416.617 -3.47574e-13
5.63756e-12 -3.47574e-13 399.697

534.592 -25.0752 4.41958e-12
-25.0752 504.967 -5.76724e-13
4.41958e-12 -5.76724e-13 514.815

452.787 2.59174 1.02318e-12
2.59174 396.432 -1.8557e-12
1.02318e-12 -1.8557e-12 401.287

310.672 -28.8773 1.4649e-12
-28.8773 376.05 -2.49401e-12
1.4649e-12 -2.49401e-12 289.582

431.214 -29.168 -7.34227e-14
-29.168 423.404 -1.34944e-12
-7.34227e-14 -1.34944e-12 405.535

353.261 32.1001 -2.71901e-12
32.1001 391.973 -9.75812e-13
-2.71901e-12 -9.75812e-13 312.518

469.606 -11.8484 -1.72216e-12
-11.8484 528.674 5.83237e-13
-1.72216e-12 5.83237e-13 499.492

390.875 -13.7914 7.18388e-13
-13.7914 448.553 -1.72425e-12
7.18388e-13 -1.72425e-12 399.59

601.811 -23.9298 -4.73858e-12
-23.9298 601.222 3.14415e-12
-4.73858e-12 3.14415e-12 556.914

407.76 23.7203 -3.16192e-12
23.7203 441.257 5.3646e-13
-3.16192e-12 5.3646e-13 401.611

495.777 -32.6497 -1.97797e-12
-32.6497 489.853 2.36936e-12
-1.97797e-12 2.36936e-12 496.641

387.621 -11.9371 5.27874e-13
-11.9371 447.587 4.9513e-12
5.27874e-13 4.9513e-12 396.414

515.864 -19.0717 -6.69094e-14
-19.0717 465.025 -3.70666e-13
-6.69094e-14 -3.70666e-13 495.441

410.071 23.8264 3.06954e-12
23.8264 438.635 -2.69296e-12
3.06954e-12 -2.69296e-12 400.09

488.137 -4.964 -6.27646e-14
-4.964 434.408 1.61674e-12
-6.27646e-14 1.61674e-12 459.657

305.376 -30.2975 3.6664e-12
-30.2975 390.9 -3.69956e-12
3.6664e-12 -3.69956e-12 262.205

437.938 20.9668 -1.90366e-12
20.9668 473.162 2.23762e-12
-1.90366e-12 2.23762e-12 457.627

444.996 -19.2817 -4.1922e-13
-19.2817 393.397 4.53326e-12
-4.1922e-13 4.53326e-12 399.018

550.675 -21.3957 4.09154e-12
-21.3957 498.713 -3.97608e-13
4.09154e-12 -3.97608e-13 519.251

423.825 31.6854 -1.70649e-12
31.6854 412.701 -7.00891e-12
-1.70649e-12 -7.00891e-12 397.357

458.444 -29.9046 -2.53368e-12
-29.9046 436.967 -1.2097e-12
-2.53368e-12 -1.2097e-12 438.617

509.79 20.837 1.64195e-12
20.837 475.321 -1.87465e-12
1.64195e-12 -1.87465e-12 491.963

460.79 -28.0111 3.51038e-12
-28.0111 484.97 2.0548e-12
3.51038e-12 2.0548e-12 487.936

413.101 -26.1694 -1.95636e-12
-26.1694 435.577 4.05009e-13
-1.95636e-12 4.05009e-13 400.832

425.429 28.9186 2.23821e-12
28.9186 429.244 -1.90544e-12
2.23821e-12 -1.90544e-12 406.244

451.798 26.1335 -7.83492e-12
26.1335 417.599 -3.14474e-12
-7.83492e-12 -3.14474e-12 418.417

521.113 -14.5774 3.34251e-13
-14.5774 476.425 6.51212e-12
3.34251e-13 6.51212e-12 499.256

402.964 -16.5824 -5.77316e-13
-16.5824 451.042 1.16529e-12
-5.77316e-13 1.16529e-12 405.827

495.25 -17.5275 -2.13163e-12
-17.5275 446.92 -1.34811e-12
-2.13163e-12 -1.34811e-12 470.755

486.985 16.8703 1.10904e-12
16.8703 435.596 5.13071e-13
1.10904e-12 5.13071e-13 459.865

512.507 -9.36316 8.46101e-13
-9.36316 554.846 -1.78109e-12
8.46101e-13 -1.78109e-12 522.173

453.274 -13.4005 -3.34547e-12
-13.4005 401.585 -1.89552e-12
-3.34547e-12 -1.89552e-12 406.127

402.607 0.5934 1.36557e-12
0.5934 464.994 5.55408e-13
1.36557e-12 5.55408e-13 417.167

474.276 18.513 -3.70963e-12
18.513 428.123 3.20544e-12
-3.70963e-12 3.20544e-12 441.535

450.444 27.543 -3.16192e-12
27.543 421.203 -3.25369e-12
-3.16192e-12 -3.25369e-12 420.2

400.278 -15.6531 4.12944e-12
-15.6531 450.683 4.07378e-12
4.12944e-12 4.07378e-12 403.126

405.4 -1.19916 -2.18492e-12
-1.19916 467.298 8.1594e-13
-2.18492e-12 8.1594e-13 420.576

515.358 29.0664 5.31545e-12
29.0664 497.225 3.86417e-12
5.31545e-12 3.86417e-12 504.058

441.032 -10.8977 1.95651e-12
-10.8977 499.85 2.04873e-12
1.95651e-12 2.04873e-12 470.403

450.739 -26.6567 -4.63274e-12
-26.6567 418.138 -4.23247e-12
-4.63274e-12 -4.23247e-12 418.712

443.701 21.2865 -5.69618e-13
21.2865 394.718 3.49528e-12
-5.69618e-13 3.49528e-12 397.601

496.796 23.6106 7.56136e-13
23.6106 457.38 5.22249e-13
7.56136e-13 5.22249e-13 475.794

446.997 5.45914 -8.87068e-13
5.45914 507.965 1.83379e-12
-8.87068e-13 1.83379e-12 476.125

427.001 29.0031 -5.41611e-12
29.0031 425.79 -9.75812e-13
-5.41611e-12 -9.75812e-13 404.497

535.935 22.9104 -2.39808e-13
22.9104 531.018 -1.0744e-12
-2.39808e-13 -1.0744e-12 521.93

314.323 -59.5989 -1.62477e-12
-59.5989 282.4 -5.29828e-12
-1.62477e-12 -5.29828e-12 223.118

479.831 -24.9917 1.26121e-12
-24.9917 444.39 -1.83498e-12
1.26121e-12 -1.83498e-12 455.931

336.198 7.05796 7.99065e-13
7.05796 408.552 4.41247e-12
7.99065e-13 4.41247e-12 318.982

459.82 -28.8249 3.6741e-12
-28.8249 444.055 1.18424e-13
3.6741e-12 1.18424e-13 442.765

96.3073 -52.6362 -2.7498e-12
-52.6362 306.244 -1.04213e-12
-2.7498e-12 -1.04213e-12 113.548

95.8413 51.3881 -8.5502e-13
51.3881 306.507 2.78059e-12
-8.5502e-13 2.78059e-12 114.335

181.297 117.011 -2.4869e-13
117.011 225.802 -8.57388e-13
-2.4869e-13 -8.57388e-13 113.437

182.593 -116.954 9.40285e-13
-116.954 223.041 4.64221e-13
9.40285e-13 4.64221e-13 113.411

321.19 -1.3613 -8.76336e-13
-1.3613 84.5512 2.59954e-14
-8.76336e-13 2.59954e-14 114.776

274.096 -91.0131 1.85689e-12
-91.0131 127.263 -4.33431e-13
1.85689e-12 -4.33431e-13 113.65

274.791 91.54 -3.60008e-13
91.54 128.094 -1.7882e-12
-3.60008e-13 -1.7882e-12 114.419

524.377 14.2981 1.13835e-12
14.2981 473.967 4.50306e-13
1.13835e-12 4.50306e-13 501.503

555.862 25.4757 -2.64825e-12
25.4757 540.283 -1.90218e-12
-2.64825e-12 -1.90218e-12 532.572

491.306 6.59122 2.04873e-12
6.59122 438.454 -1.41672e-12
2.04873e-12 -1.41672e-12 470.657

469.559 21.7361 6.19356e-13
21.7361 423.878 -3.55627e-12
6.19356e-13 -3.55627e-12 437.516

409.367 17.7055 -1.23102e-12
17.7055 460.352 4.96906e-12
-1.23102e-12 4.96906e-12 424.391

447.318 28.8352 -1.33937e-12
28.8352 424.065 -1.92912e-12
-1.33937e-12 -1.92912e-12 420.107

486.372 -29.5958 4.70735e-12
-29.5958 464.901 3.28715e-12
4.70735e-12 3.28715e-12 473.837

448.672 27.9667 -6.21725e-12
27.9667 420.439 -6.22317e-12
-6.21725e-12 -6.22317e-12 418.003

402.37 -2.83572 -3.43074e-12
-2.83572 464.651 4.36984e-13
-3.43074e-12 4.36984e-13 416.904

554.871 -26.0354 5.88507e-12
-26.0354 542.471 2.44782e-12
5.88507e-12 2.44782e-12 532.815

404.903 -4.85254 -9.14972e-13
-4.85254 466.385 4.09391e-12
-9.14972e-13 4.09391e-12 419.957

521.437 22.9638 4.79261e-12
22.9638 498.94 1.18187e-12
4.79261e-12 1.18187e-12 507.146

422.74 26.8138 2.45493e-12
26.8138 385.943 1.68103e-12
2.45493e-12 1.68103e-12 372.474

479.356 -13.1854 8.70415e-14
-13.1854 531.889 -5.14581e-12
8.70415e-14 -5.14581e-12 511.169

483.428 13.6969 2.53368e-12
13.6969 432.121 2.55085e-12
2.53368e-12 2.55085e-12 456.159

456.657 -29.9206 -3.06422e-12
-29.9206 436.31 -4.05986e-12
-3.06422e-12 -4.05986e-12 437.156

453.603 -24.6588 1.10963e-12
-24.6588 416.18 3.09501e-12
1.10963e-12 3.09501e-12 419.212

546.49 -16.0387 5.55822e-12
-16.0387 508.482 9.02981e-14
5.55822e-12 9.02981e-14 518.536

475.221 27.8657 6.1758e-13
27.8657 449.013 4.02049e-13
6.1758e-13 4.02049e-13 456.21

468.363 23.924 -2.21334e-12
23.924 427.203 -1.65971e-12
-2.21334e-12 -1.65971e-12 439.149

431.775 -2.78611 -1.24678e-12
-2.78611 492.845 -2.79717e-12
-1.24678e-12 -2.79717e-12 456.391

416.984 5.85992 -3.87081e-12
5.85992 478.796 -4.59484e-13
-3.87081e-12 -4.59484e-13 439.495

462.286 2.64082 3.381e-13
2.64082 401.688 5.32815e-12
3.381e-13 5.32815e-12 421.675

437.974 -7.27409 -5.28999e-12
-7.27409 373.378 -1.70071e-12
-5.28999e-12 -1.70071e-12 380.65

454.137 30.4167 -1.58688e-13
30.4167 438.344 7.90301e-12
-1.58688e-13 7.90301e-12 437.159

477.707 -26.0967 2.14347e-13
-26.0967 442.864 -5.92504e-12
2.14347e-13 -5.92504e-12 453.935

524.839 -21.2051 1.29496e-12
-21.2051 497.03 8.41993e-13
1.29496e-12 8.41993e-13 507.794

437.063 -31.5638 -2.39453e-12
-31.5638 436.986 3.49765e-12
-2.39453e-12 3.49765e-12 426.204

416.964 -27.7247 2.78296e-12
-27.7247 443.712 -2.68585e-12
2.78296e-12 -2.68585e-12 419.047

429.993 29.8214 4.23661e-12
29.8214 442.064 2.31282e-12
4.23661e-12 2.31282e-12 425.843

415.605 -9.55652 8.12905e-13
-9.55652 474.46 -6.95148e-13
8.12905e-13 -6.95148e-13 435.781

428.249 -1.542 -8.92767e-13
-1.542 491.08 -3.80614e-12
-8.92767e-13 -3.80614e-12 453.285

444.501 5.73417 4.4655e-13
5.73417 507.219 9.65154e-13
4.4655e-13 9.65154e-13 474.161

414 -21.0429 1.22598e-12
-21.0429 457.693 2.44131e-12
1.22598e-12 2.44131e-12 425.412

496.07 24.0566 -6.29422e-13
24.0566 454.992 1.21148e-12
-6.29422e-13 1.21148e-12 473.84

482.605 -9.56815 6.49554e-13
-9.56815 429.463 -2.64085e-12
6.49554e-13 -2.64085e-12 454.509

415.014 7.44848 2.64309e-12
7.44848 476.365 -1.20733e-12
2.64309e-12 -1.20733e-12 436.238

443.276 -9.67866 -1.72716e-12
-9.67866 500.695 -4.61261e-13
-1.72716e-12 -4.61261e-13 470.263

432.518 -16.2942 2.12393e-12
-16.2942 480.912 1.98774e-12
2.12393e-12 1.98774e-12 454.956

462.814 -8.22119 -3.35731e-12
-8.22119 405.734 -7.588e-13
-3.35731e-12 -7.588e-13 420.827

493.643 -32.271 2.37055e-12
-32.271 486.842 -3.43843e-12
2.37055e-12 -3.43843e-12 495.453

422.31 9.30093 9.39249e-13
9.30093 478.332 1.49806e-13
9.39249e-13 1.49806e-13 440.297

563.404 -18.1706 -3.56692e-12
-18.1706 529.08 -3.85603e-12
-3.56692e-12 -3.85603e-12 530.957

308.63 24.7772 -9.82917e-13
24.7772 378.875 -2.95112e-12
-9.82917e-13 -2.95112e-12 289.388

500.892 -26.565 3.33274e-12
-26.565 498.686 2.34627e-13
3.33274e-12 2.34627e-13 500.391

514.81 -30.1322 -3.30935e-12
-30.1322 497.602 -3.4935e-12
-3.30935e-12 -3.4935e-12 504.102

428.576 -0.699052 -8.24304e-13
-0.699052 491.205 -5.05551e-12
-8.24304e-13 -5.05551e-12 453.435

474.133 -16.5851 -2.25716e-12
-16.5851 427.691 3.83367e-12
-2.25716e-12 3.83367e-12 441.272

461.587 12.812 -8.13997e-13
12.812 510.446 9.88839e-14
-8.13997e-13 9.88839e-14 488.339

240.469 -3.17159 -4.56265e-12
-3.17159 360.191 -2.6598e-12
-4.56265e-12 -2.6598e-12 226.655

431.75 14.2416 -2.52857e-12
14.2416 484.584 -2.67934e-12
-2.52857e-12 -2.67934e-12 456.167

457.399 -29.4239 -5.88921e-12
-29.4239 442.492 -8.4673e-14
-5.88921e-12 -8.4673e-14 440.08

303.786 25.0679 3.99976e-12
25.0679 394.043 -1.6982e-12
3.99976e-12 -1.6982e-12 263.976

602.508 26.0344 -1.34633e-12
26.0344 596.925 -1.57504e-13
-1.34633e-12 -1.57504e-13 557.229

607.23 -27.7393 -2.61361e-12
-27.7393 594.007 -5.88137e-12
-2.61361e-12 -5.88137e-12 557.363

462.77 -30.3504 1.94866e-12
-30.3504 458.325 9.99793e-13
1.94866e-12 9.99793e-13 458.353

433.922 -31.0916 -2.45493e-12
-31.0916 435.694 -1.22154e-12
-2.45493e-12 -1.22154e-12 424.012

473.355 20.7806 -4.52083e-12
20.7806 431.261 2.3368e-12
-4.52083e-12 2.3368e-12 443.285

464.493 14.9729 -3.06599e-12
14.9729 409.509 2.70125e-12
-3.06599e-12 2.70125e-12 426.807

644.929 3.07308 2.29772e-12
3.07308 644.586 1.38492e-11
2.29772e-12 1.38492e-11 573.66

648.74 -6.97951 -2.47861e-12
-6.97951 640.268 5.00089e-12
-2.47861e-12 5.00089e-12 574.187

496.193 4.81285 -4.20997e-13
4.81285 441.365 -9.61897e-13
-4.20997e-13 -9.61897e-13 476.657

442.882 6.71647 2.18107e-12
6.71647 502.178 -3.65041e-12
2.18107e-12 -3.65041e-12 470.306

441.298 6.72064 -8.41776e-13
6.72064 501.704 -3.06658e-12
-8.41776e-13 -3.06658e-12 469.032

321.109 58.5404 -3.59061e-12
58.5404 280.747 -2.72138e-12
-3.59061e-12 -2.72138e-12 224.769

419.597 -28.1382 -5.26394e-13
-28.1382 443.34 1.25056e-12
-5.26394e-13 1.25056e-12 420.389

519.728 17.932 4.2899e-13
17.932 466.804 3.40972e-12
4.2899e-13 3.40972e-12 498.706

472.236 9.51826 -3.41179e-12
9.51826 420.567 -2.60429e-12
-3.41179e-12 -2.60429e-12 435.531

439.957 -26.6645 7.3778e-13
-26.6645 450.032 7.36004e-13
7.3778e-13 7.36004e-13 432.749

468.539 -20.1927 8.41993e-13
-20.1927 422.082 4.43586e-12
8.41993e-13 4.43586e-12 436.502

312.049 60.1373 1.11318e-13
60.1373 281.004 6.19356e-12
1.11318e-13 6.19356e-12 222.91

491.895 30.9972 -2.14554e-12
30.9972 488.263 2.56476e-12
-2.14554e-12 2.56476e-12 492.347

410.253 -19.7429 1.83261e-12
-19.7429 457.168 2.92092e-12
1.83261e-12 2.92092e-12 422.85

473.381 28.7928 -6.49554e-13
28.7928 448.94 2.21334e-12
-6.49554e-13 2.21334e-12 455.804

430.307 -4.1362 5.61847e-13
-4.1362 492.183 -1.74261e-12
5.61847e-13 -1.74261e-12 455.754

423.294 19.5665 2.49874e-13
19.5665 464.983 7.44294e-13
2.49874e-13 7.44294e-13 433.44

452.047 30.451 1.59872e-13
30.451 442.918 1.4951e-12
1.59872e-13 1.4951e-12 438.929

427.997 -22.4242 -2.67934e-12
-22.4242 460.419 -1.60287e-12
-2.67934e-12 -1.60287e-12 433.145

442.895 -27.2923 -4.10753e-12
-27.2923 449.739 -3.14948e-12
-4.10753e-12 -3.14948e-12 434.376

294.388 11.2386 -8.63724e-12
11.2386 372.065 -8.97179e-12
-8.63724e-12 -8.97179e-12 257.743

356.796 -33.3954 -3.42008e-12
-33.3954 388.556 -1.03029e-12
-3.42008e-12 -1.03029e-12 313.68

419.031 -11.6646 -4.32987e-13
-11.6646 475.608 4.6434e-12
-4.32987e-13 4.6434e-12 438.666

477.64 26.4253 3.94114e-12
26.4253 446.114 7.86985e-12
3.94114e-12 7.86985e-12 455.371

451.646 29.4124 1.92972e-12
29.4124 448.336 3.19448e-12
1.92972e-12 3.19448e-12 441.715

426.166 -21.3872 6.94852e-13
-21.3872 461.064 2.60295e-12
6.94852e-13 2.60295e-12 431.965

422.298 -11.757 6.08106e-12
-11.757 475.895 -1.69938e-12
6.08106e-12 -1.69938e-12 439.249

456.995 28.3466 1.85156e-12
28.3466 446.401 1.82254e-12
1.85156e-12 1.82254e-12 441.886

424.468 -13.8476 2.62664e-12
-13.8476 475.667 -1.247e-12
2.62664e-12 -1.247e-12 441.421

310.843 27.8017 7.24398e-12
27.8017 376.848 1.74083e-12
7.24398e-12 1.74083e-12 289.575

484.401 -4.0309 1.27266e-13
-4.0309 544.141 -9.74628e-13
1.27266e-13 -9.74628e-13 510.207

432.327 30.9593 -2.93691e-12
30.9593 438.955 1.78998e-12
-2.93691e-12 1.78998e-12 425.366

508.485 14.8675 1.74468e-12
14.8675 462.442 4.13003e-13
1.74468e-12 4.13003e-13 487.825

516.077 -15.8916 -6.61397e-13
-15.8916 466.853 -2.66217e-12
-6.61397e-13 -2.66217e-12 493.131

383.372 -24.1614 -9.78654e-12
-24.1614 305.536 4.03233e-12
-9.78654e-12 4.03233e-12 284.952

441.605 -21.2195 -5.25358e-12
-21.2195 475.25 9.52719e-13
-5.25358e-12 9.52719e-13 458.602

447.141 26.6382 -8.45842e-13
26.6382 465.479 -9.30811e-13
-8.45842e-13 -9.30811e-13 457.125

522.122 -21.6775 2.67815e-12
-21.6775 542.904 4.11023e-12
2.67815e-12 4.11023e-12 524.449

578.597 14.0707 -8.10685e-12
14.0707 616.543 -4.54836e-12
-8.10685e-12 -4.54836e-12 556.127

619.122 9.42427 -1.26181e-12
9.42427 575.863 -3.57314e-12
-1.26181e-12 -3.57314e-12 555.946

522.613 32.6281 -5.51618e-12
32.6281 519.799 -2.58416e-12
-5.51618e-12 -2.58416e-12 518.676

414.272 25.9438 -2.66898e-12
25.9438 448.212 5.96856e-12
-2.66898e-12 5.96856e-12 419.735

477.34 26.6009 4.6132e-12
26.6009 444.088 -1.2168e-13
4.6132e-12 -1.2168e-13 454.795

331.9 45.1042 1.91847e-13
45.1042 348.995 -5.80277e-14
1.91847e-13 -5.80277e-14 286.335

570.423 -11.3147 1.54099e-13
-11.3147 613.401 4.9285e-12
1.54099e-13 4.9285e-12 553.674

640.193 -3.42295 7.19095e-12
-3.42295 635.753 -6.10504e-12
7.19095e-12 -6.10504e-12 571.441

633.792 -0.207757 2.20816e-12
-0.207757 642.039 -3.52096e-12
2.20816e-12 -3.52096e-12 571.268

272.609 -53.7185 5.46289e-12
-53.7185 316.016 2.74033e-12
5.46289e-12 2.74033e-12 220.607

565.683 -11.5722 -6.44729e-12
-11.5722 561.176 1.11082e-12
-6.44729e-12 1.11082e-12 540.006

562.819 8.79076 5.13389e-12
8.79076 585.958 3.5684e-12
5.13389e-12 3.5684e-12 545.935

477.487 -26.14 4.5001e-12
-26.14 439.769 -3.71703e-12
4.5001e-12 -3.71703e-12 452.773

493.558 1.00764 3.02018e-13
1.00764 544.85 -3.05533e-13
3.02018e-13 -3.05533e-13 513.221

446.966 -20.2223 -9.29183e-13
-20.2223 483.39 2.01972e-12
-9.29183e-13 2.01972e-12 469.895

505.483 6.24098 -1.78405e-12
6.24098 442.704 -1.88605e-12
-1.78405e-12 -1.88605e-12 485.35

460.562 15.5597 9.89903e-14
15.5597 520.4 -1.90929e-12
9.89903e-14 -1.90929e-12 496.756

470.443 7.17425 5.29391e-14
7.17425 527.137 4.34319e-12
5.29391e-14 4.34319e-12 496.889

492.972 20.3468 -2.96059e-14
20.3468 450.822 4.43941e-12
-2.96059e-14 4.43941e-12 469.009

240.758 -3.11238 -9.26666e-13
-3.11238 358.064 3.59061e-12
-9.26666e-13 3.59061e-12 226.753

462.977 -27.5618 5.77553e-12
-27.5618 462.67 4.32839e-12
5.77553e-12 4.32839e-12 460.468

487.568 -26.0572 5.31782e-12
-26.0572 480.836 -2.76756e-12
5.31782e-12 -2.76756e-12 485.094

496.741 -31.4099 -1.22065e-12
-31.4099 489.18 -1.46994e-12
-1.22065e-12 -1.46994e-12 498.178

355.106 32.6945 -1.67214e-12
32.6945 285.402 3.61725e-12
-1.67214e-12 3.61725e-12 248.023

562.932 -20.0687 -3.46715e-12
-20.0687 568.646 -2.55055e-13
-3.46715e-12 -2.55055e-13 541.674

337.197 54.2412 -1.20082e-12
54.2412 356.179 1.84031e-12
-1.20082e-12 1.84031e-12 258.519

476.321 -21.3888 1.63025e-12
-21.3888 505.674 1.46135e-12
1.63025e-12 1.46135e-12 499.438

503.958 14.6162 -1.85333e-12
14.6162 451.294 -2.38639e-12
-1.85333e-12 -2.38639e-12 480.795

449.136 -14.5405 -1.72307e-12
-14.5405 396.404 -8.15644e-13
-1.72307e-12 -8.15644e-13 400.236

451.898 23.9921 9.4443e-14
23.9921 478.025 6.88634e-13
9.4443e-14 6.88634e-13 467.112

492.876 20.381 1.17772e-12
20.381 448.81 -5.22367e-12
1.17772e-12 -5.22367e-12 468.601

504.75 11.3726 4.1116e-12
11.3726 563.462 -3.95743e-12
4.1116e-12 -3.95743e-12 525.847

475.146 -31.5078 -5.27904e-12
-31.5078 469.62 7.72982e-12
-5.27904e-12 7.72982e-12 474.312

558.327 19.7662 1.00867e-12
19.7662 509.614 7.47846e-12
1.00867e-12 7.47846e-12 525.624

439.289 -18.4023 -9.42357e-13
-18.4023 481.7 2.13163e-13
-9.42357e-13 2.13163e-13 458.43

465.173 4.27407 3.88967e-12
4.27407 525.243 3.25606e-12
3.88967e-12 3.25606e-12 494.714

587.628 9.9047 1.35773e-12
9.9047 551.539 -2.09314e-13
1.35773e-12 -2.09314e-13 544.286

589.407 -8.49486 -5.63342e-12
-8.49486 553.875 -5.30687e-13
-5.63342e-12 -5.30687e-13 544.803

381.756 18.4805 1.80241e-12
18.4805 301.883 5.08985e-12
1.80241e-12 5.08985e-12 285.731

501.869 7.94714 -4.35089e-12
7.94714 452.903 -1.09838e-12
-4.35089e-12 -1.09838e-12 486.986

232.532 7.7253 -6.27202e-12
7.7253 381.047 -1.7953e-12
-6.27202e-12 -1.7953e-12 186.939

236.696 -11.3665 -3.56541e-12
-11.3665 386.735 5.07801e-12
-3.56541e-12 5.07801e-12 189.2

248.988 56.339 2.67875e-12
56.339 354.337 -3.52903e-12
2.67875e-12 -3.52903e-12 183.779

504.198 -28.8839 -1.58155e-12
-28.8839 477.861 5.15943e-12
-1.58155e-12 5.15943e-12 490.556

258.135 -49.1116 1.30385e-12
-49.1116 341.383 -1.83794e-12
1.30385e-12 -1.83794e-12 220.433

248.994 -55.8813 -2.69059e-12
-55.8813 344.323 7.27596e-12
-2.69059e-12 7.27596e-12 180.876

433.993 26.1624 4.09746e-13
26.1624 453.689 2.57809e-12
4.09746e-13 2.57809e-12 432.158

329.515 73.7526 8.76336e-13
73.7526 279.675 2.67164e-12
8.76336e-13 2.67164e-12 184.583

539.228 13.016 2.29624e-12
13.016 554.019 -2.81049e-12
2.29624e-12 -2.81049e-12 531.203

561.437 0.0422607 1.70738e-12
0.0422607 531.575 4.25941e-12
1.70738e-12 4.25941e-12 530.996

338.183 -73.0398 -4.00746e-12
-73.0398 279.522 1.01371e-12
-4.00746e-12 1.01371e-12 186.064

432.014 -23.3718 1.77221e-12
-23.3718 465.58 2.88066e-12
1.77221e-12 2.88066e-12 446.875

358.433 34.6706 -2.5769e-12
34.6706 310.558 9.17784e-13
-2.5769e-12 9.17784e-13 257.679

267.376 63.409 -3.96483e-12
63.409 344.792 3.71377e-12
-3.96483e-12 3.71377e-12 185.599

293.304 21.5935 -1.71241e-12
21.5935 367.148 -7.23806e-12
-1.71241e-12 -7.23806e-12 254.144

267.248 -65.8349 -4.51431e-12
-65.8349 344.429 -9.09495e-13
-4.51431e-12 -9.09495e-13 184.058

291.254 -12.361 8.22453e-13
-12.361 370.366 -4.83169e-13
8.22453e-13 -4.83169e-13 253.091

549.387 6.82345 9.37176e-13
6.82345 581.085 -1.57711e-12
9.37176e-13 -1.57711e-12 540.224

329.43 -45.8932 3.55627e-12
-45.8932 341.338 -1.89715e-12
3.55627e-12 -1.89715e-12 276.226

259.442 47.4546 -4.35918e-12
47.4546 339.759 3.24481e-13
-4.35918e-12 3.24481e-13 222.841

369.764 37.8594 -8.76336e-13
37.8594 244.619 3.5841e-12
-8.76336e-13 3.5841e-12 187.109

481.125 -29.2193 -1.59872e-12
-29.2193 459.796 -6.98671e-12
-1.59872e-12 -6.98671e-12 466.976

480.216 12.866 2.5886e-12
12.866 524.967 2.12038e-12
2.5886e-12 2.12038e-12 503.289

353.926 -38.0487 -3.99562e-12
-38.0487 299.677 -2.50585e-12
-3.99562e-12 -2.50585e-12 251.465

481.768 -28.7365 2.11209e-12
-28.7365 459.604 -1.70945e-12
2.11209e-12 -1.70945e-12 467.723

364.816 -36.2927 9.4739e-14
-36.2927 230.707 2.87237e-12
9.4739e-14 2.87237e-12 182.528

480.74 -28.253 -7.90479e-12
-28.253 472.011 2.0739e-12
-7.90479e-12 2.0739e-12 477.159

435.69 -25.2386 -2.9603e-12
-25.2386 465.494 -4.60846e-12
-2.9603e-12 -4.60846e-12 447.512

314.416 69.3721 1.81425e-12
69.3721 291.782 -8.57388e-13
1.81425e-12 -8.57388e-13 184.28

290.398 -22.8941 -2.29861e-12
-22.8941 358.667 -2.69296e-12
-2.29861e-12 -2.69296e-12 246.688

312.022 -71.6012 4.46695e-12
-71.6012 287.767 1.73609e-12
4.46695e-12 1.73609e-12 181.786

268.197 50.6576 4.06075e-12
50.6576 319.623 -3.07902e-14
4.06075e-12 -3.07902e-14 221.201

459.145 -30.1442 9.05942e-13
-30.1442 454.14 1.33552e-12
9.05942e-13 1.33552e-12 453.69

558.348 -14.6069 8.49306e-12
-14.6069 543.504 -3.63857e-13
8.49306e-12 -3.63857e-13 532.839

634.801 11.0646 1.21713e-11
11.0646 630.279 7.52583e-12
1.21713e-11 7.52583e-12 569.068

618.879 -5.14948 -6.49007e-12
-5.14948 638.608 -1.67757e-11
-6.49007e-12 -1.67757e-11 567.549

453.17 13.0534 3.02504e-12
13.0534 505.735 2.30986e-12
3.02504e-12 2.30986e-12 481.803

633.035 -10.6401 -1.48718e-12
-10.6401 630.21 7.51991e-14
-1.48718e-12 7.51991e-14 568.924

621.612 4.08389 -8.99725e-13
4.08389 641.547 -8.32134e-12
-8.99725e-13 -8.32134e-12 568.748

642.238 7.41294 5.18963e-12
7.41294 618.07 8.48506e-13
5.18963e-12 8.48506e-13 568.072

583.778 -12.0843 7.29683e-12
-12.0843 630.556 -9.69521e-12
7.29683e-12 -9.69521e-12 559.66

307.029 -30.4142 -3.61785e-12
-30.4142 371.101 -1.78583e-12
-3.61785e-12 -1.78583e-12 280.375

588.611 -12.9422 -3.98289e-12
-12.9422 548.197 6.76407e-12
-3.98289e-12 6.76407e-12 542.926

526.341 -34.336 3.82923e-12
-34.336 520.632 -1.32709e-12
3.82923e-12 -1.32709e-12 519.116

564.507 -18.1355 5.83652e-12
-18.1355 537.1 -1.05101e-14
5.83652e-12 -1.05101e-14 533.378

501.758 15.4242 1.05279e-12
15.4242 451.42 -5.31693e-12
1.05279e-12 -5.31693e-12 479.443

585.348 9.83974 -1.30137e-12
9.83974 640.997 -1.36383e-11
-1.30137e-12 -1.36383e-11 562.165

635.533 19.1805 -2.58179e-12
19.1805 590.709 -7.86989e-12
-2.58179e-12 -7.86989e-12 561.987

568.81 11.282 -2.23406e-12
11.282 543.435 -4.73414e-12
-2.23406e-12 -4.73414e-12 535.552

352.958 -15.3107 9.12811e-12
-15.3107 231.22 -1.74379e-12
9.12811e-12 -1.74379e-12 218.714

436.54 24.9086 3.76232e-12
24.9086 461.192 -1.88294e-12
3.76232e-12 -1.88294e-12 445.03

316.672 -61.259 4.43616e-12
-61.259 277.481 -8.95284e-13
4.43616e-12 -8.95284e-13 217.791

333.767 -57.3732 5.23907e-12
-57.3732 356.845 -1.33108e-12
5.23907e-12 -1.33108e-12 252.194

382.814 -36.4876 1.22308e-11
-36.4876 305.335 1.7728e-12
1.22308e-11 1.7728e-12 257.405

561.551 -5.14646 2.11135e-12
-5.14646 615.873 -1.96391e-12
2.11135e-12 -1.96391e-12 552.032

561.259 2.88449 6.15508e-13
2.88449 614.741 1.44877e-12
6.15508e-13 1.44877e-12 551.631

597.735 -24.3966 3.13823e-13
-24.3966 574.765 -1.72477e-12
3.13823e-13 -1.72477e-12 550.663

601.286 -21.7069 -8.68601e-13
-21.7069 572.461 -2.27907e-12
-8.68601e-13 -2.27907e-12 550.929

597.749 26.072 1.48e-12
26.072 579.469 -3.44325e-12
1.48e-12 -3.44325e-12 551.816

624.648 3.08861 2.54463e-13
3.08861 629.628 3.70689e-12
2.54463e-13 3.70689e-12 567.472

598.025 -20.4588 -5.4925e-12
-20.4588 575.375 7.68785e-12
-5.4925e-12 7.68785e-12 551.35

606.759 -18.5235 -3.95683e-13
-18.5235 619.177 5.35657e-12
-3.95683e-13 5.35657e-12 562.247

631.792 2.42607 4.346e-12
2.42607 634.407 -2.08094e-11
4.346e-12 -2.08094e-11 569.553

606.83 -20.4762 1.36824e-12
-20.4762 571.457 1.07766e-13
1.36824e-12 1.07766e-13 552.487

606.017 20.9046 1.17225e-11
20.9046 572.713 2.47565e-12
1.17225e-11 2.47565e-12 552.889

632.741 -3.44744 1.08566e-11
-3.44744 635.655 -1.06507e-11
1.08566e-11 -1.06507e-11 570.326

631.072 -3.10583 -1.75084e-11
-3.10583 624.663 3.80648e-11
-1.75084e-11 3.80648e-11 568.444

608.627 12.082 -1.79871e-12
12.082 619.399 -7.77356e-12
-1.79871e-12 -7.77356e-12 562.977

586.198 26.8645 4.28013e-12
26.8645 582.021 8.41165e-12
4.28013e-12 8.41165e-12 550.786

FIELD solute_concentration_TPM 2
S_ext 1 563 float
0.473428
0.473343
0.47335
0.473343
0.473335
0.473351
0.473428
0.473347
0.473358
0.473344
0.47341
0.473347
0.473349
0.473344
0.473337
0.47335
0.473341
0.473347
0.473359
0.473352
0.473354
0.473322
0.473353
0.473352
0.473352
0.473345
0.473405
0.47335
0.47338
0.473329
0.473349
0.47338
0.473407
0.473331
0.47333
0.473331
0.473327
0.473331
0.473349
0.473407
0.47338
0.473327
0.473327
0.473349
0.473395
0.47338
0.473358
0.473356
0.47335
0.473384
0.473382
0.473373
0.473334
0.473374
0.473335
0.473398
0.47333
0.473373
0.47333
0.473351
0.473341
0.473339
0.473403
0.47334
0.473339
0.473344
0.473341
0.473345
0.473352
0.473343
0.473335
0.473334
0.473381
0.473342
0.473351
0.473409
0.473338
0.473344
0.473345
0.47337
0.473388
0.473334
0.47334
0.473389
0.47338
0.473397
0.47335
0.473344
0.473395
0.473326
0.473373
0.473326
0.473337
0.473345
0.473373
0.473382
0.473389
0.473344
0.473338
0.473349
0.473365
0.473378
0.473389
0.473345
0.473345
0.473344
0.47334
0.47335
0.47339
0.473341
0.473351
0.473394
0.473391
0.473346
0.473344
0.473374
0.473332
0.47339
0.473332
0.473373
0.473361
0.473337
0.473342
0.473341
0.473341
0.473336
0.473333
0.473344
0.473389
0.473373
0.473334
0.473343
0.47334
0.473342
0.473379
0.47333
0.473394
0.473349
0.47334
0.47333
0.473377
0.473347
0.473361
0.473344
0.47339
0.473345
0.473347
0.473352
0.473351
0.473367
0.473356
0.473342
0.473379
0.473349
0.473344
0.473342
0.473344
0.473377
0.473377
0.473347
0.473356
0.473379
0.473395
0.473381
0.473376
0.473344
0.473377
0.473377
0.47338
0.473376
0.473337
0.473373
0.473382
0.473343
0.473373
0.47334
0.473337
0.473348
0.473335
0.473346
0.473381
0.473344
0.473344
0.473377
0.473343
0.473382
0.473341
0.473341
0.473338
0.473344
0.473343
0.473388
0.473373
0.47338
0.473342
0.473346
0.473346
0.47334
0.473342
0.473344
0.473342
0.473359
0.47337
0.47334
0.473381
0.47334
0.473344
0.473378
0.473339
0.473343
0.47334
0.473345
0.473345
0.47334
0.473366
0.473345
0.473369
0.47334
0.473341
0.473341
0.473341
0.473341
0.473341
0.473341
0.473345
0.473337
0.473337
0.473337
0.473337
0.473336
0.473335
0.473366
0.473344
0.473342
0.473357
0.473337
0.473337
0.473343
0.473369
0.473342
0.473344
0.473366
0.473339
0.473366
0.47334
0.473342
0.473366
0.473369
0.473389
0.473385
0.47334
0.473392
0.473349
0.473369
0.473359
0.473342
0.473341
0.473328
0.473341
0.473393
0.473369
0.473342
0.473347
0.47337
0.473341
0.473361
0.473328
0.473369
0.473341
0.473342
0.473346
0.473337
0.473344
0.473335
0.473348
0.473394
0.473397
0.473337
0.473353
0.473347
0.473367
0.473339
0.473343
0.473369
0.473344
0.473365
0.473347
0.473365
0.473369
0.473326
0.473336
0.473336
0.473336
0.473344
0.473365
0.473331
0.473342
0.473356
0.473364
0.473367
0.473336
0.473366
0.473338
0.473366
0.473395
0.473365
0.473391
0.47334
0.473366
0.473326
0.473366
0.473342
0.473367
0.473342
0.473366
0.47335
0.473406
0.47335
0.473366
0.473336
0.473366
0.473356
0.473343
0.473342
0.473366
0.473365
0.473361
0.473341
0.473365
0.473348
0.47335
0.473335
0.473365
0.473361
0.473355
0.473361
0.473365
0.473361
0.47334
0.473347
0.473361
0.473366
0.473346
0.473346
0.473365
0.473335
0.473413
0.473352
0.473389
0.473355
0.473441
0.473441
0.47344
0.47344
0.473439
0.473443
0.473443
0.473341
0.473333
0.473347
0.473356
0.473359
0.473361
0.473347
0.473361
0.473361
0.473333
0.473361
0.473339
0.473373
0.473337
0.473351
0.473356
0.473361
0.473337
0.473351
0.473356
0.473351
0.473355
0.47336
0.473371
0.473356
0.473352
0.473339
0.473359
0.47336
0.473359
0.473356
0.473352
0.473347
0.473359
0.473347
0.473352
0.473356
0.473347
0.473351
0.47336
0.473341
0.473355
0.473333
0.473395
0.47334
0.47334
0.473352
0.473355
0.473343
0.473413
0.473351
0.473355
0.473406
0.473327
0.473328
0.473351
0.473359
0.473355
0.473359
0.473324
0.473323
0.473346
0.473348
0.473348
0.473415
0.47336
0.473341
0.473357
0.473357
0.473356
0.473412
0.473342
0.473359
0.473351
0.473351
0.473357
0.473356
0.473357
0.473357
0.473406
0.473391
0.473356
0.473352
0.473355
0.473357
0.473355
0.473355
0.473355
0.473396
0.473338
0.473359
0.473343
0.473342
0.473397
0.47335
0.47335
0.473336
0.473324
0.473324
0.473336
0.47336
0.473352
0.473397
0.473325
0.473322
0.473321
0.473413
0.473331
0.473328
0.473352
0.473337
0.473347
0.473344
0.473341
0.473341
0.473348
0.473412
0.47335
0.473345
0.473341
0.473409
0.47333
0.473409
0.47334
0.473345
0.473366
0.473348
0.473348
0.473334
0.473346
0.473334
0.47335
0.473342
0.47333
0.47333
0.473398
0.473343
0.473429
0.47343
0.473429
0.473343
0.473415
0.47343
0.473357
0.473429
0.473333
0.473333
0.473429
0.473353
0.473408
0.473431
0.473407
0.473431
0.473408
0.473331
0.4734
0.473415
0.473428
0.473349
0.473339
0.473409
0.473348
0.473428
0.473346
0.473353
0.473432
0.473409
0.473432
0.473413
0.473352
0.473333
0.473321
0.473322
0.473344
0.473322
0.473321
0.473322
0.473325
0.473398
0.473329
0.473337
0.473334
0.473346
0.473324
0.473324
0.473333
0.473413
0.473354
0.473417
0.473411
0.473407
0.473325
0.473325
0.473326
0.473326
0.473325
0.473323
0.473328
0.473325
0.473324
0.473327
0.473327
0.473324
0.473323
0.473325
0.473327
P_ext 1 563 float
0.00851942
0.0085173
0.00851761
0.00851733
0.00851654
0.0085176
0.00851941
0.00851746
0.00851783
0.00851733
0.00851906
0.00851745
0.00851751
0.00851732
0.00851674
0.0085176
0.00851716
0.00851744
0.00851789
0.00851766
0.00851773
0.00851514
0.00851767
0.00851764
0.00851767
0.00851739
0.00851896
0.00851755
0.00851845
0.00851586
0.00851754
0.00851843
0.00851901
0.00851611
0.00851611
0.00851612
0.00851582
0.00851617
0.00851753
0.00851901
0.00851844
0.0085158
0.00851581
0.00851754
0.00851877
0.00851844
0.00851787
0.00851781
0.00851759
0.00851854
0.00851848
0.00851827
0.00851652
0.0085183
0.00851656
0.00851883
0.0085161
0.00851828
0.00851611
0.00851763
0.00851715
0.00851696
0.00851893
0.008517
0.00851695
0.00851721
0.00851713
0.0085174
0.00851768
0.00851725
0.00851653
0.00851654
0.00851846
0.00851712
0.00851762
0.00851905
0.00851679
0.00851722
0.00851738
0.00851819
0.00851862
0.00851645
0.00851702
0.00851865
0.00851843
0.00851881
0.00851756
0.00851716
0.00851877
0.00851524
0.00851829
0.00851524
0.00851673
0.00851722
0.00851828
0.00851848
0.00851864
0.00851735
0.0085168
0.00851755
0.00851806
0.00851841
0.00851864
0.00851741
0.00851735
0.00851737
0.00851699
0.00851757
0.00851866
0.00851717
0.00851762
0.00851874
0.00851868
0.00851742
0.00851739
0.0085183
0.0085161
0.00851867
0.00851611
0.00851828
0.00851794
0.00851679
0.00851727
0.00851713
0.00851714
0.00851673
0.0085162
0.00851734
0.00851865
0.00851826
0.00851648
0.0085173
0.00851704
0.00851728
0.00851841
0.00851606
0.00851875
0.0085175
0.008517
0.00851607
0.00851838
0.00851736
0.00851793
0.00851732
0.00851868
0.00851738
0.00851738
0.00851759
0.00851761
0.0085181
0.00851777
0.00851726
0.00851842
0.00851753
0.00851733
0.0085173
0.00851728
0.00851839
0.00851837
0.0085175
0.0085178
0.00851841
0.00851877
0.00851847
0.00851835
0.00851737
0.00851838
0.00851839
0.00851844
0.00851836
0.0085167
0.00851828
0.00851848
0.00851726
0.00851829
0.008517
0.00851671
0.00851742
0.00851656
0.00851736
0.00851846
0.00851736
0.00851735
0.00851837
0.00851717
0.0085185
0.00851714
0.00851703
0.00851671
0.00851735
0.00851716
0.00851863
0.00851827
0.00851843
0.00851729
0.00851746
0.00851743
0.00851705
0.00851727
0.00851723
0.00851727
0.00851789
0.0085182
0.00851706
0.00851846
0.00851703
0.0085172
0.00851839
0.0085169
0.00851725
0.00851687
0.00851732
0.00851738
0.00851701
0.00851808
0.00851729
0.00851819
0.00851704
0.00851714
0.00851715
0.00851717
0.00851718
0.00851718
0.00851719
0.00851731
0.00851678
0.00851678
0.00851676
0.00851677
0.00851653
0.00851652
0.0085181
0.00851729
0.00851727
0.00851784
0.00851674
0.00851673
0.00851726
0.00851818
0.00851729
0.00851734
0.0085181
0.00851687
0.00851811
0.00851701
0.00851728
0.00851808
0.00851818
0.00851863
0.00851855
0.00851704
0.0085187
0.00851755
0.00851819
0.00851788
0.0085173
0.00851716
0.00851581
0.00851717
0.00851874
0.00851817
0.00851727
0.00851743
0.0085182
0.00851716
0.00851793
0.00851581
0.00851818
0.00851713
0.00851715
0.00851744
0.00851674
0.00851717
0.00851655
0.00851751
0.00851875
0.00851882
0.00851664
0.00851772
0.00851744
0.00851812
0.00851686
0.00851728
0.00851817
0.00851724
0.00851806
0.00851737
0.00851808
0.00851818
0.00851551
0.00851667
0.00851672
0.00851673
0.00851733
0.00851807
0.00851616
0.00851718
0.00851777
0.00851805
0.00851812
0.00851665
0.0085181
0.00851672
0.00851811
0.00851877
0.00851804
0.00851868
0.00851701
0.00851808
0.0085155
0.0085181
0.00851706
0.00851811
0.00851711
0.00851809
0.00851758
0.008519
0.00851761
0.00851811
0.00851662
0.00851809
0.00851775
0.00851715
0.00851728
0.00851809
0.00851806
0.00851793
0.00851702
0.00851805
0.00851744
0.00851757
0.00851658
0.00851807
0.00851795
0.00851774
0.00851794
0.00851808
0.00851793
0.00851691
0.00851745
0.00851795
0.00851809
0.00851738
0.00851737
0.00851805
0.00851659
0.00851912
0.00851758
0.00851863
0.00851772
0.00851965
0.00851965
0.00851963
0.00851963
0.00851961
0.0085197
0.0085197
0.00851698
0.00851626
0.00851745
0.00851776
0.00851788
0.00851794
0.00851738
0.00851793
0.00851796
0.00851625
0.00851793
0.00851689
0.00851827
0.00851681
0.00851759
0.00851778
0.00851795
0.00851664
0.0085176
0.00851777
0.00851759
0.00851775
0.00851793
0.00851821
0.00851776
0.00851762
0.00851688
0.00851786
0.00851795
0.00851789
0.00851779
0.00851762
0.00851737
0.00851788
0.00851739
0.00851761
0.00851778
0.00851743
0.00851762
0.00851791
0.00851712
0.00851776
0.00851633
0.00851877
0.00851702
0.00851691
0.00851761
0.00851777
0.00851721
0.00851912
0.00851759
0.00851777
0.00851898
0.00851556
0.00851555
0.00851756
0.0085179
0.00851774
0.00851789
0.00851499
0.00851499
0.00851741
0.00851744
0.00851744
0.00851917
0.00851792
0.00851707
0.00851783
0.00851785
0.0085178
0.00851911
0.00851712
0.00851791
0.00851761
0.0085176
0.00851784
0.00851778
0.00851783
0.00851782
0.008519
0.00851867
0.00851777
0.00851758
0.00851776
0.00851786
0.00851778
0.00851774
0.00851775
0.00851879
0.0085168
0.00851787
0.00851723
0.00851713
0.0085188
0.0085176
0.00851762
0.00851656
0.00851551
0.00851552
0.00851662
0.00851794
0.00851759
0.00851881
0.00851558
0.00851509
0.0085151
0.00851914
0.00851615
0.00851587
0.00851763
0.00851676
0.00851749
0.0085173
0.00851709
0.00851705
0.00851744
0.00851911
0.00851758
0.00851725
0.00851708
0.00851906
0.00851601
0.00851905
0.00851708
0.00851733
0.00851808
0.00851754
0.00851746
0.00851645
0.00851742
0.00851646
0.00851761
0.0085171
0.00851591
0.00851591
0.00851883
0.00851724
0.00851944
0.00851944
0.00851944
0.00851717
0.00851918
0.00851944
0.00851786
0.00851942
0.00851642
0.00851644
0.00851943
0.00851771
0.00851903
0.00851948
0.00851902
0.00851948
0.00851902
0.00851612
0.00851887
0.00851917
0.00851941
0.00851749
0.00851697
0.00851905
0.00851747
0.00851942
0.00851736
0.0085177
0.00851948
0.00851906
0.00851949
0.00851913
0.00851763
0.00851631
0.00851511
0.00851514
0.00851729
0.0085151
0.00851511
0.00851513
0.00851539
0.00851884
0.00851599
0.00851663
0.00851628
0.00851732
0.00851533
0.00851534
0.00851627
0.00851913
0.00851774
0.0085192
0.00851909
0.008519
0.00851562
0.00851563
0.00851567
0.00851566
0.00851563
0.00851516
0.00851568
0.0085153
0.0085151
0.00851561
0.00851561
0.0085151
0.00851517
0.00851531
0.00851567
FIELD solute_flux_TPM 2
S_ext 3 563 float
-2.5844e-05 8.62126e-06 -3.39357e-18
1.39951e-06 2.45816e-06 2.01527e-18
-4.4034e-06 -3.41105e-06 -4.1697e-19
-1.45869e-06 1.48733e-06 -7.48579e-19
8.95165e-06 -2.60884e-06 -8.57832e-19
8.91443e-07 -5.44421e-06 1.74108e-18
-2.54503e-05 -8.72626e-06 -1.15591e-18
-4.99119e-06 -3.5341e-06 -6.70385e-19
7.40681e-06 3.4581e-07 -9.94141e-19
4.04738e-06 -1.54347e-06 1.64649e-19
1.73015e-05 4.0222e-06 -2.24991e-18
6.83151e-07 -6.08135e-06 9.97703e-19
4.8691e-06 3.77162e-06 -2.54205e-19
1.11014e-06 4.91197e-06 -1.64483e-19
8.11659e-06 -1.26701e-06 1.01619e-18
-5.5157e-06 -8.98765e-08 1.16856e-18
1.20764e-06 5.24375e-06 1.93718e-18
3.53236e-06 -8.89595e-07 -1.08576e-18
3.30145e-06 5.73358e-06 -8.26843e-19
-5.01205e-06 6.53621e-07 4.16785e-19
-1.11125e-06 -7.21814e-06 -1.08082e-18
1.71687e-05 2.42333e-05 6.23056e-19
5.34988e-06 5.63716e-07 -9.13868e-19
3.89139e-06 -3.80817e-06 4.1181e-19
-5.08044e-06 -1.17125e-06 7.48107e-19
-1.07962e-07 -3.93311e-06 1.6586e-19
1.98452e-05 -1.53667e-06 1.33498e-18
4.97851e-06 3.54145e-06 4.96494e-19
-7.99627e-06 -6.52253e-06 -1.52885e-18
1.93601e-05 -5.1714e-06 -2.58577e-19
-5.66087e-06 -2.2327e-06 8.4103e-20
1.73925e-06 -1.02711e-05 8.10665e-20
1.48843e-05 -1.5154e-05 -3.96094e-19
-2.0822e-06 -1.64599e-05 1.36843e-18
-1.17045e-05 1.44962e-05 1.99488e-18
-1.52964e-05 -6.41871e-06 1.37553e-18
1.28844e-05 1.68037e-05 1.82314e-18
-1.76178e-05 -3.50272e-06 1.99649e-18
5.13681e-06 -3.72143e-06 -1.08789e-18
1.45452e-05 1.57905e-05 -2.36596e-19
1.03423e-05 -4.49254e-06 4.0078e-19
1.31246e-05 -1.61779e-05 1.19724e-18
-7.45273e-06 -1.94408e-05 1.98885e-18
-5.39748e-06 2.33814e-06 7.53938e-19
9.59964e-06 -9.38078e-06 7.10415e-19
-9.60041e-06 3.40409e-06 6.47619e-19
-1.34026e-06 -6.76674e-06 5.745e-19
2.60816e-06 6.74004e-06 -7.50179e-19
-5.63153e-06 2.12014e-06 1.41863e-18
-5.73328e-06 9.03768e-06 7.22279e-19
1.04232e-05 4.86731e-06 -2.41876e-19
9.50073e-06 -3.33338e-06 -6.53458e-19
-6.17928e-06 6.11027e-06 1.80234e-18
-7.54057e-06 -6.50612e-06 -2.3552e-18
-8.24966e-06 -2.07717e-06 -4.18602e-19
-1.39204e-05 8.31767e-06 -1.65899e-18
-1.15899e-05 -1.49228e-05 2.23779e-18
1.95933e-06 -9.84023e-06 2.42773e-19
-1.87245e-05 2.60144e-06 -3.47918e-19
2.03341e-06 4.67839e-06 -2.52212e-19
-2.00006e-06 -3.18287e-06 1.25737e-18
-2.38125e-06 -6.92211e-06 1.68793e-18
1.79386e-05 7.79845e-06 -1.81194e-18
3.69274e-06 6.78445e-06 2.55183e-19
4.83833e-06 -5.45757e-06 -6.84299e-19
-7.69893e-07 -7.62624e-06 -9.06143e-20
1.88502e-06 -3.29228e-06 2.48197e-19
-3.48728e-06 -2.07313e-06 -4.19497e-19
-3.63741e-06 3.98987e-06 3.38137e-19
8.69236e-07 -1.60983e-06 -3.38766e-19
-5.92182e-06 -6.14326e-06 1.53233e-18
-8.32329e-06 2.08446e-06 -1.70699e-19
-1.23677e-06 1.09202e-05 8.03583e-19
-6.58111e-06 3.98515e-06 6.5385e-21
-3.1074e-06 4.90675e-06 1.75261e-18
-1.8504e-05 2.33204e-06 -8.55726e-19
3.13385e-06 -8.21883e-06 -8.69567e-21
-7.01299e-06 -3.09962e-06 -1.2623e-18
5.71349e-07 4.12584e-06 -1.0892e-18
8.60862e-06 1.63947e-06 4.02225e-19
1.08524e-05 -9.20505e-06 -1.62113e-19
8.78159e-06 7.97727e-06 6.01239e-19
4.61178e-06 -1.21751e-06 -4.23836e-19
-1.01033e-05 7.38978e-06 -7.91241e-20
1.21282e-05 1.57229e-06 2.402e-19
-1.73066e-06 1.54033e-05 8.07426e-20
-5.47137e-07 -5.86376e-06 4.99272e-19
6.73563e-06 3.57736e-06 -3.43958e-21
9.23213e-06 9.65345e-06 -3.96144e-19
2.54832e-05 1.5848e-05 -3.68489e-18
-1.70361e-06 9.88749e-06 -7.29543e-19
2.66233e-05 -1.49619e-05 -9.65395e-20
-1.05385e-05 1.91406e-06 1.19908e-18
6.57725e-06 4.17857e-06 -2.10348e-18
-9.43131e-06 3.18533e-06 1.05876e-18
5.28859e-06 9.15174e-06 1.52095e-18
3.1156e-06 -1.39586e-05 -1.75896e-18
5.91762e-07 4.12723e-06 -2.53236e-19
-5.51391e-06 -6.80324e-06 -1.77591e-19
9.42865e-07 6.03782e-06 8.31168e-19
8.67382e-06 1.78427e-06 1.59399e-19
-4.90774e-06 1.05019e-05 1.05223e-18
1.28687e-05 -4.30948e-06 6.33791e-19
-1.32848e-06 2.54252e-06 4.22728e-19
3.64892e-06 1.98791e-06 -1.72855e-19
-6.93716e-07 -4.00277e-06 8.3751e-19
1.3706e-06 -7.29947e-06 7.54396e-19
6.02421e-06 1.43585e-06 7.91507e-20
-2.56661e-06 1.29349e-05 1.35198e-18
-3.75812e-06 -1.66757e-08 1.35003e-18
3.24727e-06 4.01945e-06 -8.35924e-19
-8.35546e-07 -1.31659e-05 2.39005e-19
1.33326e-05 4.17e-06 -1.1138e-18
1.55559e-06 -2.54873e-06 7.45542e-19
-3.86775e-06 -1.34576e-06 -2.2585e-18
-9.30298e-06 -4.00466e-06 -1.62013e-18
6.28385e-06 1.65501e-05 -3.48859e-19
-1.34521e-05 -4.81313e-06 -8.76418e-19
6.3715e-06 -1.65947e-05 -1.12778e-18
-1.16178e-06 -1.02386e-05 3.26356e-19
7.27079e-06 1.86195e-07 -4.98386e-19
-2.73469e-06 7.23418e-06 1.52896e-18
-6.61218e-07 1.40859e-06 -3.37865e-19
-1.56077e-06 -6.15023e-06 -1.78724e-19
1.9374e-06 -3.29307e-06 -8.39785e-19
3.72303e-06 6.13224e-06 2.46897e-18
1.32682e-05 4.39423e-06 -2.1669e-18
3.20563e-06 -2.548e-06 -3.41814e-19
-2.64415e-06 -1.41274e-05 9.59336e-19
8.30395e-06 -6.06875e-06 -1.29947e-18
1.97756e-06 1.08473e-05 1.54208e-18
-9.52757e-07 -1.09638e-06 -8.36836e-19
-3.37758e-06 -3.12728e-06 8.34294e-19
-1.77111e-06 1.19453e-07 6.70743e-19
-7.2701e-06 8.952e-06 -1.59176e-19
7.75313e-06 -1.48438e-05 -4.46566e-19
-8.36169e-06 1.32363e-05 8.04863e-20
-5.63434e-06 3.37414e-06 -5.77689e-19
8.92781e-07 4.78657e-06 -1.27037e-18
-8.96274e-06 -1.41232e-05 -2.64906e-19
4.4032e-06 1.06848e-05 -9.7065e-19
6.40819e-06 3.16517e-06 -3.05491e-21
7.60215e-06 -2.93449e-06 1.64209e-18
-5.71376e-07 -4.01272e-06 9.15048e-19
-1.05699e-05 -9.71649e-06 -1.59308e-19
-8.34445e-07 4.02507e-06 3.37433e-19
6.23332e-06 3.71197e-06 -2.92181e-21
6.56359e-06 -3.21219e-06 8.12613e-20
2.88099e-06 -4.84025e-06 7.4559e-19
8.02447e-06 -3.53103e-06 3.23728e-19
6.47395e-06 -3.06711e-06 -3.34563e-19
1.7791e-06 2.02152e-07 -5.96297e-19
8.24895e-06 6.53161e-06 -1.28961e-18
-7.9627e-07 -5.90165e-06 1.91991e-18
-3.80675e-06 -1.45078e-06 1.08868e-18
5.04272e-07 -1.38793e-06 -9.22153e-19
-1.3356e-06 5.70137e-06 -1.09357e-18
-1.09659e-05 8.8332e-07 -1.58848e-19
-3.85088e-06 -1.05306e-05 1.60898e-19
-2.71668e-06 3.32936e-06 -1.33039e-18
4.5831e-06 5.5162e-06 -9.1308e-19
8.51643e-06 -6.08067e-06 -3.97948e-22
-1.15202e-05 -6.26564e-06 -9.51757e-19
5.53522e-06 -8.84564e-06 -3.21272e-19
7.3164e-06 -8.71254e-06 4.03156e-19
-3.81579e-06 1.45859e-06 9.24854e-19
-6.30694e-06 -9.0668e-06 -1.05313e-18
-1.09517e-05 -1.8445e-06 -5.61505e-19
-1.32544e-06 -1.01e-05 1.50881e-21
4.89396e-06 -1.01328e-05 -6.46326e-19
-3.65968e-06 -1.01038e-05 1.09797e-18
1.39331e-06 1.00844e-05 -1.13603e-18
-5.07094e-06 -9.00804e-06 -8.81187e-19
1.29367e-06 -5.92596e-06 7.54642e-19
-7.93377e-06 5.74251e-06 -4.04961e-19
-5.61318e-06 -4.69666e-06 -8.52222e-19
-1.06093e-05 -1.84762e-06 4.23919e-19
5.56868e-06 -3.31783e-06 -8.70302e-20
-1.6125e-06 9.38803e-06 1.62939e-23
4.55092e-06 -3.24014e-06 -1.67869e-18
-9.37277e-06 -4.09639e-06 3.94017e-21
-3.2088e-06 -2.54025e-06 2.50747e-19
3.34281e-06 2.56334e-06 -5.0601e-19
6.87305e-06 9.17397e-06 -8.25109e-20
-6.3495e-06 -4.01735e-06 4.18117e-19
-1.02482e-05 -2.51384e-07 -8.78999e-19
-6.17387e-06 -1.67368e-06 1.85419e-18
-1.79805e-06 -6.15713e-06 -1.19101e-18
6.81981e-06 8.41917e-06 -1.28009e-18
-3.99956e-06 1.95249e-06 1.01075e-18
3.24512e-07 -7.52793e-06 1.0045e-18
-1.30476e-05 3.37584e-06 -7.86196e-20
8.07978e-06 6.50783e-06 -1.54329e-18
1.189e-06 1.04964e-05 -1.28758e-18
-8.12372e-07 1.46275e-06 1.34467e-18
-3.08317e-06 8.49498e-08 1.6906e-19
1.52843e-06 2.65033e-06 -5.87249e-19
-4.47215e-06 1.40893e-06 -9.27083e-19
-8.24637e-07 -1.34001e-06 -9.26842e-20
7.62429e-07 7.57343e-06 1.93288e-18
1.70534e-06 4.46872e-08 -6.7148e-19
-6.45612e-06 1.5824e-06 1.15634e-18
-5.61803e-06 6.22313e-06 -1.29745e-18
-1.09204e-06 4.48042e-06 -2.49674e-19
-9.25473e-06 5.80668e-06 -5.64047e-19
-3.66325e-06 3.37204e-06 5.09297e-19
6.34491e-06 -4.47756e-06 -4.92121e-21
1.17335e-05 -1.18514e-06 1.12808e-18
-8.06417e-06 4.24738e-06 7.70969e-19
7.48621e-07 1.73466e-06 -3.37534e-19
8.42305e-06 -1.4852e-06 -4.31279e-19
-6.20945e-06 3.89628e-06 1.34951e-18
-3.44176e-06 2.07167e-06 5.89969e-19
4.62559e-06 1.58403e-06 -2.70866e-18
7.20309e-06 -4.48285e-06 -7.36339e-19
-6.29803e-06 3.54263e-06 -7.81746e-20
-8.06081e-06 -1.69751e-06 -2.35545e-18
-6.26868e-06 -1.51883e-06 4.21558e-19
3.86585e-06 1.22751e-07 -1.26751e-18
3.94929e-06 -5.56928e-08 7.5558e-19
1.78552e-06 3.12424e-06 1.68122e-18
1.94216e-06 -3.29263e-06 4.16261e-19
-1.82333e-06 3.2756e-06 4.24556e-19
-1.89942e-06 -3.34432e-06 8.21849e-20
3.51117e-06 -2.81634e-06 -4.22126e-19
-7.93514e-06 1.34073e-06 -1.0992e-18
-7.84442e-06 -1.36474e-06 1.45273e-18
-5.07573e-06 6.16599e-06 1.87335e-18
-5.10132e-06 -6.18698e-06 1.77692e-18
2.88981e-06 -7.90941e-06 -2.90904e-18
2.78439e-06 7.84592e-06 -1.76335e-19
5.20136e-07 8.46811e-06 1.61334e-19
4.18072e-06 -9.4043e-07 -1.34927e-18
8.98195e-07 -1.37274e-06 -2.60943e-19
-7.04548e-06 5.11491e-07 4.14911e-19
2.97191e-06 -7.7834e-06 1.10074e-18
2.81759e-06 7.81008e-06 -1.10992e-18
1.73404e-06 -3.16993e-08 -6.70464e-19
2.90717e-06 7.94893e-06 5.66161e-19
-8.00433e-07 -1.43783e-06 -3.34422e-19
7.44642e-07 -4.03194e-06 2.00083e-18
-7.30661e-06 -3.89559e-06 -2.43444e-19
-8.1657e-06 -4.33588e-06 -3.46121e-19
-7.11698e-06 4.43626e-06 5.77344e-19
1.16585e-06 -4.83719e-06 5.0515e-19
-5.70384e-07 1.19059e-06 1.4278e-18
-2.49193e-07 -8.35012e-06 7.3556e-19
-2.53733e-06 -7.88554e-06 -2.44967e-19
1.03864e-05 9.6257e-06 -1.27851e-18
1.13876e-05 -5.7557e-07 6.36735e-19
-4.86824e-06 -1.50729e-06 1.86549e-18
-7.193e-06 -1.28324e-05 -1.75388e-18
2.8736e-06 4.69029e-06 -7.53873e-19
-8.11858e-06 9.5838e-07 3.54263e-21
6.74032e-06 1.93999e-06 -1.68994e-19
-1.61983e-06 -6.82736e-09 -7.49184e-19
-1.84695e-06 -3.16515e-06 9.13323e-19
-3.24675e-06 -1.54004e-05 1.28931e-18
-3.71393e-06 6.91273e-08 -7.53621e-19
-1.49609e-05 -5.60244e-07 -7.9661e-19
5.64941e-06 -6.25743e-06 7.99516e-20
9.14221e-07 1.42118e-06 4.99814e-19
-8.54068e-08 -6.18128e-06 6.62709e-19
-3.21872e-06 7.75263e-06 1.87294e-18
-1.74765e-06 3.24109e-06 1.42614e-18
6.90698e-06 -4.49741e-06 -6.60101e-19
-1.49599e-05 -4.87553e-06 7.77051e-19
-4.95237e-06 -6.55776e-06 -1.79189e-18
1.85297e-06 3.30056e-06 -1.5996e-18
6.33143e-06 1.68546e-06 4.18425e-19
-1.63483e-06 -2.49646e-06 -1.00177e-18
7.84597e-06 1.50363e-06 -2.98121e-18
6.79008e-06 -3.56329e-06 8.07018e-20
-1.19817e-07 1.0505e-05 1.11656e-18
2.89467e-06 -4.68351e-06 5.77097e-19
1.54543e-05 6.32011e-07 7.59318e-20
-1.31387e-05 3.41066e-06 -1.73804e-18
8.95303e-06 4.4186e-06 4.24952e-19
-2.13989e-06 -5.74901e-06 4.98943e-19
-5.42916e-06 -2.97888e-06 -3.34712e-19
9.38842e-06 -7.42013e-08 -6.56816e-19
-3.04335e-07 -9.26528e-06 -2.61905e-19
-4.45935e-06 -4.12635e-06 6.68122e-19
3.32381e-06 -7.6621e-06 -1.46511e-18
-2.71561e-07 7.47572e-06 1.3452e-18
2.52421e-06 8.51285e-06 1.79918e-18
6.22714e-06 -3.60589e-06 1.63031e-19
-6.19987e-06 6.17849e-06 -1.30674e-18
5.38011e-06 6.53967e-06 7.49523e-20
-2.58954e-05 6.16254e-06 1.74945e-19
-4.05278e-06 1.0047e-05 1.72816e-19
4.96597e-06 -5.92613e-06 3.30735e-19
-2.67462e-06 -7.21821e-06 1.2637e-18
-4.32288e-06 1.45607e-06 1.26368e-18
-8.34946e-06 -2.33713e-06 4.13742e-19
-2.6831e-06 1.54496e-05 5.40625e-21
-4.52144e-06 4.59906e-06 8.93871e-20
7.03345e-06 -1.62874e-06 -9.9476e-19
-2.1893e-06 -8.40759e-06 6.55284e-19
-4.8182e-06 7.66879e-06 1.72012e-18
-8.36284e-06 4.84952e-06 1.37199e-18
-6.67468e-06 -4.89111e-06 -3.02168e-18
6.95701e-06 -8.22756e-06 -1.02586e-18
-8.82679e-06 -4.75497e-07 3.31882e-19
3.80526e-06 -1.2951e-05 7.72417e-20
6.41941e-06 -6.16395e-06 1.14614e-18
7.75158e-06 1.35889e-05 7.18095e-19
7.92975e-07 7.4742e-06 1.77768e-18
9.79791e-07 -8.31797e-06 -1.22631e-18
-1.68261e-05 1.97884e-05 -3.49526e-19
-4.10163e-06 -7.86113e-06 -2.29272e-18
6.30326e-06 -2.30599e-06 7.53318e-19
-8.35682e-07 8.37892e-06 -1.22267e-18
4.7518e-06 -4.66683e-06 1.84966e-18
4.51591e-06 7.89581e-06 -8.51549e-20
5.90698e-06 -5.56834e-07 -5.82497e-19
6.73436e-06 -1.9685e-05 -7.6463e-20
-1.95456e-06 -4.37146e-06 1.65529e-19
-7.53474e-06 3.22817e-06 8.20872e-19
-7.76158e-06 7.34589e-06 9.40963e-19
7.0951e-06 4.80958e-06 -4.1205e-19
6.38571e-06 -3.72273e-06 -4.99398e-19
5.42699e-06 4.80581e-06 -8.80925e-20
-2.05679e-06 -9.52609e-08 2.02017e-18
5.02915e-06 -7.5058e-06 7.97084e-20
-5.55183e-06 -6.55091e-06 -1.63808e-18
7.5156e-06 3.31976e-06 7.37215e-19
4.77717e-06 -4.60259e-06 1.34744e-18
3.07042e-06 -8.1272e-06 -7.3672e-19
5.86115e-06 -2.65277e-06 -7.54961e-19
-5.44952e-06 -2.65185e-06 1.49846e-18
5.5841e-07 -1.0135e-05 1.27394e-18
-8.42057e-06 1.50138e-06 1.07133e-18
7.17932e-07 8.1198e-06 -5.74701e-19
6.98411e-06 2.35902e-06 -3.32835e-19
-7.13121e-06 -3.57193e-06 -1.56075e-18
-2.88153e-06 8.31716e-06 1.22877e-18
-4.47345e-07 -8.022e-06 -2.55253e-18
7.42533e-06 4.55355e-06 8.4452e-19
-4.36867e-07 6.4195e-06 -3.31222e-19
-6.67635e-06 4.44007e-06 2.22491e-18
7.76825e-06 3.72858e-06 8.01067e-20
-6.01501e-06 -3.7233e-06 1.25593e-18
2.26815e-07 -7.10177e-06 -1.71273e-19
6.07311e-06 6.50108e-06 -1.55977e-18
-8.49325e-06 -5.54235e-06 2.52046e-19
1.52029e-05 -1.08644e-05 7.72671e-19
6.31048e-06 -3.71966e-06 -5.00412e-21
2.73353e-06 1.35783e-05 -2.00037e-18
5.90317e-06 -4.574e-06 1.65655e-18
-7.01273e-06 2.71374e-05 -3.44346e-21
-7.04811e-06 -2.68809e-05 -7.38398e-19
1.7679e-05 2.30765e-05 1.18576e-18
1.74682e-05 -2.30709e-05 -7.75017e-20
2.88467e-05 -1.48966e-08 5.91249e-19
-2.4812e-05 1.00719e-05 -3.77996e-18
-2.44117e-05 -1.01758e-05 -1.11741e-18
4.59509e-06 4.56673e-06 -1.01833e-18
1.16605e-05 8.73248e-06 4.26221e-19
3.97766e-06 1.2454e-06 -3.35859e-21
6.46535e-06 3.30626e-06 -8.30711e-19
1.64703e-06 6.73957e-06 9.8676e-19
-6.26279e-06 -4.85885e-06 -3.04407e-18
6.27286e-06 -3.53993e-06 4.16104e-19
6.68156e-06 4.79102e-06 -8.22055e-19
-9.87836e-07 8.06554e-06 -1.23433e-18
1.17244e-05 -8.01213e-06 -1.64114e-18
1.17868e-06 -7.88535e-06 -1.89415e-18
8.46213e-06 1.79863e-06 -2.56941e-19
9.6538e-06 3.62733e-06 -8.40681e-20
5.61055e-06 5.46662e-06 6.81912e-19
5.49506e-06 2.34562e-06 2.46111e-19
-6.23249e-06 3.70676e-06 7.49381e-19
-7.40481e-06 3.03719e-06 1.07422e-18
8.98573e-06 -4.3296e-06 -9.19766e-20
-6.26165e-06 -3.50734e-06 -1.99522e-18
-6.28448e-06 -3.53236e-06 -4.94799e-19
-4.46665e-08 -7.19238e-06 -1.00276e-18
-6.30816e-08 -7.18096e-06 -5.01599e-19
-6.61077e-06 -3.40767e-07 6.60947e-19
8.73146e-06 -1.31811e-06 7.66463e-20
6.18037e-06 3.8837e-06 4.95982e-19
-6.19684e-06 3.69855e-06 1.66906e-18
-5.70046e-06 6.42266e-06 -1.01346e-18
5.40982e-06 -4.62294e-06 1.56431e-18
-3.65674e-06 5.72769e-06 -7.35901e-19
-4.72108e-06 -4.9017e-06 -1.48121e-18
-4.04451e-07 7.13645e-06 -6.61845e-19
-3.29371e-07 7.25459e-06 3.31674e-19
-8.79745e-09 -7.10127e-06 -9.02624e-20
2.02985e-06 -6.57437e-06 -2.46608e-19
-6.13813e-06 -3.49419e-06 -1.42552e-18
5.35078e-06 -1.9534e-06 -1.33033e-18
2.48846e-07 7.27211e-06 8.21695e-20
1.27858e-07 6.53421e-06 -3.34879e-19
-7.51804e-07 5.7663e-06 -1.74183e-18
7.2882e-06 -1.85304e-06 -9.09448e-19
-6.28391e-06 1.81873e-06 1.77809e-18
1.29917e-06 7.27905e-06 4.95193e-19
-1.28397e-05 4.99033e-06 6.91661e-19
2.99185e-06 1.32288e-05 -6.64273e-22
-6.41569e-06 1.60056e-06 -8.38972e-19
7.56088e-06 -4.49943e-06 -9.05412e-20
2.40704e-07 7.2675e-06 3.32745e-19
-6.80994e-06 2.34109e-06 9.15608e-19
1.00754e-06 -5.9071e-06 7.53576e-19
3.10505e-07 -1.82005e-05 -6.18948e-19
6.45437e-07 6.04706e-06 6.62396e-19
-5.77891e-06 4.60953e-06 1.99345e-18
5.43206e-06 1.99416e-05 6.29513e-19
1.88425e-05 1.56382e-05 -1.48482e-18
2.16185e-05 -1.47892e-05 -9.70721e-19
5.23665e-06 -3.52546e-06 -8.46216e-20
-5.26342e-06 4.62848e-06 -1.58151e-19
-6.75695e-06 -2.76676e-06 -4.11527e-19
-6.51108e-06 -2.26706e-06 -4.89739e-19
2.66716e-05 -7.33585e-06 -6.26258e-19
2.7199e-05 5.72249e-06 -1.67955e-18
3.79418e-06 1.4033e-06 4.98959e-19
1.10685e-07 6.93468e-06 -1.66677e-19
4.93936e-08 6.93402e-06 5.00588e-19
-1.5141e-05 -1.11005e-05 -1.31716e-18
3.81613e-06 -5.70198e-06 -7.40189e-19
4.35135e-06 4.88656e-06 -8.93927e-20
-7.05516e-06 -1.19249e-06 -9.06708e-19
-4.70432e-06 5.62225e-06 -2.43055e-19
-6.34794e-06 3.06819e-06 1.49174e-18
1.50166e-05 1.07662e-05 -1.23826e-21
5.95356e-06 2.55535e-06 -4.2346e-19
-1.84981e-06 6.62189e-06 3.30029e-19
-5.93866e-06 -3.94745e-06 -3.30964e-19
5.30729e-07 -7.13466e-06 -2.25258e-18
-2.91673e-06 -6.40509e-06 2.07249e-22
-5.80246e-06 -3.94337e-06 -2.47964e-18
3.51642e-06 -6.29858e-06 2.47422e-19
4.81324e-06 -5.62008e-06 3.29394e-19
-9.15169e-07 -1.90584e-05 -8.63471e-19
8.20167e-06 -1.29826e-05 -7.2165e-19
5.89938e-07 -7.02204e-06 -3.33622e-19
6.32904e-06 3.85956e-06 -8.34595e-19
-4.94752e-06 -4.90466e-06 -9.11248e-19
-3.23168e-06 6.5074e-06 -7.4154e-19
-1.59359e-06 7.06982e-06 -1.24202e-18
5.74267e-06 4.72695e-06 -3.35921e-19
1.95519e-06 -6.72633e-06 -2.49953e-19
-4.39223e-06 -1.25913e-05 -1.57756e-18
-8.39011e-07 9.58587e-06 -9.33705e-19
4.98348e-06 4.82862e-06 -8.25566e-19
-4.62984e-06 -3.79636e-06 1.50785e-18
-4.95734e-06 3.97618e-06 5.11003e-19
1.408e-05 -6.02333e-06 1.65522e-18
2.56528e-06 -4.57202e-06 1.49173e-18
-2.87181e-06 -4.23574e-06 1.16469e-18
8.45434e-06 2.63833e-06 -2.5754e-18
5.27776e-06 -1.90322e-05 -5.36637e-19
-1.38473e-05 -1.40727e-05 9.55335e-19
9.1981e-06 2.33761e-06 3.39217e-19
-3.0817e-06 -6.00698e-06 -8.21233e-19
6.51086e-06 3.40641e-06 -1.08328e-18
-9.05203e-06 -1.00755e-05 -1.33834e-18
4.27639e-06 1.93397e-05 3.52524e-19
1.8799e-05 -2.43006e-05 7.80016e-19
-1.16473e-05 -2.84234e-05 7.04277e-19
8.49648e-06 -1.65676e-05 -8.48905e-19
-4.96373e-06 1.72392e-05 -5.19684e-19
-2.8575e-06 1.52347e-05 9.58044e-19
-6.42139e-06 3.18479e-06 6.72049e-19
2.43339e-06 9.25423e-06 1.79045e-18
-7.46804e-07 4.3611e-06 -6.62886e-19
3.62068e-06 1.27392e-06 -2.55969e-19
-1.36967e-06 6.06684e-06 -8.32472e-20
-7.24532e-08 7.81461e-06 1.26824e-18
5.92111e-06 3.47704e-06 1.00063e-18
2.81433e-07 1.81142e-05 8.49415e-19
-5.12392e-06 3.54895e-06 4.23146e-19
5.88109e-06 -2.13054e-06 -1.26439e-18
6.51437e-06 -1.50739e-06 -5.97862e-19
-1.85647e-05 -2.69675e-06 1.53467e-19
-1.36356e-05 6.49893e-06 -3.42578e-19
-1.34598e-05 -1.5969e-05 -5.48266e-19
3.37275e-06 3.13005e-06 1.35418e-18
5.05841e-06 2.80267e-06 -8.76741e-20
8.78841e-06 -1.45428e-06 -7.40629e-19
-2.77227e-06 -4.50679e-06 -9.19373e-19
6.06422e-06 3.13862e-06 1.08473e-18
2.92512e-06 -1.17646e-05 4.15704e-19
-4.98344e-06 3.47269e-06 -5.78933e-19
-8.72356e-06 -8.41012e-06 -9.36287e-20
-1.89572e-06 5.57981e-06 -1.24555e-18
-1.39028e-06 7.68062e-06 -3.36339e-19
1.36376e-05 8.45672e-06 -8.68404e-19
1.45484e-05 -7.69967e-06 -1.48039e-18
-1.30619e-05 -3.5078e-06 2.399e-19
2.68686e-06 2.94388e-06 2.46358e-19
-1.48093e-06 3.15035e-05 -3.88249e-19
2.10004e-08 -3.23583e-05 -3.83182e-19
1.59543e-05 2.73019e-05 8.4617e-19
-7.14053e-06 2.96694e-06 2.58861e-19
-8.5861e-06 1.73512e-05 -1.31332e-18
1.60542e-05 -2.6352e-05 -7.66634e-19
-3.90446e-06 -5.9944e-06 -9.91367e-19
2.4419e-05 2.12231e-05 3.08484e-19
9.50135e-06 -6.99325e-06 -1.1275e-18
-1.31577e-06 -1.17156e-05 -1.80377e-19
2.55827e-05 -2.07529e-05 7.9644e-20
-2.26192e-06 4.87996e-06 -9.90024e-19
-1.64756e-05 -1.04602e-05 -7.06148e-19
-1.34891e-05 -2.8177e-05 1.53781e-18
-7.65765e-06 -1.79414e-05 -8.60868e-19
-1.38678e-05 2.86367e-05 -9.23512e-19
-3.28529e-06 1.99215e-05 -3.91732e-19
6.4188e-06 1.47185e-05 8.69044e-19
-8.88638e-06 1.1414e-05 3.08313e-21
-8.21845e-06 -1.68979e-05 -1.85696e-18
3.14e-05 5.51737e-06 3.80512e-19
-6.03283e-06 3.65195e-06 5.91014e-19
-2.34298e-06 6.10604e-06 -1.18368e-18
-1.56304e-05 1.12424e-05 -2.26319e-18
-6.08727e-06 3.52255e-06 1.42621e-18
3.10912e-05 -4.92205e-06 1.4597e-18
-5.51887e-06 2.68515e-06 -7.47328e-19
2.45736e-06 -4.90745e-06 5.77534e-19
-2.41293e-05 -1.8401e-05 -5.40116e-19
-8.25004e-06 1.79469e-05 6.29134e-19
-2.47019e-05 1.82704e-05 -1.69211e-18
7.52061e-06 1.6506e-05 1.08052e-18
-5.11918e-06 3.58057e-06 2.00019e-18
-7.95534e-06 9.67851e-06 1.12119e-18
-1.4492e-05 1.82279e-05 4.46988e-19
-2.274e-05 -2.91952e-06 6.1718e-19
-4.32282e-07 5.88655e-06 -8.3865e-20
-1.53456e-05 -1.83045e-05 6.01607e-19
-2.35332e-05 4.14205e-06 1.2344e-18
-8.97324e-06 2.07912e-05 -1.93969e-18
-6.90868e-06 2.76076e-05 8.81858e-19
-5.78084e-06 1.28663e-05 7.13311e-19
-1.33136e-05 1.0736e-05 -1.29685e-18
9.67589e-06 -2.31104e-06 -4.34124e-19
1.52277e-05 -7.27405e-07 -1.90304e-18
4.85121e-06 3.06234e-06 4.9909e-19
-4.85448e-06 -3.17827e-05 1.47353e-18
-2.99586e-05 -1.16778e-05 1.04991e-18
1.48235e-05 9.53329e-08 1.67698e-19
1.84795e-05 -3.56946e-06 3.8366e-19
-3.54621e-06 -4.49929e-06 -6.61578e-19
-1.59988e-05 1.12723e-05 -1.38817e-18
-1.43402e-05 1.64444e-05 -1.09664e-18
1.95348e-05 -7.03491e-06 1.48877e-18
-1.11888e-05 -1.89328e-05 1.38116e-18
-1.13872e-05 1.87841e-05 1.79941e-19
-2.2069e-05 -7.96181e-07 4.45947e-19
-1.00231e-05 1.97577e-05 6.9203e-19
-2.20056e-05 2.42413e-07 1.75835e-19
2.74421e-05 9.81743e-06 -1.062e-18
2.20891e-05 8.32662e-07 -3.75044e-18
2.08035e-05 -1.0653e-05 -1.58628e-18
6.09624e-06 -2.92717e-05 -7.06474e-19
1.09663e-05 -1.91351e-05 -1.30974e-18
1.08913e-05 1.91315e-05 -8.74382e-19
5.97059e-06 2.86026e-05 -2.46878e-18
2.99595e-05 -8.45163e-06 7.94127e-19
1.91832e-05 9.49965e-06 8.66691e-20
1.83915e-05 5.0184e-06 -8.78775e-20
P_ext 3 563 float
-4.54637e-07 1.53687e-07 -8.57376e-21
4.09584e-10 1.67889e-08 3.28185e-20
-4.17995e-08 -3.9319e-08 1.27876e-21
-1.32222e-08 1.22013e-08 1.04743e-20
1.14732e-08 2.36546e-10 1.26779e-21
1.37646e-08 -5.58381e-08 1.42611e-20
-4.47623e-07 -1.55547e-07 9.45203e-21
-3.27493e-08 -3.71776e-08 -7.85752e-21
9.12099e-08 1.61191e-09 -1.16988e-20
3.32709e-08 -3.11134e-09 -7.87701e-21
2.95939e-07 6.93825e-08 -9.76394e-21
1.62401e-08 -4.74924e-08 1.94791e-20
3.71751e-08 4.42821e-08 -1.30916e-20
-3.85358e-09 3.46583e-08 4.4485e-20
1.03708e-08 3.87706e-09 3.96985e-20
-5.82811e-08 -9.53977e-10 2.99487e-20
-7.30555e-09 2.28211e-08 1.45449e-20
3.51281e-08 -5.29506e-09 2.20702e-20
4.03727e-08 7.20078e-08 -1.16186e-20
-5.41475e-08 5.45762e-09 1.03991e-20
-2.03426e-08 -7.66949e-08 -7.86303e-21
6.81529e-10 6.79047e-11 -1.36189e-20
5.99757e-08 4.88067e-09 -6.54544e-21
3.81727e-08 -4.40884e-08 2.06336e-20
-5.53139e-08 -8.90029e-09 2.72315e-20
-1.04402e-08 -3.02489e-08 -1.69718e-20
3.40167e-07 -2.78282e-08 2.08337e-20
4.15799e-08 3.50692e-08 -5.45138e-20
-1.24396e-07 -9.88087e-08 -1.76184e-20
7.26908e-09 1.38176e-09 9.45973e-21
-5.55253e-08 -9.8706e-09 5.2036e-21
2.43069e-08 -1.58201e-07 7.52466e-21
2.55627e-07 -2.61796e-07 4.25958e-20
5.33474e-10 -1.19432e-08 1.20283e-21
-3.20314e-09 9.1827e-09 -1.4607e-20
-9.97303e-09 -6.56205e-09 -1.07566e-20
1.29525e-09 6.60126e-09 1.2283e-20
-1.00714e-08 1.72323e-09 3.12286e-20
4.01487e-08 -4.3693e-08 2.4991e-21
2.49445e-07 2.72829e-07 -3.75984e-21
1.59245e-07 -7.21542e-08 3.13558e-20
2.42604e-09 -6.04711e-09 -9.72516e-21
-3.98901e-09 -5.27182e-09 3.91897e-20
-5.51609e-08 1.13127e-08 3.91137e-20
1.58056e-07 -1.5522e-07 2.46419e-20
-1.47208e-07 5.29882e-08 1.26305e-20
-1.85875e-08 -8.10843e-08 -3.87356e-21
3.35262e-08 8.14386e-08 1.01613e-20
-5.29106e-08 1.38246e-08 1.5703e-20
-9.11941e-08 1.41833e-07 8.79945e-21
1.61631e-07 7.91622e-08 6.21729e-21
1.40306e-07 -4.61424e-08 -1.90685e-20
-4.10337e-09 9.76632e-09 8.18021e-21
-1.09798e-07 -9.85332e-08 -2.28583e-20
-1.07101e-08 1.42278e-09 3.61072e-20
-2.3565e-07 1.38387e-07 -4.93793e-20
-2.97288e-09 -9.14456e-09 3.7641e-20
3.12691e-08 -1.44995e-07 -1.89798e-20
-9.31376e-09 -2.0404e-09 3.0938e-20
2.45074e-08 4.91326e-08 -1.03922e-20
-1.30644e-08 -3.93364e-09 5.50397e-20
-1.37895e-08 -1.29153e-08 2.11012e-20
3.0667e-07 1.35013e-07 -1.34756e-21
-2.94144e-10 2.6687e-08 -1.71257e-20
4.09324e-09 -1.7798e-08 -2.78702e-20
6.95143e-09 -3.96432e-08 1.9548e-20
-2.78143e-09 -1.29669e-08 -3.41522e-20
-3.17536e-08 -8.05147e-09 -9.16567e-21
-3.69753e-08 4.52467e-08 6.58206e-21
9.91557e-09 -3.58417e-09 2.53784e-21
-4.04671e-09 -1.00489e-08 7.05757e-20
-1.05928e-08 -1.56027e-09 1.0662e-20
-1.83504e-08 1.70018e-07 2.5099e-20
-3.25801e-08 1.6452e-08 2.75112e-21
-3.16477e-08 5.41338e-08 1.184e-20
-3.18973e-07 3.74918e-08 9.75457e-21
-4.10511e-12 -2.51541e-08 -2.8012e-20
-3.06044e-08 -2.56648e-08 2.54628e-21
1.29118e-08 3.14736e-08 1.22503e-21
1.22128e-07 2.44183e-08 1.77117e-20
1.75131e-07 -1.52384e-07 7.4208e-21
4.75919e-09 1.16864e-08 9.40663e-21
1.17858e-08 3.68555e-09 1.30952e-20
-1.63191e-07 1.20738e-07 -2.60832e-20
1.90442e-07 2.31507e-08 3.74887e-21
-2.88786e-08 2.58235e-07 1.72836e-20
-1.00035e-08 -5.16487e-08 1.16714e-20
3.50404e-08 2.46862e-08 2.88296e-20
1.5203e-07 1.60327e-07 6.1296e-21
2.74144e-09 1.19095e-09 8.0941e-21
-2.92901e-08 1.45815e-07 -3.82524e-21
2.47514e-09 -1.30096e-09 -1.79511e-20
-1.75112e-08 1.19676e-08 3.06998e-20
3.78801e-08 1.54029e-08 1.68782e-20
-1.40404e-07 4.33981e-08 7.66773e-21
8.15138e-08 1.43238e-07 1.50144e-20
5.07182e-08 -2.28997e-07 -1.00412e-20
1.19078e-08 3.1189e-08 1.43342e-20
-2.14997e-08 -1.27735e-08 -1.60367e-20
1.7855e-08 5.7068e-08 -2.62597e-21
1.1876e-07 2.02033e-08 1.5272e-20
-7.88814e-08 1.62953e-07 1.52047e-20
2.09741e-07 -6.85489e-08 -9.95264e-21
-1.16187e-08 2.53671e-08 4.01912e-21
2.22464e-08 2.26222e-08 -4.44491e-20
-1.32447e-08 -3.05182e-08 -2.21469e-20
-5.34479e-09 -2.32226e-08 -3.2979e-20
6.15939e-08 7.37344e-09 1.29345e-20
-4.50068e-08 2.10505e-07 5.71617e-20
-1.03613e-08 6.41827e-09 1.32831e-20
3.0719e-08 4.5542e-08 -3.37895e-20
-1.52192e-08 -2.16048e-07 -3.65731e-21
2.1854e-07 6.56172e-08 -9.99227e-21
1.4851e-08 -2.62485e-08 4.67983e-20
-3.39022e-08 -3.86573e-09 -2.71265e-21
-1.39706e-07 -5.60654e-08 1.76635e-20
6.87843e-09 7.34323e-09 -1.48902e-20
-2.22017e-07 -7.7641e-08 -3.35759e-20
6.98397e-09 -7.32463e-09 -1.35979e-20
-2.15862e-08 -1.5172e-07 2.57919e-21
9.35924e-08 3.55322e-09 3.73265e-21
-8.31867e-09 7.0569e-09 3.71367e-20
2.24664e-09 1.02094e-08 5.15768e-21
6.27709e-09 -2.73629e-08 -1.33169e-20
1.08591e-08 -5.05204e-09 -1.44348e-20
1.67436e-10 1.09684e-08 2.83586e-21
9.45476e-09 -1.18721e-09 -7.02324e-21
1.77056e-08 -2.61508e-08 -1.44196e-21
-4.5461e-08 -2.31848e-07 1.87824e-20
1.20027e-07 -9.24068e-08 -4.81779e-20
3.66912e-10 1.45626e-08 9.45347e-21
-1.01103e-08 -1.81582e-09 3.26093e-20
-3.26036e-09 -1.12823e-08 6.45865e-21
-8.32483e-09 -5.89329e-09 1.17976e-20
-1.12235e-07 1.40252e-07 1.35827e-21
-1.29969e-10 -1.10742e-08 -2.04867e-20
-1.40446e-07 2.20518e-07 -2.45997e-21
-5.26842e-08 2.42169e-08 2.61312e-20
7.40197e-09 7.94889e-09 -3.95994e-20
-9.53431e-09 -5.57486e-09 2.57313e-21
6.84496e-08 1.65203e-07 7.49099e-21
3.94099e-08 3.51524e-08 -1.83161e-20
9.57968e-08 -3.15857e-08 -2.55982e-20
5.401e-09 -2.94413e-08 -3.98207e-21
-1.73992e-07 -1.60331e-07 1.37186e-20
-1.67615e-08 2.89292e-08 3.26462e-20
4.3466e-08 2.31864e-08 -2.4802e-20
6.35979e-08 -2.18839e-08 -1.94876e-20
2.74626e-08 -5.48762e-08 1.1641e-20
1.08973e-07 -5.02544e-08 -1.27789e-20
7.24625e-08 -3.42036e-08 -3.10243e-20
7.2645e-09 -6.04455e-09 1.28573e-20
1.26465e-07 1.00032e-07 -1.0088e-20
-1.82964e-08 -5.28545e-08 2.61064e-20
-2.2431e-08 -1.92146e-08 5.25648e-21
-3.6838e-09 -9.62895e-09 -2.7469e-20
5.06147e-09 3.76919e-08 6.46166e-21
-1.69132e-07 1.21239e-08 -3.53091e-20
-6.17911e-08 -1.61449e-07 1.32203e-21
-2.65737e-08 3.38729e-08 1.56338e-20
5.22732e-08 6.96785e-08 -2.84593e-20
1.30167e-07 -9.23223e-08 2.2548e-20
-1.90367e-07 -1.01781e-07 -1.97204e-20
8.46573e-08 -1.3782e-07 3.12453e-20
1.10217e-07 -1.35583e-07 3.91292e-20
-3.241e-08 3.19594e-09 2.10012e-20
-9.67603e-08 -1.4002e-07 -3.66335e-20
-1.69377e-07 -2.65426e-08 -1.25296e-20
-2.01886e-08 -1.54584e-07 -2.25684e-20
7.53464e-08 -1.55735e-07 -1.01511e-20
1.58887e-09 -2.13362e-08 6.7578e-20
2.23893e-08 1.49096e-07 -5.16439e-21
-7.97818e-08 -1.39564e-07 1.99765e-20
-7.49683e-09 -3.41623e-08 -1.17836e-20
-1.15291e-07 8.6316e-08 -5.03157e-21
-2.25349e-08 -7.35995e-09 -9.37702e-21
-1.75297e-08 -1.20713e-08 -4.00452e-21
4.5948e-08 -2.35564e-08 1.03493e-20
-6.2986e-09 8.90533e-09 -1.86714e-20
2.44015e-08 -3.08355e-08 2.85658e-20
-1.43496e-07 -6.38173e-08 3.39216e-20
-1.89636e-08 -2.55618e-08 -2.08767e-20
1.98164e-08 2.71201e-08 -1.83569e-20
1.03747e-07 1.43217e-07 6.27704e-21
-3.66421e-08 -1.68908e-08 -1.71343e-20
-1.59634e-07 -3.59059e-09 -1.74572e-20
-2.03891e-08 -1.89493e-08 1.4547e-20
-1.14718e-09 -2.74026e-08 3.74372e-21
1.99798e-08 1.0054e-08 2.53796e-21
-2.30584e-08 2.27531e-08 1.32048e-20
-3.85813e-09 -4.03576e-08 3.27471e-20
-2.13126e-07 5.24934e-08 3.03855e-23
1.16774e-07 9.96296e-08 2.64358e-20
1.56014e-08 1.62292e-07 -1.33946e-21
-9.39842e-09 3.21499e-09 2.75588e-20
-3.13501e-08 9.74206e-10 1.4354e-20
1.43892e-08 2.74801e-08 6.43302e-21
-1.13564e-08 -2.81115e-09 -2.89481e-20
1.35982e-09 -9.70876e-09 1.02782e-20
-6.2827e-09 4.27228e-08 -1.43524e-20
6.93173e-09 7.32974e-09 2.21492e-20
-7.92318e-08 1.75115e-08 -2.45985e-21
-8.03988e-08 8.77195e-08 6.30333e-21
-8.66321e-09 8.00535e-09 3.55391e-20
-1.45503e-07 8.78071e-08 -3.00717e-20
-3.6997e-09 1.23549e-08 1.9796e-20
3.91838e-08 -1.40182e-08 5.15442e-21
1.82376e-07 -1.67764e-08 1.88777e-20
-2.27881e-08 1.44185e-08 1.86797e-20
9.2345e-09 4.23875e-09 -3.98162e-21
2.37098e-08 -1.48629e-08 -2.92409e-20
-4.07425e-08 1.35594e-08 2.76561e-20
-2.96618e-08 7.75768e-09 4.18326e-20
1.03919e-08 -3.06296e-09 -5.55066e-20
9.65726e-08 -5.87304e-08 -3.57308e-20
-3.79448e-08 2.41949e-08 -2.52897e-21
-1.13553e-07 -2.36786e-08 1.22145e-21
-2.40655e-08 -1.26883e-08 2.64157e-21
9.1894e-09 -6.1328e-09 -3.55332e-20
1.01829e-08 7.18788e-09 4.45163e-20
-2.60423e-09 1.15924e-08 2.36777e-20
-1.07189e-09 -1.30809e-08 -2.48686e-20
-1.06266e-08 5.40435e-09 3.80281e-20
-1.18934e-08 -6.06488e-09 5.09491e-20
2.98043e-08 -1.12446e-08 -1.57432e-20
-1.08614e-08 -3.01598e-09 1.3276e-20
-1.08374e-08 2.90547e-09 -2.39667e-21
-2.64657e-09 1.07829e-08 1.73882e-20
-2.87645e-09 -1.10195e-08 5.68766e-20
7.16846e-09 -8.00934e-09 -3.4817e-20
6.89045e-09 7.66346e-09 -2.14161e-20
4.17094e-09 1.15255e-07 3.7724e-21
2.23139e-08 -1.84382e-08 -2.63196e-20
5.20865e-09 -9.82967e-09 6.31917e-21
-8.68817e-08 3.20704e-09 -3.84174e-21
8.23451e-09 -7.77841e-09 1.34095e-21
7.68855e-09 7.89885e-09 -3.45775e-20
1.18046e-08 -2.57652e-10 7.76104e-21
3.99014e-08 1.1296e-07 6.32583e-21
-5.97484e-09 -9.7668e-09 -1.8146e-23
1.29272e-08 -2.95605e-08 1.22985e-21
-9.6994e-08 -5.36669e-08 1.52846e-20
-2.12561e-08 -1.37963e-08 -1.8622e-20
-9.73545e-08 5.77343e-08 2.4313e-20
8.61774e-09 -8.80343e-09 -2.62378e-21
-4.13401e-09 9.18504e-09 -6.31097e-21
-2.27592e-09 -1.11601e-07 6.41046e-21
-3.65451e-08 -1.10549e-07 3.7787e-21
1.67639e-07 1.59558e-07 -2.24504e-20
1.79306e-07 -1.01851e-08 3.75616e-21
-1.26602e-08 2.77935e-09 -5.02133e-21
-1.19934e-07 -2.11936e-07 4.93402e-21
2.85455e-08 4.89516e-08 -2.0905e-20
-1.14891e-07 1.35322e-08 -3.03562e-20
8.24409e-08 2.30522e-08 -7.78131e-21
-1.12524e-08 -4.55009e-11 3.77869e-20
2.64987e-10 -1.16817e-08 -1.3209e-20
-1.00852e-09 -7.95965e-09 3.90617e-20
-9.95118e-09 -5.94592e-09 -2.61591e-20
-2.48674e-07 -9.42306e-09 -1.9901e-20
7.81034e-08 -8.83391e-08 1.01114e-20
5.29973e-09 1.02876e-08 6.49824e-21
2.7175e-09 -4.92531e-08 3.64062e-20
-4.65933e-08 1.10336e-07 3.18313e-20
9.73619e-10 1.23616e-08 2.3589e-20
8.3306e-08 -5.96206e-08 -4.2393e-20
-7.27728e-09 -3.19256e-09 -1.49262e-20
-7.08758e-08 -9.21133e-08 -3.43163e-20
9.74787e-09 4.93364e-09 -1.58432e-20
2.30426e-08 2.23227e-08 7.82748e-21
-1.6427e-08 -2.55882e-08 2.57069e-21
1.0057e-08 -3.28539e-09 -2.54243e-20
3.41737e-08 -2.38657e-08 2.55082e-21
-2.02234e-09 1.90224e-08 -2.53099e-21
2.81398e-08 -4.74332e-08 5.10683e-21
2.57446e-07 1.29724e-08 1.17645e-21
-2.1812e-07 5.77088e-08 -3.21171e-20
1.81905e-08 1.26734e-08 2.79072e-20
-2.69863e-08 -6.49569e-08 5.1742e-20
-4.09825e-08 -2.67446e-08 -7.84408e-21
1.33584e-07 -1.34377e-09 2.15608e-20
1.13569e-09 -2.54162e-08 -8.08415e-21
-3.33367e-08 -1.1741e-08 -1.83819e-20
4.5525e-08 -1.08779e-07 -1.78022e-20
3.6269e-09 4.37383e-08 -1.69798e-20
3.73627e-08 1.15859e-07 1.4079e-20
4.47765e-08 -2.35976e-08 -1.70244e-20
-8.17884e-08 8.7062e-08 -1.27684e-20
7.52223e-08 9.29547e-08 -1.27886e-20
-4.69923e-09 2.0948e-09 1.50428e-23
7.9481e-10 2.01289e-08 1.38391e-21
1.48291e-09 -9.11808e-09 -8.09709e-21
-7.23499e-09 -5.96065e-09 2.50239e-20
-2.49321e-08 1.97932e-08 2.77856e-21
-1.14596e-07 -2.71433e-08 4.98985e-20
3.93425e-10 1.28303e-08 -1.23785e-21
-2.99271e-08 8.90153e-09 1.18924e-20
8.11556e-08 -1.17565e-08 -9.5343e-23
-3.47286e-08 -1.12429e-07 3.84031e-21
-6.8393e-08 1.08918e-07 1.28613e-20
-1.92461e-08 8.89802e-09 5.73414e-20
-9.16569e-08 -6.48484e-08 -4.84767e-20
2.06953e-08 -9.68422e-09 -1.32252e-22
-1.24278e-07 -6.08425e-09 -2.15864e-20
6.08922e-08 -2.14877e-07 -8.64264e-21
8.31116e-08 -8.72894e-08 1.53425e-20
1.27196e-07 2.25522e-07 -1.2311e-21
-1.20529e-09 2.71693e-08 1.33042e-20
1.09048e-08 -1.13216e-07 -1.53078e-20
-4.38864e-09 2.65952e-09 4.06825e-21
-5.89274e-08 -1.09951e-07 -1.03027e-20
1.97091e-08 -1.69028e-08 1.04388e-20
-1.13692e-08 1.14525e-07 -1.02622e-20
2.7553e-08 -8.05729e-09 1.97106e-20
6.28019e-08 1.11926e-07 -1.02925e-20
6.28509e-08 -1.46199e-09 -1.56126e-20
1.14914e-07 -3.39073e-07 -7.30622e-21
-2.43158e-08 -4.52529e-08 1.6831e-20
-1.01455e-07 4.42073e-08 1.53428e-20
-1.41772e-08 6.93898e-09 6.74451e-21
9.63151e-08 6.44998e-08 -3.88731e-21
6.86077e-08 -3.78764e-08 -1.68208e-20
3.62309e-08 1.58958e-08 3.14456e-20
-7.39884e-09 6.27447e-09 4.20499e-20
6.88558e-08 -1.06379e-07 -2.17227e-20
-7.3403e-08 -9.16055e-08 1.14439e-20
9.46921e-08 3.73444e-08 3.85449e-21
2.40463e-08 -1.48455e-08 1.31414e-20
4.428e-08 -1.10048e-07 1.01944e-20
5.19789e-08 -9.83481e-09 -1.05082e-20
-5.04499e-08 -2.01174e-08 -6.42882e-21
-2.1862e-09 -2.04239e-08 1.98983e-20
-1.15742e-07 1.60659e-08 1.03514e-20
1.21606e-08 1.01513e-07 -1.30053e-21
7.91383e-08 1.8456e-08 -1.03861e-20
-8.99245e-08 -4.02419e-08 1.15075e-20
-4.42364e-08 1.13404e-07 8.97632e-21
-1.01143e-08 -9.88956e-08 -6.51399e-21
2.60853e-08 1.2731e-08 6.20521e-20
-1.6978e-08 4.77799e-08 1.56469e-20
-8.08621e-08 5.80003e-08 -7.49967e-21
1.03878e-07 5.24004e-08 6.37057e-21
-4.72321e-08 -1.48166e-08 -1.43242e-20
-1.14737e-08 -4.86276e-08 1.03616e-20
7.93738e-08 9.22785e-08 -1.54751e-20
-1.85935e-08 -8.43771e-09 -8.05775e-21
2.61366e-07 -1.87907e-07 1.19842e-21
5.52219e-08 -3.86446e-08 -4.41843e-20
4.51741e-08 2.21377e-07 -2.62113e-21
5.82425e-08 -5.60116e-08 1.33909e-21
-1.26225e-07 4.80748e-07 5.77589e-21
-1.26954e-07 -4.76068e-07 8.08861e-21
3.11952e-07 4.10014e-07 -1.60592e-20
3.08088e-07 -4.09901e-07 1.84981e-20
5.10621e-07 -2.02984e-10 -3.39254e-21
-4.40194e-07 1.7713e-07 1.2437e-20
-4.32898e-07 -1.79051e-07 -2.21363e-20
2.09702e-08 1.13545e-08 5.65338e-20
1.3432e-08 6.52893e-09 -2.72426e-21
3.91326e-08 5.25917e-09 -7.86793e-21
6.91104e-08 3.69362e-08 -2.45714e-20
2.05051e-08 8.16834e-08 1.02769e-20
-7.41109e-08 -6.36797e-08 -1.41168e-21
3.72706e-08 -3.43843e-08 2.34635e-20
7.96321e-08 6.39191e-08 1.22424e-21
-1.84284e-08 1.00545e-07 -2.05669e-20
1.30247e-08 -6.40471e-09 -8.26671e-21
1.87478e-08 -9.64823e-08 -8.91807e-23
2.44226e-08 1.64935e-08 2.2428e-20
1.4372e-07 5.03407e-08 -3.54394e-20
3.17759e-09 1.03025e-08 -2.5474e-21
5.54844e-08 1.81514e-08 1.24094e-21
-6.86894e-08 3.79918e-08 1.25444e-22
-9.40758e-08 3.25357e-08 -7.54365e-21
1.85701e-08 -1.2723e-08 -2.80542e-20
-6.00238e-08 -2.77682e-08 -3.95818e-21
-6.59673e-08 -3.90746e-08 2.45025e-20
-5.78898e-09 -6.62009e-08 -1.82759e-20
2.59784e-10 -7.60565e-08 1.66592e-20
-8.37701e-08 -3.6197e-09 5.2071e-21
1.24389e-07 -1.93148e-08 2.01839e-20
6.70527e-08 4.13247e-08 -2.44982e-20
-5.54676e-08 3.78429e-08 -1.14878e-20
-2.49789e-08 1.22053e-08 -7.90118e-21
6.25942e-08 -5.60926e-08 3.90125e-21
-4.70419e-08 7.32415e-08 4.87805e-23
-5.79398e-08 -6.10324e-08 1.91797e-20
-5.4936e-09 7.97549e-08 -3.90562e-21
-1.19423e-08 6.72886e-08 6.45305e-21
1.96357e-09 -4.88245e-08 -2.22796e-20
2.52158e-08 -8.15036e-08 3.85033e-20
-4.11713e-08 -2.64219e-08 -3.66585e-20
5.70815e-08 -1.62721e-08 -2.21101e-20
1.3455e-10 7.96553e-08 2.1916e-20
-1.73108e-09 5.08589e-08 -3.94013e-21
-1.27992e-08 5.72332e-08 -7.76424e-21
9.37287e-08 -2.30666e-08 -5.264e-21
-1.96308e-08 1.87823e-08 3.70052e-20
2.12442e-08 7.97164e-08 1.4199e-20
-1.27903e-08 8.07165e-09 3.08945e-20
4.73901e-08 2.19759e-07 2.58367e-20
-2.31611e-08 1.25205e-08 7.31984e-23
2.45754e-08 -1.27959e-08 -5.38104e-21
7.0855e-09 6.77178e-08 4.92496e-20
-7.9447e-08 1.88602e-08 3.62999e-20
-2.46007e-09 -3.43944e-08 6.53346e-21
3.30393e-09 -3.13618e-07 -1.33178e-20
9.51051e-09 5.74082e-08 3.88632e-20
-5.93433e-08 5.6467e-08 4.0638e-21
9.23015e-08 3.43305e-07 9.80936e-21
4.39129e-09 2.89948e-09 4.01072e-21
3.79305e-09 -2.7649e-09 -4.10641e-20
4.46569e-08 -3.48368e-08 -1.55852e-20
-6.34389e-08 5.68002e-08 -3.73641e-21
-7.6126e-08 -2.24745e-08 9.087e-21
-7.82456e-08 -2.56951e-08 3.93191e-21
-1.61062e-09 9.99164e-10 -4.15298e-20
-1.1254e-09 -5.72663e-10 -2.6248e-20
3.65245e-08 7.41158e-09 -2.6275e-21
1.16032e-08 5.32941e-08 2.86359e-20
-1.34191e-09 5.29914e-08 7.81558e-21
-2.62665e-07 -1.90832e-07 -4.34411e-20
4.65525e-08 -7.32284e-08 -2.61578e-21
2.35149e-08 8.43675e-09 6.46321e-21
-8.63558e-08 -9.28223e-09 -9.00626e-21
-5.46011e-08 7.21417e-08 1.55374e-20
-7.04831e-08 3.31391e-08 2.8506e-20
2.57906e-07 1.85281e-07 1.7992e-20
2.54248e-08 1.67344e-08 -1.19017e-20
-2.5068e-08 8.17983e-08 -8.93739e-21
-4.93684e-08 -4.22991e-08 7.78034e-21
1.22914e-08 -6.43974e-08 -1.70692e-20
-3.99823e-08 -7.60521e-08 1.28963e-20
-6.40464e-08 -4.38996e-08 5.07224e-21
4.39029e-08 -7.78621e-08 7.72269e-21
5.26542e-08 -7.2379e-08 2.56446e-21
-1.6716e-08 -3.2721e-07 -7.0206e-23
1.34486e-07 -2.15118e-07 3.35396e-20
6.41507e-09 -7.82067e-08 1.02332e-20
5.51254e-08 4.19774e-08 -2.47192e-20
-4.95323e-08 -6.01409e-08 -1.03733e-20
-4.29795e-08 8.01154e-08 -2.31535e-20
-2.64114e-08 7.85075e-08 -2.97362e-20
5.74934e-08 5.95552e-08 -5.82054e-20
2.81992e-08 -7.34293e-08 1.02864e-20
-7.30059e-08 -2.08151e-07 -3.75301e-21
1.64115e-09 2.51961e-08 -1.32659e-20
5.82258e-08 5.99221e-08 -3.7282e-20
-3.13547e-08 -1.54188e-08 -2.09931e-20
-2.60452e-08 1.41987e-08 1.45651e-20
2.33732e-07 -1.02396e-07 2.21985e-20
2.89802e-08 -4.78937e-08 2.46039e-20
-2.75031e-08 -4.70583e-08 2.85835e-20
1.03823e-08 -9.08284e-10 -2.96206e-20
8.56057e-10 -3.91911e-09 -5.69547e-21
-2.91685e-09 -2.83818e-09 3.26109e-20
1.28011e-08 8.42185e-09 4.77968e-20
-4.03211e-08 -7.61077e-08 5.12361e-20
6.20008e-08 2.48555e-08 -7.86064e-21
-1.51157e-07 -1.66178e-07 -8.67872e-21
5.32303e-10 4.82895e-09 5.51442e-21
5.75028e-10 9.37406e-10 1.07811e-20
1.15271e-09 -1.19659e-10 2.88975e-20
1.45085e-07 -2.86546e-07 -1.81263e-20
-6.00427e-09 7.05547e-09 -1.61943e-20
-1.36392e-09 8.54682e-09 -1.33728e-20
-6.23452e-08 2.21504e-08 1.31068e-20
-2.16652e-09 2.52695e-08 -2.52188e-21
-1.3708e-08 4.06034e-08 2.34709e-20
2.82214e-08 1.18861e-09 2.08201e-20
6.38762e-09 2.43772e-08 -9.18368e-21
-1.66731e-09 3.37125e-08 1.32422e-20
4.83745e-08 2.63128e-08 2.47591e-20
3.47319e-09 3.12158e-07 1.24263e-21
-4.50134e-08 4.26094e-08 -1.16401e-21
3.37214e-08 -2.26977e-08 3.26181e-20
1.94417e-08 -1.7798e-08 1.82474e-20
-3.20134e-07 -4.39533e-08 -1.21626e-20
-9.06365e-09 3.6094e-09 9.46834e-21
-2.33058e-07 -2.75685e-07 -2.93763e-20
4.19092e-09 1.12931e-08 1.85447e-20
4.07861e-08 7.90856e-09 1.69333e-20
1.21587e-07 -1.57736e-08 -1.16471e-22
-2.77693e-08 -4.56293e-08 5.11391e-21
5.30834e-08 1.52077e-08 -6.5062e-21
2.52519e-10 -1.34739e-08 1.71359e-20
-2.99197e-08 3.46445e-08 -2.20775e-20
-1.14298e-08 -7.24602e-09 1.17441e-21
-2.70046e-08 5.48325e-08 -6.47799e-21
4.89525e-09 3.4567e-08 1.32372e-21
7.90495e-09 5.78478e-09 -5.48552e-21
7.84219e-09 -5.55644e-09 -3.26094e-20
-2.1698e-07 -5.91068e-08 -1.96318e-20
2.38507e-08 8.87615e-09 3.91462e-20
-2.87587e-08 5.57131e-07 -3.62198e-21
-1.98026e-09 -5.72379e-07 -1.69233e-20
2.81727e-07 4.82333e-07 3.71177e-20
-2.91386e-08 2.31387e-08 4.08349e-20
-1.49325e-07 3.00464e-07 -2.53334e-20
2.83355e-07 -4.6556e-07 3.41757e-21
-4.67819e-08 -7.57196e-08 3.2125e-20
4.30312e-07 3.77005e-07 7.35542e-21
5.01704e-09 -8.90752e-09 -1.59478e-21
-5.23552e-09 -9.02354e-09 9.20024e-21
4.51054e-07 -3.68603e-07 1.20417e-20
-2.75954e-08 5.42568e-08 -2.56229e-21
-2.83307e-07 -1.80432e-07 -7.41841e-21
-2.38948e-07 -4.97981e-07 2.47118e-21
-1.33816e-07 -3.07839e-07 -1.71224e-20
-2.45643e-07 5.0627e-07 -1.44775e-20
-5.80428e-08 3.43065e-07 8.49883e-21
-4.11294e-10 1.19387e-08 2.84046e-20
-1.49016e-07 1.91849e-07 -2.93883e-20
-1.42718e-07 -2.92049e-07 -9.72758e-21
5.54823e-07 9.68441e-08 -3.59128e-20
-4.32757e-08 3.68076e-08 1.57481e-20
-1.00007e-09 2.42772e-08 -4.3567e-20
-2.68373e-07 1.94286e-07 -2.07493e-20
-4.79997e-08 2.56154e-08 -8.92947e-21
5.49381e-07 -8.61482e-08 3.66118e-21
-3.66219e-08 2.45962e-08 -6.44866e-21
2.67003e-08 -5.52251e-08 5.14278e-21
-4.27523e-07 -3.24738e-07 -1.80258e-20
-1.44156e-07 3.08875e-07 1.21735e-20
-4.37889e-07 3.22357e-07 -1.80903e-20
1.27949e-07 2.85476e-07 2.17432e-20
-4.70033e-08 3.73709e-08 2.06116e-22
-1.30031e-08 7.35484e-09 -2.8033e-20
-7.01878e-10 -1.20829e-09 2.87529e-21
2.51594e-10 -9.98616e-10 3.57349e-20
3.58266e-09 3.74952e-08 3.90776e-21
-1.0376e-09 1.20857e-09 -1.8113e-20
6.21192e-10 1.4339e-09 6.92995e-21
9.9787e-10 -4.62575e-10 4.00976e-21
-5.54861e-10 4.42307e-09 -5.29808e-21
-9.8432e-08 2.14755e-07 3.6905e-20
-7.37426e-09 5.26546e-09 -2.02679e-20
1.26848e-08 -8.02195e-09 -6.80824e-21
1.24393e-08 -7.21714e-09 -1.7697e-20
3.59473e-08 1.40119e-08 2.47979e-20
-3.24008e-10 -3.78451e-09 2.02606e-20
-3.3719e-09 -1.72534e-09 8.20566e-21
1.24302e-08 7.2558e-09 3.48206e-20
3.18193e-07 -6.13485e-08 8.43816e-21
-4.11514e-08 -5.24514e-08 4.25942e-20
-2.78566e-07 1.94242e-07 -1.5663e-20
-2.49347e-07 2.84395e-07 -3.43075e-20
3.36106e-07 -1.21386e-07 3.1847e-20
-1.56559e-09 -4.67076e-09 2.56782e-21
-1.72483e-09 4.79894e-09 -1.88689e-20
-5.25149e-09 9.41934e-10 3.00335e-20
-3.48166e-09 3.48716e-09 4.33425e-20
-4.75722e-09 -1.0519e-09 2.30953e-20
8.3051e-10 1.15691e-09 1.63213e-20
5.10193e-09 -1.29144e-09 -3.51725e-22
2.12034e-09 -1.52569e-09 -2.6181e-20
-1.57279e-09 -1.06374e-09 1.64467e-20
3.29315e-09 -3.33542e-09 -1.64009e-20
3.31173e-09 3.43535e-09 -1.09556e-20
-1.58245e-09 9.26879e-10 -1.24571e-20
1.61525e-09 -3.85624e-10 1.65345e-20
2.7142e-09 1.52439e-09 -3.00896e-20
5.95039e-09 2.16267e-09 -1.35663e-20
SCALARS rr_necrosis float
LOOKUP_TABLE default
0
0
0
0
0
0
0
0
0
0
0
0
0
0
0
0
0
0
0
0
0
0
0
0
0
0
0
0
0
0
0
0
0
0
0
0
0
0
0
0
0
0
0
0
0
0
0
0
0
0
0
0
0
0
0
0
0
0
0
0
0
0
0
0
0
0
0
0
0
0
0
0
0
0
0
0
0
0
0
0
0
0
0
0
0
0
0
0
0
0
0
0
0
0
0
0
0
0
0
0
0
0
0
0
0
0
0
0
0
0
0
0
0
0
0
0
0
0
0
0
0
0
0
0
0
0
0
0
0
0
0
0
0
0
0
0
0
0
0
0
0
0
0
0
0
0
0
0
0
0
0
0
0
0
0
0
0
0
0
0
0
0
0
0
0
0
0
0
0
0
0
0
0
0
0
0
0
0
0
0
0
0
0
0
0
0
0
0
0
0
0
0
0
0
0
0
0
0
0
0
0
0
0
0
0
0
0
0
0
0
0
0
0
0
0
0
0
0
0
0
0
0
0
0
0
0
0
0
0
0
0
0
0
0
0
0
0
0
0
0
0
0
0
0
0
0
0
0
0
0
0
0
0
0
0
0
0
0
0
0
0
0
0
0
0
0
0
0
0
0
0
0
0
0
0
0
0
0
0
0
0
0
0
0
0
0
0
0
0
0
0
0
0
0
0
0
0
0
0
0
0
0
0
0
0
0
0
0
0
0
0
0
0
0
0
0
0
0
0
0
0
0
0
0
0
0
0
0
0
0
0
0
0
0
0
0
0
0
0
0
0
0
0
0
0
0
0
0
0
0
0
0
0
0
0
0
0
0
0
0
0
0
0
0
0
0
0
0
0
0
0
0
0
0
0
0
0
0
0
0
0
0
0
0
0
0
0
0
0
0
0
0
0
0
0
0
0
0
0
0
0
0
0
0
0
0
0
0
0
0
0
0
0
0
0
0
0
0
0
0
0
0
0
0
0
0
0
0
0
0
0
0
0
0
0
0
0
0
0
0
0
0
0
0
0
0
0
0
0
0
0
0
0
0
0
0
0
0
0
0
0
0
0
0
0
0
0
0
0
0
0
0
0
0
0
0
0
0
0
0
0
0
0
0
0
0
0
0
0
0
0
0
0
0
0
0
0
0
0
0
0
0
0
0
0
0
0
0
0
0
0
0
0
0
0
0
0
0
0
0
0
0
0
0
0
0
0
0
0
0
0
0
0
0
0
0
0
0
0
0
0
0
0
0
0
0
0
0
0
0
0
0
0
0
0
0
0
0
0
0
0
0
0
SCALARS rr_protein float
LOOKUP_TABLE default
1
1
1
1
1
1
1
1
1
1
1
1
1
1
1
1
1
1
1
1
1
1
1
1
1
1
1
1
1
1
1
1
1
1
1
1
1
1
1
1
1
1
1
1
1
1
1
1
1
1
1
1
1
1
1
1
1
1
1
1
1
1
1
1
1
1
1
1
1
1
1
1
1
1
1
1
1
1
1
1
1
1
1
1
1
1
1
1
1
1
1
1
1
1
1
1
1
1
1
1
1
1
1
1
1
1
1
1
1
1
1
1
1
1
1
1
1
1
1
1
1
1
1
1
1
1
1
1
1
1
1
1
1
1
1
1
1
1
1
1
1
1
1
1
1
1
1
1
1
1
1
1
1
1
1
1
1
1
1
1
1
1
1
1
1
1
1
1
1
1
1
1
1
1
1
1
1
1
1
1
1
1
1
1
1
1
1
1
1
1
1
1
1
1
1
1
1
1
1
1
1
1
1
1
1
1
1
1
1
1
1
1
1
1
1
1
1
1
1
1
1
1
1
1
1
1
1
1
1
1
1
1
1
1
1
1
1
1
1
1
1
1
1
1
1
1
1
1
1
1
1
1
1
1
1
1
1
1
1
1
1
1
1
1
1
1
1
1
1
1
1
1
1
1
1
1
1
1
1
1
1
1
1
1
1
1
1
1
1
1
1
1
1
1
1
1
1
1
1
1
1
1
1
1
1
1
1
1
1
1
1
1
1
1
1
1
1
1
1
1
1
1
1
1
1
1
1
1
1
1
1
1
1
1
1
1
1
1
1
1
1
1
1
1
1
1
1
1
1
1
1
1
1
1
1
1
1
1
1
1
1
1
1
1
1
1
1
1
1
1
1
1
1
1
1
1
1
1
1
1
1
1
1
1
1
1
1
1
1
1
1
1
1
1
1
1
1
1
1
1
1
1
1
1
1
1
1
1
1
1
1
1
1
1
1
1
1
1
1
1
1
1
1
1
1
1
1
1
1
1
1
1
1
1
1
1
1
1
1
1
1
1
1
1
1
1
1
1
1
1
1
1
1
1
1
1
1
1
1
1
1
1
1
1
1
1
1
1
1
1
1
1
1
1
1
1
1
1
1
1
1
1
1
1
1
1
1
1
1
1
1
1
1
1
1
1
1
1
1
1
1
1
1
1
1
1
1
1
1
1
1
1
1
1
1
1
1
1
1
1
1
1
1
1
1
1
1
1
1
1
1
1
1
1
1
1
1
1
1
1
1
1
1
1
1
1
1
1
1
1
1
1
1
1
1
1
1
1
1
1
1
1
1
SCALARS rr_(S_ext) float
LOOKUP_TABLE default
0.465971
0.466346
0.466315
0.466338
0.466452
0.466314
0.465969
0.466338
0.466283
0.466346
0.46598
0.466338
0.46633
0.466352
0.466412
0.466321
0.466365
0.466332
0.466264
0.466304
0.466301
0.46659
0.466299
0.466305
0.466304
0.466338
0.466042
0.466319
0.466159
0.466507
0.466329
0.46616
0.466037
0.466483
0.466497
0.466482
0.466511
0.466492
0.466328
0.466039
0.466158
0.466512
0.466512
0.466329
0.46607
0.466165
0.466273
0.46629
0.466315
0.466134
0.466149
0.4662
0.466445
0.466202
0.466442
0.466087
0.466498
0.466201
0.466497
0.466306
0.466363
0.466399
0.46607
0.466397
0.466399
0.466368
0.466364
0.466338
0.466302
0.466347
0.466444
0.466444
0.466158
0.46638
0.466316
0.466019
0.466422
0.466367
0.466338
0.466207
0.46613
0.466465
0.466381
0.466117
0.466173
0.466077
0.466319
0.466375
0.46607
0.466571
0.4662
0.466571
0.466423
0.466363
0.466205
0.466144
0.466131
0.466345
0.466421
0.466326
0.466244
0.466183
0.466116
0.466334
0.466342
0.466343
0.466386
0.466324
0.466116
0.46635
0.466306
0.466083
0.466102
0.466332
0.466341
0.466203
0.466498
0.46613
0.466498
0.466204
0.466256
0.466407
0.466345
0.466373
0.466354
0.466415
0.466484
0.466345
0.466131
0.466204
0.466443
0.466343
0.466378
0.466344
0.466183
0.466497
0.466111
0.466333
0.466381
0.466497
0.466187
0.46635
0.466263
0.466346
0.466129
0.466339
0.466344
0.466317
0.466314
0.466232
0.466288
0.466345
0.466158
0.466331
0.466346
0.466343
0.466358
0.466192
0.466193
0.466328
0.46629
0.466161
0.466081
0.466148
0.46619
0.466343
0.466191
0.466191
0.466159
0.466191
0.466424
0.466201
0.466148
0.466362
0.466202
0.466385
0.466423
0.466338
0.466447
0.466345
0.46616
0.466345
0.466344
0.466188
0.466375
0.466145
0.466373
0.466388
0.466426
0.466345
0.466375
0.466135
0.466202
0.466159
0.466344
0.466329
0.466331
0.466378
0.466345
0.466366
0.466346
0.46627
0.46621
0.466378
0.466161
0.46638
0.466368
0.46618
0.466404
0.466346
0.466409
0.466356
0.466341
0.466381
0.466233
0.466359
0.466214
0.466388
0.466353
0.466352
0.466347
0.46635
0.46635
0.466349
0.46635
0.466408
0.466407
0.466408
0.466409
0.466443
0.466443
0.46623
0.46635
0.466333
0.466288
0.466412
0.466414
0.466334
0.466211
0.466331
0.466345
0.466235
0.466404
0.466233
0.466383
0.466329
0.466235
0.466216
0.466129
0.466128
0.466381
0.466123
0.466325
0.466214
0.466267
0.466331
0.466352
0.466515
0.46635
0.466122
0.466213
0.466332
0.466338
0.466209
0.466351
0.466265
0.466515
0.466215
0.466354
0.466372
0.466331
0.466411
0.466374
0.466445
0.466329
0.466091
0.466077
0.466435
0.466301
0.466338
0.466234
0.466405
0.466362
0.466214
0.466364
0.466246
0.466346
0.466246
0.466211
0.466547
0.466427
0.466412
0.466411
0.466349
0.466249
0.466478
0.46637
0.466292
0.46625
0.466238
0.466434
0.466234
0.466424
0.466243
0.466071
0.466248
0.466127
0.466388
0.466234
0.466546
0.466243
0.466379
0.46623
0.466376
0.466242
0.46632
0.466066
0.46631
0.466234
0.466431
0.466231
0.466291
0.466377
0.466347
0.466242
0.466249
0.466264
0.466389
0.466248
0.466338
0.466319
0.466445
0.466249
0.466262
0.466298
0.466267
0.466245
0.466268
0.466401
0.466337
0.466264
0.466233
0.466348
0.466349
0.466246
0.466445
0.465967
0.466319
0.466129
0.466299
0.465744
0.465745
0.465746
0.465745
0.465745
0.465746
0.465748
0.46639
0.466469
0.466329
0.466289
0.466267
0.466267
0.466346
0.466264
0.466262
0.46647
0.466266
0.466408
0.4662
0.466402
0.466313
0.466289
0.466265
0.466436
0.466319
0.466292
0.46632
0.466292
0.466262
0.466206
0.466289
0.466316
0.466408
0.466271
0.466258
0.466269
0.466286
0.466314
0.466346
0.466269
0.466345
0.46631
0.466287
0.466339
0.466311
0.466265
0.466374
0.466296
0.466465
0.466071
0.46639
0.466401
0.466315
0.466297
0.466366
0.465973
0.466313
0.466295
0.466068
0.466546
0.466547
0.466318
0.466267
0.4663
0.466271
0.46661
0.466609
0.466337
0.46634
0.466338
0.465974
0.46626
0.466381
0.466288
0.466285
0.466287
0.465963
0.466374
0.466264
0.466318
0.466318
0.466284
0.466291
0.466284
0.466288
0.466041
0.466127
0.466291
0.466319
0.466296
0.466283
0.466294
0.466298
0.466296
0.466072
0.466414
0.466268
0.466365
0.466375
0.46607
0.466315
0.466311
0.466445
0.46654
0.466539
0.466427
0.46626
0.466317
0.466066
0.466532
0.466598
0.466597
0.465959
0.466491
0.466507
0.466313
0.466422
0.466329
0.466348
0.466375
0.466387
0.466339
0.465971
0.466322
0.466363
0.46638
0.466017
0.466494
0.466063
0.466377
0.466352
0.466239
0.466327
0.466337
0.466446
0.466341
0.466446
0.466318
0.466381
0.466501
0.466505
0.466068
0.466354
0.465963
0.465972
0.465952
0.466374
0.465969
0.465943
0.466283
0.465957
0.466466
0.466466
0.465964
0.466296
0.466044
0.465962
0.466035
0.465961
0.466035
0.466494
0.466053
0.46597
0.465962
0.466335
0.466395
0.466029
0.466336
0.465944
0.466348
0.466299
0.465958
0.466022
0.465951
0.465959
0.46631
0.466472
0.466589
0.466584
0.466354
0.466588
0.466588
0.466586
0.466554
0.46606
0.466498
0.466431
0.466473
0.466349
0.466563
0.466563
0.466481
0.465954
0.466295
0.465964
0.466058
0.466057
0.466526
0.466525
0.466523
0.466524
0.466526
0.466583
0.466526
0.466564
0.466593
0.466529
0.466529
0.466594
0.466584
0.466565
0.466522
SCALARS rr_(P_ext) float
LOOKUP_TABLE default
0.0090234
0.00897434
0.00897864
0.00897518
0.00896202
0.00897873
0.00902355
0.0089758
0.00898275
0.00897453
0.00902021
0.0089758
0.0089768
0.00897388
0.00896653
0.00897793
0.00897213
0.00897635
0.00898493
0.00897987
0.00898053
0.00894524
0.00898048
0.00897979
0.00897994
0.00897553
0.00901336
0.0089781
0.00899834
0.00895512
0.00897697
0.00899823
0.00901406
0.00895804
0.00895658
0.00895809
0.00895458
0.0089572
0.00897704
0.00901392
0.00899845
0.00895438
0.00895443
0.00897694
0.00900935
0.00899764
0.00898391
0.00898194
0.00897854
0.00900138
0.00899961
0.00899334
0.0089627
0.00899321
0.00896309
0.00900787
0.00895647
0.00899319
0.00895652
0.00897962
0.00897231
0.00896826
0.00901021
0.00896851
0.00896819
0.00897216
0.00897215
0.0089755
0.00898018
0.00897418
0.0089628
0.00896283
0.00899848
0.00897064
0.00897848
0.00901615
0.00896563
0.0089722
0.00897553
0.00899222
0.00900237
0.00896048
0.00897025
0.00900376
0.0089969
0.00900881
0.00897811
0.00897139
0.00900929
0.00894765
0.00899327
0.00894772
0.00896536
0.00897271
0.00899283
0.00900007
0.0090023
0.00897461
0.0089657
0.00897724
0.00898775
0.00899574
0.00900385
0.00897589
0.00897503
0.00897492
0.00896967
0.00897763
0.00900394
0.00897361
0.00897957
0.00900777
0.00900556
0.00897617
0.00897515
0.00899305
0.00895653
0.00900251
0.00895667
0.00899287
0.00898602
0.00896709
0.00897436
0.00897127
0.00897327
0.00896612
0.00895823
0.00897462
0.0090023
0.00899283
0.00896278
0.00897467
0.0089705
0.00897449
0.00899567
0.00895645
0.00900501
0.00897648
0.00897023
0.00895649
0.00899512
0.0089744
0.00898528
0.00897449
0.00900272
0.00897535
0.00897513
0.00897856
0.00897871
0.00898921
0.00898206
0.00897436
0.00899833
0.00897673
0.00897452
0.00897462
0.00897317
0.00899465
0.00899449
0.00897682
0.00898186
0.00899797
0.00900813
0.00899961
0.00899469
0.00897488
0.00899467
0.00899475
0.00899831
0.00899459
0.00896523
0.0089932
0.00899968
0.00897272
0.00899309
0.00896984
0.00896528
0.00897583
0.00896252
0.00897486
0.00899828
0.00897467
0.00897471
0.00899504
0.0089713
0.00900001
0.00897129
0.00896959
0.00896506
0.00897459
0.00897123
0.00900178
0.00899311
0.00899826
0.00897454
0.00897653
0.00897627
0.00897054
0.00897442
0.00897234
0.00897432
0.00898433
0.00899187
0.00897059
0.00899821
0.00897028
0.00897221
0.00899601
0.00896766
0.00897425
0.00896722
0.00897363
0.00897517
0.00897021
0.00898905
0.00897323
0.00899138
0.00896962
0.00897336
0.00897338
0.00897391
0.0089737
0.00897367
0.00897372
0.00897419
0.00896687
0.008967
0.00896686
0.00896681
0.00896301
0.00896298
0.0089894
0.00897404
0.00897562
0.00898217
0.00896653
0.00896635
0.00897548
0.00899174
0.00897579
0.00897459
0.00898885
0.00896758
0.00898907
0.00897008
0.00897597
0.00898874
0.00899116
0.00900249
0.00900213
0.00897022
0.00900344
0.00897732
0.00899141
0.00898464
0.00897585
0.00897346
0.00895414
0.00897359
0.00900378
0.00899139
0.00897564
0.0089758
0.00899198
0.0089735
0.00898504
0.00895418
0.0089913
0.00897325
0.00897155
0.00897627
0.00896664
0.00897151
0.00896273
0.00897684
0.00900704
0.00900884
0.00896406
0.00898042
0.00897581
0.00898905
0.00896751
0.00897276
0.00899134
0.00897262
0.00898758
0.00897492
0.00898754
0.00899163
0.00895042
0.00896478
0.00896639
0.00896648
0.0089742
0.0089872
0.00895858
0.00897174
0.00898171
0.00898702
0.00898856
0.0089641
0.00898888
0.00896535
0.00898805
0.00900922
0.00898728
0.00900297
0.0089695
0.00898885
0.00895047
0.00898802
0.00897062
0.00898941
0.00897107
0.00898815
0.0089781
0.00901102
0.00897907
0.00898899
0.00896429
0.00898923
0.00898168
0.00897105
0.00897419
0.0089881
0.00898724
0.00898517
0.00896957
0.00898731
0.00897581
0.00897807
0.00896282
0.00898724
0.00898541
0.00898097
0.00898489
0.00898775
0.00898477
0.00896811
0.00897593
0.00898521
0.00898907
0.00897456
0.00897447
0.00898749
0.00896287
0.00902194
0.00897825
0.00900244
0.00898076
0.00904797
0.00904791
0.00904761
0.00904773
0.00904757
0.00904807
0.00904787
0.00896933
0.00895988
0.00897669
0.00898191
0.00898466
0.00898492
0.0089749
0.00898522
0.00898547
0.00895978
0.00898492
0.00896733
0.00899328
0.00896761
0.00897885
0.008982
0.0089851
0.00896397
0.00897825
0.00898165
0.0089782
0.0089816
0.00898532
0.0089924
0.00898201
0.00897869
0.00896719
0.00898421
0.00898576
0.0089844
0.0089823
0.00897882
0.00897484
0.00898445
0.00897492
0.00897923
0.00898217
0.00897571
0.00897911
0.00898504
0.00897111
0.0089812
0.0089603
0.00900918
0.00896935
0.00896811
0.00897877
0.00898106
0.00897228
0.00902134
0.0089788
0.00898128
0.00901075
0.00895074
0.0089506
0.00897828
0.00898472
0.00898069
0.00898419
0.00894331
0.00894331
0.00897568
0.00897564
0.00897587
0.00902146
0.00898547
0.00897042
0.00898217
0.00898258
0.00898222
0.00902223
0.00897135
0.00898497
0.00897842
0.0089784
0.00898265
0.00898172
0.00898265
0.00898225
0.0090136
0.00900286
0.00898175
0.00897833
0.00898115
0.00898284
0.00898147
0.00898087
0.00898115
0.00900917
0.00896648
0.00898447
0.0089724
0.00897111
0.00900947
0.00897859
0.00897901
0.0089628
0.00895104
0.00895107
0.0089648
0.00898558
0.00897853
0.00900997
0.00895201
0.00894441
0.00894443
0.00902279
0.00895721
0.0089551
0.00897902
0.00896557
0.00897674
0.00897422
0.00897096
0.00896977
0.00897581
0.00902146
0.00897783
0.00897279
0.00897051
0.00901645
0.00895667
0.0090116
0.00897068
0.00897409
0.00898835
0.00897701
0.00897601
0.0089624
0.00897536
0.00896244
0.00897832
0.00897046
0.00895589
0.00895558
0.00900982
0.00897359
0.00902433
0.00902342
0.00902542
0.00897139
0.00902202
0.00902642
0.0089828
0.00902489
0.00896032
0.00896036
0.00902413
0.00898089
0.00901346
0.0090246
0.00901438
0.0090248
0.00901439
0.00895694
0.00901161
0.00902182
0.00902423
0.00897621
0.00896871
0.00901516
0.0089761
0.00902609
0.00897454
0.00898058
0.00902513
0.00901589
0.00902586
0.00902278
0.00897922
0.00895952
0.00894528
0.0089459
0.00897372
0.0089454
0.00894542
0.00894567
0.00894945
0.00901068
0.00895621
0.00896447
0.00895947
0.00897431
0.00894845
0.00894847
0.00895861
0.0090233
0.00898104
0.00902269
0.00901238
0.00901202
0.00895258
0.00895271
0.00895304
0.00895293
0.00895262
0.00894613
0.00895294
0.00894844
0.00894516
0.00895248
0.00895242
0.00894497
0.00894597
0.00894826
0.00895332
SCALARS rr_(S) float
LOOKUP_TABLE default
0.426334
0.426535
0.426518
0.426531
0.4266
0.426518
0.426333
0.426531
0.426501
0.426536
0.426335
0.426531
0.426527
0.42654
0.426575
0.426521
0.426547
0.426528
0.42649
0.426512
0.426511
0.426683
0.42651
0.426513
0.426512
0.426531
0.42637
0.426521
0.426433
0.426633
0.426526
0.426433
0.426368
0.426618
0.426626
0.426618
0.426635
0.426623
0.426526
0.426369
0.426432
0.426636
0.426635
0.426526
0.426384
0.426436
0.426495
0.426505
0.426519
0.426419
0.426427
0.426455
0.426595
0.426456
0.426593
0.426395
0.426627
0.426456
0.426627
0.426513
0.426546
0.426567
0.426386
0.426567
0.426567
0.426549
0.426546
0.426531
0.426511
0.426536
0.426595
0.426594
0.426433
0.426557
0.426519
0.426357
0.426581
0.426549
0.426531
0.426459
0.426418
0.426607
0.426557
0.42641
0.426441
0.426389
0.426521
0.426554
0.426384
0.426672
0.426456
0.426672
0.426582
0.426547
0.426458
0.426425
0.426419
0.426535
0.426581
0.426525
0.42648
0.426446
0.42641
0.426528
0.426534
0.426533
0.42656
0.426524
0.42641
0.426538
0.426513
0.426391
0.426402
0.426528
0.426532
0.426457
0.426628
0.426418
0.426628
0.426458
0.426486
0.426572
0.426535
0.426552
0.42654
0.426577
0.426619
0.426535
0.426419
0.426458
0.426594
0.426533
0.426555
0.426534
0.426447
0.426627
0.426408
0.426529
0.426557
0.426627
0.426449
0.426539
0.42649
0.426536
0.426417
0.426531
0.426535
0.42652
0.426518
0.426473
0.426504
0.426535
0.426432
0.426527
0.426536
0.426534
0.426543
0.426451
0.426452
0.426525
0.426505
0.426434
0.426391
0.426427
0.426451
0.426534
0.426451
0.426451
0.426433
0.426451
0.426583
0.426456
0.426427
0.426545
0.426457
0.426559
0.426582
0.426532
0.426596
0.426535
0.426434
0.426535
0.426535
0.426449
0.426553
0.426425
0.426552
0.426561
0.426584
0.426535
0.426554
0.426421
0.426456
0.426433
0.426534
0.426526
0.426527
0.426555
0.426535
0.426548
0.426535
0.426493
0.42646
0.426554
0.426434
0.426556
0.42655
0.426445
0.426571
0.426536
0.426574
0.426542
0.426533
0.426557
0.426473
0.426544
0.426463
0.426561
0.42654
0.426539
0.426536
0.426537
0.426538
0.426537
0.426538
0.426573
0.426572
0.426573
0.426574
0.426595
0.426594
0.426471
0.426538
0.426527
0.426504
0.426576
0.426577
0.426528
0.426461
0.426526
0.426535
0.426474
0.426571
0.426473
0.426558
0.426525
0.426474
0.426464
0.426417
0.426416
0.426557
0.426414
0.426524
0.426463
0.426492
0.426526
0.426539
0.426638
0.426538
0.426414
0.426462
0.426527
0.426532
0.42646
0.426538
0.426491
0.426637
0.426463
0.42654
0.426551
0.426527
0.426575
0.426553
0.426595
0.426526
0.426396
0.426388
0.42659
0.426511
0.426532
0.426474
0.426571
0.426545
0.426463
0.426547
0.42648
0.426537
0.426481
0.426461
0.426657
0.426585
0.426575
0.426575
0.426538
0.426482
0.426616
0.42655
0.426506
0.426483
0.426476
0.426589
0.426474
0.426583
0.426479
0.426385
0.426482
0.426416
0.426561
0.426474
0.426656
0.426479
0.426556
0.426471
0.426554
0.426478
0.426521
0.426385
0.426515
0.426474
0.426587
0.426472
0.426506
0.426555
0.426536
0.426478
0.426482
0.426491
0.426562
0.426482
0.426532
0.426521
0.426595
0.426482
0.426489
0.426509
0.426492
0.42648
0.426492
0.426569
0.426531
0.42649
0.426473
0.426538
0.426538
0.426481
0.426595
0.426328
0.426522
0.426417
0.42651
0.426203
0.426203
0.426204
0.426203
0.426203
0.426204
0.426206
0.426563
0.42661
0.426526
0.426505
0.426491
0.426492
0.426537
0.42649
0.426489
0.426611
0.426492
0.426573
0.426456
0.426569
0.426518
0.426504
0.426491
0.426591
0.426521
0.426506
0.426521
0.426506
0.426489
0.426458
0.426504
0.426519
0.426573
0.426494
0.426486
0.426493
0.426502
0.426518
0.426537
0.426493
0.426536
0.426516
0.426503
0.426532
0.426516
0.426491
0.426553
0.426508
0.426607
0.426385
0.426562
0.426569
0.426519
0.426509
0.426548
0.426331
0.426518
0.426508
0.426386
0.426656
0.426658
0.42652
0.426491
0.42651
0.426494
0.426695
0.426695
0.426531
0.426533
0.426532
0.426332
0.426488
0.426557
0.426504
0.426502
0.426503
0.426326
0.426553
0.42649
0.42652
0.42652
0.426501
0.426505
0.426501
0.426504
0.42637
0.426417
0.426505
0.426521
0.426508
0.4265
0.426507
0.42651
0.426508
0.426386
0.426577
0.426492
0.426547
0.426554
0.426385
0.426518
0.426516
0.426596
0.426652
0.426652
0.426585
0.426488
0.42652
0.426382
0.426647
0.426687
0.426687
0.426323
0.426623
0.426633
0.426518
0.426581
0.426526
0.426537
0.426553
0.426561
0.426532
0.42633
0.426522
0.426546
0.426556
0.426356
0.426625
0.426384
0.426554
0.426539
0.426477
0.426525
0.426531
0.426596
0.426533
0.426596
0.42652
0.426557
0.42663
0.426632
0.426384
0.42654
0.42633
0.426336
0.426324
0.426553
0.42633
0.426318
0.426501
0.426326
0.426608
0.426608
0.426331
0.426507
0.426372
0.42633
0.426366
0.426329
0.426366
0.426625
0.426375
0.42633
0.426329
0.42653
0.426565
0.426363
0.426531
0.426319
0.426537
0.426509
0.426327
0.426359
0.426323
0.426323
0.426516
0.426612
0.426682
0.426679
0.426541
0.426681
0.426681
0.42668
0.426661
0.426379
0.426627
0.426587
0.426613
0.426538
0.426666
0.426666
0.426618
0.42632
0.426507
0.426327
0.426381
0.42638
0.426644
0.426643
0.426642
0.426643
0.426644
0.426679
0.426644
0.426668
0.426685
0.426646
0.426646
0.426686
0.426679
0.426668
0.426642
SCALARS rr_(P) float
LOOKUP_TABLE default
0.0105018
0.0104752
0.0104776
0.0104756
0.0104685
0.0104776
0.0105018
0.010476
0.0104798
0.0104753
0.0104999
0.010476
0.0104766
0.010475
0.0104709
0.0104772
0.010474
0.0104763
0.0104809
0.0104782
0.0104786
0.0104592
0.0104785
0.0104782
0.0104783
0.0104758
0.0104963
0.0104773
0.0104882
0.0104647
0.0104767
0.0104881
0.0104967
0.0104663
0.0104655
0.0104663
0.0104644
0.0104659
0.0104767
0.0104966
0.0104882
0.0104642
0.0104643
0.0104766
0.0104941
0.0104878
0.0104804
0.0104794
0.0104775
0.0104898
0.0104889
0.0104855
0.0104688
0.0104854
0.0104691
0.0104933
0.0104654
0.0104854
0.0104655
0.0104781
0.0104741
0.0104719
0.0104946
0.010472
0.0104719
0.010474
0.010474
0.0104758
0.0104784
0.0104751
0.0104689
0.0104689
0.0104883
0.0104732
0.0104775
0.0104978
0.0104705
0.0104741
0.0104758
0.0104849
0.0104904
0.0104677
0.010473
0.0104911
0.0104874
0.0104938
0.0104773
0.0104736
0.0104941
0.0104605
0.0104855
0.0104606
0.0104703
0.0104743
0.0104852
0.0104891
0.0104903
0.0104754
0.0104705
0.0104768
0.0104825
0.0104868
0.0104912
0.010476
0.0104756
0.0104755
0.0104726
0.010477
0.0104912
0.0104748
0.010478
0.0104932
0.0104921
0.0104762
0.0104756
0.0104854
0.0104655
0.0104905
0.0104656
0.0104853
0.0104815
0.0104712
0.0104752
0.0104735
0.0104746
0.0104707
0.0104664
0.0104754
0.0104904
0.0104852
0.0104689
0.0104754
0.0104731
0.0104753
0.0104868
0.0104654
0.0104918
0.0104764
0.0104729
0.0104654
0.0104865
0.0104753
0.0104812
0.0104753
0.0104906
0.0104758
0.0104756
0.0104775
0.0104776
0.0104833
0.0104794
0.0104752
0.0104882
0.0104765
0.0104753
0.0104753
0.0104746
0.0104862
0.0104861
0.0104766
0.0104793
0.010488
0.0104935
0.0104889
0.0104862
0.0104755
0.0104862
0.0104863
0.0104882
0.0104862
0.0104702
0.0104854
0.0104889
0.0104743
0.0104854
0.0104727
0.0104703
0.010476
0.0104688
0.0104755
0.0104882
0.0104754
0.0104754
0.0104864
0.0104736
0.0104891
0.0104735
0.0104726
0.0104701
0.0104753
0.0104735
0.0104901
0.0104854
0.0104881
0.0104753
0.0104764
0.0104762
0.0104731
0.0104752
0.0104741
0.0104752
0.0104806
0.0104847
0.0104731
0.0104881
0.010473
0.0104741
0.0104869
0.0104716
0.0104751
0.0104713
0.0104748
0.0104757
0.0104729
0.0104832
0.0104746
0.0104844
0.0104726
0.0104746
0.0104746
0.0104749
0.0104748
0.0104748
0.0104748
0.0104751
0.0104711
0.0104712
0.0104711
0.0104711
0.010469
0.010469
0.0104834
0.010475
0.0104758
0.0104795
0.0104709
0.0104708
0.0104758
0.0104846
0.0104759
0.0104753
0.0104831
0.0104715
0.0104832
0.0104729
0.010476
0.010483
0.0104843
0.0104904
0.0104902
0.0104729
0.010491
0.0104768
0.0104845
0.0104808
0.010476
0.0104747
0.0104641
0.0104747
0.0104912
0.0104844
0.0104758
0.010476
0.0104848
0.0104747
0.010481
0.0104641
0.0104844
0.0104746
0.0104737
0.0104762
0.010471
0.0104737
0.0104689
0.0104766
0.0104929
0.0104938
0.0104696
0.0104785
0.010476
0.0104832
0.0104715
0.0104744
0.0104844
0.0104743
0.0104824
0.0104755
0.0104824
0.0104846
0.0104621
0.01047
0.0104708
0.0104709
0.0104751
0.0104822
0.0104666
0.0104738
0.0104792
0.0104821
0.0104829
0.0104696
0.0104831
0.0104703
0.0104827
0.010494
0.0104822
0.0104907
0.0104726
0.0104831
0.0104621
0.0104827
0.0104732
0.0104834
0.0104734
0.0104827
0.0104773
0.0104951
0.0104778
0.0104832
0.0104697
0.0104833
0.0104792
0.0104734
0.0104751
0.0104827
0.0104822
0.0104811
0.0104726
0.0104823
0.010476
0.0104772
0.0104689
0.0104822
0.0104812
0.0104788
0.010481
0.0104825
0.0104809
0.0104718
0.0104761
0.0104811
0.0104832
0.0104753
0.0104753
0.0104824
0.010469
0.0105008
0.0104773
0.0104904
0.0104787
0.0105147
0.0105147
0.0105145
0.0105146
0.0105145
0.0105148
0.0105147
0.0104725
0.0104673
0.0104765
0.0104793
0.0104808
0.010481
0.0104755
0.0104811
0.0104813
0.0104672
0.010481
0.0104714
0.0104855
0.0104715
0.0104777
0.0104794
0.0104811
0.0104696
0.0104774
0.0104792
0.0104773
0.0104792
0.0104812
0.010485
0.0104794
0.0104776
0.0104713
0.0104806
0.0104814
0.0104807
0.0104795
0.0104777
0.0104755
0.0104807
0.0104755
0.0104779
0.0104795
0.010476
0.0104778
0.010481
0.0104734
0.010479
0.0104675
0.010494
0.0104725
0.0104718
0.0104776
0.0104789
0.0104741
0.0105005
0.0104776
0.010479
0.0104949
0.0104623
0.0104622
0.0104774
0.0104808
0.0104787
0.0104806
0.0104582
0.0104582
0.0104759
0.0104759
0.0104761
0.0105006
0.0104812
0.0104731
0.0104795
0.0104797
0.0104795
0.010501
0.0104736
0.010481
0.0104774
0.0104774
0.0104797
0.0104792
0.0104797
0.0104795
0.0104964
0.0104907
0.0104792
0.0104774
0.0104789
0.0104798
0.0104791
0.0104788
0.0104789
0.010494
0.0104709
0.0104807
0.0104742
0.0104735
0.0104942
0.0104775
0.0104778
0.0104689
0.0104624
0.0104624
0.01047
0.0104813
0.0104775
0.0104944
0.0104629
0.0104588
0.0104588
0.0105013
0.0104659
0.0104646
0.0104778
0.0104704
0.0104765
0.0104751
0.0104734
0.0104727
0.010476
0.0105006
0.0104771
0.0104744
0.0104731
0.0104979
0.0104655
0.0104954
0.0104732
0.0104751
0.0104828
0.0104767
0.0104761
0.0104687
0.0104758
0.0104687
0.0104774
0.0104731
0.0104651
0.0104649
0.0104944
0.0104748
0.0105023
0.0105018
0.0105028
0.0104736
0.0105009
0.0105034
0.0104798
0.0105025
0.0104676
0.0104676
0.0105021
0.0104788
0.0104964
0.0105024
0.0104968
0.0105025
0.0104968
0.0104657
0.0104953
0.0105008
0.0105022
0.0104762
0.0104721
0.0104973
0.0104762
0.0105032
0.0104753
0.0104786
0.0105027
0.0104976
0.0105031
0.0105013
0.0104779
0.0104671
0.0104593
0.0104596
0.0104749
0.0104593
0.0104593
0.0104595
0.0104615
0.0104948
0.0104653
0.0104698
0.0104671
0.0104752
0.010461
0.010461
0.0104666
0.0105015
0.0104789
0.0105013
0.0104958
0.0104956
0.0104632
0.0104633
0.0104635
0.0104634
0.0104633
0.0104597
0.0104635
0.010461
0.0104592
0.0104632
0.0104632
0.0104591
0.0104596
0.0104609
0.0104636
SCALARS rr_(T) float
LOOKUP_TABLE default
0.023176
0.0231856
0.0231841
0.0231849
0.0231955
0.0231841
0.0231759
0.0231854
0.0231826
0.0231856
0.0231752
0.0231854
0.0231848
0.0231864
0.0231923
0.0231839
0.0231877
0.0231849
0.0231821
0.0231836
0.0231835
0.0232034
0.0231835
0.0231837
0.0231836
0.0231855
0.0231769
0.0231848
0.0231792
0.0232004
0.0231846
0.0231792
0.0231769
0.0231982
0.023199
0.0231982
0.0232002
0.0231987
0.0231848
0.0231769
0.0231792
0.0232004
0.0232003
0.0231846
0.0231773
0.0231793
0.0231824
0.0231828
0.0231844
0.0231786
0.023179
0.0231802
0.023195
0.0231802
0.0231946
0.0231778
0.0231991
0.0231802
0.023199
0.0231837
0.0231877
0.0231905
0.0231778
0.0231902
0.0231906
0.0231881
0.0231878
0.0231855
0.0231835
0.0231859
0.0231949
0.0231948
0.0231792
0.0231891
0.0231837
0.0231762
0.0231925
0.0231881
0.0231856
0.0231804
0.0231786
0.0231965
0.0231893
0.0231782
0.0231795
0.0231775
0.0231847
0.0231887
0.0231773
0.0232015
0.0231801
0.0232019
0.023193
0.0231881
0.0231802
0.0231789
0.0231787
0.0231854
0.0231925
0.0231845
0.0231814
0.0231796
0.0231783
0.0231848
0.0231859
0.0231852
0.02319
0.0231844
0.0231783
0.0231864
0.0231838
0.0231776
0.023178
0.0231849
0.023185
0.0231802
0.0231992
0.0231786
0.0231992
0.0231803
0.0231818
0.0231918
0.0231857
0.0231882
0.0231867
0.0231926
0.0231984
0.0231855
0.0231786
0.0231803
0.023195
0.0231855
0.023189
0.0231856
0.0231797
0.0231992
0.0231782
0.0231853
0.0231894
0.0231991
0.0231798
0.0231866
0.0231822
0.0231862
0.0231786
0.0231852
0.0231866
0.0231847
0.0231838
0.0231811
0.0231832
0.0231857
0.0231792
0.0231847
0.0231861
0.0231855
0.0231868
0.0231798
0.0231799
0.0231845
0.0231828
0.0231793
0.0231775
0.023179
0.0231799
0.0231852
0.0231798
0.0231798
0.0231792
0.0231799
0.0231932
0.0231802
0.0231789
0.023187
0.0231802
0.0231899
0.0231931
0.023186
0.0231949
0.0231861
0.0231792
0.0231853
0.0231854
0.0231798
0.0231887
0.0231788
0.0231882
0.0231897
0.0231933
0.0231854
0.0231888
0.0231786
0.0231803
0.0231792
0.0231855
0.0231847
0.0231849
0.023189
0.0231857
0.023188
0.0231858
0.0231822
0.0231804
0.0231889
0.0231792
0.0231892
0.0231882
0.0231797
0.0231914
0.0231858
0.0231915
0.0231871
0.0231857
0.0231893
0.0231812
0.0231874
0.0231805
0.0231897
0.0231867
0.0231866
0.0231862
0.0231863
0.0231863
0.0231862
0.0231865
0.023192
0.0231919
0.0231921
0.0231921
0.0231948
0.0231949
0.023181
0.0231864
0.0231847
0.0231825
0.0231923
0.0231925
0.0231848
0.0231805
0.0231845
0.0231854
0.0231811
0.0231916
0.0231811
0.0231894
0.0231844
0.0231812
0.0231806
0.0231787
0.0231786
0.0231892
0.0231785
0.0231842
0.0231805
0.0231823
0.0231844
0.0231865
0.0231996
0.0231864
0.0231785
0.0231806
0.0231846
0.0231859
0.0231804
0.0231865
0.0231823
0.0231996
0.0231805
0.0231868
0.0231881
0.0231847
0.0231923
0.0231887
0.0231947
0.0231845
0.0231779
0.0231774
0.0231938
0.0231832
0.0231859
0.023181
0.0231917
0.023187
0.0231806
0.0231879
0.0231813
0.0231867
0.0231813
0.0231805
0.0232017
0.0231935
0.0231925
0.0231925
0.0231863
0.0231814
0.0231978
0.0231878
0.0231831
0.0231815
0.023181
0.0231937
0.0231811
0.0231931
0.0231811
0.0231773
0.0231815
0.0231786
0.02319
0.0231812
0.0232016
0.0231811
0.0231892
0.023181
0.0231885
0.0231811
0.023184
0.0231778
0.0231838
0.0231811
0.0231938
0.0231811
0.0231835
0.0231886
0.0231858
0.0231812
0.0231814
0.0231822
0.0231898
0.0231814
0.0231855
0.0231847
0.0231945
0.0231813
0.0231821
0.0231834
0.0231822
0.0231812
0.0231822
0.0231912
0.0231855
0.0231821
0.0231812
0.0231865
0.0231865
0.0231814
0.0231945
0.023175
0.0231849
0.0231786
0.0231836
0.0231687
0.0231687
0.0231688
0.0231688
0.0231688
0.0231687
0.0231687
0.02319
0.023197
0.023185
0.0231834
0.0231823
0.0231821
0.0231865
0.0231822
0.023182
0.023197
0.0231822
0.0231914
0.0231802
0.0231915
0.0231844
0.0231832
0.0231821
0.0231939
0.0231847
0.0231834
0.0231848
0.0231834
0.0231819
0.0231804
0.0231833
0.0231845
0.0231914
0.0231825
0.0231818
0.0231822
0.0231831
0.0231844
0.0231867
0.0231822
0.0231866
0.023184
0.0231832
0.023186
0.023184
0.0231821
0.0231883
0.0231833
0.0231968
0.0231773
0.0231898
0.0231912
0.0231845
0.0231832
0.0231878
0.0231751
0.0231844
0.0231832
0.0231778
0.0232013
0.0232017
0.0231848
0.0231822
0.0231835
0.0231824
0.0232048
0.0232043
0.023185
0.0231858
0.023186
0.0231752
0.023182
0.0231888
0.0231826
0.0231825
0.0231831
0.0231749
0.0231888
0.0231821
0.0231846
0.0231846
0.0231826
0.0231832
0.0231825
0.0231827
0.0231768
0.0231786
0.0231832
0.0231848
0.0231832
0.0231824
0.0231831
0.0231834
0.0231832
0.0231773
0.0231923
0.0231824
0.0231877
0.0231887
0.0231773
0.0231839
0.0231838
0.0231949
0.0232012
0.0232012
0.0231936
0.0231818
0.0231848
0.0231771
0.0232009
0.0232035
0.0232035
0.0231748
0.0231986
0.0231991
0.0231844
0.0231927
0.0231846
0.0231858
0.0231885
0.0231898
0.023186
0.0231751
0.0231843
0.0231875
0.0231888
0.0231762
0.0231983
0.0231778
0.0231888
0.0231863
0.0231812
0.0231843
0.0231856
0.0231954
0.0231857
0.0231953
0.0231839
0.0231891
0.0231989
0.0231991
0.0231772
0.0231867
0.0231761
0.0231765
0.0231758
0.0231885
0.0231751
0.0231755
0.0231824
0.023176
0.0231969
0.0231968
0.0231763
0.0231832
0.0231769
0.0231762
0.0231767
0.0231762
0.0231767
0.0231988
0.0231769
0.0231751
0.0231762
0.0231855
0.0231903
0.0231765
0.0231858
0.0231756
0.0231865
0.0231833
0.023176
0.0231764
0.0231758
0.0231747
0.0231842
0.0231969
0.0232038
0.0232038
0.023187
0.0232041
0.0232041
0.0232038
0.0232013
0.0231771
0.0231986
0.0231939
0.0231976
0.0231867
0.0232016
0.0232015
0.0231978
0.0231746
0.0231831
0.023175
0.0231778
0.0231777
0.0232002
0.0232001
0.0232001
0.0232002
0.0232002
0.0232036
0.0232007
0.0232024
0.0232039
0.0232006
0.0232005
0.0232034
0.0232033
0.0232026
0.0232004
SCALARS rr_tsim float
LOOKUP_TABLE default
1.33333
1.33333
1.33333
1.33333
1.33333
1.33333
1.33333
1.33333
1.33333
1.33333
1.33333
1.33333
1.33333
1.33333
1.33333
1.33333
1.33333
1.33333
1.33333
1.33333
1.33333
1.33333
1.33333
1.33333
1.33333
1.33333
1.33333
1.33333
1.33333
1.33333
1.33333
1.33333
1.33333
1.33333
1.33333
1.33333
1.33333
1.33333
1.33333
1.33333
1.33333
1.33333
1.33333
1.33333
1.33333
1.33333
1.33333
1.33333
1.33333
1.33333
1.33333
1.33333
1.33333
1.33333
1.33333
1.33333
1.33333
1.33333
1.33333
1.33333
1.33333
1.33333
1.33333
1.33333
1.33333
1.33333
1.33333
1.33333
1.33333
1.33333
1.33333
1.33333
1.33333
1.33333
1.33333
1.33333
1.33333
1.33333
1.33333
1.33333
1.33333
1.33333
1.33333
1.33333
1.33333
1.33333
1.33333
1.33333
1.33333
1.33333
1.33333
1.33333
1.33333
1.33333
1.33333
1.33333
1.33333
1.33333
1.33333
1.33333
1.33333
1.33333
1.33333
1.33333
1.33333
1.33333
1.33333
1.33333
1.33333
1.33333
1.33333
1.33333
1.33333
1.33333
1.33333
1.33333
1.33333
1.33333
1.33333
1.33333
1.33333
1.33333
1.33333
1.33333
1.33333
1.33333
1.33333
1.33333
1.33333
1.33333
1.33333
1.33333
1.33333
1.33333
1.33333
1.33333
1.33333
1.33333
1.33333
1.33333
1.33333
1.33333
1.33333
1.33333
1.33333
1.33333
1.33333
1.33333
1.33333
1.33333
1.33333
1.33333
1.33333
1.33333
1.33333
1.33333
1.33333
1.33333
1.33333
1.33333
1.33333
1.33333
1.33333
1.33333
1.33333
1.33333
1.33333
1.33333
1.33333
1.33333
1.33333
1.33333
1.33333
1.33333
1.33333
1.33333
1.33333
1.33333
1.33333
1.33333
1.33333
1.33333
1.33333
1.33333
1.33333
1.33333
1.33333
1.33333
1.33333
1.33333
1.33333
1.33333
1.33333
1.33333
1.33333
1.33333
1.33333
1.33333
1.33333
1.33333
1.33333
1.33333
1.33333
1.33333
1.33333
1.33333
1.33333
1.33333
1.33333
1.33333
1.33333
1.33333
1.33333
1.33333
1.33333
1.33333
1.33333
1.33333
1.33333
1.33333
1.33333
1.33333
1.33333
1.33333
1.33333
1.33333
1.33333
1.33333
1.33333
1.33333
1.33333
1.33333
1.33333
1.33333
1.33333
1.33333
1.33333
1.33333
1.33333
1.33333
1.33333
1.33333
1.33333
1.33333
1.33333
1.33333
1.33333
1.33333
1.33333
1.33333
1.33333
1.33333
1.33333
1.33333
1.33333
1.33333
1.33333
1.33333
1.33333
1.33333
1.33333
1.33333
1.33333
1.33333
1.33333
1.33333
1.33333
1.33333
1.33333
1.33333
1.33333
1.33333
1.33333
1.33333
1.33333
1.33333
1.33333
1.33333
1.33333
1.33333
1.33333
1.33333
1.33333
1.33333
1.33333
1.33333
1.33333
1.33333
1.33333
1.33333
1.33333
1.33333
1.33333
1.33333
1.33333
1.33333
1.33333
1.33333
1.33333
1.33333
1.33333
1.33333
1.33333
1.33333
1.33333
1.33333
1.33333
1.33333
1.33333
1.33333
1.33333
1.33333
1.33333
1.33333
1.33333
1.33333
1.33333
1.33333
1.33333
1.33333
1.33333
1.33333
1.33333
1.33333
1.33333
1.33333
1.33333
1.33333
1.33333
1.33333
1.33333
1.33333
1.33333
1.33333
1.33333
1.33333
1.33333
1.33333
1.33333
1.33333
1.33333
1.33333
1.33333
1.33333
1.33333
1.33333
1.33333
1.33333
1.33333
1.33333
1.33333
1.33333
1.33333
1.33333
1.33333
1.33333
1.33333
1.33333
1.33333
1.33333
1.33333
1.33333
1.33333
1.33333
1.33333
1.33333
1.33333
1.33333
1.33333
1.33333
1.33333
1.33333
1.33333
1.33333
1.33333
1.33333
1.33333
1.33333
1.33333
1.33333
1.33333
1.33333
1.33333
1.33333
1.33333
1.33333
1.33333
1.33333
1.33333
1.33333
1.33333
1.33333
1.33333
1.33333
1.33333
1.33333
1.33333
1.33333
1.33333
1.33333
1.33333
1.33333
1.33333
1.33333
1.33333
1.33333
1.33333
1.33333
1.33333
1.33333
1.33333
1.33333
1.33333
1.33333
1.33333
1.33333
1.33333
1.33333
1.33333
1.33333
1.33333
1.33333
1.33333
1.33333
1.33333
1.33333
1.33333
1.33333
1.33333
1.33333
1.33333
1.33333
1.33333
1.33333
1.33333
1.33333
1.33333
1.33333
1.33333
1.33333
1.33333
1.33333
1.33333
1.33333
1.33333
1.33333
1.33333
1.33333
1.33333
1.33333
1.33333
1.33333
1.33333
1.33333
1.33333
1.33333
1.33333
1.33333
1.33333
1.33333
1.33333
1.33333
1.33333
1.33333
1.33333
1.33333
1.33333
1.33333
1.33333
1.33333
1.33333
1.33333
1.33333
1.33333
1.33333
1.33333
1.33333
1.33333
1.33333
1.33333
1.33333
1.33333
1.33333
1.33333
1.33333
1.33333
1.33333
1.33333
1.33333
1.33333
1.33333
1.33333
1.33333
1.33333
1.33333
1.33333
1.33333
1.33333
1.33333
1.33333
1.33333
1.33333
1.33333
1.33333
1.33333
1.33333
1.33333
1.33333
1.33333
1.33333
1.33333
1.33333
1.33333
1.33333
1.33333
1.33333
1.33333
1.33333
1.33333
1.33333
1.33333
1.33333
1.33333
1.33333
1.33333
1.33333
1.33333
1.33333
1.33333
1.33333
1.33333
1.33333
1.33333
1.33333
1.33333
1.33333
1.33333
1.33333
1.33333
1.33333
1.33333
1.33333
1.33333
1.33333
1.33333
1.33333
1.33333
1.33333
1.33333
1.33333
1.33333
1.33333
1.33333
1.33333
1.33333
1.33333
1.33333
1.33333
1.33333
1.33333
1.33333
1.33333
1.33333
SCALARS rr_Vext float
LOOKUP_TABLE default
1.81322e-10
4.48921e-10
3.55897e-10
4.67901e-10
2.5036e-10
3.77667e-10
1.79238e-10
4.64883e-10
3.94947e-10
5.04339e-10
1.65351e-10
4.66302e-10
4.09647e-10
4.34816e-10
5.15878e-10
4.24682e-10
3.68873e-10
4.14002e-10
3.65388e-10
3.60376e-10
4.0494e-10
7.64623e-11
4.14897e-10
3.82853e-10
3.4696e-10
4.03292e-10
1.54971e-10
3.52682e-10
2.67326e-10
3.39054e-10
3.61811e-10
2.76395e-10
1.71477e-10
2.52762e-10
2.49107e-10
2.53312e-10
3.29937e-10
2.49351e-10
3.61382e-10
1.92788e-10
2.24648e-10
2.90883e-10
2.90893e-10
3.97098e-10
2.16826e-10
2.4404e-10
3.44475e-10
3.5004e-10
3.29938e-10
3.03667e-10
3.12754e-10
2.45151e-10
4.01308e-10
3.15096e-10
3.69222e-10
1.5771e-10
2.66029e-10
3.17405e-10
2.66001e-10
3.93019e-10
4.70712e-10
4.64646e-10
1.53235e-10
3.27482e-10
4.45096e-10
4.1718e-10
4.55444e-10
3.91731e-10
3.57836e-10
5.15324e-10
4.35327e-10
4.30566e-10
2.77564e-10
3.38584e-10
3.53821e-10
1.76383e-10
3.72488e-10
4.13285e-10
3.94994e-10
2.71036e-10
2.40417e-10
2.83354e-10
5.27281e-10
2.40178e-10
3.27652e-10
1.19259e-10
4.07404e-10
3.44447e-10
2.29643e-10
3.74597e-11
2.72997e-10
4.07356e-11
3.16197e-10
2.99174e-10
2.58568e-10
2.32909e-10
2.20841e-10
4.42732e-10
3.72723e-10
3.51703e-10
2.93424e-10
2.77676e-10
2.30409e-10
4.18391e-10
4.25947e-10
3.8366e-10
3.40463e-10
3.407e-10
2.44556e-10
5.12286e-10
3.25889e-10
1.63992e-10
2.19992e-10
4.57677e-10
4.29527e-10
3.04375e-10
3.08458e-10
1.83452e-10
3.19856e-10
3.03259e-10
2.66882e-10
5.024e-10
5.1158e-10
4.41832e-10
4.84305e-10
3.84759e-10
2.20693e-10
4.77995e-10
2.00018e-10
2.62186e-10
2.27384e-10
4.5619e-10
4.48811e-10
4.48048e-10
2.88839e-10
1.87432e-10
1.90583e-10
3.27296e-10
4.04276e-10
1.87354e-10
2.41459e-10
3.87114e-10
2.87857e-10
4.72545e-10
2.23208e-10
3.85018e-10
3.49574e-10
3.35983e-10
2.14698e-10
2.69446e-10
3.04174e-10
4.40428e-10
2.47946e-10
3.97236e-10
4.61781e-10
4.69032e-10
3.07714e-10
2.48922e-10
2.47571e-10
4.0096e-10
3.33716e-10
2.46036e-10
1.60031e-10
2.39628e-10
2.40384e-10
4.30763e-10
2.52262e-10
2.55013e-10
2.7453e-10
2.45854e-10
3.86148e-10
2.58093e-10
2.25987e-10
2.97576e-10
2.72716e-10
3.40143e-10
3.81924e-10
3.60972e-10
3.13813e-10
3.60683e-10
2.6648e-10
4.18058e-10
4.48651e-10
2.41532e-10
4.42092e-10
2.39363e-10
4.3659e-10
4.02543e-10
3.78773e-10
3.79244e-10
4.46017e-10
2.00712e-10
2.66834e-10
2.45936e-10
4.47209e-10
4.38828e-10
4.0702e-10
4.47682e-10
4.52748e-10
3.81687e-10
4.66359e-10
3.07593e-10
2.74012e-10
5.12488e-10
2.85454e-10
4.65732e-10
3.69789e-10
2.26578e-10
2.862e-10
4.61517e-10
3.88842e-10
3.50148e-10
4.49854e-10
4.45044e-10
2.78755e-10
2.8409e-10
2.67446e-10
3.95263e-10
4.33222e-10
4.97865e-10
4.77873e-10
5.20134e-10
4.71344e-10
5.15053e-10
4.31859e-10
4.56975e-10
4.60422e-10
4.34139e-10
4.5613e-10
4.22698e-10
4.16418e-10
2.82306e-10
3.89234e-10
4.54094e-10
3.11993e-10
4.70038e-10
4.3194e-10
4.92442e-10
2.88143e-10
4.6807e-10
4.48476e-10
2.84394e-10
4.06712e-10
2.82364e-10
4.55021e-10
4.11109e-10
2.96144e-10
2.77577e-10
2.35481e-10
2.71014e-10
4.55556e-10
1.97442e-10
3.46869e-10
2.76428e-10
3.13779e-10
4.68465e-10
4.55341e-10
1.47703e-10
4.56897e-10
2.36361e-10
2.6167e-10
4.66064e-10
3.78858e-10
2.6449e-10
5.21944e-10
2.91116e-10
1.47694e-10
2.67627e-10
4.06213e-10
5.08683e-10
3.82521e-10
4.57527e-10
4.24955e-10
2.26496e-10
2.16636e-10
1.75929e-10
2.01372e-10
3.07976e-10
2.28979e-10
3.71816e-10
2.2744e-10
4.06191e-10
2.8749e-10
2.68005e-10
3.23803e-10
2.9341e-10
3.98342e-10
2.81379e-10
2.87493e-10
1.36289e-10
3.03416e-10
4.37591e-10
4.37839e-10
3.91347e-10
2.81008e-10
1.92253e-10
5.45622e-10
3.6034e-10
2.98203e-10
2.74188e-10
2.84829e-10
2.82623e-10
3.58661e-10
2.77986e-10
1.92006e-10
2.74687e-10
1.8344e-10
3.50898e-10
2.79472e-10
1.27015e-10
2.63622e-10
3.21185e-10
2.79211e-10
4.4346e-10
2.906e-10
3.81303e-10
1.38279e-10
3.05532e-10
2.86906e-10
2.6149e-10
2.69218e-10
3.21859e-10
3.08576e-10
3.20901e-10
2.66463e-10
2.7106e-10
2.93743e-10
4.03407e-10
2.7599e-10
3.98845e-10
3.58632e-10
2.90644e-10
2.86364e-10
2.90009e-10
3.23238e-10
2.89798e-10
2.70014e-10
3.08407e-10
3.32866e-10
3.87694e-10
2.90055e-10
2.86246e-10
4.2495e-10
4.19058e-10
2.76106e-10
2.90683e-10
1.17343e-10
3.41915e-10
2.27608e-10
3.19547e-10
1.26288e-10
1.31106e-10
1.17218e-10
1.19114e-10
1.26395e-10
1.3306e-10
1.37169e-10
3.65642e-10
2.75054e-10
2.69545e-10
3.05408e-10
2.96089e-10
2.92292e-10
3.14567e-10
2.85881e-10
2.92272e-10
3.10655e-10
2.91199e-10
3.68605e-10
2.60972e-10
3.78646e-10
2.88979e-10
2.77464e-10
2.91481e-10
3.22598e-10
3.28851e-10
3.0457e-10
3.50897e-10
3.25896e-10
3.00271e-10
2.13899e-10
3.03734e-10
2.98733e-10
3.28117e-10
3.05186e-10
2.88406e-10
2.74926e-10
3.03938e-10
3.18955e-10
4.35964e-10
2.83193e-10
4.23809e-10
4.38472e-10
2.98741e-10
4.22674e-10
3.22337e-10
2.55577e-10
3.56625e-10
3.0719e-10
2.29381e-10
1.85219e-10
3.53178e-10
3.76953e-10
3.13297e-10
2.59434e-10
3.16865e-10
1.38173e-10
3.09731e-10
2.89392e-10
1.40532e-10
5.97128e-11
6.53362e-11
2.68535e-10
2.83181e-10
3.31217e-10
3.16459e-10
3.11108e-11
3.25076e-11
3.18038e-10
3.21398e-10
3.04106e-10
1.03701e-10
2.64622e-10
3.15752e-10
3.15511e-10
2.71964e-10
2.40183e-10
1.0784e-10
4.64246e-10
2.84832e-10
3.52008e-10
3.57517e-10
2.55058e-10
3.23311e-10
2.49373e-10
2.75367e-10
1.29706e-10
1.9932e-10
3.23671e-10
3.27608e-10
2.80208e-10
2.93443e-10
3.03531e-10
3.2037e-10
3.06281e-10
1.43921e-10
2.7564e-10
3.01232e-10
2.90748e-10
4.3728e-10
1.43818e-10
2.33631e-10
2.40469e-10
2.344e-10
1.55532e-10
1.55536e-10
2.67562e-10
2.08425e-10
3.01742e-10
1.53814e-10
1.85416e-10
6.13775e-11
6.1375e-11
1.12285e-10
1.99521e-10
1.34894e-10
2.5689e-10
2.84393e-10
2.97675e-10
3.36847e-10
3.07271e-10
2.85094e-10
2.22116e-10
1.27143e-10
2.77928e-10
2.90445e-10
2.82303e-10
1.44094e-10
1.47562e-10
1.04602e-10
2.81813e-10
2.8584e-10
2.24095e-10
2.58136e-10
2.38606e-10
2.23673e-10
2.92779e-10
2.23639e-10
2.57092e-10
2.51266e-10
1.57957e-10
1.95129e-10
1.65263e-10
3.10503e-10
1.12684e-10
1.18894e-10
1.15916e-10
2.94394e-10
1.07666e-10
1.04713e-10
2.00834e-10
9.79129e-11
2.43023e-10
2.43377e-10
1.0064e-10
2.55338e-10
1.13693e-10
1.10967e-10
1.27123e-10
1.05837e-10
1.05696e-10
1.74107e-10
1.26207e-10
1.1275e-10
1.06256e-10
2.35705e-10
2.72525e-10
1.18714e-10
2.602e-10
9.60583e-11
2.64667e-10
2.08084e-10
1.00531e-10
8.64138e-11
9.48513e-11
1.26433e-10
2.25454e-10
1.92075e-10
8.23903e-11
9.13498e-11
2.53739e-10
7.75369e-11
7.75336e-11
8.78163e-11
9.79026e-11
9.95581e-11
1.27262e-10
2.07426e-10
1.93688e-10
2.53652e-10
7.74768e-11
7.74734e-11
2.29126e-10
8.43283e-11
1.78639e-10
7.65023e-11
7.83216e-11
1.03244e-10
1.98479e-10
2.05475e-10
2.18778e-10
2.00542e-10
1.98463e-10
4.38649e-11
3.20193e-10
5.57195e-11
5.43074e-11
2.58856e-10
2.57087e-10
5.62987e-11
3.90326e-11
5.47708e-11
2.38421e-10
SCALARS rr_Vli float
LOOKUP_TABLE default
3.9646e-10
9.03153e-10
7.21294e-10
9.42754e-10
4.92909e-10
7.65549e-10
3.92008e-10
9.37523e-10
8.06152e-10
1.01495e-09
3.59808e-10
9.40395e-10
8.27573e-10
8.74013e-10
1.02394e-09
8.59597e-10
7.39272e-10
8.35785e-10
7.48694e-10
7.31945e-10
8.23359e-10
1.46161e-10
8.43614e-10
7.77511e-10
7.04783e-10
8.13012e-10
3.33321e-10
7.14148e-10
5.60546e-10
6.59664e-10
7.31112e-10
5.79463e-10
3.69241e-10
4.94293e-10
4.85805e-10
4.95407e-10
6.41322e-10
4.86797e-10
7.30369e-10
4.1503e-10
4.71158e-10
5.65211e-10
5.65271e-10
8.0239e-10
4.6328e-10
5.1109e-10
7.04563e-10
7.13469e-10
6.6858e-10
6.40074e-10
6.57243e-10
5.09647e-10
7.91132e-10
6.54874e-10
7.28362e-10
3.36062e-10
5.18701e-10
6.59676e-10
5.18684e-10
7.97927e-10
9.43708e-10
9.24868e-10
3.27811e-10
6.52104e-10
8.85855e-10
8.36056e-10
9.12849e-10
7.89649e-10
7.27182e-10
1.03654e-09
8.58344e-10
8.48992e-10
5.82145e-10
6.76737e-10
7.1686e-10
3.81151e-10
7.38025e-10
8.28302e-10
7.96296e-10
5.62411e-10
5.07571e-10
5.56339e-10
1.05333e-09
5.0828e-10
6.85306e-10
2.54555e-10
8.24949e-10
6.89371e-10
4.90616e-10
7.1927e-11
5.6746e-10
7.82283e-11
6.26236e-10
6.0016e-10
5.37043e-10
4.89849e-10
4.66168e-10
8.91072e-10
7.38573e-10
7.11039e-10
6.04137e-10
5.79606e-10
4.877e-10
8.43978e-10
8.57945e-10
7.72591e-10
6.7943e-10
6.89274e-10
5.17707e-10
1.02948e-09
6.61579e-10
3.49445e-10
4.67013e-10
9.23677e-10
8.65299e-10
6.32415e-10
6.01489e-10
3.87371e-10
6.23874e-10
6.29915e-10
5.47885e-10
9.98134e-10
1.02931e-09
8.8413e-10
9.72699e-10
7.63115e-10
4.31663e-10
9.62083e-10
4.22209e-10
5.4458e-10
4.48368e-10
9.18333e-10
8.96958e-10
9.01679e-10
6.02829e-10
3.65462e-10
4.04142e-10
6.60828e-10
8.07595e-10
3.65339e-10
5.03479e-10
7.78809e-10
5.9016e-10
9.50908e-10
4.71483e-10
7.75942e-10
7.0421e-10
6.80851e-10
4.35181e-10
5.56196e-10
6.20158e-10
8.86165e-10
5.19924e-10
8.02372e-10
9.29293e-10
9.44111e-10
6.17752e-10
5.18595e-10
5.15652e-10
8.10071e-10
6.80108e-10
5.15602e-10
3.41206e-10
5.03583e-10
5.00869e-10
8.67376e-10
5.25583e-10
5.3138e-10
5.75632e-10
5.12176e-10
7.64628e-10
5.36409e-10
4.74963e-10
5.96927e-10
5.6669e-10
6.78984e-10
7.56314e-10
7.28044e-10
6.18394e-10
7.26257e-10
5.58698e-10
8.41502e-10
9.0316e-10
5.03563e-10
8.84634e-10
5.03354e-10
8.7366e-10
8.03145e-10
7.49778e-10
7.63267e-10
8.92391e-10
4.233e-10
5.54503e-10
5.15633e-10
9.00066e-10
8.86163e-10
8.21583e-10
8.94753e-10
9.11051e-10
7.65144e-10
9.38266e-10
6.29587e-10
5.68222e-10
1.02436e-09
5.98404e-10
9.30394e-10
7.41155e-10
4.73186e-10
5.69098e-10
9.28425e-10
7.7259e-10
7.03491e-10
9.06292e-10
8.88986e-10
5.75255e-10
5.70378e-10
5.54131e-10
7.88647e-10
8.70236e-10
1.00012e-09
9.60861e-10
1.04542e-09
9.47299e-10
1.03522e-09
8.68572e-10
9.07535e-10
9.14607e-10
8.62191e-10
9.0577e-10
8.33773e-10
8.21362e-10
5.82929e-10
7.82668e-10
9.15764e-10
6.36147e-10
9.32954e-10
8.57056e-10
9.92868e-10
5.97402e-10
9.44222e-10
9.02611e-10
5.8666e-10
8.08658e-10
5.82699e-10
9.08701e-10
8.29597e-10
6.10801e-10
5.74909e-10
4.97254e-10
5.72002e-10
9.09947e-10
4.17572e-10
7.01373e-10
5.72774e-10
6.42624e-10
9.4511e-10
9.14819e-10
2.86866e-10
9.18146e-10
5.00147e-10
5.42191e-10
9.39954e-10
7.64081e-10
5.48581e-10
1.04871e-09
5.96594e-10
2.86867e-10
5.54431e-10
8.15845e-10
1.01839e-09
7.72113e-10
9.08304e-10
8.50681e-10
4.46516e-10
4.37685e-10
3.74399e-10
4.29844e-10
6.08571e-10
4.65491e-10
7.49874e-10
4.69324e-10
8.07526e-10
5.76723e-10
5.55271e-10
6.4944e-10
6.03916e-10
8.02149e-10
5.79102e-10
5.95946e-10
2.62961e-10
6.00332e-10
8.68355e-10
8.68974e-10
7.87082e-10
5.77986e-10
3.76313e-10
1.09267e-09
7.34194e-10
6.13177e-10
5.65293e-10
5.62854e-10
5.83048e-10
7.1033e-10
5.72602e-10
4.10158e-10
5.65092e-10
3.87652e-10
7.00005e-10
5.76525e-10
2.45095e-10
5.43006e-10
6.42005e-10
5.76546e-10
8.87091e-10
5.98719e-10
7.72056e-10
2.96197e-10
6.1971e-10
5.91986e-10
5.16945e-10
5.55746e-10
6.55784e-10
6.17211e-10
6.45446e-10
5.48939e-10
5.57573e-10
6.02114e-10
8.04848e-10
5.67795e-10
8.0438e-10
7.26132e-10
5.73047e-10
5.8905e-10
5.94695e-10
6.57747e-10
5.93713e-10
5.55921e-10
6.3172e-10
6.6243e-10
7.82057e-10
5.9457e-10
5.90734e-10
8.5515e-10
8.43173e-10
5.68225e-10
5.7317e-10
2.56069e-10
6.92496e-10
4.80578e-10
6.50008e-10
2.87595e-10
2.98539e-10
2.66793e-10
2.71161e-10
2.87671e-10
3.03044e-10
3.12299e-10
7.29218e-10
5.39618e-10
5.44481e-10
6.22514e-10
6.06417e-10
5.98851e-10
6.33418e-10
5.86051e-10
5.99402e-10
6.0935e-10
5.9663e-10
7.32529e-10
5.4248e-10
7.52975e-10
5.85916e-10
5.65618e-10
5.97383e-10
6.37348e-10
6.66012e-10
6.20502e-10
7.10608e-10
6.63901e-10
6.15658e-10
4.43985e-10
6.19208e-10
6.0548e-10
6.51888e-10
6.2455e-10
5.91788e-10
5.62794e-10
6.19929e-10
6.46624e-10
8.77777e-10
5.79777e-10
8.53412e-10
8.89606e-10
6.0919e-10
8.52294e-10
6.53831e-10
5.23769e-10
7.13423e-10
6.25334e-10
4.50313e-10
3.95629e-10
7.04347e-10
7.50181e-10
6.35105e-10
5.27972e-10
6.35147e-10
3.01214e-10
6.27927e-10
5.8918e-10
3.00886e-10
1.15273e-10
1.26098e-10
5.43922e-10
5.80017e-10
6.73638e-10
6.47572e-10
5.92631e-11
6.1924e-11
6.41296e-10
6.47985e-10
6.13386e-10
2.26097e-10
5.4273e-10
6.30905e-10
6.43325e-10
5.54935e-10
4.89808e-10
2.35452e-10
9.29127e-10
5.83653e-10
7.13124e-10
7.24273e-10
5.20508e-10
6.58753e-10
5.08917e-10
5.61567e-10
2.79078e-10
4.21134e-10
6.59537e-10
6.63608e-10
5.7035e-10
5.99039e-10
6.18167e-10
6.51798e-10
6.23432e-10
3.07399e-10
5.46999e-10
6.16746e-10
5.82919e-10
8.74754e-10
3.0734e-10
4.73462e-10
4.8768e-10
4.62153e-10
3.00449e-10
3.0047e-10
5.29456e-10
4.27534e-10
6.11444e-10
3.28976e-10
3.58798e-10
1.17148e-10
1.17148e-10
2.45381e-10
3.8954e-10
2.6244e-10
5.20972e-10
5.63437e-10
6.01318e-10
6.77538e-10
6.14554e-10
5.68972e-10
4.47966e-10
2.7723e-10
5.62461e-10
5.82704e-10
5.64152e-10
3.11532e-10
2.87866e-10
2.24265e-10
5.63357e-10
5.74757e-10
4.61882e-10
5.21667e-10
4.81378e-10
4.40753e-10
5.90001e-10
4.40715e-10
5.20743e-10
5.02062e-10
3.07748e-10
3.79949e-10
3.53361e-10
6.23881e-10
2.4677e-10
2.59963e-10
2.54318e-10
5.89184e-10
2.34964e-10
2.30124e-10
4.09951e-10
2.14631e-10
4.77028e-10
4.77749e-10
2.2032e-10
5.19535e-10
2.44553e-10
2.43107e-10
2.73879e-10
2.31943e-10
2.2772e-10
3.3976e-10
2.70673e-10
2.45979e-10
2.32663e-10
4.75674e-10
5.42908e-10
2.56095e-10
5.25025e-10
2.10999e-10
5.32604e-10
4.23157e-10
2.2044e-10
1.86648e-10
2.08242e-10
2.76299e-10
4.57399e-10
3.76534e-10
1.57515e-10
1.74842e-10
5.09904e-10
1.48272e-10
1.48271e-10
1.68009e-10
1.88586e-10
2.13186e-10
2.48062e-10
4.10198e-10
3.79686e-10
5.10259e-10
1.48971e-10
1.48969e-10
4.48422e-10
1.84449e-10
3.63557e-10
1.67137e-10
1.68136e-10
2.21535e-10
3.84467e-10
3.9811e-10
4.24123e-10
3.88695e-10
3.84457e-10
8.39907e-11
6.20599e-10
1.07139e-10
1.03804e-10
5.01337e-10
4.97858e-10
1.07571e-10
7.47155e-11
1.05277e-10
4.62444e-10
SCALARS rr_S_ext' float
LOOKUP_TABLE default
-5.64325e-11
-1.29068e-10
-1.03045e-10
-1.34718e-10
-7.05056e-11
-1.09367e-10
-5.5798e-11
-1.33966e-10
-1.15131e-10
-1.45043e-10
-5.12266e-11
-1.34376e-10
-1.18246e-10
-1.24908e-10
-1.46412e-10
-1.22811e-10
-1.05665e-10
-1.19422e-10
-1.06906e-10
-1.04557e-10
-1.1761e-10
-2.09326e-11
-1.20502e-10
-1.11066e-10
-1.00676e-10
-1.16175e-10
-4.74837e-11
-1.02028e-10
-7.99531e-11
-9.44032e-11
-1.04462e-10
-8.26519e-11
-5.2598e-11
-7.07226e-11
-6.95169e-11
-7.08818e-11
-9.17822e-11
-6.96559e-11
-1.04355e-10
-5.91213e-11
-6.72024e-11
-8.08908e-11
-8.08991e-11
-1.14647e-10
-6.60186e-11
-7.29034e-11
-1.00613e-10
-1.01902e-10
-9.55149e-11
-9.12734e-11
-9.37352e-11
-7.27232e-11
-1.13156e-10
-9.34477e-11
-1.04176e-10
-4.78967e-11
-7.42249e-11
-9.41326e-11
-7.42223e-11
-1.13984e-10
-1.34883e-10
-1.32232e-10
-4.67116e-11
-9.32325e-11
-1.26654e-10
-1.19499e-10
-1.30473e-10
-1.12837e-10
-1.03874e-10
-1.4813e-10
-1.22769e-10
-1.21431e-10
-8.3033e-11
-9.67385e-11
-1.02414e-10
-5.4285e-11
-1.05539e-10
-1.1839e-10
-1.13786e-10
-8.02589e-11
-7.23733e-11
-7.95881e-11
-1.50574e-10
-7.2466e-11
-9.77603e-11
-3.62769e-11
-1.17858e-10
-9.85388e-11
-6.99143e-11
-1.02991e-11
-8.09733e-11
-1.12013e-11
-8.95539e-11
-8.5778e-11
-7.6636e-11
-6.98588e-11
-6.64705e-11
-1.27339e-10
-1.05617e-10
-1.01592e-10
-8.62457e-11
-8.26903e-11
-6.9531e-11
-1.20597e-10
-1.226e-10
-1.10405e-10
-9.71291e-11
-9.84789e-11
-7.38087e-11
-1.47127e-10
-9.45069e-11
-4.98036e-11
-6.6572e-11
-1.31982e-10
-1.23651e-10
-9.02441e-11
-8.60713e-11
-5.52341e-11
-8.92734e-11
-8.98884e-11
-7.82256e-11
-1.42717e-10
-1.47095e-10
-1.26378e-10
-1.39015e-10
-1.09121e-10
-6.17616e-11
-1.37487e-10
-6.02024e-11
-7.77112e-11
-6.41296e-11
-1.31233e-10
-1.28218e-10
-1.28855e-10
-8.60041e-11
-5.22965e-11
-5.76134e-11
-9.44231e-11
-1.15446e-10
-5.22788e-11
-7.18331e-11
-1.11298e-10
-8.42668e-11
-1.35891e-10
-6.72262e-11
-1.1088e-10
-1.00631e-10
-9.72679e-11
-6.21705e-11
-7.93919e-11
-8.85726e-11
-1.26639e-10
-7.41586e-11
-1.14646e-10
-1.32802e-10
-1.34917e-10
-8.82902e-11
-7.39931e-11
-7.35739e-11
-1.15745e-10
-9.71373e-11
-7.35443e-11
-4.86281e-11
-7.18203e-11
-7.14631e-11
-1.23951e-10
-7.49897e-11
-7.58165e-11
-8.21049e-11
-7.3077e-11
-1.09345e-10
-7.6543e-11
-6.77383e-11
-8.53169e-11
-8.08648e-11
-9.70643e-11
-1.08156e-10
-1.04032e-10
-8.84516e-11
-1.03784e-10
-7.96901e-11
-1.20255e-10
-1.29066e-10
-7.18454e-11
-1.26451e-10
-7.17855e-11
-1.24882e-10
-1.14817e-10
-1.07223e-10
-1.09076e-10
-1.2756e-10
-6.03606e-11
-7.91253e-11
-7.35473e-11
-1.28624e-10
-1.26619e-10
-1.17393e-10
-1.27903e-10
-1.30194e-10
-1.09362e-10
-1.34085e-10
-8.99033e-11
-8.10909e-11
-1.4643e-10
-8.53542e-11
-1.33e-10
-1.05934e-10
-6.75058e-11
-8.13692e-11
-1.32679e-10
-1.10468e-10
-1.0054e-10
-1.29508e-10
-1.27081e-10
-8.21133e-11
-8.15189e-11
-7.90833e-11
-1.12744e-10
-1.2437e-10
-1.42933e-10
-1.37316e-10
-1.49403e-10
-1.35381e-10
-1.47946e-10
-1.24127e-10
-1.29765e-10
-1.30774e-10
-1.23281e-10
-1.29513e-10
-1.19253e-10
-1.17477e-10
-8.32065e-11
-1.11852e-10
-1.30855e-10
-9.08568e-11
-1.33402e-10
-1.22551e-10
-1.41874e-10
-8.52558e-11
-1.3492e-10
-1.28988e-10
-8.37431e-11
-1.15622e-10
-8.31762e-11
-1.29901e-10
-1.18539e-10
-8.71897e-11
-8.205e-11
-7.09016e-11
-8.15609e-11
-1.30078e-10
-5.95358e-11
-1.0021e-10
-8.17438e-11
-9.17621e-11
-1.35046e-10
-1.30741e-10
-4.10563e-11
-1.31215e-10
-7.13074e-11
-7.73788e-11
-1.34311e-10
-1.09181e-10
-7.82873e-11
-1.49875e-10
-8.51872e-11
-4.10563e-11
-7.91266e-11
-1.16598e-10
-1.45567e-10
-1.10325e-10
-1.29876e-10
-1.21595e-10
-6.38659e-11
-6.25373e-11
-5.33636e-11
-6.12572e-11
-8.70362e-11
-6.64919e-11
-1.07151e-10
-6.69931e-11
-1.1546e-10
-8.2429e-11
-7.92459e-11
-9.28225e-11
-8.62155e-11
-1.14629e-10
-8.26736e-11
-8.50488e-11
-3.76453e-11
-8.5853e-11
-1.24166e-10
-1.24254e-10
-1.12482e-10
-8.25167e-11
-5.38402e-11
-1.56183e-10
-1.04863e-10
-8.75418e-11
-8.06956e-11
-8.04979e-11
-8.32273e-11
-1.0158e-10
-8.17426e-11
-5.84493e-11
-8.06749e-11
-5.5272e-11
-1.00072e-10
-8.22961e-11
-3.50874e-11
-7.75175e-11
-9.17727e-11
-8.22954e-11
-1.26804e-10
-8.54699e-11
-1.10302e-10
-4.22043e-11
-8.85296e-11
-8.45024e-11
-7.39303e-11
-7.93274e-11
-9.36636e-11
-8.82266e-11
-9.22401e-11
-7.83637e-11
-7.96021e-11
-8.59745e-11
-1.1506e-10
-8.10607e-11
-1.1494e-10
-1.03741e-10
-8.19636e-11
-8.40959e-11
-8.49137e-11
-9.39498e-11
-8.47772e-11
-7.93628e-11
-9.0205e-11
-9.47104e-11
-1.11749e-10
-8.48973e-11
-8.43227e-11
-1.22207e-10
-1.20496e-10
-8.11207e-11
-8.1981e-11
-3.64519e-11
-9.89339e-11
-6.85242e-11
-9.28459e-11
-4.08486e-11
-4.24032e-11
-3.78949e-11
-3.8515e-11
-4.08604e-11
-4.30429e-11
-4.43582e-11
-1.0425e-10
-7.71974e-11
-7.77966e-11
-8.89101e-11
-8.6592e-11
-8.55107e-11
-9.0517e-11
-8.36805e-11
-8.55853e-11
-8.7174e-11
-8.51934e-11
-1.04739e-10
-7.74086e-11
-1.07658e-10
-8.37029e-11
-8.07837e-11
-8.52999e-11
-9.11527e-11
-9.51505e-11
-8.8625e-11
-1.01522e-10
-9.48237e-11
-8.79073e-11
-6.33581e-11
-8.84372e-11
-8.64997e-11
-9.32104e-11
-8.91845e-11
-8.44959e-11
-8.0365e-11
-8.85384e-11
-9.23764e-11
-1.25437e-10
-8.27896e-11
-1.21954e-10
-1.27084e-10
-8.70054e-11
-1.21787e-10
-9.34037e-11
-7.47884e-11
-1.01979e-10
-8.93186e-11
-6.44199e-11
-5.6379e-11
-1.00695e-10
-1.07256e-10
-9.07311e-11
-7.54132e-11
-9.0782e-11
-4.28806e-11
-8.9705e-11
-8.41541e-11
-4.28734e-11
-1.65021e-11
-1.8052e-11
-7.77072e-11
-8.28222e-11
-9.62221e-11
-9.24726e-11
-8.48862e-12
-8.86977e-12
-9.16373e-11
-9.25937e-11
-8.76476e-11
-3.21869e-11
-7.7493e-11
-9.0188e-11
-9.18818e-11
-7.92551e-11
-6.9955e-11
-3.35161e-11
-1.32809e-10
-8.33397e-11
-1.0188e-10
-1.03473e-10
-7.43377e-11
-9.40879e-11
-7.26822e-11
-8.02041e-11
-3.9756e-11
-6.00464e-11
-9.41994e-11
-9.48062e-11
-8.14656e-11
-8.55521e-11
-8.82932e-11
-9.31008e-11
-8.90473e-11
-4.38061e-11
-7.8216e-11
-8.80682e-11
-8.33163e-11
-1.2504e-10
-4.37964e-11
-6.76399e-11
-6.96688e-11
-6.61021e-11
-4.30097e-11
-4.30125e-11
-7.57163e-11
-6.10446e-11
-8.73522e-11
-4.68777e-11
-5.13587e-11
-1.67786e-11
-1.67785e-11
-3.49278e-11
-5.57391e-11
-3.75576e-11
-7.44248e-11
-8.05725e-11
-8.5918e-11
-9.68264e-11
-8.78466e-11
-8.13388e-11
-6.40109e-11
-3.94659e-11
-8.03596e-11
-8.32833e-11
-8.06451e-11
-4.43684e-11
-4.11917e-11
-3.19536e-11
-8.05301e-11
-8.21396e-11
-6.59343e-11
-7.45361e-11
-6.87845e-11
-6.30421e-11
-8.43099e-11
-6.30365e-11
-7.43965e-11
-7.17699e-11
-4.4039e-11
-5.43724e-11
-5.03534e-11
-8.91621e-11
-3.51226e-11
-3.70034e-11
-3.61934e-11
-8.42183e-11
-3.34476e-11
-3.27473e-11
-5.85476e-11
-3.05466e-11
-6.82426e-11
-6.83457e-11
-3.13585e-11
-7.42083e-11
-3.48384e-11
-3.46007e-11
-3.90127e-11
-3.30112e-11
-3.24376e-11
-4.86171e-11
-3.85646e-11
-3.50162e-11
-3.31148e-11
-6.79686e-11
-7.76186e-11
-3.64772e-11
-7.50206e-11
-3.00264e-11
-7.61125e-11
-6.04436e-11
-3.13732e-11
-2.65837e-11
-2.96352e-11
-3.93287e-11
-6.53416e-11
-5.38689e-11
-2.25583e-11
-2.50385e-11
-7.28727e-11
-2.12344e-11
-2.12341e-11
-2.40605e-11
-2.69997e-11
-3.03764e-11
-3.54974e-11
-5.86632e-11
-5.43196e-11
-7.29201e-11
-2.13297e-11
-2.13295e-11
-6.41582e-11
-2.62534e-11
-5.19286e-11
-2.3791e-11
-2.39548e-11
-3.15631e-11
-5.50306e-11
-5.69829e-11
-6.07049e-11
-5.56345e-11
-5.50291e-11
-1.20279e-11
-8.88273e-11
-1.53401e-11
-1.48663e-11
-7.17592e-11
-7.12617e-11
-1.54061e-11
-1.06998e-11
-1.50737e-11
-6.61881e-11
SCALARS rr_P_ext' float
LOOKUP_TABLE default
5.64084e-12
1.30475e-11
1.04066e-11
1.36159e-11
7.14782e-12
1.10448e-11
5.57721e-12
1.35382e-11
1.16163e-11
1.46618e-11
5.124e-12
1.35797e-11
1.19468e-11
1.26285e-11
1.48276e-11
1.24048e-11
1.06872e-11
1.20668e-11
1.07809e-11
1.05563e-11
1.18724e-11
2.13023e-12
1.21644e-11
1.12137e-11
1.01643e-11
1.1741e-11
4.75724e-12
1.03052e-11
8.03802e-12
9.58557e-12
1.05538e-11
8.30955e-12
5.2688e-12
7.17626e-12
7.05634e-12
7.19234e-12
9.32053e-12
7.06946e-12
1.05428e-11
5.92244e-12
6.75597e-12
8.21487e-12
8.21564e-12
1.15828e-11
6.62026e-12
7.33048e-12
1.01487e-11
1.02833e-11
9.64637e-12
9.16966e-12
9.42084e-12
7.31961e-12
1.14698e-11
9.40585e-12
1.05586e-11
4.80474e-12
7.53442e-12
9.47481e-12
7.53408e-12
1.15087e-11
1.36417e-11
1.33862e-11
4.68335e-12
9.4377e-12
1.28218e-11
1.20864e-11
1.31963e-11
1.14038e-11
1.04866e-11
1.4975e-11
1.24439e-11
1.23082e-11
8.34741e-12
9.78781e-12
1.03432e-11
5.43513e-12
1.06905e-11
1.19742e-11
1.14996e-11
8.08013e-12
7.26929e-12
8.07146e-12
1.5236e-11
7.27624e-12
9.83158e-12
3.63828e-12
1.19041e-11
9.96823e-12
7.01101e-12
1.04752e-12
8.15012e-12
1.13926e-12
9.07189e-12
8.6747e-12
7.71436e-12
7.02038e-12
6.67653e-12
1.2872e-11
1.06983e-11
1.02632e-11
8.69183e-12
8.31824e-12
6.98138e-12
1.21868e-11
1.23918e-11
1.11594e-11
9.82946e-12
9.94779e-12
7.41075e-12
1.48755e-11
9.54227e-12
4.99608e-12
6.68164e-12
1.33365e-11
1.24976e-11
9.08373e-12
8.73683e-12
5.54765e-12
9.06159e-12
9.04829e-12
7.88666e-12
1.44515e-11
1.48698e-11
1.27848e-11
1.40564e-11
1.1052e-11
6.26678e-12
1.38977e-11
6.04694e-12
7.82258e-12
6.5002e-12
1.32654e-11
1.29732e-11
1.30255e-11
8.65174e-12
5.30853e-12
5.7833e-12
9.54066e-12
1.16816e-11
5.30667e-12
7.22709e-12
1.12512e-11
8.49722e-12
1.37368e-11
6.75181e-12
1.12063e-11
1.01711e-11
9.82339e-12
6.27854e-12
7.9984e-12
8.938e-12
1.28018e-11
7.45548e-12
1.15833e-11
1.34244e-11
1.36379e-11
8.92777e-12
7.44523e-12
7.40331e-12
1.1694e-11
9.80273e-12
7.39433e-12
4.87775e-12
7.21826e-12
7.19058e-12
1.25287e-11
7.54547e-12
7.62853e-12
8.2544e-12
7.35314e-12
1.10771e-11
7.70433e-12
6.8079e-12
8.628e-12
8.13954e-12
9.82252e-12
1.09565e-11
1.05131e-11
8.96611e-12
1.04904e-11
8.01171e-12
1.21557e-11
1.30462e-11
7.22847e-12
1.27921e-11
7.21412e-12
1.26333e-11
1.16197e-11
1.08626e-11
1.10259e-11
1.29045e-11
6.06356e-12
7.96441e-12
7.39415e-12
1.3002e-11
1.27935e-11
1.18621e-11
1.29411e-11
1.31611e-11
1.10607e-11
1.35547e-11
9.06754e-12
8.16456e-12
1.48155e-11
8.5813e-12
1.34577e-11
1.07143e-11
6.79033e-12
8.23842e-12
1.34128e-11
1.11858e-11
1.01655e-11
1.30896e-11
1.2859e-11
8.27287e-12
8.243e-12
7.96332e-12
1.14099e-11
1.25754e-11
1.44522e-11
1.38826e-11
1.51053e-11
1.36877e-11
1.49579e-11
1.25486e-11
1.31406e-11
1.32425e-11
1.24841e-11
1.31153e-11
1.20869e-11
1.1907e-11
8.38234e-12
1.13079e-11
1.3224e-11
9.1683e-12
1.351e-11
1.24117e-11
1.4338e-11
8.58415e-12
1.36342e-11
1.30387e-11
8.43749e-12
1.17066e-11
8.37993e-12
1.31447e-11
1.19784e-11
8.78495e-12
8.26248e-12
7.12126e-12
8.19247e-12
1.31623e-11
5.97842e-12
1.01234e-11
8.23116e-12
9.25435e-12
1.36468e-11
1.32192e-11
4.1697e-12
1.32668e-11
7.15996e-12
7.79167e-12
1.35732e-11
1.10336e-11
7.88208e-12
1.51537e-11
8.5905e-12
4.16966e-12
7.96783e-12
1.17898e-11
1.4725e-11
1.11479e-11
1.31526e-11
1.23003e-11
6.47359e-12
6.3183e-12
5.35413e-12
6.14357e-12
8.81948e-12
6.71233e-12
1.08284e-11
6.74955e-12
1.16904e-11
8.33588e-12
7.97976e-12
9.3873e-12
8.68914e-12
1.15864e-11
8.33225e-12
8.56352e-12
3.82651e-12
8.69814e-12
1.25751e-11
1.25837e-11
1.13713e-11
8.3171e-12
5.46252e-12
1.57981e-11
1.05828e-11
8.82395e-12
8.131e-12
8.15687e-12
8.38544e-12
1.02902e-11
8.23747e-12
5.86139e-12
8.13129e-12
5.55087e-12
1.01278e-11
8.29167e-12
3.56647e-12
7.81172e-12
9.28538e-12
8.29053e-12
1.28284e-11
8.61285e-12
1.11409e-11
4.23068e-12
8.93975e-12
8.51371e-12
7.49104e-12
7.99186e-12
9.45258e-12
8.92573e-12
9.32488e-12
7.89687e-12
8.02324e-12
8.66964e-12
1.16444e-11
8.17012e-12
1.16155e-11
1.04783e-11
8.30785e-12
8.47618e-12
8.56219e-12
9.48303e-12
8.54947e-12
7.99818e-12
9.09708e-12
9.58819e-12
1.12927e-11
8.56095e-12
8.49543e-12
1.23535e-11
1.21808e-11
8.17582e-12
8.30951e-12
3.64469e-12
9.99237e-12
6.88257e-12
9.37205e-12
4.05951e-12
4.21406e-12
3.76629e-12
3.82781e-12
4.06105e-12
4.2775e-12
4.40842e-12
1.05509e-11
7.82997e-12
7.86025e-12
8.97238e-12
8.73288e-12
8.62338e-12
9.14933e-12
8.4382e-12
8.62979e-12
8.84209e-12
8.59136e-12
1.06054e-11
7.79131e-12
1.09002e-11
8.45283e-12
8.15215e-12
8.60175e-12
9.23682e-12
9.61026e-12
8.94415e-12
1.02539e-11
9.56984e-12
8.86421e-12
6.37836e-12
8.92446e-12
8.73563e-12
9.43833e-12
8.9953e-12
8.51934e-12
8.10538e-12
8.93405e-12
9.32882e-12
1.26792e-11
8.34983e-12
1.23269e-11
1.28326e-11
8.77964e-12
1.23078e-11
9.43189e-12
7.54184e-12
1.03168e-11
9.01509e-12
6.53337e-12
5.65384e-12
1.01911e-11
1.08583e-11
9.16277e-12
7.61185e-12
9.18165e-12
4.28809e-12
9.05907e-12
8.49368e-12
4.29803e-12
1.67726e-12
1.83485e-12
7.84839e-12
8.3526e-12
9.71301e-12
9.32699e-12
8.64239e-13
9.03041e-13
9.2608e-12
9.35764e-12
8.85732e-12
3.21864e-12
7.81378e-12
9.12543e-12
9.27174e-12
7.99681e-12
7.05902e-12
3.35092e-12
1.34351e-11
8.4043e-12
1.02895e-11
1.04504e-11
7.50053e-12
9.49532e-12
7.33348e-12
8.09319e-12
3.98282e-12
6.0305e-12
9.5065e-12
9.57529e-12
8.22256e-12
8.63166e-12
8.91104e-12
9.39755e-12
8.9878e-12
4.39301e-12
7.92129e-12
8.88216e-12
8.42633e-12
1.26499e-11
4.39174e-12
6.83108e-12
7.03529e-12
6.70016e-12
4.37114e-12
4.3714e-12
7.67108e-12
6.15512e-12
8.82202e-12
4.70017e-12
5.21851e-12
1.70781e-12
1.70779e-12
3.49161e-12
5.65701e-12
3.81352e-12
7.51561e-12
8.16168e-12
8.68071e-12
9.78848e-12
8.88741e-12
8.23134e-12
6.46877e-12
3.94649e-12
8.11712e-12
8.42224e-12
8.1597e-12
4.44195e-12
4.18104e-12
3.20271e-12
8.14772e-12
8.30407e-12
6.64392e-12
7.53028e-12
6.95084e-12
6.39054e-12
8.52099e-12
6.38991e-12
7.51391e-12
7.26182e-12
4.47082e-12
5.52028e-12
5.04885e-12
9.01501e-12
3.51e-12
3.69877e-12
3.61608e-12
8.51955e-12
3.34427e-12
3.27102e-12
5.90714e-12
3.05229e-12
6.92111e-12
6.93151e-12
3.13399e-12
7.49046e-12
3.4903e-12
3.45764e-12
3.90765e-12
3.29866e-12
3.24907e-12
4.9345e-12
3.86521e-12
3.50126e-12
3.30943e-12
6.86809e-12
7.85674e-12
3.65303e-12
7.58087e-12
2.99945e-12
7.69398e-12
6.10152e-12
3.13473e-12
2.66179e-12
2.96056e-12
3.93156e-12
6.59802e-12
5.46429e-12
2.29565e-12
2.54769e-12
7.36786e-12
2.16086e-12
2.16083e-12
2.4483e-12
2.74501e-12
3.04518e-12
3.60343e-12
5.94384e-12
5.51009e-12
7.37164e-12
2.16904e-12
2.16901e-12
6.5094e-12
2.62414e-12
5.24142e-12
2.37839e-12
2.40056e-12
3.16324e-12
5.59087e-12
5.78904e-12
6.16672e-12
5.65179e-12
5.59067e-12
1.22378e-12
9.02379e-12
1.55996e-12
1.51292e-12
7.29061e-12
7.24015e-12
1.56791e-12
1.08869e-12
1.53294e-12
6.72332e-12
SCALARS rr_S' float
LOOKUP_TABLE default
4.73092e-11
1.08279e-10
8.64432e-11
1.13018e-10
5.9159e-11
9.17459e-11
4.67772e-11
1.12386e-10
9.65764e-11
1.21681e-10
4.29467e-11
1.1273e-10
9.9197e-11
1.0479e-10
1.22842e-10
1.03026e-10
8.86483e-11
1.00184e-10
8.96735e-11
8.77094e-11
9.86582e-11
1.75677e-11
1.01084e-10
9.31699e-11
8.4454e-11
9.74616e-11
3.9813e-11
8.55901e-11
6.70522e-11
7.92174e-11
8.76339e-11
6.93157e-11
4.41007e-11
5.93439e-11
5.83335e-11
5.94775e-11
7.70185e-11
5.84497e-11
8.75438e-11
4.95703e-11
5.63588e-11
6.78792e-11
6.78862e-11
9.61777e-11
5.5357e-11
6.11407e-11
8.43964e-11
8.54797e-11
8.0126e-11
7.65424e-11
7.8609e-11
6.09934e-11
9.49449e-11
7.83754e-11
8.74091e-11
4.01627e-11
6.22842e-11
7.89499e-11
6.2282e-11
9.56179e-11
1.1316e-10
1.10943e-10
3.91676e-11
7.82219e-11
1.06263e-10
1.00255e-10
1.09461e-10
9.46615e-11
8.71361e-11
1.24272e-10
1.0301e-10
1.01888e-10
6.96351e-11
8.11611e-11
8.59137e-11
4.55137e-11
8.85502e-11
9.93245e-11
9.54576e-11
6.73147e-11
6.06919e-11
6.67812e-11
1.26328e-10
6.07683e-11
8.1988e-11
3.04187e-11
9.88698e-11
8.26707e-11
5.86236e-11
8.64326e-12
6.7913e-11
9.40036e-12
7.51385e-11
7.19635e-11
6.42757e-11
5.85852e-11
5.5742e-11
1.06829e-10
8.86155e-11
8.52255e-11
7.23408e-11
6.93505e-11
5.8307e-11
1.01171e-10
1.02853e-10
9.2622e-11
8.14897e-11
8.26136e-11
6.18941e-11
1.2343e-10
7.92792e-11
4.17616e-11
5.58242e-11
1.10722e-10
1.03734e-10
7.56887e-11
7.22248e-11
4.6319e-11
7.49116e-11
7.53906e-11
6.56153e-11
1.19741e-10
1.23403e-10
1.06027e-10
1.16625e-10
9.15546e-11
5.18246e-11
1.15342e-10
5.04855e-11
6.51774e-11
5.38084e-11
1.10095e-10
1.07572e-10
1.081e-10
7.21298e-11
4.38834e-11
4.83125e-11
7.92124e-11
9.68565e-11
4.38685e-11
6.02454e-11
9.33716e-11
7.06834e-11
1.14003e-10
5.63754e-11
9.30195e-11
8.44217e-11
8.15965e-11
5.21538e-11
6.65905e-11
7.42985e-11
1.06241e-10
6.21927e-11
9.61774e-11
1.11411e-10
1.13186e-10
7.40708e-11
6.20574e-11
6.1706e-11
9.70988e-11
8.14833e-11
6.16779e-11
4.07757e-11
6.02305e-11
5.99355e-11
1.03986e-10
6.28933e-11
6.35867e-11
6.88569e-11
6.12892e-11
9.1744e-11
6.41973e-11
5.68072e-11
7.15768e-11
6.78222e-11
8.14351e-11
9.07462e-11
8.72737e-11
7.42165e-11
8.70671e-11
6.68317e-11
1.00886e-10
1.08277e-10
6.02558e-11
1.06088e-10
6.0201e-11
1.04772e-10
9.63297e-11
8.9964e-11
9.15068e-11
1.07019e-10
5.06186e-11
6.63631e-11
6.16801e-11
1.07907e-10
1.06222e-10
9.84827e-11
1.07307e-10
1.09224e-10
9.17501e-11
1.12488e-10
7.54124e-11
6.8013e-11
1.22851e-10
7.15821e-11
1.11584e-10
8.88741e-11
5.66154e-11
6.82693e-11
1.11309e-10
9.26843e-11
8.43475e-11
1.08648e-10
1.06618e-10
6.88732e-11
6.83899e-11
6.63296e-11
9.45907e-11
1.04339e-10
1.19912e-10
1.15199e-10
1.2534e-10
1.13576e-10
1.24117e-10
1.04135e-10
1.08874e-10
1.09721e-10
1.03434e-10
1.08663e-10
1.00059e-10
9.857e-11
6.97899e-11
9.38364e-11
1.09776e-10
7.62147e-11
1.11927e-10
1.02823e-10
1.1902e-10
7.15063e-11
1.13186e-10
1.08212e-10
7.02406e-11
9.70072e-11
6.97648e-11
1.08984e-10
9.94436e-11
7.31315e-11
6.88181e-11
5.94576e-11
6.83967e-11
1.09133e-10
4.99257e-11
8.40664e-11
6.8561e-11
7.69712e-11
1.13292e-10
1.09684e-10
3.44525e-11
1.10082e-10
5.97969e-11
6.49e-11
1.12675e-10
9.15939e-11
6.56614e-11
1.25736e-10
7.14557e-11
3.44525e-11
6.6366e-11
9.78188e-11
1.22125e-10
9.25531e-11
1.08968e-10
1.02014e-10
5.35873e-11
5.24629e-11
4.47473e-11
5.1365e-11
7.30273e-11
5.57777e-11
8.98911e-11
5.61912e-11
9.68719e-11
6.9154e-11
6.6466e-11
7.78736e-11
7.23157e-11
9.61648e-11
6.93449e-11
7.13328e-11
3.15916e-11
7.20339e-11
1.04178e-10
1.04251e-10
9.43649e-11
6.92136e-11
4.51774e-11
1.31031e-10
8.79641e-11
7.34288e-11
6.76848e-11
6.75414e-11
6.98079e-11
8.52285e-11
6.85635e-11
4.90102e-11
6.76686e-11
4.63505e-11
8.39593e-11
6.90268e-11
2.9445e-11
6.50196e-11
7.69948e-11
6.90257e-11
1.06384e-10
7.16897e-11
9.25316e-11
3.53878e-11
7.42656e-11
7.08773e-11
6.20307e-11
6.65364e-11
7.85695e-11
7.40195e-11
7.73833e-11
6.57293e-11
6.67689e-11
7.21159e-11
9.6534e-11
6.79922e-11
9.64252e-11
8.70271e-11
6.87724e-11
7.05382e-11
7.12259e-11
7.88104e-11
7.1112e-11
6.65677e-11
7.5665e-11
7.94621e-11
9.37482e-11
7.12125e-11
7.07264e-11
1.02523e-10
1.01088e-10
6.80424e-11
6.87869e-11
3.05593e-11
8.29945e-11
5.7464e-11
7.78846e-11
3.42316e-11
3.55344e-11
3.17565e-11
3.22761e-11
3.42417e-11
3.60705e-11
3.71728e-11
8.74643e-11
6.47754e-11
6.52641e-11
7.45818e-11
7.26344e-11
7.17272e-11
7.59371e-11
7.01917e-11
7.17893e-11
7.31468e-11
7.1461e-11
8.78774e-11
6.49232e-11
9.03259e-11
7.02168e-11
6.7765e-11
7.15502e-11
7.64814e-11
7.98207e-11
7.43429e-11
8.51658e-11
7.95427e-11
7.37371e-11
5.31396e-11
7.4185e-11
7.25632e-11
7.82046e-11
7.48095e-11
7.08751e-11
6.74114e-11
7.42696e-11
7.74929e-11
1.05232e-10
6.94452e-11
1.02311e-10
1.06608e-10
7.29838e-11
1.0217e-10
7.83544e-11
6.27331e-11
8.5557e-11
7.49253e-11
5.40538e-11
4.72743e-11
8.44817e-11
8.99882e-11
7.61127e-11
6.32609e-11
7.61621e-11
3.59492e-11
7.52519e-11
7.0593e-11
3.5949e-11
1.38484e-11
1.5149e-11
6.51876e-11
6.94722e-11
8.07169e-11
7.75677e-11
7.12424e-12
7.44413e-12
7.68762e-11
7.76786e-11
7.35289e-11
2.6984e-11
6.50013e-11
7.56655e-11
7.70745e-11
6.64823e-11
5.86812e-11
2.8098e-11
1.11422e-10
6.99061e-11
8.54657e-11
8.68019e-11
6.23573e-11
7.89254e-11
6.09685e-11
6.72786e-11
3.33336e-11
5.03543e-11
7.90189e-11
7.95317e-11
6.83379e-11
7.17642e-11
7.40649e-11
7.80984e-11
7.46978e-11
3.67318e-11
6.56247e-11
7.38729e-11
6.98986e-11
1.04905e-10
3.67235e-11
5.67421e-11
5.84438e-11
5.54636e-11
3.6093e-11
3.60954e-11
6.35286e-11
5.12043e-11
7.32784e-11
3.93069e-11
4.30988e-11
1.40816e-11
1.40815e-11
2.92812e-11
4.67718e-11
3.15161e-11
6.24334e-11
6.76027e-11
7.20772e-11
8.1231e-11
7.37007e-11
6.82419e-11
5.36998e-11
3.30863e-11
6.74132e-11
6.98705e-11
6.76593e-11
3.71993e-11
3.45649e-11
2.67925e-11
6.75626e-11
6.89099e-11
5.53036e-11
6.25287e-11
5.77043e-11
5.28962e-11
7.07295e-11
5.28915e-11
6.24104e-11
6.02132e-11
3.69544e-11
4.56258e-11
4.22214e-11
7.48017e-11
2.9444e-11
3.10211e-11
3.03411e-11
7.06563e-11
2.80407e-11
2.74519e-11
4.91119e-11
2.56076e-11
5.72614e-11
5.7348e-11
2.62885e-11
6.22502e-11
2.92105e-11
2.90063e-11
3.271e-11
2.76738e-11
2.71972e-11
4.07957e-11
3.23356e-11
2.93558e-11
2.77609e-11
5.70197e-11
6.51216e-11
3.05838e-11
6.29358e-11
2.5171e-11
6.38531e-11
5.07038e-11
2.63005e-11
2.22885e-11
2.48432e-11
3.29707e-11
5.48135e-11
4.52011e-11
1.8932e-11
2.10133e-11
6.11358e-11
1.78208e-11
1.78206e-11
2.01926e-11
2.26582e-11
2.54703e-11
2.97869e-11
4.92207e-11
4.55793e-11
6.11751e-11
1.79001e-11
1.79e-11
5.38354e-11
2.2009e-11
4.35607e-11
1.99449e-11
2.00854e-11
2.64649e-11
4.61798e-11
4.78181e-11
5.09412e-11
4.66864e-11
4.61786e-11
1.00942e-11
7.45405e-11
1.28736e-11
1.24766e-11
6.0218e-11
5.98005e-11
1.29296e-11
8.97967e-12
1.26501e-11
5.55422e-11
SCALARS rr_P' float
LOOKUP_TABLE default
3.48246e-12
7.74108e-12
6.19557e-12
8.08401e-12
4.19876e-12
6.57603e-12
3.44363e-12
8.04134e-12
6.93877e-12
8.70012e-12
3.15588e-12
8.06599e-12
7.10188e-12
7.48947e-12
8.74239e-12
7.38081e-12
6.32945e-12
7.17086e-12
6.45139e-12
6.29097e-12
7.07893e-12
1.23471e-12
7.25306e-12
6.68238e-12
6.05773e-12
6.9726e-12
2.91344e-12
6.1326e-12
4.86282e-12
5.60029e-12
6.27453e-12
5.02667e-12
3.2285e-12
4.20245e-12
4.12708e-12
4.21201e-12
5.44313e-12
4.13676e-12
6.26846e-12
3.6286e-12
4.08762e-12
4.79666e-12
4.79727e-12
6.88619e-12
4.04137e-12
4.43219e-12
6.06793e-12
6.13847e-12
5.74252e-12
5.56125e-12
5.70535e-12
4.41014e-12
6.7416e-12
5.66639e-12
6.20789e-12
2.92928e-12
4.4063e-12
5.70793e-12
4.40625e-12
6.85728e-12
8.0806e-12
7.903e-12
2.86069e-12
5.57286e-12
7.56938e-12
7.15805e-12
7.81574e-12
6.7721e-12
6.25102e-12
8.88384e-12
7.31471e-12
7.2351e-12
5.05054e-12
5.78958e-12
6.15694e-12
3.33615e-12
6.29813e-12
7.09179e-12
6.82927e-12
4.86405e-12
4.41211e-12
4.7354e-12
9.00992e-12
4.42139e-12
5.94074e-12
2.21993e-12
7.08408e-12
5.89991e-12
4.2797e-12
6.08366e-13
4.91022e-12
6.61689e-13
5.3435e-12
5.13984e-12
4.64595e-12
4.25326e-12
4.05204e-12
7.63847e-12
6.30301e-12
6.10314e-12
5.21307e-12
5.02148e-12
4.2426e-12
7.2395e-12
7.35612e-12
6.62384e-12
5.80998e-12
5.91751e-12
4.5038e-12
8.82097e-12
5.68538e-12
3.0459e-12
4.06614e-12
7.92426e-12
7.41954e-12
5.47161e-12
5.10973e-12
3.36744e-12
5.30026e-12
5.44951e-12
4.72364e-12
8.5244e-12
8.82261e-12
7.56635e-12
8.33307e-12
6.51409e-12
3.6702e-12
8.24728e-12
3.66992e-12
4.7112e-12
3.821e-12
7.87256e-12
7.67332e-12
7.72913e-12
5.22248e-12
3.10457e-12
3.51764e-12
5.67001e-12
6.90795e-12
3.10359e-12
4.3606e-12
6.67534e-12
5.08616e-12
8.15097e-12
4.09905e-12
6.6541e-12
6.03823e-12
5.84798e-12
3.73813e-12
4.80298e-12
5.33607e-12
7.5957e-12
4.51045e-12
6.8853e-12
7.96581e-12
8.09336e-12
5.29165e-12
4.4904e-12
4.46459e-12
6.95178e-12
5.85122e-12
4.47214e-12
2.97461e-12
4.3715e-12
4.33706e-12
7.43633e-12
4.55097e-12
4.60135e-12
4.99364e-12
4.43473e-12
6.524e-12
4.64136e-12
4.12318e-12
5.1121e-12
4.90309e-12
5.80664e-12
6.45319e-12
6.24477e-12
5.26904e-12
6.22643e-12
4.8466e-12
7.21376e-12
7.74252e-12
4.36115e-12
7.57066e-12
4.37035e-12
7.47682e-12
6.8675e-12
6.39671e-12
6.54284e-12
7.63681e-12
3.67844e-12
4.79773e-12
4.47303e-12
7.7155e-12
7.60373e-12
7.04874e-12
7.65459e-12
7.80924e-12
6.55146e-12
8.0421e-12
5.42336e-12
4.9134e-12
8.76362e-12
5.19086e-12
7.95843e-12
6.34571e-12
4.1001e-12
4.86152e-12
7.9575e-12
6.59838e-12
6.02744e-12
7.77114e-12
7.60404e-12
4.96716e-12
4.88597e-12
4.79035e-12
6.7436e-12
7.45561e-12
8.56846e-12
8.23432e-12
8.9579e-12
8.11704e-12
8.8706e-12
7.44407e-12
7.7498e-12
7.81072e-12
7.36259e-12
7.73451e-12
7.10612e-12
7.00027e-12
5.0343e-12
6.7074e-12
7.85461e-12
5.4738e-12
7.96557e-12
7.31687e-12
8.51537e-12
5.1654e-12
8.09937e-12
7.73733e-12
5.06507e-12
6.90778e-12
5.03144e-12
7.77214e-12
7.11683e-12
5.27325e-12
4.96944e-12
4.3227e-12
4.97173e-12
7.78325e-12
3.63167e-12
6.02044e-12
4.95161e-12
5.53659e-12
8.10722e-12
7.83794e-12
2.43418e-12
7.86695e-12
4.35053e-12
4.6872e-12
8.06221e-12
6.55378e-12
4.74383e-12
8.98525e-12
5.14099e-12
2.43423e-12
4.79276e-12
6.98928e-12
8.71654e-12
6.62428e-12
7.75555e-12
7.28091e-12
3.805e-12
3.7561e-12
3.26217e-12
3.74863e-12
5.18941e-12
4.00189e-12
6.43192e-12
4.05241e-12
6.89786e-12
4.93914e-12
4.80016e-12
5.56158e-12
5.21068e-12
6.87726e-12
4.99647e-12
5.15254e-12
2.22719e-12
5.12103e-12
7.41353e-12
7.41913e-12
6.74564e-12
4.98595e-12
3.20023e-12
9.35314e-12
6.31611e-12
5.28908e-12
4.87982e-12
4.79963e-12
5.03398e-12
6.06105e-12
4.9416e-12
3.57773e-12
4.87499e-12
3.37066e-12
5.98533e-12
4.9776e-12
2.07593e-12
4.68616e-12
5.49252e-12
4.97919e-12
7.59097e-12
5.16733e-12
6.62979e-12
2.58581e-12
5.32423e-12
5.11141e-12
4.40865e-12
4.79914e-12
5.64155e-12
5.28143e-12
5.53185e-12
4.73756e-12
4.80999e-12
5.1889e-12
6.88201e-12
4.89837e-12
6.89942e-12
6.23537e-12
4.8834e-12
5.08151e-12
5.12556e-12
5.65633e-12
5.11573e-12
4.79698e-12
5.44292e-12
5.66013e-12
6.70837e-12
5.12393e-12
5.10086e-12
7.33024e-12
7.22726e-12
4.90255e-12
4.88457e-12
2.2479e-12
5.94706e-12
4.1776e-12
5.58921e-12
2.5575e-12
2.65474e-12
2.3721e-12
2.41109e-12
2.55771e-12
2.69498e-12
2.77699e-12
6.23462e-12
4.59199e-12
4.67234e-12
5.35595e-12
5.2247e-12
5.16006e-12
5.43056e-12
5.05061e-12
5.16629e-12
5.18512e-12
5.14097e-12
6.25659e-12
4.69411e-12
6.43237e-12
5.03333e-12
4.86659e-12
5.14791e-12
5.43452e-12
5.71956e-12
5.33789e-12
6.10241e-12
5.7111e-12
5.30603e-12
3.84018e-12
5.32777e-12
5.20089e-12
5.5674e-12
5.37968e-12
5.10145e-12
4.84817e-12
5.33474e-12
5.55469e-12
7.52534e-12
4.99462e-12
7.31672e-12
7.64366e-12
5.24197e-12
7.31004e-12
5.61747e-12
4.51345e-12
6.10496e-12
5.3782e-12
3.83277e-12
3.45092e-12
6.02196e-12
6.40995e-12
5.45562e-12
4.54047e-12
5.43825e-12
2.64339e-12
5.39407e-12
5.06745e-12
2.62639e-12
9.76469e-13
1.0681e-12
4.67123e-12
4.99735e-12
5.79213e-12
5.57788e-12
5.00142e-13
5.22597e-13
5.5003e-12
5.55748e-12
5.26138e-12
1.98426e-12
4.67791e-12
5.39698e-12
5.53556e-12
4.77602e-12
4.21479e-12
2.06723e-12
7.9518e-12
5.02931e-12
6.12468e-12
6.22041e-12
4.47989e-12
5.66712e-12
4.38015e-12
4.83231e-12
2.43959e-12
3.66159e-12
5.67398e-12
5.69919e-12
4.90517e-12
5.15628e-12
5.31726e-12
5.60488e-12
5.36172e-12
2.68129e-12
4.67004e-12
5.31319e-12
4.99136e-12
7.48548e-12
2.68118e-12
4.06672e-12
4.18974e-12
3.93839e-12
2.54555e-12
2.54575e-12
4.51658e-12
3.68517e-12
5.25177e-12
2.87064e-12
3.04139e-12
9.89198e-13
9.89204e-13
2.15499e-12
3.31034e-12
2.22799e-12
4.47574e-12
4.80813e-12
5.16013e-12
5.80695e-12
5.25855e-12
4.86554e-12
3.84236e-12
2.43307e-12
4.82925e-12
4.99049e-12
4.82615e-12
2.72719e-12
2.44573e-12
1.95838e-12
4.81979e-12
4.92562e-12
3.98678e-12
4.47716e-12
4.12935e-12
3.75539e-12
5.05947e-12
3.75513e-12
4.47219e-12
4.29484e-12
2.61369e-12
3.22636e-12
3.08318e-12
5.34543e-12
2.16861e-12
2.28348e-12
2.23618e-12
5.04245e-12
2.06267e-12
2.02447e-12
3.5286e-12
1.88672e-12
4.06001e-12
4.06622e-12
1.93597e-12
4.46765e-12
2.13761e-12
2.13668e-12
2.39507e-12
2.03876e-12
1.99142e-12
2.88691e-12
2.36383e-12
2.15915e-12
2.04455e-12
4.0808e-12
4.64025e-12
2.24042e-12
4.50397e-12
1.85593e-12
4.5654e-12
3.63829e-12
1.93798e-12
1.63347e-12
1.83142e-12
2.42652e-12
3.93e-12
3.20351e-12
1.33066e-12
1.47751e-12
4.36906e-12
1.25267e-12
1.25267e-12
1.4196e-12
1.59652e-12
1.86092e-12
2.10707e-12
3.49861e-12
3.2303e-12
4.37341e-12
1.2605e-12
1.2605e-12
3.81334e-12
1.6203e-12
3.12655e-12
1.46772e-12
1.4688e-12
1.935e-12
3.25991e-12
3.37581e-12
3.59697e-12
3.29633e-12
3.25988e-12
7.09847e-13
5.26297e-12
9.06551e-13
8.76872e-13
4.25065e-12
4.22103e-12
9.08597e-13
6.31405e-13
8.90707e-13
3.92254e-12
SCALARS rr_T' float
LOOKUP_TABLE default
9.03549e-12
2.05884e-11
1.64424e-11
2.14911e-11
1.12373e-11
1.74512e-11
8.93401e-12
2.13718e-11
1.83764e-11
2.31371e-11
8.20018e-12
2.14373e-11
1.88653e-11
1.99242e-11
2.3343e-11
1.95952e-11
1.68528e-11
1.90525e-11
1.70664e-11
1.66851e-11
1.87689e-11
3.33252e-12
1.92305e-11
1.77238e-11
1.60659e-11
1.85335e-11
7.59685e-12
1.62795e-11
1.27767e-11
1.50396e-11
1.66664e-11
1.32079e-11
8.41551e-12
1.12691e-11
1.10757e-11
1.12945e-11
1.46215e-11
1.10983e-11
1.66494e-11
9.45911e-12
1.07392e-11
1.28862e-11
1.28876e-11
1.82912e-11
1.0559e-11
1.16495e-11
1.60605e-11
1.62637e-11
1.52407e-11
1.45891e-11
1.49806e-11
1.16168e-11
1.80361e-11
1.49272e-11
1.6605e-11
7.65958e-12
1.18257e-11
1.50366e-11
1.18253e-11
1.81892e-11
2.15132e-11
2.10843e-11
7.47143e-12
1.4866e-11
2.01949e-11
1.90592e-11
2.08097e-11
1.80009e-11
1.65765e-11
2.36292e-11
1.95684e-11
1.93552e-11
1.3269e-11
1.54274e-11
1.63413e-11
8.68686e-12
1.68251e-11
1.88824e-11
1.81524e-11
1.28196e-11
1.1569e-11
1.26835e-11
2.40125e-11
1.1585e-11
1.56205e-11
5.80182e-12
1.88053e-11
1.57154e-11
1.1182e-11
1.63994e-12
1.29346e-11
1.7836e-12
1.42766e-11
1.36815e-11
1.22413e-11
1.11651e-11
1.06253e-11
2.0313e-11
1.68376e-11
1.62088e-11
1.37711e-11
1.32113e-11
1.11159e-11
1.92393e-11
1.95578e-11
1.76121e-11
1.54889e-11
1.57126e-11
1.17999e-11
2.34683e-11
1.50811e-11
7.96458e-12
1.06443e-11
2.10561e-11
1.97254e-11
1.44152e-11
1.37132e-11
8.82928e-12
1.42235e-11
1.43583e-11
1.24889e-11
2.27547e-11
2.34643e-11
2.01552e-11
2.21739e-11
1.7397e-11
9.84128e-12
2.19318e-11
9.62334e-12
1.24131e-11
1.02218e-11
2.09344e-11
2.04477e-11
2.05548e-11
1.37407e-11
8.33207e-12
9.21141e-12
1.50642e-11
1.84105e-11
8.32927e-12
1.14762e-11
1.77539e-11
1.34526e-11
2.16771e-11
1.07464e-11
1.76884e-11
1.60533e-11
1.55205e-11
9.92025e-12
1.26782e-11
1.41367e-11
2.02012e-11
1.18507e-11
1.82908e-11
2.11843e-11
2.15221e-11
1.40825e-11
1.18208e-11
1.17537e-11
1.84663e-11
1.55033e-11
1.17523e-11
7.77679e-12
1.14782e-11
1.14167e-11
1.97728e-11
1.198e-11
1.21122e-11
1.31205e-11
1.16744e-11
1.74316e-11
1.22269e-11
1.08259e-11
1.36078e-11
1.29171e-11
1.54787e-11
1.7242e-11
1.65965e-11
1.40981e-11
1.65559e-11
1.27345e-11
1.9183e-11
2.05886e-11
1.14781e-11
2.01667e-11
1.1473e-11
1.99165e-11
1.83092e-11
1.70931e-11
1.73996e-11
2.03436e-11
9.64823e-12
1.26393e-11
1.1753e-11
2.0518e-11
2.02009e-11
1.87288e-11
2.03974e-11
2.07684e-11
1.74426e-11
2.13889e-11
1.43514e-11
1.29521e-11
2.33521e-11
1.36396e-11
2.121e-11
1.68958e-11
1.07856e-11
1.29738e-11
2.11646e-11
1.76129e-11
1.6037e-11
2.06599e-11
2.0266e-11
1.31126e-11
1.30026e-11
1.26309e-11
1.79787e-11
1.98382e-11
2.27991e-11
2.1904e-11
2.38315e-11
2.15948e-11
2.35991e-11
1.98002e-11
2.06893e-11
2.08505e-11
1.96556e-11
2.06491e-11
1.90082e-11
1.87252e-11
1.32875e-11
1.78419e-11
2.08757e-11
1.45012e-11
2.12688e-11
1.95386e-11
2.26334e-11
1.36172e-11
2.15244e-11
2.05761e-11
1.33726e-11
1.84351e-11
1.32823e-11
2.07155e-11
1.89114e-11
1.39229e-11
1.31046e-11
1.13338e-11
1.30375e-11
2.07438e-11
9.5176e-12
1.59884e-11
1.30559e-11
1.46486e-11
2.15446e-11
2.08545e-11
6.54028e-12
2.09303e-11
1.13997e-11
1.23588e-11
2.14271e-11
1.7418e-11
1.25044e-11
2.39066e-11
1.35993e-11
6.54029e-12
1.26378e-11
1.85983e-11
2.32158e-11
1.76011e-11
2.07069e-11
1.93927e-11
1.01796e-11
9.97743e-12
8.53337e-12
9.79698e-12
1.3874e-11
1.06111e-11
1.70942e-11
1.0698e-11
1.84093e-11
1.31472e-11
1.26569e-11
1.4805e-11
1.3766e-11
1.8286e-11
1.32004e-11
1.3584e-11
5.9954e-12
1.36861e-11
1.97961e-11
1.98102e-11
1.79425e-11
1.3175e-11
8.57933e-12
2.49091e-11
1.67362e-11
1.39772e-11
1.28856e-11
1.28317e-11
1.32903e-11
1.61938e-11
1.30522e-11
9.34827e-12
1.28811e-11
8.83566e-12
1.59579e-11
1.31416e-11
5.58806e-12
1.23776e-11
1.46356e-11
1.3142e-11
2.02227e-11
1.36475e-11
1.75996e-11
6.75088e-12
1.41267e-11
1.3494e-11
1.17851e-11
1.26679e-11
1.49488e-11
1.40704e-11
1.47137e-11
1.25128e-11
1.27097e-11
1.37251e-11
1.8348e-11
1.29427e-11
1.83367e-11
1.65527e-11
1.30642e-11
1.34272e-11
1.3556e-11
1.49936e-11
1.35337e-11
1.2672e-11
1.44e-11
1.51015e-11
1.78278e-11
1.35532e-11
1.34654e-11
1.94942e-11
1.92212e-11
1.29525e-11
1.3067e-11
5.83588e-12
1.5786e-11
1.09537e-11
1.48172e-11
6.55333e-12
6.8027e-12
6.07932e-12
6.17885e-12
6.55506e-12
6.90538e-12
7.11627e-12
1.66239e-11
1.23023e-11
1.24119e-11
1.41904e-11
1.38232e-11
1.36508e-11
1.44395e-11
1.3359e-11
1.36633e-11
1.38921e-11
1.36001e-11
1.66996e-11
1.23652e-11
1.71656e-11
1.33563e-11
1.28934e-11
1.36173e-11
1.45301e-11
1.51822e-11
1.41446e-11
1.61989e-11
1.51338e-11
1.40338e-11
1.01202e-11
1.4115e-11
1.38024e-11
1.48612e-11
1.42366e-11
1.34897e-11
1.28289e-11
1.41314e-11
1.47402e-11
2.001e-11
1.3216e-11
1.94545e-11
2.02791e-11
1.38866e-11
1.9429e-11
1.49045e-11
1.19393e-11
1.62637e-11
1.42547e-11
1.02663e-11
9.01712e-12
1.60569e-11
1.7102e-11
1.44777e-11
1.20353e-11
1.44792e-11
6.86476e-12
1.4314e-11
1.34306e-11
6.85777e-12
2.62817e-12
2.87499e-12
1.23991e-11
1.32214e-11
1.53559e-11
1.47614e-11
1.35124e-12
1.41191e-12
1.4619e-11
1.47715e-11
1.39828e-11
5.15282e-12
1.23714e-11
1.43826e-11
1.46648e-11
1.26499e-11
1.11653e-11
5.366e-12
2.1181e-11
1.33043e-11
1.62562e-11
1.65103e-11
1.18651e-11
1.50165e-11
1.16009e-11
1.28011e-11
6.36059e-12
9.59881e-12
1.50344e-11
1.51274e-11
1.30014e-11
1.36552e-11
1.40913e-11
1.4858e-11
1.42114e-11
7.00621e-12
1.24701e-11
1.40587e-11
1.32885e-11
1.99415e-11
7.00484e-12
1.07929e-11
1.1117e-11
1.05361e-11
6.85007e-12
6.85053e-12
1.20703e-11
9.74557e-12
1.39383e-11
7.49794e-12
8.18035e-12
2.67103e-12
2.67102e-12
5.59226e-12
8.88098e-12
5.98333e-12
1.18759e-11
1.28449e-11
1.37076e-11
1.54453e-11
1.40098e-11
1.29708e-11
1.02119e-11
6.31816e-12
1.28217e-11
1.32836e-11
1.28608e-11
7.10013e-12
6.56295e-12
5.11141e-12
1.28427e-11
1.31023e-11
1.05284e-11
1.18919e-11
1.09735e-11
1.00482e-11
1.34497e-11
1.00473e-11
1.18707e-11
1.14454e-11
7.01628e-12
8.6624e-12
8.05375e-12
1.42222e-11
5.62395e-12
5.92467e-12
5.79593e-12
1.34314e-11
5.3549e-12
5.24451e-12
9.34492e-12
4.89147e-12
1.08754e-11
1.08918e-11
5.02116e-12
1.1843e-11
5.57374e-12
5.54047e-12
6.24206e-12
5.28605e-12
5.19005e-12
7.74608e-12
6.16908e-12
5.60593e-12
5.30244e-12
1.08435e-11
1.23767e-11
5.83673e-12
1.19685e-11
4.80865e-12
1.21414e-11
9.64605e-12
5.02388e-12
4.25392e-12
4.74585e-12
6.29689e-12
1.04267e-11
8.58432e-12
3.59138e-12
3.98643e-12
1.16239e-11
3.38065e-12
3.38062e-12
3.83065e-12
4.29971e-12
4.85888e-12
5.65551e-12
9.35153e-12
8.65621e-12
1.1632e-11
3.39651e-12
3.39648e-12
1.02233e-11
4.20359e-12
8.28742e-12
3.80909e-12
3.83212e-12
5.04916e-12
8.76554e-12
9.07658e-12
9.66965e-12
8.86193e-12
8.76531e-12
1.915e-12
1.41492e-11
2.44276e-12
2.36677e-12
1.14301e-11
1.13508e-11
2.45265e-12
1.70353e-12
2.4003e-12
1.05433e-11
SCALARS rr_uec(SIM,_S_ext) float
LOOKUP_TABLE default
1.38322e-09
3.14937e-09
2.51532e-09
3.2875e-09
1.71856e-09
2.66965e-09
1.36769e-09
3.26926e-09
2.81137e-09
3.53923e-09
1.25533e-09
3.27927e-09
2.88588e-09
3.04773e-09
3.57023e-09
2.99759e-09
2.57783e-09
2.91451e-09
2.61106e-09
2.5525e-09
2.8713e-09
5.09501e-10
2.94194e-09
2.7114e-09
2.45778e-09
2.83507e-09
1.16282e-09
2.49039e-09
1.95519e-09
2.29978e-09
2.54951e-09
2.02117e-09
1.28814e-09
1.72331e-09
1.69368e-09
1.72719e-09
2.23583e-09
1.69715e-09
2.54692e-09
1.44787e-09
1.6434e-09
1.97048e-09
1.97068e-09
2.79807e-09
1.61613e-09
1.78267e-09
2.45712e-09
2.48812e-09
2.33149e-09
2.23266e-09
2.2925e-09
1.77755e-09
2.75836e-09
2.28407e-09
2.53951e-09
1.17231e-09
1.80837e-09
2.30082e-09
1.80831e-09
2.7826e-09
3.29071e-09
3.22485e-09
1.14355e-09
2.27377e-09
3.08882e-09
2.91531e-09
3.1831e-09
2.7536e-09
2.5359e-09
3.6145e-09
2.9927e-09
2.9601e-09
2.03053e-09
2.35972e-09
2.49986e-09
1.32972e-09
2.57328e-09
2.88827e-09
2.77678e-09
1.96156e-09
1.77048e-09
1.93968e-09
3.67286e-09
1.77299e-09
2.3903e-09
8.87993e-10
2.87678e-09
2.4038e-09
1.71148e-09
2.50736e-10
1.97919e-09
2.72702e-10
2.1835e-09
2.09276e-09
1.87309e-09
1.70863e-09
1.62606e-09
3.10724e-09
2.57519e-09
2.47952e-09
2.10698e-09
2.0216e-09
1.7012e-09
2.94307e-09
2.99174e-09
2.6941e-09
2.36909e-09
2.40363e-09
1.80587e-09
3.58986e-09
2.30711e-09
1.219e-09
1.62908e-09
3.221e-09
3.01739e-09
2.20573e-09
2.09699e-09
1.35121e-09
2.17503e-09
2.197e-09
1.91076e-09
3.48028e-09
3.58929e-09
3.08291e-09
3.39184e-09
2.66079e-09
1.50495e-09
3.35487e-09
1.47272e-09
1.89938e-09
1.56328e-09
3.20232e-09
3.12762e-09
3.14424e-09
2.1026e-09
1.27413e-09
1.40974e-09
2.30441e-09
2.81601e-09
1.2737e-09
1.75607e-09
2.71575e-09
2.05818e-09
3.31589e-09
1.6446e-09
2.7058e-09
2.45565e-09
2.37428e-09
1.51758e-09
1.93982e-09
2.16272e-09
3.09014e-09
1.8135e-09
2.798e-09
3.24052e-09
3.29221e-09
2.15412e-09
1.80878e-09
1.79851e-09
2.82486e-09
2.37178e-09
1.79841e-09
1.19026e-09
1.75653e-09
1.74695e-09
3.02463e-09
1.83315e-09
1.85337e-09
2.00781e-09
1.78639e-09
2.66603e-09
1.87088e-09
1.6567e-09
2.08149e-09
1.9765e-09
2.36754e-09
2.63704e-09
2.53878e-09
2.15608e-09
2.53252e-09
1.94874e-09
2.93439e-09
3.1494e-09
1.75636e-09
3.08467e-09
1.75573e-09
3.04641e-09
2.80047e-09
2.61424e-09
2.66158e-09
3.11171e-09
1.47652e-09
1.93399e-09
1.79853e-09
3.13861e-09
3.09019e-09
2.86499e-09
3.11994e-09
3.17691e-09
2.66804e-09
3.27181e-09
2.19566e-09
1.98182e-09
3.57188e-09
2.08723e-09
3.2442e-09
2.58439e-09
1.65043e-09
1.98433e-09
3.23749e-09
2.69385e-09
2.4531e-09
3.16034e-09
3.09981e-09
2.00628e-09
1.98892e-09
1.93266e-09
2.74991e-09
3.03456e-09
3.48748e-09
3.3506e-09
3.64543e-09
3.30329e-09
3.60988e-09
3.02877e-09
3.16437e-09
3.18903e-09
3.00627e-09
3.15822e-09
2.90704e-09
2.86376e-09
2.03306e-09
2.72921e-09
3.1934e-09
2.21848e-09
3.25298e-09
2.98834e-09
3.46227e-09
2.08359e-09
3.29265e-09
3.14748e-09
2.04605e-09
2.81963e-09
2.03224e-09
3.16855e-09
2.89294e-09
2.13025e-09
2.00512e-09
1.7345e-09
1.99523e-09
3.1729e-09
1.45657e-09
2.44582e-09
1.99768e-09
2.24113e-09
3.29575e-09
3.19003e-09
1.00009e-09
3.20163e-09
1.74461e-09
1.89102e-09
3.27776e-09
2.66444e-09
1.91332e-09
3.6569e-09
2.08061e-09
1.00009e-09
1.93371e-09
2.84489e-09
3.55108e-09
2.69248e-09
3.16704e-09
2.96628e-09
1.55682e-09
1.52628e-09
1.30603e-09
1.49947e-09
2.12187e-09
1.62331e-09
2.6149e-09
1.63683e-09
2.81568e-09
2.01103e-09
1.93664e-09
2.26459e-09
2.1062e-09
2.79716e-09
2.01966e-09
2.07851e-09
9.16708e-10
2.09317e-09
3.02774e-09
3.02991e-09
2.74461e-09
2.01576e-09
1.31199e-09
3.8101e-09
2.56039e-09
2.13849e-09
1.97152e-09
1.96247e-09
2.03346e-09
2.47671e-09
1.997e-09
1.43081e-09
1.97079e-09
1.35219e-09
2.44083e-09
2.01071e-09
8.54425e-10
1.89378e-09
2.23862e-09
2.01079e-09
3.09323e-09
2.08809e-09
2.69232e-09
1.03327e-09
2.16109e-09
2.06463e-09
1.80241e-09
1.93824e-09
2.28695e-09
2.15217e-09
2.25072e-09
1.91448e-09
1.94457e-09
2.09986e-09
2.8064e-09
1.98022e-09
2.80497e-09
2.53218e-09
1.99798e-09
2.05435e-09
2.074e-09
2.29377e-09
2.07056e-09
1.93882e-09
2.20311e-09
2.30977e-09
2.72714e-09
2.07355e-09
2.06027e-09
2.98197e-09
2.9402e-09
1.98173e-09
1.99841e-09
8.93414e-10
2.41488e-09
1.67633e-09
2.26678e-09
1.00372e-09
1.04191e-09
9.31117e-10
9.46364e-10
1.00398e-09
1.05764e-09
1.08993e-09
2.54268e-09
1.88137e-09
1.8987e-09
2.17093e-09
2.11486e-09
2.08848e-09
2.20878e-09
2.04385e-09
2.09041e-09
2.12448e-09
2.08073e-09
2.55417e-09
1.89206e-09
2.62548e-09
2.04323e-09
1.97251e-09
2.08336e-09
2.2222e-09
2.32253e-09
2.16391e-09
2.47804e-09
2.31525e-09
2.14711e-09
1.54852e-09
2.15941e-09
2.11145e-09
2.27299e-09
2.17809e-09
2.06387e-09
1.96272e-09
2.16193e-09
2.25493e-09
3.06088e-09
2.02195e-09
2.97592e-09
3.10229e-09
2.12447e-09
2.97205e-09
2.28008e-09
1.82663e-09
2.48767e-09
2.18075e-09
1.57002e-09
1.38013e-09
2.45596e-09
2.61574e-09
2.21476e-09
1.84121e-09
2.21475e-09
1.05091e-09
2.18973e-09
2.05467e-09
1.04963e-09
4.01853e-10
4.3959e-10
1.89677e-09
2.02279e-09
2.34918e-09
2.25838e-09
2.06579e-10
2.15854e-10
2.23628e-09
2.2596e-09
2.13895e-09
7.88832e-10
1.89278e-09
2.19991e-09
2.24351e-09
1.93527e-09
1.70814e-09
8.21486e-10
3.23982e-09
2.03548e-09
2.48682e-09
2.5257e-09
1.81521e-09
2.2973e-09
1.77479e-09
1.95839e-09
9.73588e-10
1.46898e-09
2.30004e-09
2.31414e-09
1.989e-09
2.08909e-09
2.15576e-09
2.27302e-09
2.17411e-09
1.07234e-09
1.90725e-09
2.15088e-09
2.03263e-09
3.05021e-09
1.07214e-09
1.65107e-09
1.70067e-09
1.61134e-09
1.04741e-09
1.04748e-09
1.84605e-09
1.49103e-09
2.13224e-09
1.14762e-09
1.25083e-09
4.08361e-10
4.08359e-10
8.56131e-10
1.35808e-09
9.14941e-10
1.81676e-09
1.96454e-09
2.0969e-09
2.36262e-09
2.14291e-09
1.98394e-09
1.56211e-09
9.67238e-10
1.96141e-09
2.03189e-09
1.96715e-09
1.08684e-09
1.0036e-09
7.82343e-10
1.96438e-09
2.00421e-09
1.61086e-09
1.81914e-09
1.67863e-09
1.53672e-09
2.0574e-09
1.53659e-09
1.81595e-09
1.75064e-09
1.07291e-09
1.32462e-09
1.23268e-09
2.1755e-09
8.60973e-10
9.06991e-10
8.87321e-10
2.05445e-09
8.19776e-10
8.02919e-10
1.42966e-09
7.48847e-10
1.66315e-09
1.66567e-09
7.68689e-10
1.81179e-09
8.53142e-10
8.48194e-10
9.55458e-10
8.09246e-10
7.94429e-10
1.18453e-09
9.44251e-10
8.58204e-10
8.11754e-10
1.65874e-09
1.89303e-09
8.93425e-10
1.83083e-09
7.36187e-10
1.85723e-09
1.47568e-09
7.69116e-10
6.51155e-10
7.26563e-10
9.64006e-10
1.59507e-09
1.31277e-09
5.49079e-10
6.09484e-10
1.77806e-09
5.16861e-10
5.16857e-10
5.85664e-10
6.57423e-10
7.43699e-10
8.64828e-10
1.43022e-09
1.32376e-09
1.77931e-09
5.19314e-10
5.1931e-10
1.56339e-09
6.43544e-10
1.26784e-09
5.83136e-10
5.86544e-10
7.72826e-10
1.34033e-09
1.38789e-09
1.47858e-09
1.35507e-09
1.34029e-09
2.92784e-10
2.16353e-09
3.73488e-10
3.61848e-10
1.74775e-09
1.73562e-09
3.74977e-10
2.60452e-10
3.66996e-10
1.61218e-09
SCALARS rr_uec(PEX,_P_ext) float
LOOKUP_TABLE default
-3.82646e-09
-8.71848e-09
-6.96282e-09
-9.10074e-09
-4.75846e-09
-7.39002e-09
-3.78349e-09
-9.05022e-09
-7.78185e-09
-9.79773e-09
-3.47275e-09
-9.07794e-09
-7.98881e-09
-8.4372e-09
-9.88477e-09
-8.29791e-09
-7.13654e-09
-8.06809e-09
-7.22713e-09
-7.06559e-09
-7.94801e-09
-1.41111e-09
-8.14353e-09
-7.50545e-09
-6.8034e-09
-7.84828e-09
-3.21719e-09
-6.89385e-09
-5.41066e-09
-6.36846e-09
-7.05763e-09
-5.59327e-09
-3.56388e-09
-4.7719e-09
-4.68998e-09
-4.78265e-09
-6.1914e-09
-4.69955e-09
-7.05046e-09
-4.00583e-09
-4.54785e-09
-5.45662e-09
-5.45719e-09
-7.7457e-09
-4.47162e-09
-4.9333e-09
-6.80116e-09
-6.88719e-09
-6.45395e-09
-6.17824e-09
-6.344e-09
-4.91946e-09
-7.63744e-09
-6.3213e-09
-7.03146e-09
-3.24372e-09
-5.00757e-09
-6.36764e-09
-5.00741e-09
-7.70254e-09
-9.11005e-09
-8.92832e-09
-3.16405e-09
-6.29515e-09
-8.5517e-09
-8.07084e-09
-8.81215e-09
-7.62275e-09
-7.01961e-09
-1.00061e-08
-8.2863e-09
-8.19601e-09
-5.61915e-09
-6.5329e-09
-6.92002e-09
-3.67881e-09
-7.12468e-09
-7.99598e-09
-7.68691e-09
-5.42879e-09
-4.89925e-09
-5.37085e-09
-1.01683e-08
-4.90607e-09
-6.61495e-09
-2.45699e-09
-7.96344e-09
-6.65484e-09
-4.73546e-09
-6.9441e-10
-5.47751e-09
-7.55245e-10
-6.0455e-09
-5.79361e-09
-5.18391e-09
-4.72823e-09
-4.49962e-09
-8.60185e-09
-7.12996e-09
-6.86386e-09
-5.83167e-09
-5.5947e-09
-4.70742e-09
-8.1472e-09
-8.28205e-09
-7.4581e-09
-6.55891e-09
-6.65374e-09
-4.99705e-09
-9.93801e-09
-6.38635e-09
-3.37289e-09
-4.50772e-09
-8.91654e-09
-8.35304e-09
-6.1045e-09
-5.80681e-09
-3.73903e-09
-6.0229e-09
-6.08037e-09
-5.28871e-09
-9.63565e-09
-9.93632e-09
-8.53495e-09
-9.38987e-09
-7.36688e-09
-4.16727e-09
-9.28735e-09
-4.0753e-09
-5.25667e-09
-4.32846e-09
-8.86502e-09
-8.65881e-09
-8.70425e-09
-5.81886e-09
-3.52819e-09
-3.90087e-09
-6.37918e-09
-7.79615e-09
-3.527e-09
-4.85989e-09
-7.51814e-09
-5.6968e-09
-9.17947e-09
-4.55091e-09
-7.49044e-09
-6.79799e-09
-6.57241e-09
-4.2009e-09
-5.36887e-09
-5.98644e-09
-8.5545e-09
-5.01856e-09
-7.74554e-09
-8.97082e-09
-9.11386e-09
-5.96343e-09
-5.00581e-09
-4.9774e-09
-7.81985e-09
-6.56515e-09
-4.97685e-09
-3.29337e-09
-4.86081e-09
-4.8347e-09
-8.3731e-09
-5.07325e-09
-5.12921e-09
-5.55628e-09
-4.94384e-09
-7.38151e-09
-5.17778e-09
-4.58455e-09
-5.76241e-09
-5.47008e-09
-6.55461e-09
-7.30124e-09
-7.02805e-09
-5.96987e-09
-7.01082e-09
-5.39283e-09
-8.12333e-09
-8.71854e-09
-4.8607e-09
-8.53981e-09
-4.85859e-09
-8.43388e-09
-7.75321e-09
-7.23816e-09
-7.3681e-09
-8.6147e-09
-4.08584e-09
-5.35244e-09
-4.97715e-09
-8.68868e-09
-8.5544e-09
-7.931e-09
-8.63752e-09
-8.79472e-09
-7.38629e-09
-9.05745e-09
-6.07741e-09
-5.4849e-09
-9.88872e-09
-5.7761e-09
-8.98159e-09
-7.15471e-09
-4.56746e-09
-5.49386e-09
-8.96245e-09
-7.45832e-09
-6.79109e-09
-8.74875e-09
-8.58186e-09
-5.55284e-09
-5.5061e-09
-5.34889e-09
-7.61325e-09
-8.40076e-09
-9.6546e-09
-9.27558e-09
-1.00918e-08
-9.14466e-09
-9.99341e-09
-8.38467e-09
-8.76104e-09
-8.8293e-09
-8.3233e-09
-8.74401e-09
-8.04909e-09
-7.92927e-09
-5.62691e-09
-7.55541e-09
-8.84018e-09
-6.14079e-09
-9.00644e-09
-8.27375e-09
-9.5845e-09
-5.76656e-09
-9.11488e-09
-8.71324e-09
-5.66294e-09
-7.8065e-09
-5.6247e-09
-8.77218e-09
-8.00837e-09
-5.89597e-09
-5.54946e-09
-4.79966e-09
-5.52116e-09
-8.78421e-09
-4.03053e-09
-6.77055e-09
-5.52885e-09
-6.20325e-09
-9.12345e-09
-8.83113e-09
-2.76945e-09
-8.86324e-09
-4.82756e-09
-5.23364e-09
-9.07369e-09
-7.37592e-09
-5.29531e-09
-1.01236e-08
-5.75891e-09
-2.76945e-09
-5.35179e-09
-7.8757e-09
-9.83101e-09
-7.45345e-09
-8.76847e-09
-8.21204e-09
-4.31059e-09
-4.2251e-09
-3.61376e-09
-4.14889e-09
-5.875e-09
-4.49346e-09
-7.23878e-09
-4.53031e-09
-7.79557e-09
-5.56736e-09
-5.3599e-09
-6.26934e-09
-5.82953e-09
-7.74344e-09
-5.59001e-09
-5.75251e-09
-2.5387e-09
-5.79545e-09
-8.38282e-09
-8.3888e-09
-7.59801e-09
-5.57924e-09
-3.63291e-09
-1.05481e-08
-7.08726e-09
-5.91894e-09
-5.45669e-09
-5.43366e-09
-5.62807e-09
-6.85733e-09
-5.52725e-09
-3.95888e-09
-5.45478e-09
-3.74174e-09
-6.75755e-09
-5.5651e-09
-2.36621e-09
-5.24157e-09
-6.19761e-09
-5.56529e-09
-8.56354e-09
-5.77936e-09
-7.45285e-09
-2.8589e-09
-5.98219e-09
-5.71434e-09
-4.99046e-09
-5.36452e-09
-6.33036e-09
-5.95825e-09
-6.23075e-09
-5.29883e-09
-5.3822e-09
-5.8122e-09
-7.76965e-09
-5.48087e-09
-7.76494e-09
-7.00953e-09
-5.53209e-09
-5.68604e-09
-5.74058e-09
-6.34932e-09
-5.73111e-09
-5.36624e-09
-6.098e-09
-6.39485e-09
-7.54946e-09
-5.73937e-09
-5.70226e-09
-8.25509e-09
-8.13947e-09
-5.48502e-09
-5.53327e-09
-2.47148e-09
-6.68483e-09
-4.6387e-09
-6.27463e-09
-2.77548e-09
-2.88109e-09
-2.57473e-09
-2.61688e-09
-2.77622e-09
-2.92457e-09
-3.01389e-09
-7.03956e-09
-5.20943e-09
-5.25604e-09
-6.0092e-09
-5.85374e-09
-5.7807e-09
-6.11462e-09
-5.65714e-09
-5.78601e-09
-5.88262e-09
-5.75927e-09
-7.07157e-09
-5.23639e-09
-7.26894e-09
-5.65597e-09
-5.45996e-09
-5.76653e-09
-6.15281e-09
-6.42917e-09
-5.98978e-09
-6.85967e-09
-6.40871e-09
-5.94293e-09
-4.28566e-09
-5.97728e-09
-5.84484e-09
-6.2931e-09
-6.02879e-09
-5.71251e-09
-5.43265e-09
-5.98423e-09
-6.242e-09
-8.4735e-09
-5.59659e-09
-8.2383e-09
-8.58755e-09
-5.88057e-09
-8.22748e-09
-6.31157e-09
-5.05593e-09
-6.88703e-09
-6.03643e-09
-4.34728e-09
-3.81864e-09
-6.79946e-09
-7.24197e-09
-6.13081e-09
-5.09658e-09
-6.13137e-09
-2.90721e-09
-6.06151e-09
-5.68743e-09
-2.90416e-09
-1.11287e-09
-1.21739e-09
-5.2506e-09
-5.5989e-09
-6.50273e-09
-6.25102e-09
-5.72158e-10
-5.97847e-10
-6.19064e-09
-6.25522e-09
-5.92121e-09
-2.1822e-09
-5.23896e-09
-6.09046e-09
-6.21007e-09
-5.35683e-09
-4.72816e-09
-2.27249e-09
-8.96933e-09
-5.634e-09
-6.88395e-09
-6.99158e-09
-5.02451e-09
-6.35901e-09
-4.91262e-09
-5.42086e-09
-2.69364e-09
-4.06492e-09
-6.36658e-09
-6.40596e-09
-5.50567e-09
-5.78257e-09
-5.96724e-09
-6.29189e-09
-6.01807e-09
-2.96704e-09
-5.28055e-09
-5.95346e-09
-5.62718e-09
-8.44445e-09
-2.96647e-09
-4.57044e-09
-4.70768e-09
-4.46154e-09
-2.90061e-09
-2.90081e-09
-5.11124e-09
-4.12697e-09
-5.9024e-09
-3.17529e-09
-3.46392e-09
-1.13101e-09
-1.131e-09
-2.36831e-09
-3.76063e-09
-2.53362e-09
-5.02906e-09
-5.43926e-09
-5.8047e-09
-6.54054e-09
-5.9326e-09
-5.4926e-09
-4.32436e-09
-2.67573e-09
-5.42958e-09
-5.6251e-09
-5.44606e-09
-3.00685e-09
-2.77907e-09
-2.16461e-09
-5.43838e-09
-5.54836e-09
-4.45848e-09
-5.0358e-09
-4.6469e-09
-4.25495e-09
-5.69548e-09
-4.25458e-09
-5.02686e-09
-4.84667e-09
-2.97102e-09
-3.66806e-09
-3.41067e-09
-6.02258e-09
-2.3817e-09
-2.50905e-09
-2.45454e-09
-5.68769e-09
-2.26778e-09
-2.22103e-09
-3.95729e-09
-2.07151e-09
-4.60518e-09
-4.61215e-09
-2.12643e-09
-5.01514e-09
-2.36041e-09
-2.34635e-09
-2.64345e-09
-2.2386e-09
-2.19793e-09
-3.28006e-09
-2.61254e-09
-2.37409e-09
-2.24555e-09
-4.59183e-09
-5.24101e-09
-2.4718e-09
-5.06824e-09
-2.03644e-09
-5.14143e-09
-4.0848e-09
-2.12758e-09
-1.8015e-09
-2.00984e-09
-2.66672e-09
-4.41536e-09
-3.63503e-09
-1.52072e-09
-1.688e-09
-4.92231e-09
-1.43149e-09
-1.43148e-09
-1.62204e-09
-1.82067e-09
-2.05768e-09
-2.39481e-09
-3.95995e-09
-3.66547e-09
-4.92572e-09
-1.43821e-09
-1.4382e-09
-4.32905e-09
-1.78022e-09
-3.50946e-09
-1.61314e-09
-1.62285e-09
-2.13825e-09
-3.71172e-09
-3.84343e-09
-4.09456e-09
-3.75254e-09
-3.71162e-09
-8.10883e-10
-5.99137e-09
-1.03436e-09
-1.00217e-09
-4.84e-09
-4.80642e-09
-1.03854e-09
-7.21336e-10
-1.01638e-09
-4.46451e-09
SCALARS cell_type float
LOOKUP_TABLE default
0
0
0
0
0
0
0
0
0
0
0
0
0
0
0
0
0
0
0
0
0
1
0
0
0
0
0
0
0
0
0
0
0
0
0
0
0
0
0
0
0
0
0
0
0
0
0
0
0
0
0
0
0
0
0
0
0
0
0
0
0
0
0
0
0
0
0
0
0
0
0
0
0
0
0
0
0
0
0
0
0
0
0
0
0
0
0
0
0
0
0
0
0
0
0
0
0
0
0
0
0
0
0
0
0
0
0
0
0
0
0
0
0
0
0
0
0
0
0
0
0
0
0
0
0
0
0
0
0
0
0
0
0
0
0
0
0
0
0
0
0
0
0
0
0
0
0
0
0
0
0
0
0
0
0
0
0
0
0
0
0
0
0
0
0
0
0
0
0
0
0
0
0
0
0
0
0
0
0
0
0
0
0
0
0
0
0
0
0
0
0
0
0
0
0
0
0
0
0
0
0
0
0
0
0
0
0
0
0
0
0
0
0
0
0
0
0
0
0
0
0
0
0
0
0
0
0
0
0
0
0
0
0
0
0
0
0
0
0
0
0
0
0
0
0
0
0
0
0
0
0
0
0
0
0
0
0
0
0
0
0
0
0
0
0
0
0
0
0
0
0
0
0
0
0
0
0
0
0
0
0
0
0
0
0
0
0
0
0
0
0
0
0
0
0
0
0
0
0
0
0
0
0
0
0
0
0
0
0
0
0
0
0
0
0
0
0
0
0
0
0
0
0
0
0
0
0
0
0
0
0
0
0
0
0
0
0
0
0
0
0
0
0
0
0
0
0
0
0
0
2
2
2
2
2
2
2
0
0
0
0
0
0
0
0
0
0
0
0
0
0
0
0
0
0
0
0
0
0
0
0
0
0
0
0
0
0
0
0
0
0
0
0
0
0
0
0
0
0
0
0
0
0
0
0
0
0
0
0
0
0
0
0
0
0
0
1
1
0
0
0
0
0
0
0
0
0
0
0
0
0
0
0
0
0
0
0
0
0
0
0
0
0
0
0
0
0
0
0
0
0
0
0
0
0
0
0
0
0
0
0
1
1
0
0
0
0
0
0
0
0
0
0
0
0
0
0
0
0
0
0
0
0
0
0
0
0
0
0
0
0
0
0
0
0
0
0
0
0
0
0
0
0
0
0
0
0
0
0
0
0
0
0
0
0
0
0
0
0
0
0
0
0
0
0
0
0
0
1
1
0
1
1
1
0
0
0
0
0
0
0
0
0
0
0
0
0
0
0
0
0
0
0
1
0
0
1
0
0
1
1
0
0
TENSORS Lagrange_strain float
0.0305264 -0.0031949 1.408e-07
-0.0031949 0.0133719 1.26334e-07
1.408e-07 1.26334e-07 0.00739086

0.0291429 -0.00279387 2.12659e-07
-0.00279387 0.0334932 1.02507e-07
2.12659e-07 1.02507e-07 0.0331031

0.0299692 0.00367014 -6.76901e-08
0.00367014 0.0311148 3.41109e-08
-6.76901e-08 3.41109e-08 0.0304139

0.0291123 -0.00391497 -2.22943e-07
-0.00391497 0.0327403 -4.44468e-08
-2.22943e-07 -4.44468e-08 0.0330282

0.035301 0.00266238 1.18658e-09
0.00266238 0.038012 -6.74988e-08
1.18658e-09 -6.74988e-08 0.0352263

0.0276887 -0.00236152 1.53531e-07
-0.00236152 0.0333242 1.83839e-08
1.53531e-07 1.83839e-08 0.030385

0.0302206 0.00339031 1.43149e-07
0.00339031 0.0134774 2.54964e-08
1.43149e-07 2.54964e-08 0.00745217

0.0316983 0.00392997 -1.0246e-07
0.00392997 0.0311452 2.64705e-08
-1.0246e-07 2.64705e-08 0.0315041

0.0331826 0.000713693 -1.77057e-07
0.000713693 0.0261784 3.32124e-08
-1.77057e-07 3.32124e-08 0.0280934

0.0354021 -0.000988703 1.33993e-07
-0.000988703 0.0275053 1.61806e-08
1.33993e-07 1.61806e-08 0.0326618

0.0280186 0.00204699 -1.24113e-07
0.00204699 0.0137907 3.44606e-07
-1.24113e-07 3.44606e-07 0.0117359

0.0279062 -0.00176145 1.31075e-07
-0.00176145 0.034942 -5.33444e-08
1.31075e-07 -5.33444e-08 0.0314927

0.0310661 0.00364836 -1.12697e-08
0.00364836 0.0312451 1.14969e-08
-1.12697e-08 1.14969e-08 0.0310241

0.0290193 -0.00187566 -6.8927e-08
-0.00187566 0.0347352 2.03004e-08
-6.8927e-08 2.03004e-08 0.0324876

0.0345674 0.00440688 -6.70418e-08
0.00440688 0.0342991 4.21976e-08
-6.70418e-08 4.21976e-08 0.0348199

0.0342649 7.26309e-05 -1.21694e-07
7.26309e-05 0.0272406 5.2512e-08
-1.21694e-07 5.2512e-08 0.0307237

0.0286441 -0.00234802 -8.03167e-08
-0.00234802 0.0359464 -1.88095e-08
-8.03167e-08 -1.88095e-08 0.033389

0.0345102 -0.000352116 4.45474e-08
-0.000352116 0.0273107 1.28165e-07
4.45474e-08 1.28165e-07 0.0319196

0.0268754 0.00346986 -1.32432e-07
0.00346986 0.030891 9.08546e-09
-1.32432e-07 9.08546e-09 0.0275292

0.0338234 -0.000549013 -1.64302e-07
-0.000549013 0.0263659 -9.1786e-09
-1.64302e-07 -9.1786e-09 0.0300811

0.0265781 0.00113244 4.49956e-08
0.00113244 0.0339722 8.96073e-08
4.49956e-08 8.96073e-08 0.029099

0.0452014 0.000849712 -5.95053e-07
0.000849712 0.0451719 -3.87773e-07
-5.95053e-07 -3.87773e-07 0.0365687

0.0336138 0.000246945 2.08748e-07
0.000246945 0.0262721 -7.47518e-09
2.08748e-07 -7.47518e-09 0.0297527

0.029259 -0.0036233 1.19449e-07
-0.0036233 0.031081 5.49806e-09
1.19449e-07 5.49806e-09 0.0299938

0.0337184 0.000897693 -4.35806e-08
0.000897693 0.0264527 -1.36738e-07
-4.35806e-08 -1.36738e-07 0.0300282

0.0284977 0.00250132 -6.13763e-08
0.00250132 0.0338322 -1.41375e-07
-6.13763e-08 -1.41375e-07 0.0322287

0.0285854 0.000525714 1.40523e-07
0.000525714 0.0176652 -2.04914e-07
1.40523e-07 -2.04914e-07 0.0131515

0.0308598 0.00402469 5.99488e-08
0.00402469 0.0305927 -1.47174e-07
5.99488e-08 -1.47174e-07 0.0305564

0.0258828 0.00476602 7.37035e-09
0.00476602 0.0256914 1.78607e-07
7.37035e-09 1.78607e-07 0.021094

0.0414466 0.0013666 -3.39444e-08
0.0013666 0.0382761 -5.87916e-08
-3.39444e-08 -5.87916e-08 0.0360671

0.0343479 0.00186655 1.01268e-07
0.00186655 0.0279053 1.21967e-07
1.01268e-07 1.21967e-07 0.0309448

0.0217269 -0.00228283 2.4917e-08
-0.00228283 0.0299415 2.56059e-07
2.4917e-08 2.56059e-07 0.0210909

0.0228298 -0.00534301 1.11322e-07
-0.00534301 0.0234384 -2.86134e-07
1.11322e-07 -2.86134e-07 0.0125601

0.0347675 0.00079857 2.06086e-07
0.00079857 0.0421712 -3.52062e-08
2.06086e-07 -3.52062e-08 0.0357191

0.0373815 -0.00066 -1.75502e-07
-0.00066 0.0411212 2.42209e-08
-1.75502e-07 2.42209e-08 0.0358334

0.0409944 0.00280599 5.67873e-08
0.00280599 0.0359183 2.41284e-08
5.67873e-08 2.41284e-08 0.0356993

0.0371824 0.000703329 -1.1433e-07
0.000703329 0.043128 1.9802e-07
-1.1433e-07 1.9802e-07 0.0360735

0.0401819 -0.00121569 -2.0519e-07
-0.00121569 0.0377575 -1.06395e-07
-2.0519e-07 -1.06395e-07 0.0357409

0.0311606 -0.00366907 -1.89471e-07
-0.00366907 0.0310685 -1.31899e-08
-1.89471e-07 -1.31899e-08 0.0308704

0.0227138 0.00526972 4.85966e-08
0.00526972 0.0236739 -1.56395e-07
4.85966e-08 -1.56395e-07 0.0125622

0.0297107 -0.0023109 2.02947e-07
-0.0023109 0.0219977 1.5888e-07
2.02947e-07 1.5888e-07 0.0208413

0.0375468 -0.00052125 7.99375e-09
-0.00052125 0.0429773 -1.87882e-07
7.99375e-09 -1.87882e-07 0.0360762

0.0411592 0.00262731 -6.94733e-08
0.00262731 0.0393379 2.16132e-08
-6.94733e-08 2.16132e-08 0.0360587

0.0342387 -0.00161298 -1.53066e-07
-0.00161298 0.0279473 -5.72451e-08
-1.53066e-07 -5.72451e-08 0.0310286

0.0230705 -0.00551488 -1.48129e-07
-0.00551488 0.0235265 -3.2639e-09
-1.48129e-07 -3.2639e-09 0.016191

0.0298927 -0.00232724 -1.57859e-07
-0.00232724 0.0221216 -2.03884e-08
-1.57859e-07 -2.03884e-08 0.0213097

0.0258514 0.00222211 9.10126e-08
0.00222211 0.0325957 -6.99696e-09
9.10126e-08 -6.99696e-09 0.0278671

0.0275046 0.0025228 -3.26975e-08
0.0025228 0.0323163 -1.40235e-07
-3.26975e-08 -1.40235e-07 0.0284414

0.0341126 -0.00213571 -9.72039e-08
-0.00213571 0.0270621 -3.82501e-09
-9.72039e-08 -3.82501e-09 0.0304181

0.0228672 -0.00438296 1.22888e-07
-0.00438296 0.0272043 -2.0827e-07
1.22888e-07 -2.0827e-07 0.0198187

0.0294444 0.00246628 1.63809e-07
0.00246628 0.0218013 2.80993e-08
1.63809e-07 2.80993e-08 0.0202484

0.0298215 -0.00326356 2.87279e-07
-0.00326356 0.0244745 4.03447e-08
2.87279e-07 4.03447e-08 0.0230103

0.0344136 0.00257095 -7.37845e-08
0.00257095 0.0381299 -1.292e-07
-7.37845e-08 -1.292e-07 0.0352051

0.0286409 0.00383007 -2.23493e-07
0.00383007 0.0257379 1.84908e-07
-2.23493e-07 1.84908e-07 0.0230787

0.0348634 -0.00290847 -8.07159e-08
-0.00290847 0.0373609 -8.7087e-08
-8.07159e-08 -8.7087e-08 0.0351236

0.0255411 -0.00544496 -3.06132e-07
-0.00544496 0.0228675 1.52901e-07
-3.06132e-07 1.52901e-07 0.0157952

0.0372752 0.000744019 9.65919e-08
0.000744019 0.0413311 2.64091e-07
9.65919e-08 2.64091e-07 0.0358538

0.0231318 -0.000691686 -1.57677e-07
-0.000691686 0.0312593 -5.75398e-08
-1.57677e-07 -5.75398e-08 0.0230648

0.040949 0.00137633 -1.72176e-07
0.00137633 0.0376346 -1.32383e-07
-1.72176e-07 -1.32383e-07 0.0358321

0.0276293 0.00279838 3.87645e-08
0.00279838 0.0326907 1.15804e-07
3.87645e-08 1.15804e-07 0.0301778

0.0360718 0.000782817 -7.16141e-08
0.000782817 0.0280842 -1.80527e-07
-7.16141e-08 -1.80527e-07 0.0336115

0.0361867 0.00153007 -4.56411e-08
0.00153007 0.0316367 7.61133e-08
-4.56411e-08 7.61133e-08 0.0341578

0.028594 0.00405038 -1.78413e-07
0.00405038 0.0198688 8.94963e-08
-1.78413e-07 8.94963e-08 0.0137384

0.0309178 -0.000782051 -1.89639e-07
-0.000782051 0.0370151 -8.69181e-08
-1.89639e-07 -8.69181e-08 0.0338194

0.0314989 0.00124043 -1.37471e-07
0.00124043 0.0363528 -3.56708e-08
-1.37471e-07 -3.56708e-08 0.0341964

0.0285003 -0.000374437 -6.1625e-09
-0.000374437 0.0368864 9.62318e-08
-6.1625e-09 9.62318e-08 0.0326114

0.0295518 0.00306335 -1.63276e-07
0.00306335 0.0347273 -1.67124e-08
-1.63276e-07 -1.67124e-08 0.0336473

0.0346564 0.0011193 7.81037e-08
0.0011193 0.0277919 1.20366e-07
7.81037e-08 1.20366e-07 0.0321506

0.0291371 -0.00369013 1.0881e-07
-0.00369013 0.0309666 1.09007e-07
1.0881e-07 1.09007e-07 0.029857

0.0349899 -0.000236478 -1.09885e-07
-0.000236478 0.027534 1.15483e-08
-1.09885e-07 1.15483e-08 0.0333324

0.0343883 -0.00254144 -1.31268e-07
-0.00254144 0.0380604 -8.70865e-08
-1.31268e-07 -8.70865e-08 0.0351952

0.0349453 0.00284247 -1.05194e-08
0.00284247 0.037498 -1.40724e-07
-1.05194e-08 -1.40724e-07 0.0351751

0.0218556 -0.00212708 -3.35679e-09
-0.00212708 0.0298718 -6.8915e-08
-3.35679e-09 -6.8915e-08 0.0208178

0.0346377 -0.00368198 -3.49586e-08
-0.00368198 0.0319009 1.4287e-07
-3.49586e-08 1.4287e-07 0.0330188

0.0292418 -0.00328915 2.53144e-08
-0.00328915 0.0320557 -3.83357e-08
2.53144e-08 -3.83357e-08 0.0303796

0.026739 -0.00400967 2.06546e-08
-0.00400967 0.0175808 2.31045e-07
2.06546e-08 2.31045e-07 0.0127068

0.0323455 0.000417838 2.59511e-08
0.000417838 0.0380324 1.14649e-07
2.59511e-08 1.14649e-07 0.0343422

0.0344737 0.00380801 3.51452e-08
0.00380801 0.0308871 -1.08661e-07
3.51452e-08 -1.08661e-07 0.0326011

0.0283285 0.00257512 1.36935e-07
0.00257512 0.0340672 -2.99101e-08
1.36935e-07 -2.99101e-08 0.0321558

0.0314871 0.00103543 1.1418e-07
0.00103543 0.0228087 2.28901e-07
1.1418e-07 2.28901e-07 0.0240294

0.0270537 -0.0043499 -1.62922e-07
-0.0043499 0.0237004 -4.54293e-09
-1.62922e-07 -4.54293e-09 0.0182947

0.0361913 -0.00139914 -1.7675e-07
-0.00139914 0.0386683 6.45856e-08
-1.7675e-07 6.45856e-08 0.0353351

0.0314997 0.0031632 9.60972e-08
0.0031632 0.0343379 3.96642e-08
9.60972e-08 3.96642e-08 0.0340277

0.0272571 -0.00414752 1.98706e-07
-0.00414752 0.0221414 3.12716e-08
1.98706e-07 3.12716e-08 0.0183825

0.030307 0.00138798 5.74834e-08
0.00138798 0.0227953 2.2933e-07
5.74834e-08 2.2933e-07 0.0209208

0.0185757 -0.00269172 1.74938e-07
-0.00269172 0.0288824 5.96936e-07
1.74938e-07 5.96936e-07 0.0158686

0.0271546 0.00188421 -8.45032e-09
0.00188421 0.0342577 -3.87817e-08
-8.45032e-09 -3.87817e-08 0.0306002

0.035316 0.00304926 -5.24035e-08
0.00304926 0.0307655 1.04135e-07
-5.24035e-08 1.04135e-07 0.0326943

0.0226136 0.00537528 5.97724e-08
0.00537528 0.0240515 -1.44231e-07
5.97724e-08 -1.44231e-07 0.0161736

0.0458546 0.00223248 1.54802e-08
0.00223248 0.0416666 1.01571e-07
1.54802e-08 1.01571e-07 0.0365696

0.0230457 -0.000533184 5.38433e-08
-0.000533184 0.0313 5.16249e-08
5.38433e-08 5.16249e-08 0.0230347

0.0462662 -0.00225018 6.10371e-07
-0.00225018 0.0412118 9.3711e-08
6.10371e-07 9.3711e-08 0.0365249

0.0369947 -0.00361501 -1.98354e-09
-0.00361501 0.0334299 -2.23133e-07
-1.98354e-09 -2.23133e-07 0.0345568

0.0350723 0.00360995 -2.3645e-08
0.00360995 0.0299518 -2.21486e-09
-2.3645e-08 -2.21486e-09 0.0323977

0.029911 -0.00315174 -1.23749e-07
-0.00315174 0.0246513 -7.41369e-08
-1.23749e-07 -7.41369e-08 0.0232477

0.0229768 0.00402118 -2.19257e-07
0.00402118 0.0277332 -3.9287e-08
-2.19257e-07 -3.9287e-08 0.0203495

0.0210626 -0.00137589 7.1044e-08
-0.00137589 0.0298464 1.3168e-07
7.1044e-08 1.3168e-07 0.0182229

0.0286971 0.0028817 3.89528e-08
0.0028817 0.0341647 -4.73865e-08
3.89528e-08 -4.73865e-08 0.0326405

0.0369416 0.00223063 7.87542e-08
0.00223063 0.0333908 4.51433e-08
7.87542e-08 4.51433e-08 0.0343207

0.0281009 0.00198346 1.40169e-07
0.00198346 0.0339976 -1.23553e-08
1.40169e-07 -1.23553e-08 0.0308106

0.0318268 0.00206821 1.01223e-08
0.00206821 0.0252134 6.56887e-08
1.01223e-08 6.56887e-08 0.0255744

0.0238702 -0.0027684 2.07964e-07
-0.0027684 0.0297148 -4.67572e-08
2.07964e-07 -4.67572e-08 0.0215266

0.0278536 -0.00375609 -1.0647e-07
-0.00375609 0.0217823 1.34221e-07
-1.0647e-07 1.34221e-07 0.0180476

0.0292813 -0.00322386 -2.09946e-07
-0.00322386 0.0325711 6.22376e-08
-2.09946e-07 6.22376e-08 0.0323444

0.0305726 0.00360603 -7.02407e-08
0.00360603 0.0321709 -7.44505e-08
-7.02407e-08 -7.44505e-08 0.0323122

0.0286592 0.00304066 1.03946e-08
0.00304066 0.0339651 -1.32407e-07
1.03946e-08 -1.32407e-07 0.0325711

0.0291565 0.00172079 8.44735e-08
0.00172079 0.0375462 8.36291e-08
8.44735e-08 8.36291e-08 0.0337839

0.0344137 0.00122941 1.05004e-07
0.00122941 0.0274777 -1.39121e-07
1.05004e-07 -1.39121e-07 0.0306203

0.0199316 -0.000604175 -3.75684e-08
-0.000604175 0.029612 -1.76545e-08
-3.75684e-08 -1.76545e-08 0.0180756

0.0297461 -0.00485056 5.19802e-08
-0.00485056 0.0329895 -2.53339e-08
5.19802e-08 -2.53339e-08 0.0336798

0.0290316 0.00359115 4.85215e-08
0.00359115 0.0313044 2.8324e-09
4.85215e-08 2.8324e-09 0.0302105

0.0180802 0.000282489 3.2673e-07
0.000282489 0.0292629 7.54707e-08
3.2673e-07 7.54707e-08 0.0168522

0.0277988 0.00441478 -1.56796e-07
0.00441478 0.0209367 1.07352e-07
-1.56796e-07 1.07352e-07 0.0174275

0.0291409 -0.00301284 -2.70514e-08
-0.00301284 0.0326445 1.30985e-07
-2.70514e-08 1.30985e-07 0.0321274

0.0351778 0.000758016 1.31664e-07
0.000758016 0.0272932 1.91465e-08
1.31664e-07 1.91465e-08 0.0324938

0.0293774 0.00351218 -7.89817e-08
0.00351218 0.0251607 -1.98102e-08
-7.89817e-08 -1.98102e-08 0.0230732

0.0395589 0.0017054 -7.70683e-08
0.0017054 0.0389634 -1.11952e-08
-7.70683e-08 -1.11952e-08 0.0358723

0.0283289 0.00311689 6.73468e-09
0.00311689 0.0223674 4.67869e-08
6.73468e-09 4.67869e-08 0.0182577

0.0394118 -0.00174644 1.34613e-07
-0.00174644 0.0389889 2.12001e-09
1.34613e-07 2.12001e-09 0.0358376

0.0232248 0.00010329 1.39991e-07
0.00010329 0.0314633 -1.90573e-08
1.39991e-07 -1.90573e-08 0.0230815

0.0327007 -0.000287737 -2.40301e-07
-0.000287737 0.0246206 -3.25548e-08
-2.40301e-07 -3.25548e-08 0.0269201

0.0379818 -0.00212382 4.04e-08
-0.00212382 0.0304103 -6.11614e-08
4.04e-08 -6.11614e-08 0.0347286

0.0291882 0.00319791 2.06969e-08
0.00319791 0.0332177 -8.71644e-08
2.06969e-08 -8.71644e-08 0.033282

0.0289009 -0.00176823 -4.47561e-08
-0.00176823 0.0365404 6.08982e-08
-4.47561e-08 6.08982e-08 0.0334382

0.0365142 -0.00108208 -8.65408e-08
-0.00108208 0.0264333 -2.51622e-08
-8.65408e-08 -2.51622e-08 0.0337978

0.0311247 -0.00291833 -1.96894e-07
-0.00291833 0.0382323 5.72279e-08
-1.96894e-07 5.72279e-08 0.0347788

0.0380916 -0.00088353 -4.51295e-07
-0.00088353 0.0386561 1.53329e-07
-4.51295e-07 1.53329e-07 0.0357678

0.0301274 -0.00393009 -3.16255e-08
-0.00393009 0.0326518 1.31074e-07
-3.16255e-08 1.31074e-07 0.0327038

0.0213009 0.00146651 -1.326e-07
0.00146651 0.0295648 -1.87016e-07
-1.326e-07 -1.87016e-07 0.0182668

0.029338 -0.00363749 2.42785e-07
-0.00363749 0.0253083 -6.19652e-08
2.42785e-07 -6.19652e-08 0.0231437

0.0327994 -0.00181246 2.40662e-07
-0.00181246 0.0396407 -1.13755e-07
2.40662e-07 -1.13755e-07 0.035175

0.0350263 7.68026e-05 3.42291e-09
7.68026e-05 0.0271769 8.0928e-09
3.42291e-09 8.0928e-09 0.0331904

0.0307638 -0.00282172 -6.38428e-09
-0.00282172 0.0348268 -3.53327e-09
-6.38428e-09 -3.53327e-09 0.0340211

0.0294833 0.00338028 -2.18198e-08
0.00338028 0.0328122 -6.35227e-08
-2.18198e-08 -6.35227e-08 0.0332651

0.0264169 -0.00405455 1.18273e-07
-0.00405455 0.0272169 -2.08721e-07
1.18273e-07 -2.08721e-07 0.0215493

0.0371009 -0.000955899 3.36985e-08
-0.000955899 0.0415274 -6.37084e-08
3.36985e-08 -6.37084e-08 0.0358188

0.0226763 -0.00422934 -1.28766e-07
-0.00422934 0.0272005 1.93688e-07
-1.28766e-07 1.93688e-07 0.0168512

0.0341201 -0.00251862 -9.87768e-08
-0.00251862 0.0285573 1.47949e-07
-9.87768e-08 1.47949e-07 0.0309888

0.0363571 0.000289347 -1.96216e-07
0.000289347 0.0293866 3.07264e-08
-1.96216e-07 3.07264e-08 0.0341306

0.0395635 0.00239046 5.99678e-08
0.00239046 0.0390366 2.02756e-08
5.99678e-08 2.02756e-08 0.0357998

0.0238187 0.00260353 -2.37389e-07
0.00260353 0.0301005 -6.56569e-09
-2.37389e-07 -6.56569e-09 0.0217633

0.03337 0.00357242 2.31181e-08
0.00357242 0.0306611 -1.38026e-07
2.31181e-08 -1.38026e-07 0.0317099

0.031587 -0.0031869 -4.73586e-08
-0.0031869 0.0265079 7.31622e-08
-4.73586e-08 7.31622e-08 0.0268892

0.0288795 -0.00233519 1.48461e-09
-0.00233519 0.0341721 1.61485e-07
1.48461e-09 1.61485e-07 0.0325466

0.0262025 0.00449258 1.52786e-08
0.00449258 0.0245194 1.87932e-07
1.52786e-08 1.87932e-07 0.0180526

0.0283744 -0.00285946 1.72541e-07
-0.00285946 0.0339703 1.30707e-07
1.72541e-07 1.30707e-07 0.0323902

0.0330889 0.00404878 -5.51093e-08
0.00404878 0.0304107 1.04691e-07
-5.51093e-08 1.04691e-07 0.0314855

0.0332741 -0.00330359 -4.62636e-08
-0.00330359 0.0283086 -5.564e-08
-4.62636e-08 -5.564e-08 0.0299926

0.0291109 -0.00328727 7.76008e-09
-0.00328727 0.0319303 -1.09584e-07
7.76008e-09 -1.09584e-07 0.0303833

0.0313999 -0.00242387 2.52135e-09
-0.00242387 0.0246792 3.54093e-10
2.52135e-09 3.54093e-10 0.0251139

0.0328963 -0.00246096 -1.2879e-07
-0.00246096 0.0266651 6.33841e-08
-1.2879e-07 6.33841e-08 0.0285467

0.0294407 -0.00333378 8.08516e-08
-0.00333378 0.0328912 -8.466e-08
8.08516e-08 -8.466e-08 0.0333463

0.0260916 0.0046238 9.11208e-08
0.0046238 0.0255 1.65755e-08
9.11208e-08 1.65755e-08 0.0210582

0.0281024 0.00201176 -2.66998e-08
0.00201176 0.0342732 -4.20116e-08
-2.66998e-08 -4.20116e-08 0.0310537

0.0308321 0.00347242 -7.53388e-08
0.00347242 0.0321975 7.41475e-08
-7.53388e-08 7.41475e-08 0.032541

0.0291071 0.00333986 1.20524e-07
0.00333986 0.0331318 1.08341e-07
1.20524e-07 1.08341e-07 0.0331997

0.0289343 0.00151931 -8.43223e-09
0.00151931 0.0354048 9.10795e-08
-8.43223e-09 9.10795e-08 0.0326361

0.0309996 -0.00105938 -6.10289e-08
-0.00105938 0.0231054 1.53683e-07
-6.10289e-08 1.53683e-07 0.0220419

0.0238463 0.00240056 -2.00693e-07
0.00240056 0.0303588 1.31351e-07
-2.00693e-07 1.31351e-07 0.0220769

0.0291632 -0.00319605 3.50083e-08
-0.00319605 0.0325778 -7.72446e-08
3.50083e-08 -7.72446e-08 0.0315617

0.0289378 0.00334868 3.1251e-08
0.00334868 0.0308787 -1.64353e-08
3.1251e-08 -1.64353e-08 0.0285183

0.0265692 -0.0045811 -1.02604e-07
-0.0045811 0.0251898 -8.59874e-08
-1.02604e-07 -8.59874e-08 0.0212222

0.0262361 0.00488347 6.07121e-08
0.00488347 0.0209149 8.48362e-09
6.07121e-08 8.48362e-09 0.0167363

0.023466 -0.00427749 -5.67648e-08
-0.00427749 0.0274191 -1.1722e-07
-5.67648e-08 -1.1722e-07 0.0205932

0.0266282 -0.00401866 -1.17845e-07
-0.00401866 0.0274371 -1.20433e-07
-1.17845e-07 -1.20433e-07 0.0220141

0.0352993 -0.000904385 1.13185e-07
-0.000904385 0.0273449 1.62327e-07
1.13185e-07 1.62327e-07 0.0325959

0.026003 0.00391291 2.33684e-07
0.00391291 0.0280457 -1.71742e-07
2.33684e-07 -1.71742e-07 0.0220664

0.0307356 0.00171278 1.12845e-07
0.00171278 0.0233239 -2.00026e-07
1.12845e-07 -2.00026e-07 0.0219897

0.0213987 0.00171818 -1.72601e-08
0.00171818 0.0301894 1.65423e-07
-1.72601e-08 1.65423e-07 0.0210986

0.0242244 -0.00288312 1.16962e-07
-0.00288312 0.029901 2.59204e-07
1.16962e-07 2.59204e-07 0.0220502

0.0312901 -0.000131062 -8.90955e-08
-0.000131062 0.0391983 -1.6131e-07
-8.90955e-08 -1.6131e-07 0.0346068

0.0230227 0.000294126 -2.09122e-08
0.000294126 0.0314062 4.68318e-08
-2.09122e-08 4.68318e-08 0.0230244

0.022742 0.00399285 4.18498e-08
0.00399285 0.0280808 -1.87221e-07
4.18498e-08 -1.87221e-07 0.020605

0.0288395 0.00158172 -1.59589e-07
0.00158172 0.0357662 -7.16803e-10
-1.59589e-07 -7.16803e-10 0.0328341

0.0292663 -0.0035721 -9.02973e-08
-0.0035721 0.0250894 -1.71738e-08
-9.02973e-08 -1.71738e-08 0.0232015

0.0369069 0.00272598 8.10039e-08
0.00272598 0.0296721 -1.0216e-08
8.10039e-08 -1.0216e-08 0.03374

0.0371051 0.00347461 5.28285e-08
0.00347461 0.0333619 -3.25108e-08
5.28285e-08 -3.25108e-08 0.0345883

0.0344811 -0.00244043 1.81854e-08
-0.00244043 0.0284815 -4.8719e-08
1.81854e-08 -4.8719e-08 0.031323

0.0389817 -0.0002654 8.13126e-08
-0.0002654 0.0338623 1.68205e-08
8.13126e-08 1.68205e-08 0.035143

0.0314235 -0.00417708 -1.73652e-07
-0.00417708 0.0317252 -2.63648e-08
-1.73652e-07 -2.63648e-08 0.0320987

0.0294125 0.003001 -5.72998e-08
0.003001 0.0222935 3.56876e-08
-5.72998e-08 3.56876e-08 0.0210328

0.0301774 0.00396307 -1.1139e-08
0.00396307 0.0326051 -4.3841e-08
-1.1139e-08 -4.3841e-08 0.0326611

0.0302251 0.00383719 -1.51523e-07
0.00383719 0.0325493 8.01351e-08
-1.51523e-07 8.01351e-08 0.032616

0.0262019 0.00395321 1.12491e-07
0.00395321 0.027722 -2.55679e-08
1.12491e-07 -2.55679e-08 0.0218294

0.0343876 0.00356778 -8.43972e-08
0.00356778 0.0317233 5.78184e-08
-8.43972e-08 5.78184e-08 0.0327722

0.0301976 0.000451462 1.40262e-07
0.000451462 0.0203984 -1.41796e-07
1.40262e-07 -1.41796e-07 0.0205405

0.0331265 0.00418994 -7.43096e-10
0.00418994 0.0323154 8.14708e-08
-7.43096e-10 8.14708e-08 0.0334231

0.0304476 -0.0016505 1.65721e-08
-0.0016505 0.0365481 6.37583e-08
1.65721e-08 6.37583e-08 0.0336015

0.03729 0.0032247 5.79419e-08
0.0032247 0.0333988 -1.36216e-07
5.79419e-08 -1.36216e-07 0.0346004

0.0306838 -0.00388639 1.17791e-08
-0.00388639 0.0322157 1.10585e-07
1.17791e-08 1.10585e-07 0.0326215

0.0293235 -0.000643071 -8.0711e-08
-0.000643071 0.036834 8.98146e-08
-8.0711e-08 8.98146e-08 0.0327885

0.0287656 -0.00314572 1.62592e-07
-0.00314572 0.0221067 -1.73908e-08
1.62592e-07 -1.73908e-08 0.0187296

0.0289538 0.00383603 -1.34563e-07
0.00383603 0.025537 2.21553e-08
-1.34563e-07 2.21553e-08 0.0230352

0.0216688 0.00188675 -1.12519e-10
0.00188675 0.030011 9.9816e-09
-1.12519e-10 9.9816e-09 0.0210501

0.0349261 -0.000161182 -6.57078e-08
-0.000161182 0.0273446 1.62463e-07
-6.57078e-08 1.62463e-07 0.0332414

0.0343571 -2.07868e-08 1.6135e-07
-2.07868e-08 0.0272297 7.28211e-08
1.6135e-07 7.28211e-08 0.031984

0.0291162 0.00303242 -3.79886e-08
0.00303242 0.0326219 7.51296e-08
-3.79886e-08 7.51296e-08 0.0320753

0.0313948 0.00315814 -2.95686e-08
0.00315814 0.034188 2.97948e-08
-2.95686e-08 2.97948e-08 0.033996

0.0291194 -0.00319632 9.55619e-08
-0.00319632 0.0331793 -2.0766e-08
9.55619e-08 -2.0766e-08 0.0333186

0.0287249 -8.53173e-05 2.38148e-08
-8.53173e-05 0.0366366 3.30471e-08
2.38148e-08 3.30471e-08 0.0324671

0.029414 0.0033673 -1.55663e-07
0.0033673 0.0330159 7.39835e-08
-1.55663e-07 7.39835e-08 0.0332943

0.0328014 -0.00134337 7.01405e-08
-0.00134337 0.0253212 -1.9908e-07
7.01405e-08 -1.9908e-07 0.0277813

0.026312 -0.00424493 -2.30077e-08
-0.00424493 0.0281328 2.4719e-08
-2.30077e-08 2.4719e-08 0.0242276

0.03623 -0.000330692 6.1926e-09
-0.000330692 0.029333 -3.64807e-09
6.1926e-09 -3.64807e-09 0.0339659

0.0267376 -0.00443593 2.30142e-07
-0.00443593 0.0251504 -2.79145e-08
2.30142e-07 -2.79145e-08 0.0209157

0.0308455 0.00250104 3.29391e-08
0.00250104 0.034999 7.308e-08
3.29391e-08 7.308e-08 0.0340056

0.035049 -0.00348818 -3.79221e-08
-0.00348818 0.0303354 3.38232e-08
-3.79221e-08 3.38232e-08 0.0325561

0.0304508 -0.001247 1.9375e-08
-0.001247 0.0229432 -2.6823e-07
1.9375e-08 -2.6823e-07 0.0214439

0.0370778 -0.00306936 -4.04488e-09
-0.00306936 0.0315974 1.37364e-07
-4.04488e-09 1.37364e-07 0.0339258

0.0349058 0.000321065 -2.89695e-08
0.000321065 0.0275093 -3.40086e-08
-2.89695e-08 -3.40086e-08 0.0333695

0.0357766 -0.00308068 -2.72635e-09
-0.00308068 0.0331976 9.82022e-08
-2.72635e-09 9.82022e-08 0.0340809

0.0348646 -0.00340222 7.8074e-08
-0.00340222 0.029544 -1.08553e-08
7.8074e-08 -1.08553e-08 0.0321204

0.0348457 -0.00113073 -3.24583e-08
-0.00113073 0.0278037 -7.38735e-08
-3.24583e-08 -7.38735e-08 0.0322835

0.0314342 -0.00305489 -9.57526e-08
-0.00305489 0.0343859 -9.10937e-09
-9.57526e-08 -9.10937e-09 0.0340841

0.029186 -0.00406154 7.22571e-08
-0.00406154 0.0268555 1.85615e-07
7.22571e-08 1.85615e-07 0.0253039

0.0349285 -0.00323566 7.46552e-08
-0.00323566 0.0298637 -2.43386e-08
7.46552e-08 -2.43386e-08 0.0321375

0.031408 0.00140584 1.56835e-07
0.00140584 0.0232911 -1.98281e-07
1.56835e-07 -1.98281e-07 0.0244433

0.0336039 0.00347559 7.18806e-08
0.00347559 0.0333831 -3.09971e-08
7.18806e-08 -3.09971e-08 0.0335888

0.0298413 -0.00495468 -1.30285e-07
-0.00495468 0.0330195 -7.62934e-08
-1.30285e-07 -7.62934e-08 0.0337956

0.0299913 0.00490778 8.24496e-08
0.00490778 0.0328817 6.3724e-08
8.24496e-08 6.3724e-08 0.0337625

0.0276428 -0.00373214 4.56571e-08
-0.00373214 0.0347435 -1.86907e-07
4.56571e-08 -1.86907e-07 0.0337053

0.0278798 0.00353815 2.02839e-07
0.00353815 0.0347714 -9.11412e-10
2.02839e-07 -9.11412e-10 0.0336702

0.0363617 -0.00115075 1.72162e-08
-0.00115075 0.0262998 1.4377e-08
1.72162e-08 1.4377e-08 0.0336965

0.0361314 0.00124438 -7.44881e-08
0.00124438 0.0265206 -1.76113e-07
-7.44881e-08 -1.76113e-07 0.0336594

0.0349708 -0.00130349 1.22343e-07
-0.00130349 0.0284201 -1.12596e-08
1.22343e-07 -1.12596e-08 0.0325173

0.034373 0.00424799 -9.98551e-08
0.00424799 0.0342269 2.85281e-08
-9.98551e-08 2.85281e-08 0.0347483

0.0342491 -0.0043458 -2.94709e-09
-0.0043458 0.0342183 4.82775e-08
-2.94709e-09 4.82775e-08 0.0347366

0.030468 0.00208841 1.30569e-07
0.00208841 0.0380925 -1.19255e-07
1.30569e-07 -1.19255e-07 0.0347854

0.0306107 -0.00205432 -5.56493e-08
-0.00205432 0.0380221 -9.07055e-08
-5.56493e-08 -9.07055e-08 0.0347727

0.0394254 -0.000527965 1.13745e-07
-0.000527965 0.0327898 5.42656e-08
1.13745e-07 5.42656e-08 0.0351924

0.0396279 0.000512438 -1.38421e-07
0.000512438 0.032563 -1.64776e-07
-1.38421e-07 -1.64776e-07 0.0352376

0.0239277 0.00127303 -1.40236e-07
0.00127303 0.0319474 -1.72283e-07
-1.40236e-07 -1.72283e-07 0.0251424

0.0311076 -0.00325755 -1.63593e-07
-0.00325755 0.0321839 -8.79795e-08
-1.63593e-07 -8.79795e-08 0.0327428

0.0277344 -0.00477373 1.15993e-07
-0.00477373 0.0332525 -2.12368e-08
1.15993e-07 -2.12368e-08 0.0333947

0.0332999 -0.000608744 1.9154e-07
-0.000608744 0.0263601 1.55571e-08
1.9154e-07 1.55571e-08 0.0283993

0.0381149 -0.00224602 7.13339e-08
-0.00224602 0.0307407 -1.79903e-08
7.13339e-08 -1.79903e-08 0.0348283

0.0381633 0.00217829 -2.31831e-07
0.00217829 0.0308534 -2.51872e-08
-2.31831e-07 -2.51872e-08 0.0348604

0.0360171 1.57916e-05 -8.25023e-08
1.57916e-05 0.0250869 6.1086e-08
-8.25023e-08 6.1086e-08 0.0334097

0.024203 0.00302203 -1.21552e-07
0.00302203 0.030346 2.06246e-07
-1.21552e-07 2.06246e-07 0.0242371

0.0276288 0.00474424 -1.21747e-07
0.00474424 0.0332529 9.81357e-08
-1.21747e-07 9.81357e-08 0.0333327

0.0286264 -0.00306805 -1.0476e-08
-0.00306805 0.0341989 1.61726e-07
-1.0476e-08 1.61726e-07 0.0326934

0.0310319 0.00302872 2.54929e-07
0.00302872 0.0251067 -2.70329e-09
2.54929e-07 -2.70329e-09 0.0254248

0.0371574 0.00315763 4.06317e-08
0.00315763 0.0314849 8.04776e-08
4.06317e-08 8.04776e-08 0.0340135

0.0291776 -0.00405792 -1.45998e-07
-0.00405792 0.0268914 7.2525e-08
-1.45998e-07 7.2525e-08 0.0252792

0.0363335 -0.0004526 -1.32204e-08
-0.0004526 0.0296407 1.20272e-07
-1.32204e-08 1.20272e-07 0.0340686

0.0272999 -0.00448354 2.95601e-08
-0.00448354 0.0333356 -1.30249e-07
2.95601e-08 -1.30249e-07 0.0333813

0.0240003 0.00107631 1.18989e-07
0.00107631 0.0321878 -6.29098e-08
1.18989e-07 -6.29098e-08 0.0254634

0.0241917 0.00282022 -1.38123e-07
0.00282022 0.0306487 2.58541e-07
-1.38123e-07 2.58541e-07 0.0245044

0.0267499 0.00458537 -2.17603e-08
0.00458537 0.0240051 -1.46749e-07
-2.17603e-08 -1.46749e-07 0.0181852

0.0298013 0.00019945 -7.46908e-08
0.00019945 0.0200594 -1.26064e-07
-7.46908e-08 -1.26064e-07 0.019332

0.0318521 -0.00301648 1.02804e-07
-0.00301648 0.0341 4.33333e-08
1.02804e-07 4.33333e-08 0.0339735

0.022884 0.0039919 5.44575e-08
0.0039919 0.0276164 -1.63755e-07
5.44575e-08 -1.63755e-07 0.0176257

0.0291604 0.00309329 -1.18925e-08
0.00309329 0.0327049 1.14584e-07
-1.18925e-08 1.14584e-07 0.0309576

0.03154 -0.000692868 -1.11514e-07
-0.000692868 0.0231245 1.52703e-07
-1.11514e-07 1.52703e-07 0.0244445

0.0327036 0.00146101 -1.98102e-07
0.00146101 0.0253063 8.27241e-08
-1.98102e-07 8.27241e-08 0.027566

0.0359121 5.61383e-05 -7.8103e-08
5.61383e-05 0.0249204 1.40127e-07
-7.8103e-08 1.40127e-07 0.0333259

0.0279199 -0.00379585 1.03467e-07
-0.00379585 0.0348848 -6.67134e-09
1.03467e-07 -6.67134e-09 0.0337545

0.0392377 -0.000841491 -1.4445e-07
-0.000841491 0.0415196 2.79062e-07
-1.4445e-07 2.79062e-07 0.0361222

0.0298168 0.00492652 2.21182e-08
0.00492652 0.0328976 -6.23328e-08
2.21182e-08 -6.23328e-08 0.0337177

0.0302398 0.000214114 -1.94457e-07
0.000214114 0.0203671 -1.6326e-07
-1.94457e-07 -1.6326e-07 0.0172495

0.0266303 -0.00424065 -1.18783e-07
-0.00424065 0.0280864 -1.19722e-07
-1.18783e-07 -1.19722e-07 0.0243972

0.0277007 0.00480358 -6.33482e-08
0.00480358 0.0332556 -8.81596e-08
-6.33482e-08 -8.81596e-08 0.0333948

0.0278983 -0.00145499 -8.89911e-08
-0.00145499 0.0350209 -8.16394e-08
-8.89911e-08 -8.16394e-08 0.0313944

0.0244266 -0.00329767 1.75841e-07
-0.00329767 0.0299644 6.23354e-09
1.75841e-07 6.23354e-09 0.0241773

0.0279447 0.0037701 -7.81718e-08
0.0037701 0.0348466 8.02683e-08
-7.81718e-08 8.02683e-08 0.0337255

0.0313071 -0.0034015 -5.41553e-10
-0.0034015 0.0269643 1.78781e-07
-5.41553e-10 1.78781e-07 0.0269457

0.0402012 0.00140533 -3.43538e-08
0.00140533 0.0405369 -4.09414e-07
-3.43538e-08 -4.09414e-07 0.0361026

0.0258395 0.00399366 2.82719e-07
0.00399366 0.0289059 -8.22986e-08
2.82719e-07 -8.22986e-08 0.0244706

0.0366098 0.00109991 -9.39756e-08
0.00109991 0.0263102 -1.25816e-07
-9.39756e-08 -1.25816e-07 0.0338361

0.0332817 0.00397448 2.18669e-08
0.00397448 0.0320587 -8.45418e-08
2.18669e-08 -8.45418e-08 0.0332553

0.0291785 0.00305999 -4.37579e-08
0.00305999 0.0325476 -4.4876e-08
-4.37579e-08 -4.4876e-08 0.0321003

0.0343019 -0.00430001 -5.99471e-09
-0.00430001 0.0344423 -1.12055e-08
-5.99471e-09 -1.12055e-08 0.0348206

0.0354244 -0.00305602 -5.61607e-08
-0.00305602 0.0305368 -3.35029e-09
-5.61607e-08 -3.35029e-09 0.0326914

0.0333056 0.00138428 -1.80271e-08
0.00138428 0.0395014 6.22048e-08
-1.80271e-08 6.22048e-08 0.0349378

0.0291476 -0.00307175 2.50574e-08
-0.00307175 0.0328156 4.78146e-08
2.50574e-08 4.78146e-08 0.0313279

0.0292184 -0.00122954 -3.97374e-08
-0.00122954 0.0192598 -1.15357e-07
-3.97374e-08 -1.15357e-07 0.0163871

0.0287327 -0.00182903 -7.14322e-09
-0.00182903 0.0183884 2.26133e-07
-7.14322e-09 2.26133e-07 0.0161724

0.038456 0.00219663 -9.18716e-08
0.00219663 0.0331788 1.4311e-07
-9.18716e-08 1.4311e-07 0.0346989

0.0280093 0.00293832 -2.15861e-07
0.00293832 0.0322781 1.76562e-07
-2.15861e-07 1.76562e-07 0.029467

0.0320107 0.00382517 5.66896e-09
0.00382517 0.0309067 -1.10972e-07
5.66896e-09 -1.10972e-07 0.0313987

0.0319945 8.9718e-05 2.67229e-07
8.9718e-05 0.0245383 -9.49469e-08
2.67229e-07 -9.49469e-08 0.024847

0.0301851 0.000864006 -8.399e-08
0.000864006 0.0385076 8.09832e-08
-8.399e-08 8.09832e-08 0.034034

0.0353377 0.00218579 -6.4386e-08
0.00218579 0.029273 -1.77629e-07
-6.4386e-08 -1.77629e-07 0.0327992

0.0247722 -0.00333134 2.92147e-07
-0.00333134 0.0299554 -1.54048e-08
2.92147e-07 -1.54048e-08 0.0244299

0.0286022 -0.000336889 -1.5721e-07
-0.000336889 0.0365895 1.56938e-08
-1.5721e-07 1.56938e-08 0.0323377

0.0251754 0.00173622 1.11097e-07
0.00173622 0.0319741 -1.64822e-07
1.11097e-07 -1.64822e-07 0.0256413

0.0332208 -0.00390012 -4.94176e-09
-0.00390012 0.0304439 -2.94803e-10
-4.94176e-09 -2.94803e-10 0.0315363

0.0290161 -0.00388715 -1.73383e-07
-0.00388715 0.0281535 1.97637e-08
-1.73383e-07 1.97637e-08 0.0256708

0.0261071 0.00408963 1.15867e-07
0.00408963 0.0284987 -2.01353e-08
1.15867e-07 -2.01353e-08 0.0242783

0.0451943 -0.00201222 7.29801e-08
-0.00201222 0.0395283 5.36508e-08
7.29801e-08 5.36508e-08 0.0362987

0.0316107 0.000255906 3.20304e-08
0.000255906 0.0392519 6.82817e-08
3.20304e-08 6.82817e-08 0.0347051

0.0305635 0.00264414 -1.29265e-07
0.00264414 0.038369 -6.55621e-08
-1.29265e-07 -6.55621e-08 0.0348933

0.038692 0.00208927 -3.21558e-08
0.00208927 0.0301695 8.99559e-08
-3.21558e-08 8.99559e-08 0.0348782

0.0313162 -0.00344207 -1.07142e-07
-0.00344207 0.0320839 -7.26323e-08
-1.07142e-07 -7.26323e-08 0.0325144

0.031763 0.00233068 2.54419e-07
0.00233068 0.0255793 -1.80702e-09
2.54419e-07 -1.80702e-09 0.0258365

0.0349287 -0.00070617 -4.25852e-08
-0.00070617 0.0414934 1.09987e-07
-4.25852e-08 1.09987e-07 0.0356612

0.0357224 -0.00251209 -6.39883e-08
-0.00251209 0.0294998 -9.74165e-10
-6.39883e-08 -9.74165e-10 0.033198

0.0332382 -0.00203465 -1.91911e-07
-0.00203465 0.0266093 -9.79925e-08
-1.91911e-07 -9.79925e-08 0.0286262

0.0252123 0.00150751 6.07313e-08
0.00150751 0.0322181 -6.50986e-08
6.07313e-08 -6.50986e-08 0.0259067

0.0267609 -0.00333719 -3.69032e-08
-0.00333719 0.0299587 -1.30822e-09
-3.69032e-08 -1.30822e-09 0.0251456

0.0364093 -0.00335169 1.06048e-07
-0.00335169 0.0352221 -7.65869e-08
1.06048e-07 -7.65869e-08 0.0346784

0.028428 0.00414276 -2.58665e-07
0.00414276 0.0276704 1.20041e-07
-2.58665e-07 1.20041e-07 0.0254255

0.0371738 -0.00333698 -2.59071e-08
-0.00333698 0.0332615 6.55827e-08
-2.59071e-08 6.55827e-08 0.034548

0.0321502 0.000337177 -9.41633e-08
0.000337177 0.0248234 1.8676e-07
-9.41633e-08 1.8676e-07 0.0253954

0.0191337 -0.00368205 -2.0261e-09
-0.00368205 0.0274826 1.12975e-08
-2.0261e-09 1.12975e-08 0.016286

0.0291608 -0.00379476 -6.49722e-08
-0.00379476 0.0281459 -1.15054e-07
-6.49722e-08 -1.15054e-07 0.0257647

0.0230111 0.00411944 -7.11935e-08
0.00411944 0.0279758 2.26469e-07
-7.11935e-08 2.26469e-07 0.017565

0.0296399 -0.00155517 8.83071e-08
-0.00155517 0.0374628 -1.53977e-07
8.83071e-08 -1.53977e-07 0.0335873

0.024322 -0.0017894 -1.55356e-07
-0.0017894 0.0318171 -6.17867e-08
-1.55356e-07 -6.17867e-08 0.0254056

0.0423518 -0.00322577 5.68041e-08
-0.00322577 0.0422917 2.93646e-08
5.68041e-08 2.93646e-08 0.036307

0.026294 0.00308404 6.81299e-08
0.00308404 0.0306489 2.58828e-07
6.81299e-08 2.58828e-07 0.0254355

0.0334165 -0.00431269 3.44111e-08
-0.00431269 0.0326007 1.12335e-07
3.44111e-08 1.12335e-07 0.0335054

0.0240431 -0.00154715 9.35085e-08
-0.00154715 0.0318316 -1.64761e-08
9.35085e-08 -1.64761e-08 0.025135

0.0361556 -0.00253219 3.23492e-08
-0.00253219 0.0294608 1.22178e-07
3.23492e-08 1.22178e-07 0.0334585

0.0266301 0.0030976 -2.21676e-08
0.0030976 0.030343 2.04857e-07
-2.21676e-08 2.04857e-07 0.0252711

0.0342806 -0.000652211 1.33629e-07
-0.000652211 0.0272317 1.40387e-07
1.33629e-07 1.40387e-07 0.0305239

0.018864 -0.00386542 4.83474e-08
-0.00386542 0.0297575 -1.04737e-07
4.83474e-08 -1.04737e-07 0.012942

0.0279524 0.00274807 -2.12086e-07
0.00274807 0.0325706 2.06203e-07
-2.12086e-07 2.06203e-07 0.0305198

0.031383 -0.00250651 1.69809e-07
-0.00250651 0.0246832 -6.68019e-08
1.69809e-07 -6.68019e-08 0.0253635

0.0390426 -0.00286214 1.82366e-08
-0.00286214 0.0321634 -3.73219e-09
1.82366e-08 -3.73219e-09 0.0348722

0.0287045 0.00411443 -1.07183e-07
0.00411443 0.0272548 7.02177e-08
-1.07183e-07 7.02177e-08 0.0252133

0.0313064 -0.00390986 1.04582e-07
-0.00390986 0.0284936 2.11206e-08
1.04582e-07 2.11206e-08 0.0286812

0.0353424 0.00275694 -5.04804e-08
0.00275694 0.0308014 1.24031e-08
-5.04804e-08 1.24031e-08 0.0329791

0.0297216 -0.00369454 1.45163e-07
-0.00369454 0.0328786 -2.97979e-08
1.45163e-07 -2.97979e-08 0.0332817

0.0270104 -0.00340243 -8.2989e-08
-0.00340243 0.0299313 -4.42373e-08
-8.2989e-08 -4.42373e-08 0.0253549

0.0283927 0.00376257 -1.16321e-07
0.00376257 0.0288909 -9.3666e-08
-1.16321e-07 -9.3666e-08 0.0258436

0.0313166 0.00340531 1.99811e-07
0.00340531 0.0268548 -1.73612e-07
1.99811e-07 -1.73612e-07 0.02692

0.0364675 -0.00193962 -8.16307e-09
-0.00193962 0.0305712 3.62095e-08
-8.16307e-09 3.62095e-08 0.0335739

0.0254924 -0.0021584 2.88275e-07
-0.0021584 0.0317459 -2.40943e-08
2.88275e-07 -2.40943e-08 0.0258101

0.0346358 -0.00230833 3.20512e-08
-0.00230833 0.0282862 -1.73224e-08
3.20512e-08 -1.73224e-08 0.0313995

0.0341233 0.00221774 1.61583e-07
0.00221774 0.027386 5.55856e-09
1.61583e-07 5.55856e-09 0.0305494

0.0335828 -0.00124245 1.52529e-07
-0.00124245 0.039224 -1.64174e-07
1.52529e-07 -1.64174e-07 0.0348622

0.0320157 -0.00174267 1.01661e-07
-0.00174267 0.0252894 -1.97399e-07
1.01661e-07 -1.97399e-07 0.0258274

0.0249617 7.97026e-05 -1.82276e-07
7.97026e-05 0.0330916 -1.04443e-07
-1.82276e-07 -1.04443e-07 0.0268153

0.0331875 0.00242276 -1.35188e-07
0.00242276 0.0271482 1.84432e-07
-1.35188e-07 1.84432e-07 0.0288716

0.0310631 0.00359028 2.81303e-07
0.00359028 0.0272471 4.97246e-08
2.81303e-07 4.97246e-08 0.0270761

0.0252547 -0.00203649 1.64534e-07
-0.00203649 0.0318084 -1.48466e-08
1.64534e-07 -1.48466e-08 0.0255678

0.0251605 -0.000154378 1.17043e-07
-0.000154378 0.033232 -5.9737e-08
1.17043e-07 -5.9737e-08 0.0270975

0.0353467 0.00384845 -2.83077e-08
0.00384845 0.0329354 1.37937e-07
-2.83077e-08 1.37937e-07 0.0338329

0.0275394 -0.00142764 2.66543e-08
-0.00142764 0.0352763 -7.32191e-08
2.66543e-08 -7.32191e-08 0.0313856

0.0311792 -0.00347564 2.0282e-07
-0.00347564 0.0269326 8.58569e-08
2.0282e-07 8.58569e-08 0.0269635

0.031242 0.00276615 1.57136e-07
0.00276615 0.0248821 -2.4595e-07
1.57136e-07 -2.4595e-07 0.0252037

0.0345191 0.00311082 7.13893e-08
0.00311082 0.0293357 -1.61568e-07
7.13893e-08 -1.61568e-07 0.0317384

0.0279438 0.000714956 4.19198e-08
0.000714956 0.0359722 -1.21063e-07
4.19198e-08 -1.21063e-07 0.0317607

0.0286673 0.00377266 -5.56232e-08
0.00377266 0.0285107 -1.66141e-08
-5.56232e-08 -1.66141e-08 0.0256844

0.0367205 0.00304953 2.32367e-08
0.00304953 0.036057 1.96885e-08
2.32367e-08 1.96885e-08 0.0348419

0.0226466 -0.00753298 1.26685e-07
-0.00753298 0.0186619 6.83559e-08
1.26685e-07 6.83559e-08 0.010829

0.0332305 -0.00327945 -1.29431e-08
-0.00327945 0.0285835 1.15707e-08
-1.29431e-08 1.15707e-08 0.0300706

0.0206961 0.000911597 -1.23949e-08
0.000911597 0.0299817 -1.44863e-08
-1.23949e-08 -1.44863e-08 0.0183175

0.0312449 -0.00377263 -9.09849e-09
-0.00377263 0.0291809 -1.82204e-07
-9.09849e-09 -1.82204e-07 0.0289807

0.00153757 -0.00651038 7.94357e-10
-0.00651038 0.027533 -3.48031e-09
7.94357e-10 -3.48031e-09 0.00290411

0.00146805 0.0063601 -4.82166e-08
0.0063601 0.0275506 -2.11251e-07
-4.82166e-08 -2.11251e-07 0.00299695

0.0119692 0.0144863 2.27958e-08
0.0144863 0.01751 2.8585e-08
2.27958e-08 2.8585e-08 0.0027672

0.0121504 -0.014477 -9.67916e-08
-0.014477 0.0172018 1.21373e-07
-9.67916e-08 1.21373e-07 0.00279975

0.029303 -0.000163837 -2.07058e-07
-0.000163837 0 0
-2.07058e-07 0 0.00294834

0.0235617 -0.011268 -2.13668e-08
-0.011268 0.00538851 1.02897e-08
-2.13668e-08 1.02897e-08 0.00297401

0.0236034 0.0113341 1.06653e-07
0.0113341 0.00544248 5.13612e-08
1.06653e-07 5.13612e-08 0.00303505

0.0368413 0.0019067 1.83057e-07
0.0019067 0.0301892 7.95121e-08
1.83057e-07 7.95121e-08 0.0338154

0.0386308 0.00340103 -2.02767e-07
0.00340103 0.0365478 -3.18532e-08
-2.02767e-07 -3.18532e-08 0.0355117

0.0343526 0.000870256 3.85418e-08
0.000870256 0.0274109 -1.45492e-07
3.85418e-08 -1.45492e-07 0.031631

0.0328141 0.00284342 6.43316e-08
0.00284342 0.0268447 -1.75088e-07
6.43316e-08 -1.75088e-07 0.0285965

0.0256589 0.00230781 1.25002e-07
0.00230781 0.0323095 -1.37444e-07
1.25002e-07 -1.37444e-07 0.0275881

0.0306592 0.00376012 2.18684e-07
0.00376012 0.0276299 1.42465e-07
2.18684e-07 1.42465e-07 0.0270713

0.033245 -0.00389362 2.83584e-08
-0.00389362 0.0304125 4.76556e-08
2.83584e-08 4.76556e-08 0.0315732

0.0309195 0.00364587 6.0193e-08
0.00364587 0.0272415 7.26305e-08
6.0193e-08 7.26305e-08 0.0268793

0.0249471 -0.000370683 5.07946e-08
-0.000370683 0.0330628 -9.69665e-08
5.07946e-08 -9.69665e-08 0.0267975

0.0384738 -0.00347579 -1.15921e-07
-0.00347579 0.0368107 2.37478e-08
-1.15921e-07 2.37478e-08 0.0355173

0.0251352 -0.000634077 -1.66352e-07
-0.000634077 0.0331508 -8.37745e-08
-1.66352e-07 -8.37745e-08 0.0270564

0.0359501 0.00303977 7.20905e-08
0.00303977 0.0329516 -1.30153e-07
7.20905e-08 -1.30153e-07 0.0340353

0.0295729 0.00346787 6.70324e-09
0.00346787 0.0248067 -2.36767e-07
6.70324e-09 -2.36767e-07 0.0229851

0.0304429 -0.0017099 1.89589e-07
-0.0017099 0.0374415 -8.37347e-08
1.89589e-07 -8.37347e-08 0.0346723

0.0338583 0.00180008 -8.66562e-08
0.00180008 0.0271364 1.85134e-07
-8.66562e-08 1.85134e-07 0.030267

0.0311465 -0.00391097 1.32482e-07
-0.00391097 0.0284826 2.04323e-07
1.32482e-07 2.04323e-07 0.0285649

0.0315284 -0.00321371 1.45162e-07
-0.00321371 0.0266478 -2.50873e-08
1.45162e-07 -2.50873e-08 0.0270016

0.0384058 -0.00213611 -7.58094e-08
-0.00213611 0.033356 -2.96799e-08
-7.58094e-08 -2.96799e-08 0.0346805

0.0326228 0.00365516 -1.56366e-07
0.00365516 0.0291819 9.33883e-08
-1.56366e-07 9.33883e-08 0.0301019

0.0325865 0.00313 -1.87089e-07
0.00313 0.0272072 3.07594e-08
-1.87089e-07 3.07594e-08 0.028738

0.0269106 -0.000364168 1.82516e-07
-0.000364168 0.0349231 1.06228e-07
1.82516e-07 1.06228e-07 0.0301149

0.0258576 0.000763923 1.89096e-07
0.000763923 0.0339426 9.56262e-08
1.89096e-07 9.56262e-08 0.028773

0.0327204 0.000344624 9.3741e-08
0.000344624 0.0248222 1.98552e-07
9.3741e-08 1.98552e-07 0.0273969

0.031333 -0.000942733 1.74743e-07
-0.000942733 0.0229685 -2.61936e-07
1.74743e-07 -2.61936e-07 0.0238528

0.030827 0.00397568 1.10594e-07
0.00397568 0.0287571 1.64746e-07
1.10594e-07 1.64746e-07 0.0285746

0.0330586 -0.00342321 -1.17076e-07
-0.00342321 0.0284921 2.021e-07
-1.17076e-07 2.021e-07 0.0299167

0.0363443 -0.00281686 -9.99045e-08
-0.00281686 0.0326737 4.96631e-08
-9.99045e-08 4.96631e-08 0.0340814

0.0291566 -0.00411778 -2.08814e-08
-0.00411778 0.0291427 -1.82815e-07
-2.08814e-08 -1.82815e-07 0.0277064

0.0269275 -0.00361209 -7.66654e-08
-0.00361209 0.0304122 6.50109e-08
-7.66654e-08 6.50109e-08 0.0271671

0.0282785 0.00389039 -3.87784e-08
0.00389039 0.0298495 6.0656e-08
-3.87784e-08 6.0656e-08 0.0277045

0.0258593 -0.00124605 -5.08556e-08
-0.00124605 0.0335533 6.34629e-08
-5.08556e-08 6.34629e-08 0.0284667

0.0266108 -0.000201696 -9.47292e-08
-0.000201696 0.0348493 -1.72527e-08
-9.47292e-08 -1.72527e-08 0.0298674

0.0277159 0.000751156 7.7846e-08
0.000751156 0.0359716 -1.21317e-07
7.7846e-08 -1.21317e-07 0.0316016

0.0262044 -0.00274305 1.58403e-07
-0.00274305 0.0319064 1.70275e-07
1.58403e-07 1.70275e-07 0.0276632

0.0345195 0.00316805 -6.68352e-08
0.00316805 0.0291185 9.87687e-08
-6.68352e-08 9.87687e-08 0.0315779

0.0338478 -0.00125785 5.6621e-08
-0.00125785 0.0268859 -5.02182e-08
5.6621e-08 -5.02182e-08 0.0301486

0.0257487 0.000972 -1.4117e-07
0.000972 0.0337683 -3.06614e-08
-1.4117e-07 -3.06614e-08 0.0284926

0.0277774 -0.00126687 -4.91196e-08
-0.00126687 0.035332 -8.86791e-08
-4.91196e-08 -8.86791e-08 0.0313101

0.0272477 -0.00213199 1.02688e-07
-0.00213199 0.0335967 8.98786e-08
1.02688e-07 8.98786e-08 0.0301725

0.0327192 -0.00107459 -2.40123e-07
-0.00107459 0.0252794 -5.31322e-08
-2.40123e-07 -5.31322e-08 0.0272079

0.0332548 -0.00426044 1.75659e-07
-0.00426044 0.0323228 -1.25816e-07
1.75659e-07 -1.25816e-07 0.0334681

0.0264453 0.00121714 5.81528e-08
0.00121714 0.0337744 -2.81611e-08
5.81528e-08 -2.81611e-08 0.0287661

0.0397335 -0.00242548 -8.06248e-08
-0.00242548 0.0351528 -7.00736e-08
-8.06248e-08 -7.00736e-08 0.0353949

0.0188619 0.00315851 -1.42465e-07
0.00315851 0.0278315 2.19453e-07
-1.42465e-07 2.19453e-07 0.0162479

0.0337541 -0.00351398 1.09284e-07
-0.00351398 0.0334339 -2.31623e-07
1.09284e-07 -2.31623e-07 0.0336645

0.0352785 -0.00398925 -3.77785e-08
-0.00398925 0.0329864 -2.54834e-08
-3.77785e-08 -2.54834e-08 0.0338418

0.026642 -9.02701e-05 -1.48824e-07
-9.02701e-05 0.0348544 -1.84935e-08
-1.48824e-07 -1.84935e-08 0.0298755

0.0331837 -0.0021713 -1.81828e-08
-0.0021713 0.0271081 -1.86094e-08
-1.81828e-08 -1.86094e-08 0.0288526

0.029297 0.00168044 1.10249e-07
0.00168044 0.0357531 -1.65271e-08
1.10249e-07 -1.65271e-08 0.0328202

0.0131904 -0.000378031 -1.23294e-07
-0.000378031 0.0283198 -5.96179e-08
-1.23294e-07 -5.96179e-08 0.0111354

0.0270687 0.00186421 6.69582e-08
0.00186421 0.0339996 -1.17641e-08
6.69582e-08 -1.17641e-08 0.0302528

0.0310548 -0.00384918 -7.39452e-08
-0.00384918 0.0291045 -2.11879e-07
-7.39452e-08 -2.11879e-07 0.0287565

0.0185937 0.00319947 -1.82916e-07
0.00319947 0.0300943 1.06106e-07
-1.82916e-07 1.06106e-07 0.0131072

0.0425145 0.00350851 7.55469e-08
0.00350851 0.0417647 1.03758e-07
7.55469e-08 1.03758e-07 0.0364115

0.0431191 -0.00373825 1.25246e-07
-0.00373825 0.0413345 1.12895e-07
1.25246e-07 1.12895e-07 0.0363939

0.0310108 -0.00398125 -1.58101e-07
-0.00398125 0.0304181 5.21211e-08
-1.58101e-07 5.21211e-08 0.0304073

0.0288729 -0.00405444 -3.42118e-08
-0.00405444 0.0291009 -2.11274e-07
-3.42118e-08 -2.11274e-07 0.0275471

0.0329917 0.00272034 -1.54058e-07
0.00272034 0.0274825 -2.20363e-08
-1.54058e-07 -2.20363e-08 0.0290248

0.0327211 0.00195544 -1.51285e-07
0.00195544 0.0255498 -1.70721e-08
-1.51285e-07 -1.70721e-08 0.027775

0.0463042 0.000417097 6.13216e-07
0.000417097 0.0462603 4.82788e-07
6.13216e-07 4.82788e-07 0.0366251

0.0468218 -0.000948101 3.18574e-09
-0.000948101 0.0456747 1.73771e-07
3.18574e-09 1.73771e-07 0.0366961

0.0347361 0.000636747 1.52296e-08
0.000636747 0.0275271 -1.25287e-07
1.52296e-08 -1.25287e-07 0.0321587

0.0277053 0.000880318 6.16889e-08
0.000880318 0.0355052 -2.70197e-09
6.16889e-08 -2.70197e-09 0.0312926

0.0275614 0.00088068 -1.43127e-07
0.00088068 0.0355053 -8.55239e-09
-1.43127e-07 -8.55239e-09 0.031189

0.0234257 0.00738746 6.59398e-08
0.00738746 0.0182756 -3.19031e-07
6.59398e-08 -3.19031e-07 0.0108855

0.0272019 -0.00366703 -1.25166e-07
-0.00366703 0.0302947 1.81626e-08
-1.25166e-07 1.81626e-08 0.0272728

0.0364984 0.00238555 2.10652e-07
0.00238555 0.0295251 4.41752e-08
2.10652e-07 4.41752e-08 0.0337226

0.0332144 0.00124429 -8.90198e-08
0.00124429 0.0264605 -1.37035e-07
-8.90198e-08 -1.37035e-07 0.0283826

0.0291024 -0.00348435 1.26205e-07
-0.00348435 0.0304184 8.19578e-08
1.26205e-07 8.19578e-08 0.0281246

0.0327526 -0.00264146 -2.60344e-08
-0.00264146 0.0266839 -3.0731e-08
-2.60344e-08 -3.0731e-08 0.0285371

0.0224269 0.00760012 4.59244e-08
0.00760012 0.0185645 -1.17078e-07
4.59244e-08 -1.17078e-07 0.0108879

0.033085 0.00409205 3.69238e-08
0.00409205 0.0325796 -1.19643e-07
3.69238e-08 -1.19643e-07 0.0331211

0.0258481 -0.00257214 1.13043e-07
-0.00257214 0.0319673 7.01764e-08
1.13043e-07 7.01764e-08 0.0274602

0.0324243 0.00377672 8.46858e-10
0.00377672 0.0292177 -1.20019e-07
8.46858e-10 -1.20019e-07 0.0300936

0.0267717 -0.00054251 -1.86121e-07
-0.00054251 0.0348881 6.85442e-08
-1.86121e-07 6.85442e-08 0.0300847

0.0269452 0.00255746 -3.2319e-07
0.00255746 0.0323905 8.58508e-08
-3.2319e-07 8.58508e-08 0.0282375

0.030473 0.00398147 9.27039e-08
0.00398147 0.0292727 -1.11319e-07
9.27039e-08 -1.11319e-07 0.028725

0.0275628 -0.00293031 -7.24286e-08
-0.00293031 0.0317973 1.29397e-07
-7.24286e-08 1.29397e-07 0.0282002

0.0294053 -0.00356744 1.05215e-07
-0.00356744 0.0302984 3.30412e-08
1.05215e-07 3.30412e-08 0.028256

0.0181123 0.00142302 3.28795e-07
0.00142302 0.0279934 3.08179e-07
3.28795e-07 3.08179e-07 0.0131078

0.0234379 -0.00428563 -1.4168e-07
-0.00428563 0.0275122 1.51025e-08
-1.4168e-07 1.51025e-08 0.0176957

0.0261626 -0.00152244 -2.19447e-07
-0.00152244 0.0335633 -7.13181e-09
-2.19447e-07 -7.13181e-09 0.0287018

0.0329641 0.00346652 -1.20885e-08
0.00346652 0.0288284 1.75444e-07
-1.20885e-08 1.75444e-07 0.0300158

0.0302689 0.00384816 -5.83606e-08
0.00384816 0.0298348 5.9408e-08
-5.83606e-08 5.9408e-08 0.0289397

0.0273687 -0.00279409 -8.1416e-08
-0.00279409 0.0319271 5.60924e-08
-8.1416e-08 5.60924e-08 0.0280904

0.0265109 -0.0015371 1.14062e-07
-0.0015371 0.0335218 7.19132e-08
1.14062e-07 7.19132e-08 0.0286962

0.0309022 0.00370954 1.76894e-07
0.00370954 0.0295124 3.46805e-08
1.76894e-07 3.46805e-08 0.0288907

0.026715 -0.00181172 1.15067e-07
-0.00181172 0.0334141 6.44839e-08
1.15067e-07 6.44839e-08 0.0289037

0.0191384 0.00354716 -1.34302e-07
0.00354716 0.0275637 -1.84809e-07
-1.34302e-07 -1.84809e-07 0.016267

0.0308186 -0.000533434 -5.73768e-08
-0.000533434 0.038744 1.06141e-08
-5.73768e-08 1.06141e-08 0.0342309

0.0286075 0.00403836 -8.81458e-09
0.00403836 0.0294675 5.5375e-08
-8.81458e-09 5.5375e-08 0.0276668

0.0355143 0.0019703 -7.6759e-08
0.0019703 0.0294519 -1.54e-07
-7.6759e-08 -1.54e-07 0.0327828

0.0361908 -0.0021097 -7.80671e-08
-0.0021097 0.0297034 -2.0825e-08
-7.80671e-08 -2.0825e-08 0.0331571

0.0284648 -0.0030899 -1.51278e-08
-0.0030899 0.0185425 1.15373e-09
-1.51278e-08 1.15373e-09 0.0157057

0.0283053 -0.0027834 1.34995e-07
-0.0027834 0.032717 8.71681e-09
1.34995e-07 8.71681e-09 0.0305174

0.0291407 0.00349238 2.7507e-07
0.00349238 0.0315439 -1.49759e-07
2.7507e-07 -1.49759e-07 0.0304334

0.0348947 -0.00290033 2.1296e-07
-0.00290033 0.0376035 3.98071e-07
2.1296e-07 3.98071e-07 0.0351702

0.0393825 0.0018796 -5.09779e-08
0.0018796 0.0445167 -2.09995e-07
-5.09779e-08 -2.09995e-07 0.0363638

0.0448517 0.00128693 -6.80927e-08
0.00128693 0.0390397 2.0466e-08
-6.80927e-08 2.0466e-08 0.0363458

0.0354936 0.00433416 -5.35297e-09
0.00433416 0.0350692 -1.86474e-07
-5.35297e-09 -1.86474e-07 0.0349381

0.0265279 0.00338002 -2.02128e-07
0.00338002 0.0309522 -2.32202e-07
-2.02128e-07 -2.32202e-07 0.0272091

0.0329799 0.00348852 1.01283e-07
0.00348852 0.028618 -1.09598e-07
1.01283e-07 -1.09598e-07 0.0299969

0.0220265 0.00575319 -1.93309e-07
0.00575319 0.0241998 2.25316e-07
-1.93309e-07 2.25316e-07 0.0160475

0.0385428 -0.00150844 4.73829e-07
-0.00150844 0.0443417 2.01233e-08
4.73829e-07 2.01233e-08 0.0362932

0.0459525 -0.000463292 -1.09545e-07
-0.000463292 0.0453445 -1.87153e-07
-1.09545e-07 -1.87153e-07 0.0366213

0.045087 -3.15768e-05 -9.68098e-08
-3.15768e-05 0.0462054 2.09196e-07
-9.68098e-08 2.09196e-07 0.0366032

0.0176167 -0.00678363 -5.89782e-08
-0.00678363 0.023074 -3.18951e-07
-5.89782e-08 -3.18951e-07 0.0107226

0.0392157 -0.00155176 7.82297e-08
-0.00155176 0.0386389 2.42396e-08
7.82297e-08 2.42396e-08 0.035786

0.0383219 0.00117399 -1.14194e-07
0.00117399 0.0414352 2.95975e-08
-1.14194e-07 2.95975e-08 0.0360567

0.0331153 -0.00342718 -1.45591e-07
-0.00342718 0.0281715 1.36263e-07
-1.45591e-07 1.36263e-07 0.0298507

0.0317871 0.000139978 2.13369e-07
0.000139978 0.0385972 -1.69009e-08
2.13369e-07 -1.69009e-08 0.0343865

0.0285281 -0.00265368 1.30829e-07
-0.00265368 0.0333199 -2.70666e-08
1.30829e-07 -2.70666e-08 0.0315326

0.0355958 0.000829579 1.08207e-07
0.000829579 0.0273321 -5.55896e-08
1.08207e-07 -5.55896e-08 0.0329401

0.0288265 0.00203926 -2.83378e-09
0.00203926 0.0367471 3.06086e-08
-2.83378e-09 3.06086e-08 0.0336078

0.0298172 0.000943849 -1.01624e-07
0.000943849 0.0373172 1.14343e-07
-1.01624e-07 1.14343e-07 0.0333024

0.0343386 0.00267837 -1.00982e-07
0.00267837 0.0288022 -8.3968e-08
-1.00982e-07 -8.3968e-08 0.0311704

0.0132619 -0.000409135 -4.56561e-08
-0.000409135 0.0280803 1.59769e-07
-4.56561e-08 1.59769e-07 0.0111847

0.0309101 -0.00361748 -1.45909e-07
-0.00361748 0.0308611 3.56009e-08
-1.45909e-07 3.56009e-08 0.0305551

0.0328686 -0.0034348 7.22967e-09
-0.0034348 0.0319631 1.23567e-07
7.22967e-09 1.23567e-07 0.0325201

0.0335097 -0.00414889 -2.62672e-08
-0.00414889 0.0324764 -1.2172e-07
-2.62672e-08 -1.2172e-07 0.0336737

0.0265217 0.00414122 -1.91894e-07
0.00414122 0.0176668 -2.69991e-07
-1.91894e-07 -2.69991e-07 0.0125863

0.0387531 -0.00268948 -1.44443e-07
-0.00268948 0.039498 4.80901e-08
-1.44443e-07 4.80901e-08 0.0358906

0.0230494 0.00690969 -1.26604e-07
0.00690969 0.0254646 3.12751e-07
-1.26604e-07 3.12751e-07 0.0125906

0.0308202 -0.00281078 9.01594e-08
-0.00281078 0.0347435 -1.86939e-07
9.01594e-08 -1.86939e-07 0.0338938

0.0353465 0.00193161 9.44042e-08
0.00193161 0.0284173 -6.59988e-08
9.44042e-08 -6.59988e-08 0.0322861

0.0317655 -0.0018889 7.34133e-09
-0.0018889 0.0249107 1.33252e-08
7.34133e-09 1.33252e-08 0.0253528

0.0292419 0.00315146 1.32805e-07
0.00315146 0.0326727 2.67043e-07
1.32805e-07 2.67043e-07 0.0312238

0.0343737 0.00268237 -1.6775e-07
0.00268237 0.0285856 7.45097e-08
-1.6775e-07 7.45097e-08 0.031165

0.0324595 0.00149512 1.65531e-08
0.00149512 0.0402941 -5.26675e-08
1.65531e-08 -5.26675e-08 0.0352704

0.0318836 -0.00414438 -1.42199e-07
-0.00414438 0.0311461 3.35977e-08
-1.42199e-07 3.35977e-08 0.0317535

0.0395991 0.00264902 6.06526e-08
0.00264902 0.0331375 3.60261e-08
6.06526e-08 3.60261e-08 0.0352499

0.0279243 -0.00241283 3.13858e-08
-0.00241283 0.0334906 7.85894e-08
3.13858e-08 7.85894e-08 0.0304166

0.0293002 0.0005573 1.14798e-07
0.0005573 0.0372411 1.37241e-07
1.14798e-07 1.37241e-07 0.0331918

0.041859 0.00133434 -3.86897e-08
0.00133434 0.0370291 -5.31375e-08
-3.86897e-08 -5.31375e-08 0.036048

0.0420137 -0.00114507 1.83365e-07
-0.00114507 0.037255 5.47252e-08
1.83365e-07 5.47252e-08 0.0360299

0.0283376 0.00236468 -1.12844e-07
0.00236468 0.0181562 -2.82747e-07
-1.12844e-07 -2.82747e-07 0.0159253

0.0349614 0.00105868 1.14748e-07
0.00105868 0.0285174 -6.71918e-08
1.14748e-07 -6.71918e-08 0.0329988

0.0128503 0.000921454 -2.13138e-08
0.000921454 0.031585 -2.40071e-08
-2.13138e-08 -2.40071e-08 0.00611284

0.0131455 -0.00138582 -1.24504e-07
-0.00138582 0.0320901 -1.4416e-07
-1.24504e-07 -1.4416e-07 0.0061032

0.0152495 0.00714505 4.21324e-08
0.00714505 0.0284153 -3.94363e-08
4.21324e-08 -3.94363e-08 0.00597549

0.0347002 -0.00381202 -6.27808e-08
-0.00381202 0.0312127 9.17623e-08
-6.27808e-08 9.17623e-08 0.0328792

0.0155593 -0.00618388 -8.88359e-08
-0.00618388 0.0261151 -2.23865e-07
-8.88359e-08 -2.23865e-07 0.0104566

0.0154933 -0.00707768 -1.7711e-07
-0.00707768 0.027387 -1.64284e-07
-1.7711e-07 -1.64284e-07 0.00590539

0.0283779 0.00341759 1.75506e-07
0.00341759 0.0309524 -2.30958e-07
1.75506e-07 -2.30958e-07 0.0281042

0.0251598 0.00931373 1.53939e-07
0.00931373 0.0189967 3.83661e-09
1.53939e-07 3.83661e-09 0.00592528

0.0364683 0.00172742 -3.18146e-08
0.00172742 0.0384771 -8.81623e-08
-3.18146e-08 -8.81623e-08 0.0354087

0.0394584 2.56901e-05 -2.75282e-08
2.56901e-05 0.0354729 7.48267e-08
-2.75282e-08 7.48267e-08 0.0353894

0.0260725 -0.00923245 3.9651e-08
-0.00923245 0.0187887 1.50404e-07
3.9651e-08 1.50404e-07 0.00587948

0.0276435 -0.00305787 -2.66459e-08
-0.00305787 0.0320382 -3.59812e-08
-2.66459e-08 -3.59812e-08 0.029571

0.0262155 0.00441032 -2.05825e-07
0.00441032 0.0201291 -2.1682e-07
-2.05825e-07 -2.1682e-07 0.0130251

0.0172565 0.00796233 -6.3871e-09
0.00796233 0.0271139 -1.99439e-07
-6.3871e-09 -1.99439e-07 0.00597921

0.0181708 0.00275015 1.81793e-07
0.00275015 0.0275479 3.32667e-07
1.81793e-07 3.32667e-07 0.0128309

0.0172814 -0.00826512 -2.22793e-07
-0.00826512 0.0271175 6.54781e-08
-2.22793e-07 6.54781e-08 0.00580537

0.017908 -0.00156825 4.11338e-07
-0.00156825 0.0279627 -8.92678e-08
4.11338e-07 -8.92678e-08 0.0126715

0.0369792 0.000920177 4.50734e-07
0.000920177 0.0412186 7.03306e-08
4.50734e-07 7.03306e-08 0.0357427

0.0220978 -0.00584427 -1.09522e-07
-0.00584427 0.0236286 2.70694e-07
-1.09522e-07 2.70694e-07 0.0151358

0.0156784 0.00597601 2.10384e-07
0.00597601 0.0258646 2.65542e-07
2.10384e-07 2.65542e-07 0.0107344

0.0301692 0.00472323 -2.49356e-09
0.00472323 0.0143305 3.5544e-07
-2.49356e-09 3.5544e-07 0.00610698

0.0328789 -0.00383987 -9.48458e-09
-0.00383987 0.0300721 -6.87586e-08
-9.48458e-09 -6.87586e-08 0.0309959

0.030834 0.00168975 4.92424e-08
0.00168975 0.0367736 2.83697e-08
4.92424e-08 2.83697e-08 0.0338878

0.0260506 -0.00483529 -1.12211e-07
-0.00483529 0.0191702 -1.855e-07
-1.12211e-07 -1.855e-07 0.012676

0.032941 -0.00377655 1.24168e-08
-0.00377655 0.0300228 -1.68274e-08
1.24168e-08 -1.68274e-08 0.0310721

0.0299797 -0.00451324 -8.4775e-08
-0.00451324 0.0130366 -2.12897e-07
-8.4775e-08 -2.12897e-07 0.00602853

0.0324152 -0.00371839 -9.83046e-08
-0.00371839 0.0312519 9.80258e-08
-9.83046e-08 9.80258e-08 0.0319219

0.0280437 -0.0033032 9.96219e-08
-0.0033032 0.0319467 -9.66575e-08
9.96219e-08 -9.66575e-08 0.0295735

0.0234132 0.00873195 9.54695e-08
0.00873195 0.0204559 -2.93399e-07
9.54695e-08 -2.93399e-07 0.00601742

0.0181744 -0.00291554 -1.2327e-07
-0.00291554 0.0268257 -3.06036e-07
-1.2327e-07 -3.06036e-07 0.0122517

0.0232846 -0.00900723 -3.38402e-08
-0.00900723 0.0201256 2.47394e-07
-3.38402e-08 2.47394e-07 0.00587547

0.0170592 0.00639761 -4.2988e-08
0.00639761 0.0235312 -1.48916e-07
-4.2988e-08 -1.48916e-07 0.010815

0.0307722 -0.00395058 -1.75437e-07
-0.00395058 0.0301082 -5.39924e-08
-1.75437e-07 -5.39924e-08 0.0300325

0.0388425 -0.00195376 1.59207e-08
-0.00195376 0.0368703 2.22702e-08
1.59207e-08 2.22702e-08 0.035433

0.045447 0.00150252 1.45348e-07
0.00150252 0.0448595 -3.62599e-07
1.45348e-07 -3.62599e-07 0.0365496

0.043476 -0.000710491 2.58672e-08
-0.000710491 0.0461343 1.88423e-07
2.58672e-08 1.88423e-07 0.0365154

0.0285667 0.00171156 1.24497e-07
0.00171156 0.0355002 1.1858e-07
1.24497e-07 1.1858e-07 0.032331

0.0452428 -0.00144323 -3.36493e-07
-0.00144323 0.0448867 -2.86045e-08
-3.36493e-07 -2.86045e-08 0.0365673

0.0437189 0.000566277 4.14546e-07
0.000566277 0.0464089 -1.33013e-07
4.14546e-07 -1.33013e-07 0.0365484

0.0465828 0.000988516 4.29397e-07
0.000988516 0.0432895 7.64647e-08
4.29397e-07 7.64647e-08 0.0365236

0.0396721 -0.00163421 5.18832e-08
-0.00163421 0.0459796 -4.78654e-07
5.18832e-08 -4.78654e-07 0.0364137

0.0190268 -0.00387977 -3.88801e-07
-0.00387977 0.0271879 2.38049e-07
-3.88801e-07 2.38049e-07 0.0154475

0.0420561 -0.00174566 6.32871e-08
-0.00174566 0.0366556 1.27266e-08
6.32871e-08 1.27266e-08 0.0359369

0.0358968 -0.00456181 3.4658e-07
-0.00456181 0.0350848 -1.30332e-07
3.4658e-07 -1.30332e-07 0.034903

0.0396753 -0.00241597 -2.73632e-07
-0.00241597 0.0359957 -3.05691e-07
-2.73632e-07 -3.05691e-07 0.0355005

0.0351195 0.00203854 -2.64501e-08
0.00203854 0.0285004 8.36041e-08
-2.64501e-08 8.36041e-08 0.0321737

0.0396143 0.00133421 -1.93406e-07
0.00133421 0.0471277 -2.13791e-07
-1.93406e-07 -2.13791e-07 0.0364793

0.0464002 0.00258668 3.7744e-07
0.00258668 0.0403377 -2.23325e-07
3.7744e-07 -2.23325e-07 0.0364606

0.0400088 0.00150183 -1.70125e-07
0.00150183 0.0366039 -1.21365e-07
-1.70125e-07 -1.21365e-07 0.0355484

0.027873 -0.00191606 1.16489e-07
-0.00191606 0.0125083 -2.35291e-07
1.16489e-07 -2.35291e-07 0.0106088

0.028271 0.00325993 1.87152e-07
0.00325993 0.0314944 -1.83563e-07
1.87152e-07 -1.83563e-07 0.0293593

0.0231552 -0.00772326 3.86471e-07
-0.00772326 0.0181541 -8.78888e-08
3.86471e-07 -8.78888e-08 0.0102743

0.022798 -0.00730435 3.64614e-07
-0.00730435 0.0257311 -1.6853e-07
3.64614e-07 -1.6853e-07 0.0119367

0.0289797 -0.00463943 3.4666e-08
-0.00463943 0.0191012 -8.10405e-09
3.4666e-08 -8.10405e-09 0.0125962

0.037502 -0.000658783 1.293e-07
-0.000658783 0.0448194 -9.42478e-08
1.293e-07 -9.42478e-08 0.0362251

0.0374998 0.000357268 -2.04733e-07
0.000357268 0.0446972 -4.19446e-07
-2.04733e-07 -4.19446e-07 0.0362054

0.0425198 -0.00326583 -9.65408e-08
-0.00326583 0.0393731 -1.71431e-07
-9.65408e-08 -1.71431e-07 0.0361594

0.0429125 -0.00293684 2.81951e-07
-0.00293684 0.039092 -7.92565e-08
2.81951e-07 -7.92565e-08 0.0361664

0.0424162 0.00349496 2.84229e-07
0.00349496 0.0398939 1.89658e-07
2.84229e-07 1.89658e-07 0.0362041

0.0443071 0.000415674 -2.0891e-07
0.000415674 0.0449891 -7.87527e-07
-2.0891e-07 -7.87527e-07 0.0365665

0.0425234 -0.00273749 1.97979e-07
-0.00273749 0.0394299 -1.05118e-07
1.97979e-07 -1.05118e-07 0.0362208

0.0425177 -0.00250445 1.07903e-07
-0.00250445 0.0441775 2.00388e-07
1.07903e-07 2.00388e-07 0.0364942

0.0450257 0.000330826 1.17902e-07
0.000330826 0.0453737 -2.46797e-07
1.17902e-07 -2.46797e-07 0.0365847

0.0435484 -0.0027759 2.15436e-07
-0.0027759 0.0388407 -4.32346e-08
2.15436e-07 -4.32346e-08 0.0362613

0.0434252 0.00283112 2.4663e-07
0.00283112 0.0389931 1.72945e-07
2.4663e-07 1.72945e-07 0.0362993

0.0451022 -0.000469816 4.19512e-07
-0.000469816 0.0454881 -1.60449e-07
4.19512e-07 -1.60449e-07 0.0366332

0.0451344 -0.000424154 5.19303e-07
-0.000424154 0.0442699 -6.04719e-07
5.19303e-07 -6.04719e-07 0.0366515

0.0427117 0.00163526 7.35278e-08
0.00163526 0.0441593 1.40952e-07
7.35278e-08 1.40952e-07 0.0365379

0.0410352 0.00360872 -4.35952e-08
0.00360872 0.0404362 5.07658e-08
-4.35952e-08 5.07658e-08 0.0362533

SCALARS pressure float
LOOKUP_TABLE default
-59.8771
19.2649
5.79452
21.2421
15.8416
5.87838
-58.5024
7.76825
-3.79004
15.0913
-24.3213
7.60278
5.58238
12.2532
23.2835
5.52948
18.4798
13.18
-0.682829
6.74643
-0.897611
33.0499
5.7932
5.78882
6.59212
14.8716
-38.2635
6.66142
-15.1883
30.5512
5.16754
-15.6023
-41.9264
27.2611
20.7281
27.294
31.8066
19.7604
4.85177
-42.4684
-17.3488
31.8273
31.9153
5.98279
-21.722
-15.9216
-1.04253
-3.39234
6.53481
-16.1576
-18.8552
-15.2975
20.7071
-15.3248
20.2614
-33.0481
21.0777
-15.4119
21.0875
7.03399
21.716
16.0814
-45.4376
12.7607
16.3241
10.8825
21.5257
13.7993
5.76571
21.7679
20.763
20.7337
-17.6319
11.576
3.96845
-31.4955
14.3236
10.9734
14.1168
-8.68625
-28.8588
14.9416
20.1175
-21.9628
-23.3606
-27.9977
7.08637
9.61246
-22.1324
37.6479
-15.4605
38.3489
18.2624
10.7399
-15.1191
-15.8152
-30.1337
14.7209
14.3326
4.59137
-10.7327
-21.8756
-25.0204
16.1779
14.0709
14.9286
18.6562
3.76959
-24.4786
26.4523
7.20633
-21.3288
-24.5291
14.8066
15.0448
-16.0961
20.1151
-29.027
20.5777
-16.6788
-2.88916
23.7785
21.6781
15.9971
26.6184
22.58
21.7327
15.6737
-29.6936
-16.0497
24.036
21.5688
20.9416
22.0159
-21.9499
23.5293
-33.739
5.45427
21.7047
23.5725
-21.8734
6.66379
-5.94514
15.0515
-30.3188
15.5902
7.81928
2.40684
5.16978
-9.36246
-0.450526
22.5904
-15.3999
5.28173
15.1718
21.5121
11.4834
-21.0525
-21.2027
10.7687
-2.83094
-15.144
-21.1401
-15.1097
-20.9255
15.2459
-20.5758
-21.1404
-15.154
-21.0029
18.9606
-15.8917
-14.7694
12.038
-14.4384
18.7613
19.0096
7.45942
18.0054
11.7491
-16.1934
15.2543
14.9279
-21.4661
10.4047
-14.1671
16.0128
14.5635
17.0425
14.8024
10.3222
-26.8948
-16.0326
-15.9027
21.8576
14.4955
14.594
20.8751
22.4362
9.48327
21.6848
-0.376049
-8.13881
20.7316
-17.7799
19.9002
10.3429
-21.4541
15.6865
22.4752
14.6978
9.37484
14.1602
21.0076
-7.80412
8.81003
-7.87778
14.6161
26.8658
26.5203
27.8963
26.3279
26.6629
26.2305
13.7967
23.3757
23.9736
23.9179
23.3455
21.1434
21.8065
-8.23308
15.8991
28.1264
-3.17624
23.5212
23.1512
27.7705
-8.461
28.032
15.3106
-7.5539
17.4534
-8.22854
20.1812
29.5448
-7.45847
-8.06971
-29.5051
-18.1237
19.4828
-31.8931
5.72396
-7.76339
-1.17873
28.1844
26.5791
30.3526
26.6995
-34.7029
-8.14809
28.2724
8.05798
-8.26294
26.3853
-6.27342
30.3974
-7.92323
26.9849
14.5336
14.7559
23.7896
10.0267
17.979
8.10128
-29.7665
-24.4662
16.7681
1.76035
8.16436
-13.5683
17.3971
11.6742
-8.07025
9.43303
-10.7902
7.50321
-10.7217
-8.45228
33.1822
19.1074
25.0303
25.2541
13.7997
-10.3726
26.3671
14.6522
-1.64963
-10.2422
-12.5266
17.4661
-7.45777
17.5342
-12.0053
-21.2675
-10.5756
-34.5837
15.5286
-7.7349
34.3576
-11.543
16.8345
-8.37887
15.9371
-12.7206
4.28249
-50.9828
8.50663
-7.71861
21.2849
-8.12276
-0.116341
10.6921
21.0766
-12.0245
-10.1691
-6.04683
14.2866
-10.1484
6.87493
6.37558
16.2673
-10.3876
-6.30832
-1.69333
-5.64022
-11.0447
-5.82416
15.2719
7.79308
-5.53574
-8.92941
7.79021
7.67924
-10.6417
16.2712
-27.0961
2.29215
-28.3961
-0.950299
-8.73155
-7.95103
-11.628
-10.7929
-9.73316
-7.63016
-7.75339
16.6011
24.7196
12.0916
-0.28471
-0.815405
-5.65432
7.29141
-6.2987
-6.29591
24.8649
-5.7096
14.086
-15.8593
24.2685
5.95921
-0.384157
-5.62352
16.2374
2.4756
0.204593
2.44666
0.460945
-0.731067
-9.89408
-0.0890234
2.11281
15.0345
-1.27779
-1.39558
-0.989187
-0.381497
1.96521
8.03559
-1.18339
8.06298
5.57504
-0.428366
7.02248
5.48223
-3.86021
16.4398
-1.89401
23.0078
-21.8898
15.0109
15.6479
2.03943
-1.98827
12.5162
-26.3909
5.78374
-1.64902
-50.3489
30.4229
30.5594
5.81619
-1.13395
-1.03961
-0.840308
33.3329
33.2078
13.0667
6.07088
6.65074
-28.8427
-1.26823
16.496
-3.17035
-4.33294
-0.0107675
-25.1556
14.2727
-1.26941
2.85949
2.69125
-2.71144
-0.0434357
-3.19667
-4.01914
-37.8608
-33.588
-0.121902
1.87436
-0.527846
-3.73016
-1.92712
-1.86863
-0.917194
-21.8242
17.2107
-0.759798
12.5384
14.1531
-26.67
6.27545
7.12459
18.4347
36.3392
36.3716
22.587
-1.74362
2.59825
-20.8455
36.0389
32.6761
32.7429
-24.6926
21.7224
30.4501
2.59788
15.6878
10.3503
17.1262
17.6866
12.4785
5.67175
-25.2839
4.25354
10.3873
16.2072
-31.5946
28.2423
-52.5712
18.6425
10.2771
-10.5938
7.40277
5.44757
24.4179
9.39221
24.3511
4.09901
12.3727
30.5675
29.3958
-22.9039
17.3972
-70.0364
-74.1781
-66.9828
11.6234
-31.1351
-63.42
-3.78934
-69.7411
16.4234
16.3672
-73.5523
5.20563
-39.6049
-70.5414
-37.6325
-71.6752
-39.3247
21.0851
-23.8675
-28.9235
-70.4258
4.82346
15.7223
-36.0674
6.04323
-63.4293
9.81618
3.87791
-67.7071
-37.4976
-66.2175
-23.6414
5.02243
20.4769
35.2823
36.6353
11.7877
36.7583
36.8115
36.4011
36.3158
-24.3883
28.1813
20.6217
21.9284
11.5111
35.9724
36.0038
18.0761
-23.8244
3.24426
-30.4014
-56.4492
-50.3372
36.0566
35.7381
35.2958
35.3659
36.0725
35.51
33.0301
37.2798
35.3113
35.9196
35.5528
34.1106
34.247
35.7685
35.2254
