# vtk DataFile Version 3.0
vtk output at time 86400
ASCII
DATASET UNSTRUCTURED_GRID
POINTS 626 float
-4.21048e-05 0.0010896 6.06214e-05 4.20546e-05 0.00108963 6.07007e-05 -0.000922662 0.000581248 6.06824e-05 
-0.000916399 0.000557043 6.06183e-05 -0.000964732 0.000508342 6.06497e-05 -0.000964697 -0.000508483 6.0696e-05 
-0.000916314 -0.000557164 6.07128e-05 -0.000922621 -0.00058133 6.08229e-05 -4.19242e-05 -0.00108961 6.06142e-05 
4.21504e-05 -0.0010896 6.07012e-05 0.000922593 -0.000581211 6.06003e-05 0.00096473 -0.00050827 6.0601e-05 
0.000964617 0.000508417 6.06832e-05 0.000922507 0.000581286 6.06029e-05 8.5e-05 0 0 
-4.21048e-05 0.0010896 -0.00106062 4.20546e-05 0.00108963 -0.0010607 -0.000922662 0.000581248 -0.00106068 
-0.000916399 0.000557043 -0.00106062 -0.000964732 0.000508342 -0.00106065 -0.000964697 -0.000508483 -0.0010607 
-0.000916314 -0.000557164 -0.00106071 -0.000922621 -0.00058133 -0.00106082 -4.19242e-05 -0.00108961 -0.00106061 
4.21504e-05 -0.0010896 -0.0010607 0.000922593 -0.000581211 -0.0010606 0.00096473 -0.00050827 -0.0010606 
0.000964617 0.000508417 -0.00106068 0.000922507 0.000581286 -0.0010606 8.5e-05 0 -0.001 
2.60889e-08 0.00106571 6.05836e-05 -0.000794225 0.000653357 5.96688e-05 -0.000667552 0.0007243 5.84203e-05 
-0.000542211 0.000795412 5.76814e-05 -0.000417709 0.000867285 5.76697e-05 -0.000293434 0.000940254 5.83825e-05 
-0.000168608 0.00101443 5.96426e-05 -0.000930675 0.000522811 6.05861e-05 -0.00096291 -0.000361285 5.97225e-05 
-0.000961048 -0.000216045 5.84312e-05 -0.000959972 -7.19448e-05 5.77152e-05 -0.000959983 7.18453e-05 5.77225e-05 
-0.000961044 0.000215974 5.84291e-05 -0.000962899 0.000361183 5.96969e-05 -0.000930626 -0.000522951 6.06374e-05 
-0.000168504 -0.00101446 5.96273e-05 -0.000293295 -0.000940285 5.83816e-05 -0.000417595 -0.000867345 5.7686e-05 
-0.000542102 -0.000795503 5.7692e-05 -0.000667483 -0.000724402 5.84533e-05 -0.00079418 -0.000653466 5.96899e-05 
2.06164e-07 -0.00106568 6.05728e-05 0.000794199 -0.000653186 5.95919e-05 0.000667582 -0.000724156 5.83249e-05 
0.00054227 -0.000795319 5.75935e-05 0.000417759 -0.000867147 5.76658e-05 0.000293562 -0.000940145 5.83266e-05 
0.000168791 -0.00101443 5.96355e-05 0.000922945 -0.000532796 6.05741e-05 0.000962806 0.000361137 5.95699e-05 
0.000960892 0.000216071 5.83984e-05 0.000959881 7.1923e-05 5.76183e-05 0.000959879 -7.18235e-05 5.76157e-05 
0.000960955 -0.00021592 5.83573e-05 0.000962798 -0.000361045 5.95902e-05 0.000922885 0.000532853 6.05654e-05 
0.000168695 0.00101442 5.95865e-05 0.000293374 0.000940217 5.84034e-05 0.000417696 0.000867256 5.76296e-05 
0.000542175 0.000795372 5.76205e-05 0.000667501 0.000724251 5.83492e-05 0.00079415 0.000653247 5.9618e-05 
5.29966e-05 6.64557e-05 0 -1.89143e-05 8.28689e-05 0 -7.65824e-05 3.68801e-05 0 
-7.65824e-05 -3.68801e-05 0 -1.89143e-05 -8.28689e-05 0 5.29966e-05 -6.64557e-05 0 
2.60889e-08 0.00106571 -0.00106058 -0.000794225 0.000653357 -0.00105967 -0.000667552 0.0007243 -0.00105842 
-0.000542211 0.000795412 -0.00105768 -0.000417709 0.000867285 -0.00105767 -0.000293434 0.000940254 -0.00105838 
-0.000168608 0.00101443 -0.00105964 -0.000930675 0.000522811 -0.00106059 -0.00096291 -0.000361285 -0.00105972 
-0.000961048 -0.000216045 -0.00105843 -0.000959972 -7.19448e-05 -0.00105772 -0.000959983 7.18453e-05 -0.00105772 
-0.000961044 0.000215974 -0.00105843 -0.000962899 0.000361183 -0.0010597 -0.000930626 -0.000522951 -0.00106064 
-0.000168504 -0.00101446 -0.00105963 -0.000293295 -0.000940285 -0.00105838 -0.000417595 -0.000867345 -0.00105769 
-0.000542102 -0.000795503 -0.00105769 -0.000667483 -0.000724402 -0.00105845 -0.00079418 -0.000653466 -0.00105969 
2.06164e-07 -0.00106568 -0.00106057 0.000794199 -0.000653186 -0.00105959 0.000667582 -0.000724156 -0.00105832 
0.00054227 -0.000795319 -0.00105759 0.000417759 -0.000867147 -0.00105767 0.000293562 -0.000940145 -0.00105833 
0.000168791 -0.00101443 -0.00105964 0.000922945 -0.000532796 -0.00106057 0.000962806 0.000361137 -0.00105957 
0.000960892 0.000216071 -0.0010584 0.000959881 7.1923e-05 -0.00105762 0.000959879 -7.18235e-05 -0.00105762 
0.000960955 -0.00021592 -0.00105836 0.000962798 -0.000361045 -0.00105959 0.000922885 0.000532853 -0.00106057 
0.000168695 0.00101442 -0.00105959 0.000293374 0.000940217 -0.0010584 0.000417696 0.000867256 -0.00105763 
0.000542175 0.000795372 -0.00105762 0.000667501 0.000724251 -0.00105835 0.00079415 0.000653247 -0.00105962 
5.29966e-05 6.64557e-05 -0.001 -1.89143e-05 8.28689e-05 -0.001 -7.65824e-05 3.68801e-05 -0.001 
-7.65824e-05 -3.68801e-05 -0.001 -1.89143e-05 -8.28689e-05 -0.001 5.29966e-05 -6.64557e-05 -0.001 
0.000139889 6.8027e-05 1.99429e-05 0.000138053 -6.64738e-05 1.95617e-05 3.34673e-05 0.00014841 1.97857e-05 
3.3347e-05 -0.000145638 1.91882e-05 -0.000149466 8.79163e-08 1.94612e-05 -9.45497e-05 -0.0001091 1.83131e-05 
-9.60664e-05 0.000109269 1.8518e-05 -0.000849273 -0.000287313 5.85811e-05 -0.000839316 0.000290722 5.85196e-05 
-0.000173659 0.000872886 5.84558e-05 -0.000173311 -0.000879701 5.8509e-05 0.000670327 0.000585855 5.84407e-05 
0.000674456 -0.000582403 5.84588e-05 0.000823678 0.000129171 5.72179e-05 -0.000547218 0.000660506 5.75316e-05 
-0.000535388 -0.00064757 5.73935e-05 0.000298579 0.000777216 5.72304e-05 0.000291837 -0.00079404 5.73768e-05 
0.000835354 -0.000141127 5.73761e-05 -0.000828775 6.06867e-07 5.70618e-05 -0.000830228 0.000414652 5.94734e-05 
-0.000724632 0.000359684 5.78202e-05 -0.00071362 0.000232282 5.66037e-05 -0.000608634 0.000302875 5.54045e-05 
-0.000594494 0.000180024 5.39365e-05 -0.000496402 0.000247249 5.21812e-05 -0.000482177 0.000136266 5.03769e-05 
-0.000388633 0.000199371 4.77654e-05 -0.000400347 0.000310395 5.05857e-05 -0.000296255 0.000262394 4.57263e-05 
-0.000306836 0.000371128 4.96153e-05 -0.000206858 0.000322812 4.50278e-05 -0.000215937 0.000432266 4.96561e-05 
-0.000114802 0.000381614 4.58315e-05 -0.000124673 0.000493946 5.06458e-05 -2.20706e-05 0.000442622 4.80527e-05 
-3.18618e-05 0.000558655 5.23041e-05 7.64818e-05 0.00050787 5.07972e-05 -0.000235502 0.000540326 5.30332e-05 
8.04064e-05 0.00039202 4.59059e-05 0.000179552 0.000454006 4.98065e-05 0.000178902 0.000342803 4.51043e-05 
0.000272684 0.000402734 4.97061e-05 0.000274963 0.000291238 4.58664e-05 0.000369322 0.000354542 5.06907e-05 
0.000373839 0.000239484 4.80551e-05 0.000470742 0.00030487 5.23202e-05 0.000474725 0.000190462 5.07118e-05 
0.000362367 0.00046919 5.3092e-05 0.000378992 0.000125845 4.58603e-05 0.000478556 7.75555e-05 4.96978e-05 
0.000384265 1.69529e-05 4.50667e-05 0.000485379 -3.42609e-05 4.97536e-05 0.000387414 -9.28656e-05 4.5809e-05 
0.000490416 -0.000146266 5.06709e-05 0.000390936 -0.000204535 4.78882e-05 0.000494749 -0.000258492 5.22239e-05 
0.000396019 -0.000316632 5.05197e-05 0.000294249 -0.000263518 4.55941e-05 0.000298869 -0.000374787 4.94587e-05 
0.000199059 -0.000320794 4.46152e-05 0.000203713 -0.000431696 4.938e-05 0.000106937 -0.000377721 4.54606e-05 
0.000109893 -0.000489268 5.03226e-05 9.6562e-06 -0.000434937 4.76299e-05 1.33789e-05 -0.000551253 5.20352e-05 
-8.61566e-05 -0.00049478 5.03857e-05 -8.92018e-05 -0.000380392 4.54168e-05 -0.000188518 -0.000443789 4.96375e-05 
-0.000185953 -0.000327214 4.46308e-05 -0.000285616 -0.000389274 4.96736e-05 -0.000282315 -0.000272958 4.55466e-05 
-0.000377385 -0.00032987 5.03909e-05 -0.000378102 -0.000218567 4.77834e-05 -0.00047838 -0.000275457 5.21201e-05 
-0.000187129 -0.000557576 5.30179e-05 -0.000478751 -0.000160898 5.05521e-05 0.000308941 -0.000487477 5.26486e-05 
-0.000373346 9.59949e-05 4.5135e-05 -0.000567678 4.47223e-05 5.24914e-05 7.17812e-05 0.000627076 5.42144e-05 
0.000587202 1.92959e-05 5.2932e-05 0.000576088 0.000253635 5.41731e-05 -0.000409758 0.000431802 5.32488e-05 
-0.000278594 -0.00016421 4.10465e-05 -0.000488645 -0.000387002 5.40687e-05 0.000496542 -0.000366839 5.38328e-05 
0.00060224 -0.000305166 5.52239e-05 -0.000582333 -0.000218062 5.40027e-05 0.000116233 -0.000607851 5.38634e-05 
1.61882e-05 -0.000672855 5.52098e-05 0.000186799 0.000233646 3.90697e-05 0.000569534 0.000377553 5.54217e-05 
0.000703984 0.000321298 5.7153e-05 -0.000618156 0.000447621 5.70096e-05 -4.43473e-05 0.000681347 5.54279e-05 
7.31464e-05 0.00077074 5.71732e-05 -0.00011093 0.000277383 3.9131e-05 0.000295403 -4.23253e-05 3.91628e-05 
0.000195251 -0.000201593 3.73729e-05 -9.57569e-05 -0.000276966 3.86328e-05 -0.000831806 -0.000414259 5.95123e-05 
-0.000726541 -0.000358175 5.78699e-05 0.000787667 0.000518482 5.95716e-05 0.000775022 -0.000525434 5.94372e-05 
-5.87007e-05 -0.000942358 5.95829e-05 -5.51414e-05 0.000941424 5.95919e-05 0.000683904 -0.000457955 5.79428e-05 
0.000778645 -0.00040989 5.88056e-05 0.000145659 -0.000751349 5.68244e-05 2.76271e-05 -0.000792654 5.75232e-05 
-0.000736405 -0.000474081 5.88609e-05 -0.000582969 -9.711e-05 5.31104e-05 -0.000675107 -0.000150983 5.54043e-05 
-0.000469193 -4.90295e-05 4.92859e-05 0.000889708 0.000419389 5.98561e-05 0.000913283 -0.000460671 6.02345e-05 
8.16921e-05 0.000980256 5.98742e-05 7.66345e-05 -0.000971754 5.98156e-05 0.000116932 -0.000874661 5.8639e-05 
-8.18905e-05 -0.000729953 5.64118e-05 0.000140479 0.000898223 5.88381e-05 0.000847984 0.000327336 5.88157e-05 
0.000184494 0.000697041 5.59484e-05 0.000571349 -0.000516826 5.68171e-05 -0.000623537 -0.000431218 5.69681e-05 
-0.000687612 -1.55119e-05 5.51991e-05 0.000696259 0.000189565 5.59467e-05 2.8304e-06 -0.00032727 4.13445e-05 
9.45725e-05 -0.000264667 3.74027e-05 0.000297135 -0.000149578 4.17058e-05 -0.000832194 0.000152769 5.7493e-05 
0.00023141 -0.000662368 5.54795e-05 0.000359472 -0.00069679 5.65399e-05 0.000680083 0.000456983 5.79124e-05 
0.000549513 -0.000634933 5.73753e-05 0.000436233 -0.000560478 5.55868e-05 -0.000189218 -0.000225147 3.88101e-05 
0.000288523 6.1368e-05 3.88312e-05 0.000270561 0.000166744 4.06558e-05 -5.20931e-05 -0.00102303 6.02873e-05 
0.000100116 0.000281757 3.90812e-05 -6.04064e-06 0.000316965 4.06205e-05 -0.000200729 0.000219511 3.90695e-05 
-0.000287734 0.000155313 4.13932e-05 -0.000279113 5.59201e-05 3.77938e-05 -0.000368685 -2.30467e-06 4.41883e-05 
-0.000247964 -4.60241e-05 3.49944e-05 -0.000190103 0.000115209 3.1206e-05 -0.000852841 -0.00014732 5.76066e-05 
0.000852908 -0.000556693 6.02113e-05 -5.61595e-05 0.000817446 5.79321e-05 0.00083497 -3.83996e-06 5.7019e-05 
0.000714791 -6.79048e-05 5.56546e-05 0.000696977 -0.000200342 5.60491e-05 0.000830647 -0.000293782 5.84103e-05 
-0.00084531 -0.000514236 6.02025e-05 0.000704999 6.7319e-05 5.54918e-05 -5.0361e-05 0.00102619 6.03198e-05 
-2.5722e-05 0.000224043 3.16471e-05 0.00086346 0.000556725 6.03002e-05 -0.000671146 0.000585379 5.85296e-05 
-0.000418172 -0.000723581 5.70792e-05 -0.000411286 -0.000581249 5.5627e-05 -0.000304739 -0.000651554 5.57404e-05 
-0.000281705 -0.000786596 5.73656e-05 -0.000419825 0.000726319 5.71018e-05 -0.000419678 0.000582532 5.57351e-05 
-0.000295798 0.000798844 5.74633e-05 -0.000166652 0.000739055 5.66402e-05 0.0004227 0.000720255 5.70176e-05 
0.000545703 0.000654022 5.74362e-05 0.000558981 0.000513034 5.66369e-05 -0.000297402 0.000659264 5.57726e-05 
0.00042631 0.000587981 5.57891e-05 0.000313389 0.000651839 5.57183e-05 -0.000190632 -0.000117194 3.12332e-05 
-0.000307336 -0.000524254 5.34875e-05 0.000199467 2.51529e-06 2.83384e-05 0.000205935 0.000570728 5.34652e-05 
0.000595439 -9.57258e-05 5.33592e-05 -0.000665467 -0.000571206 5.84733e-05 -0.000703899 9.91531e-05 5.56821e-05 
-0.000507276 0.000370476 5.41897e-05 -0.00037113 -0.000110358 4.53604e-05 -0.000505292 0.000478157 5.55286e-05 
-9.38348e-06 -0.000227361 3.18918e-05 0.000168583 0.000139912 3.07245e-05 -8.49495e-05 -0.000612341 5.38808e-05 
0.000397857 -0.000429513 5.29144e-05 0.00058617 0.000132972 5.33421e-05 -0.000314537 0.000479924 5.26093e-05 
0.000212456 -0.000545093 5.28709e-05 0.000459481 0.000434412 5.41531e-05 -0.000150006 0.000611979 5.41249e-05 
-0.000188528 -0.000674079 5.55586e-05 -0.00073882 0.000482603 5.88964e-05 -0.000843046 0.000532936 6.0225e-05 
-0.000519686 -0.000507424 5.61318e-05 0.000220422 -9.31514e-05 3.31768e-05 0.000109949 0.000183567 3.0091e-05 
-0.00039149 -0.000449035 5.32527e-05 0.000108126 -0.000178859 2.94976e-05 3.30813e-05 0.000904564 5.91865e-05 
0.00079989 0.000423434 5.91667e-05 -0.000596347 -0.000322644 5.54017e-05 0.000575872 -0.000201178 5.36133e-05 
-7.115e-05 -0.000835357 5.81775e-05 0.000706303 -0.000331778 5.72315e-05 -0.000668992 -0.000254456 5.60511e-05 
-3.62667e-05 -0.000154816 2.09409e-05 -0.000112324 0.000186147 3.04211e-05 -0.000899175 -0.000475186 6.03745e-05 
-0.000897869 -0.000517383 6.05237e-05 -0.000898757 0.000477376 6.03452e-05 -0.000897224 0.000522541 6.04896e-05 
-0.000102632 -0.000193233 3.05452e-05 0.00027292 0.00049024 5.2155e-05 1.66661e-05 -0.000903273 5.91736e-05 
-4.36806e-05 0.000149694 2.02953e-05 0.00030487 -0.000592606 5.46941e-05 0.000851006 -0.00048494 6.00065e-05 
0.000867321 -0.000402052 5.95479e-05 0.000469517 -0.000710738 5.71547e-05 0.000590525 -0.000406836 5.60799e-05 
-0.000457302 4.58779e-05 4.87284e-05 -0.000142308 -6.63146e-05 2.0641e-05 4.60662e-05 0.000223194 3.19206e-05 
0.000152014 -0.000130835 2.79897e-05 0.000783344 0.000234635 5.74752e-05 0.000191122 0.00080151 5.75614e-05 
8.81881e-06 -0.00100314 6.02434e-05 -0.000142794 6.01349e-05 2.0133e-05 -0.000203641 3.99748e-05 2.90347e-05 
0.00021336 8.76656e-05 3.21557e-05 1.439e-05 0.0010199 6.03814e-05 0.000890391 0.000497503 6.03632e-05 
-0.000761828 0.000563583 5.94273e-05 9.92685e-05 0.000117083 1.95041e-05 -0.000773048 -0.000566612 5.96226e-05 
-0.000756955 -9.41581e-05 5.64256e-05 -0.000764949 -0.000222566 5.72239e-05 5.65664e-05 -0.000204029 2.97349e-05 
-0.000168171 -0.000775978 5.71995e-05 -0.000327855 0.000571887 5.45668e-05 9.87177e-05 -0.000114463 1.89838e-05 
0.000488816 -0.000460189 5.49876e-05 0.000219224 -0.000869241 5.82247e-05 -0.000571942 0.000558673 5.72029e-05 
0.000329931 0.000554374 5.42237e-05 0.000139889 6.8027e-05 -0.00101994 0.000138053 -6.64738e-05 -0.00101956 
3.34673e-05 0.00014841 -0.00101979 3.3347e-05 -0.000145638 -0.00101919 -0.000149466 8.79163e-08 -0.00101946 
-9.45497e-05 -0.0001091 -0.00101831 -9.60664e-05 0.000109269 -0.00101852 -0.000849273 -0.000287313 -0.00105858 
-0.000839316 0.000290722 -0.00105852 -0.000173659 0.000872886 -0.00105846 -0.000173311 -0.000879701 -0.00105851 
0.000670327 0.000585855 -0.00105844 0.000674456 -0.000582403 -0.00105846 0.000823678 0.000129171 -0.00105722 
-0.000547218 0.000660506 -0.00105753 -0.000535388 -0.00064757 -0.00105739 0.000298579 0.000777216 -0.00105723 
0.000291837 -0.00079404 -0.00105738 0.000835354 -0.000141127 -0.00105738 -0.000828775 6.06867e-07 -0.00105706 
-0.000830228 0.000414652 -0.00105947 -0.000724632 0.000359684 -0.00105782 -0.00071362 0.000232282 -0.0010566 
-0.000608634 0.000302875 -0.0010554 -0.000594494 0.000180024 -0.00105394 -0.000496402 0.000247249 -0.00105218 
-0.000482177 0.000136266 -0.00105038 -0.000388633 0.000199371 -0.00104777 -0.000400347 0.000310395 -0.00105059 
-0.000296255 0.000262394 -0.00104573 -0.000306836 0.000371128 -0.00104962 -0.000206858 0.000322812 -0.00104503 
-0.000215937 0.000432266 -0.00104966 -0.000114802 0.000381614 -0.00104583 -0.000124673 0.000493946 -0.00105065 
-2.20706e-05 0.000442622 -0.00104805 -3.18618e-05 0.000558655 -0.0010523 7.64818e-05 0.00050787 -0.0010508 
-0.000235502 0.000540326 -0.00105303 8.04064e-05 0.00039202 -0.00104591 0.000179552 0.000454006 -0.00104981 
0.000178902 0.000342803 -0.0010451 0.000272684 0.000402734 -0.00104971 0.000274963 0.000291238 -0.00104587 
0.000369322 0.000354542 -0.00105069 0.000373839 0.000239484 -0.00104806 0.000470742 0.00030487 -0.00105232 
0.000474725 0.000190462 -0.00105071 0.000362367 0.00046919 -0.00105309 0.000378992 0.000125845 -0.00104586 
0.000478556 7.75555e-05 -0.0010497 0.000384265 1.69529e-05 -0.00104507 0.000485379 -3.42609e-05 -0.00104975 
0.000387414 -9.28656e-05 -0.00104581 0.000490416 -0.000146266 -0.00105067 0.000390936 -0.000204535 -0.00104789 
0.000494749 -0.000258492 -0.00105222 0.000396019 -0.000316632 -0.00105052 0.000294249 -0.000263518 -0.00104559 
0.000298869 -0.000374787 -0.00104946 0.000199059 -0.000320794 -0.00104462 0.000203713 -0.000431696 -0.00104938 
0.000106937 -0.000377721 -0.00104546 0.000109893 -0.000489268 -0.00105032 9.6562e-06 -0.000434937 -0.00104763 
1.33789e-05 -0.000551253 -0.00105204 -8.61566e-05 -0.00049478 -0.00105039 -8.92018e-05 -0.000380392 -0.00104542 
-0.000188518 -0.000443789 -0.00104964 -0.000185953 -0.000327214 -0.00104463 -0.000285616 -0.000389274 -0.00104967 
-0.000282315 -0.000272958 -0.00104555 -0.000377385 -0.00032987 -0.00105039 -0.000378102 -0.000218567 -0.00104778 
-0.00047838 -0.000275457 -0.00105212 -0.000187129 -0.000557576 -0.00105302 -0.000478751 -0.000160898 -0.00105055 
0.000308941 -0.000487477 -0.00105265 -0.000373346 9.59949e-05 -0.00104514 -0.000567678 4.47223e-05 -0.00105249 
7.17812e-05 0.000627076 -0.00105421 0.000587202 1.92959e-05 -0.00105293 0.000576088 0.000253635 -0.00105417 
-0.000409758 0.000431802 -0.00105325 -0.000278594 -0.00016421 -0.00104105 -0.000488645 -0.000387002 -0.00105407 
0.000496542 -0.000366839 -0.00105383 0.00060224 -0.000305166 -0.00105522 -0.000582333 -0.000218062 -0.001054 
0.000116233 -0.000607851 -0.00105386 1.61882e-05 -0.000672855 -0.00105521 0.000186799 0.000233646 -0.00103907 
0.000569534 0.000377553 -0.00105542 0.000703984 0.000321298 -0.00105715 -0.000618156 0.000447621 -0.00105701 
-4.43473e-05 0.000681347 -0.00105543 7.31464e-05 0.00077074 -0.00105717 -0.00011093 0.000277383 -0.00103913 
0.000295403 -4.23253e-05 -0.00103916 0.000195251 -0.000201593 -0.00103737 -9.57569e-05 -0.000276966 -0.00103863 
-0.000831806 -0.000414259 -0.00105951 -0.000726541 -0.000358175 -0.00105787 0.000787667 0.000518482 -0.00105957 
0.000775022 -0.000525434 -0.00105944 -5.87007e-05 -0.000942358 -0.00105958 -5.51414e-05 0.000941424 -0.00105959 
0.000683904 -0.000457955 -0.00105794 0.000778645 -0.00040989 -0.00105881 0.000145659 -0.000751349 -0.00105682 
2.76271e-05 -0.000792654 -0.00105752 -0.000736405 -0.000474081 -0.00105886 -0.000582969 -9.711e-05 -0.00105311 
-0.000675107 -0.000150983 -0.0010554 -0.000469193 -4.90295e-05 -0.00104929 0.000889708 0.000419389 -0.00105986 
0.000913283 -0.000460671 -0.00106023 8.16921e-05 0.000980256 -0.00105987 7.66345e-05 -0.000971754 -0.00105982 
0.000116932 -0.000874661 -0.00105864 -8.18905e-05 -0.000729953 -0.00105641 0.000140479 0.000898223 -0.00105884 
0.000847984 0.000327336 -0.00105882 0.000184494 0.000697041 -0.00105595 0.000571349 -0.000516826 -0.00105682 
-0.000623537 -0.000431218 -0.00105697 -0.000687612 -1.55119e-05 -0.0010552 0.000696259 0.000189565 -0.00105595 
2.8304e-06 -0.00032727 -0.00104134 9.45725e-05 -0.000264667 -0.0010374 0.000297135 -0.000149578 -0.00104171 
-0.000832194 0.000152769 -0.00105749 0.00023141 -0.000662368 -0.00105548 0.000359472 -0.00069679 -0.00105654 
0.000680083 0.000456983 -0.00105791 0.000549513 -0.000634933 -0.00105738 0.000436233 -0.000560478 -0.00105559 
-0.000189218 -0.000225147 -0.00103881 0.000288523 6.1368e-05 -0.00103883 0.000270561 0.000166744 -0.00104066 
-5.20931e-05 -0.00102303 -0.00106029 0.000100116 0.000281757 -0.00103908 -6.04064e-06 0.000316965 -0.00104062 
-0.000200729 0.000219511 -0.00103907 -0.000287734 0.000155313 -0.00104139 -0.000279113 5.59201e-05 -0.00103779 
-0.000368685 -2.30467e-06 -0.00104419 -0.000247964 -4.60241e-05 -0.00103499 -0.000190103 0.000115209 -0.00103121 
-0.000852841 -0.00014732 -0.00105761 0.000852908 -0.000556693 -0.00106021 -5.61595e-05 0.000817446 -0.00105793 
0.00083497 -3.83996e-06 -0.00105702 0.000714791 -6.79048e-05 -0.00105565 0.000696977 -0.000200342 -0.00105605 
0.000830647 -0.000293782 -0.00105841 -0.00084531 -0.000514236 -0.0010602 0.000704999 6.7319e-05 -0.00105549 
-5.0361e-05 0.00102619 -0.00106032 -2.5722e-05 0.000224043 -0.00103165 0.00086346 0.000556725 -0.0010603 
-0.000671146 0.000585379 -0.00105853 -0.000418172 -0.000723581 -0.00105708 -0.000411286 -0.000581249 -0.00105563 
-0.000304739 -0.000651554 -0.00105574 -0.000281705 -0.000786596 -0.00105737 -0.000419825 0.000726319 -0.0010571 
-0.000419678 0.000582532 -0.00105574 -0.000295798 0.000798844 -0.00105746 -0.000166652 0.000739055 -0.00105664 
0.0004227 0.000720255 -0.00105702 0.000545703 0.000654022 -0.00105744 0.000558981 0.000513034 -0.00105664 
-0.000297402 0.000659264 -0.00105577 0.00042631 0.000587981 -0.00105579 0.000313389 0.000651839 -0.00105572 
-0.000190632 -0.000117194 -0.00103123 -0.000307336 -0.000524254 -0.00105349 0.000199467 2.51529e-06 -0.00102834 
0.000205935 0.000570728 -0.00105347 0.000595439 -9.57258e-05 -0.00105336 -0.000665467 -0.000571206 -0.00105847 
-0.000703899 9.91531e-05 -0.00105568 -0.000507276 0.000370476 -0.00105419 -0.00037113 -0.000110358 -0.00104536 
-0.000505292 0.000478157 -0.00105553 -9.38348e-06 -0.000227361 -0.00103189 0.000168583 0.000139912 -0.00103072 
-8.49495e-05 -0.000612341 -0.00105388 0.000397857 -0.000429513 -0.00105291 0.00058617 0.000132972 -0.00105334 
-0.000314537 0.000479924 -0.00105261 0.000212456 -0.000545093 -0.00105287 0.000459481 0.000434412 -0.00105415 
-0.000150006 0.000611979 -0.00105413 -0.000188528 -0.000674079 -0.00105556 -0.00073882 0.000482603 -0.0010589 
-0.000843046 0.000532936 -0.00106023 -0.000519686 -0.000507424 -0.00105613 0.000220422 -9.31514e-05 -0.00103318 
0.000109949 0.000183567 -0.00103009 -0.00039149 -0.000449035 -0.00105325 0.000108126 -0.000178859 -0.0010295 
3.30813e-05 0.000904564 -0.00105919 0.00079989 0.000423434 -0.00105917 -0.000596347 -0.000322644 -0.0010554 
0.000575872 -0.000201178 -0.00105361 -7.115e-05 -0.000835357 -0.00105818 0.000706303 -0.000331778 -0.00105723 
-0.000668992 -0.000254456 -0.00105605 -3.62667e-05 -0.000154816 -0.00102094 -0.000112324 0.000186147 -0.00103042 
-0.000899175 -0.000475186 -0.00106037 -0.000897869 -0.000517383 -0.00106052 -0.000898757 0.000477376 -0.00106035 
-0.000897224 0.000522541 -0.00106049 -0.000102632 -0.000193233 -0.00103055 0.00027292 0.00049024 -0.00105216 
1.66661e-05 -0.000903273 -0.00105917 -4.36806e-05 0.000149694 -0.0010203 0.00030487 -0.000592606 -0.00105469 
0.000851006 -0.00048494 -0.00106001 0.000867321 -0.000402052 -0.00105955 0.000469517 -0.000710738 -0.00105715 
0.000590525 -0.000406836 -0.00105608 -0.000457302 4.58779e-05 -0.00104873 -0.000142308 -6.63146e-05 -0.00102064 
4.60662e-05 0.000223194 -0.00103192 0.000152014 -0.000130835 -0.00102799 0.000783344 0.000234635 -0.00105748 
0.000191122 0.00080151 -0.00105756 8.81881e-06 -0.00100314 -0.00106024 -0.000142794 6.01349e-05 -0.00102013 
-0.000203641 3.99748e-05 -0.00102903 0.00021336 8.76656e-05 -0.00103216 1.439e-05 0.0010199 -0.00106038 
0.000890391 0.000497503 -0.00106036 -0.000761828 0.000563583 -0.00105943 9.92685e-05 0.000117083 -0.0010195 
-0.000773048 -0.000566612 -0.00105962 -0.000756955 -9.41581e-05 -0.00105643 -0.000764949 -0.000222566 -0.00105722 
5.65664e-05 -0.000204029 -0.00102973 -0.000168171 -0.000775978 -0.0010572 -0.000327855 0.000571887 -0.00105457 
9.87177e-05 -0.000114463 -0.00101898 0.000488816 -0.000460189 -0.00105499 0.000219224 -0.000869241 -0.00105822 
-0.000571942 0.000558673 -0.0010572 0.000329931 0.000554374 -0.00105422 
CELLS 563 3941
6 14 304 127 29 554 377 
6 143 259 55 393 509 103 
6 300 319 174 550 569 424 
6 259 349 55 509 599 103 
6 50 365 307 98 615 557 
6 299 320 164 549 570 414 
6 126 304 14 376 554 29 
6 298 319 300 548 569 550 
6 205 240 238 455 490 488 
6 257 308 145 507 558 395 
6 130 352 273 380 602 523 
6 295 320 299 545 570 549 
6 324 327 289 574 577 539 
6 235 258 143 485 508 393 
6 50 307 49 98 557 97 
6 207 283 279 457 533 529 
6 143 373 235 393 623 485 
6 145 308 252 395 558 502 
6 194 303 196 444 553 446 
6 279 306 207 529 556 457 
6 206 305 163 456 555 413 
6 51 357 9 99 607 24 
6 238 252 205 488 502 455 
6 293 317 209 543 567 459 
6 207 316 283 457 566 533 
6 142 301 249 392 551 499 
6 273 359 130 523 609 380 
6 211 327 324 461 577 574 
6 169 265 217 419 515 467 
6 7 365 50 22 615 98 
6 283 316 253 533 566 503 
6 159 268 223 409 518 473 
6 274 337 132 524 587 382 
6 232 361 329 482 611 579 
6 231 266 45 481 516 93 
6 229 362 330 479 612 580 
6 9 244 57 24 494 105 
6 230 276 52 480 526 100 
6 209 311 293 459 561 543 
6 131 342 302 381 592 552 
6 270 271 204 520 521 454 
6 66 243 1 114 493 16 
6 59 241 12 107 491 27 
6 280 306 279 530 556 529 
6 269 337 274 519 587 524 
6 179 256 224 429 506 474 
6 163 305 166 413 555 416 
6 201 303 194 451 553 444 
6 280 332 306 530 582 556 
6 186 255 225 436 505 475 
6 210 310 273 460 560 523 
6 153 270 204 403 520 454 
6 136 231 45 386 481 93 
6 171 265 169 421 515 419 
6 138 230 52 388 480 100 
6 225 354 325 475 604 575 
6 36 284 232 84 534 482 
6 161 268 159 411 518 409 
6 71 286 229 119 536 479 
6 290 303 201 540 553 451 
6 139 355 60 389 605 108 
6 60 355 248 108 605 498 
6 273 352 302 523 602 552 
6 235 373 245 485 623 495 
6 67 356 247 115 606 497 
6 221 295 277 471 545 527 
6 142 356 67 392 606 115 
6 139 283 253 389 533 503 
6 203 315 262 453 565 512 
6 41 257 145 89 507 395 
6 36 232 135 84 482 385 
6 71 229 137 119 479 387 
6 254 255 188 504 505 438 
6 233 350 334 483 600 584 
6 262 346 203 512 596 453 
6 304 325 127 554 575 377 
6 222 329 247 472 579 497 
6 218 298 260 468 548 510 
6 290 321 291 540 571 541 
6 272 310 240 522 560 490 
6 269 274 270 519 524 520 
6 244 245 57 494 495 105 
6 49 307 141 97 557 391 
6 225 325 256 475 575 506 
6 273 310 272 523 560 522 
6 312 368 255 562 618 505 
6 249 305 206 499 555 456 
6 228 331 251 478 581 501 
6 302 342 263 552 592 513 
6 338 339 44 588 589 92 
6 190 254 188 440 504 438 
6 37 341 340 85 591 590 
6 138 233 230 388 483 480 
6 228 335 331 478 585 581 
6 181 256 179 431 506 429 
6 195 263 226 445 513 476 
6 268 285 223 518 535 473 
6 290 291 288 540 541 538 
6 219 330 248 469 580 498 
6 201 321 290 451 571 540 
6 240 310 202 490 560 452 
6 188 255 186 438 505 436 
6 270 274 271 520 524 521 
6 262 349 259 512 599 509 
6 141 324 289 391 574 539 
6 296 301 142 546 551 392 
6 247 356 222 497 606 472 
6 239 252 238 489 502 488 
6 254 312 255 504 562 505 
6 54 261 53 102 511 101 
6 289 327 303 539 577 553 
6 268 353 285 518 603 535 
6 273 302 210 523 552 460 
6 292 299 293 542 549 543 
6 278 283 139 528 533 389 
6 175 265 171 425 515 421 
6 227 338 38 477 588 86 
6 264 360 265 514 610 515 
6 43 340 146 91 590 396 
6 165 268 161 415 518 411 
6 205 351 240 455 601 490 
6 64 281 63 112 531 111 
6 288 291 47 538 541 95 
6 135 295 294 385 545 544 
6 42 257 41 90 507 89 
6 245 373 57 495 623 105 
6 31 363 323 79 613 573 
6 292 293 140 542 543 390 
6 267 353 268 517 603 518 
6 155 270 153 405 520 403 
6 244 344 245 494 594 495 
6 61 278 139 109 528 389 
6 135 294 35 385 544 83 
6 69 297 296 117 547 546 
6 186 225 184 436 475 434 
6 329 361 243 579 611 493 
6 255 328 225 505 578 475 
6 213 332 280 463 582 530 
6 39 275 133 87 525 383 
6 330 362 241 580 612 491 
6 195 226 193 445 476 443 
6 211 324 251 461 574 501 
6 151 153 152 401 403 402 
6 295 299 294 545 549 544 
6 265 313 217 515 563 467 
6 258 259 143 508 509 393 
6 251 331 211 501 581 461 
6 149 151 150 399 401 400 
6 293 370 317 543 620 567 
6 153 204 152 403 454 402 
6 151 152 150 401 402 400 
6 33 292 140 81 542 390 
6 210 263 197 460 513 447 
6 301 305 249 551 555 499 
6 298 300 297 548 550 547 
6 68 296 142 116 546 392 
6 321 369 291 571 619 541 
6 179 224 177 429 474 427 
6 167 267 165 417 517 415 
6 259 346 262 509 596 512 
6 303 327 196 553 577 446 
6 269 270 155 519 520 405 
6 265 360 313 515 610 563 
6 223 269 157 473 519 407 
6 157 269 155 407 519 405 
6 144 279 278 394 529 528 
6 169 217 167 419 467 417 
6 177 264 175 427 514 425 
6 267 268 165 517 518 415 
6 159 223 157 409 473 407 
6 232 277 135 482 527 385 
6 193 254 190 443 504 440 
6 217 267 167 467 517 417 
6 249 356 142 499 606 392 
6 184 256 181 434 506 431 
6 248 355 219 498 605 469 
6 229 260 137 479 510 387 
6 149 150 148 399 400 398 
6 64 348 281 112 598 531 
6 311 374 293 561 624 543 
6 264 265 175 514 515 425 
6 297 300 296 547 550 546 
6 141 289 288 391 539 538 
6 197 263 195 447 513 445 
6 218 260 219 468 510 469 
6 224 264 177 474 514 427 
6 137 298 297 387 548 547 
6 277 295 135 527 545 385 
6 133 228 227 383 478 477 
6 261 349 262 511 599 512 
6 221 277 222 471 527 472 
6 256 325 224 506 575 474 
6 199 210 197 449 460 447 
6 226 254 193 476 504 443 
6 144 278 62 394 528 110 
6 279 283 278 529 533 528 
6 289 290 288 539 540 538 
6 137 297 70 387 547 118 
6 34 294 292 82 544 542 
6 235 236 216 485 486 466 
6 141 288 48 391 538 96 
6 178 306 180 428 556 430 
6 185 186 184 435 436 434 
6 63 281 144 111 531 394 
6 225 256 184 475 506 434 
6 46 291 136 94 541 386 
6 147 149 148 397 399 398 
6 271 272 204 521 522 454 
6 233 334 234 483 584 484 
6 145 275 40 395 525 88 
6 220 322 287 470 572 537 
6 280 334 213 530 584 463 
6 144 280 279 394 530 529 
6 140 287 32 390 537 80 
6 154 155 153 404 405 403 
6 334 350 213 584 600 463 
6 176 177 175 426 427 425 
6 260 298 137 510 548 387 
6 33 140 32 81 390 80 
6 49 141 48 97 391 96 
6 56 143 55 104 393 103 
6 68 142 67 116 392 115 
6 63 144 62 111 394 110 
6 61 139 60 109 389 108 
6 148 308 257 398 558 507 
6 71 137 70 119 387 118 
6 53 138 52 101 388 100 
6 46 136 45 94 386 93 
6 36 135 35 84 385 83 
6 43 146 134 91 396 384 
6 133 227 38 383 477 86 
6 192 193 190 442 443 440 
6 293 374 140 543 624 390 
6 34 292 33 82 542 81 
6 207 306 178 457 556 428 
6 43 134 42 91 384 90 
6 39 133 38 87 383 86 
6 41 145 40 89 395 88 
6 194 195 193 444 445 443 
6 69 296 68 117 546 116 
6 294 299 292 544 549 542 
6 173 175 171 423 425 421 
6 260 330 219 510 580 469 
6 183 184 181 433 434 431 
6 134 257 42 384 507 90 
6 55 349 54 103 599 102 
6 163 165 161 413 415 411 
6 166 167 165 416 417 415 
6 210 302 263 460 552 513 
6 271 273 272 521 523 522 
6 53 261 138 101 511 388 
6 217 326 267 467 576 517 
6 289 303 290 539 553 540 
6 178 179 177 428 429 427 
6 238 240 202 488 490 452 
6 62 278 61 110 528 109 
6 35 294 34 83 544 82 
6 284 361 232 534 611 482 
6 70 297 69 118 547 117 
6 224 304 264 474 554 514 
6 156 157 155 406 407 405 
6 48 288 47 96 538 95 
6 221 320 295 471 570 545 
6 187 188 186 437 438 436 
6 47 291 46 95 541 94 
6 151 154 153 401 404 403 
6 286 362 229 536 612 479 
6 168 169 167 418 419 417 
6 40 275 39 88 525 87 
6 307 324 141 557 574 391 
6 300 301 296 550 551 546 
6 32 287 31 80 537 79 
6 147 220 149 397 470 399 
6 333 344 231 583 594 481 
6 299 370 293 549 620 543 
6 271 359 273 521 609 523 
6 224 325 304 474 575 554 
6 228 237 227 478 487 477 
6 305 375 343 555 625 593 
6 218 319 298 468 569 548 
6 240 351 272 490 601 522 
6 277 329 222 527 579 472 
6 253 355 139 503 605 389 
6 158 159 157 408 409 407 
6 236 246 216 486 496 466 
6 192 194 193 442 444 443 
6 220 309 149 470 559 399 
6 183 185 184 433 435 434 
6 196 197 195 446 447 445 
6 276 347 58 526 597 106 
6 136 333 231 386 583 481 
6 67 247 66 115 497 114 
6 60 248 59 108 498 107 
6 261 262 250 511 512 500 
6 173 176 175 423 426 425 
6 344 357 231 594 607 481 
6 144 281 280 394 531 530 
6 152 205 150 402 455 400 
6 163 166 165 413 416 415 
6 185 187 186 435 437 436 
6 233 234 230 483 484 480 
6 170 171 169 420 421 419 
6 146 147 134 396 397 384 
6 176 178 177 426 428 427 
6 285 337 223 535 587 473 
6 154 156 155 404 406 405 
6 263 342 226 513 592 476 
6 235 245 236 485 495 486 
6 160 161 159 410 411 409 
6 58 347 242 106 597 492 
6 166 168 167 416 418 417 
6 287 374 220 537 624 470 
6 189 190 188 439 440 438 
6 148 257 134 398 507 384 
6 194 196 195 444 446 445 
6 252 308 205 502 558 455 
6 285 345 337 535 595 587 
6 301 375 305 551 625 555 
6 180 181 179 430 431 429 
6 281 348 234 531 598 484 
6 198 199 197 448 449 447 
6 151 309 154 401 559 404 
6 228 367 335 478 617 585 
6 54 349 261 102 599 511 
6 156 158 157 406 408 407 
6 168 170 169 418 420 419 
6 200 202 199 450 452 449 
6 147 148 134 397 398 384 
6 158 160 159 408 410 409 
6 150 308 148 400 558 398 
6 253 316 208 503 566 458 
6 232 329 277 482 579 527 
6 178 180 179 428 430 429 
6 191 192 190 441 442 440 
6 214 238 202 464 488 452 
6 172 173 171 422 423 421 
6 187 189 188 437 439 438 
6 162 163 161 412 413 411 
6 228 251 237 478 501 487 
6 215 258 235 465 508 485 
6 182 183 181 432 433 431 
6 202 310 199 452 560 449 
6 219 253 208 469 503 458 
6 222 249 206 472 499 456 
6 196 198 197 446 448 447 
6 229 330 260 479 580 510 
6 132 358 274 382 608 524 
6 149 309 151 399 559 401 
6 226 312 254 476 562 504 
6 154 309 209 404 559 459 
6 77 129 76 125 379 124 
6 73 128 72 121 378 120 
6 76 131 75 124 381 123 
6 74 132 73 122 382 121 
6 75 130 74 123 380 122 
6 14 127 77 29 377 125 
6 72 126 14 120 376 29 
6 133 367 228 383 617 478 
6 237 282 227 487 532 477 
6 239 366 252 489 616 502 
6 200 214 202 450 464 452 
6 192 201 194 442 451 444 
6 170 172 171 420 422 421 
6 220 311 309 470 561 559 
6 198 200 199 448 450 449 
6 189 191 190 439 441 440 
6 146 323 322 396 573 572 
6 160 162 161 410 412 411 
6 251 307 237 501 557 487 
6 199 310 210 449 560 460 
6 57 373 56 105 623 104 
6 214 239 238 464 489 488 
6 182 212 183 432 462 433 
6 180 182 181 430 432 431 
6 146 322 147 396 572 397 
6 172 218 208 422 468 458 
6 172 208 173 422 458 423 
6 162 221 206 412 471 456 
6 162 206 163 412 456 413 
6 176 207 178 426 457 428 
6 272 351 204 522 601 454 
6 198 211 200 448 461 450 
6 182 213 212 432 463 462 
6 234 334 281 484 584 531 
6 154 209 156 404 459 406 
6 185 203 187 435 453 437 
6 168 174 170 418 424 420 
6 189 215 191 439 465 441 
6 215 216 191 465 466 441 
6 221 222 206 471 472 456 
6 158 164 160 408 414 410 
6 218 219 208 468 469 458 
6 205 308 150 455 558 400 
6 191 314 192 441 564 442 
6 215 235 216 465 485 466 
6 215 318 258 465 568 508 
6 152 351 205 402 601 455 
6 138 261 250 388 511 500 
6 192 314 201 442 564 451 
6 234 347 230 484 597 480 
6 226 342 312 476 592 562 
6 138 250 233 388 500 483 
6 147 322 220 397 572 470 
6 216 314 191 466 564 441 
6 306 332 180 556 582 430 
6 222 356 249 472 606 499 
6 128 345 285 378 595 535 
6 314 321 201 564 571 451 
6 212 315 183 462 565 433 
6 312 342 336 562 592 586 
6 282 339 338 532 589 588 
6 340 341 323 590 591 573 
6 309 311 209 559 561 459 
6 183 315 185 433 565 435 
6 208 316 173 458 566 423 
6 173 316 176 423 566 426 
6 3 341 37 18 591 85 
6 44 339 6 92 589 21 
6 252 366 145 502 616 395 
6 246 321 314 496 571 564 
6 246 314 216 496 564 466 
6 126 364 313 376 614 563 
6 156 317 158 406 567 408 
6 275 367 133 525 617 383 
6 176 316 207 426 566 457 
6 185 315 203 435 565 453 
6 180 332 182 430 582 432 
6 302 352 131 552 602 381 
6 251 324 307 501 574 557 
6 187 318 189 437 568 439 
6 172 319 218 422 569 468 
6 162 320 221 412 570 471 
6 305 343 166 555 593 416 
6 170 319 172 420 569 422 
6 158 317 164 408 567 414 
6 209 317 156 459 567 406 
6 285 353 128 535 603 378 
6 223 337 269 473 587 519 
6 160 320 162 410 570 412 
6 211 331 200 461 581 450 
6 174 319 170 424 569 420 
6 203 318 187 453 568 437 
6 189 318 215 439 568 465 
6 198 327 211 448 577 461 
6 164 320 160 414 570 410 
6 326 353 267 576 603 517 
6 236 344 333 486 594 583 
6 196 327 198 446 577 448 
6 219 355 253 469 605 503 
6 281 334 280 531 584 530 
6 274 359 271 524 609 521 
6 164 370 299 414 620 549 
6 174 375 300 424 625 550 
6 287 363 31 537 613 79 
6 243 361 1 493 611 16 
6 241 362 12 491 612 27 
6 307 365 237 557 615 487 
6 166 343 168 416 593 418 
6 200 331 214 450 581 464 
6 313 326 217 563 576 467 
6 9 357 244 24 607 494 
6 1 361 30 16 611 78 
6 12 362 65 27 612 113 
6 337 345 132 587 595 382 
6 242 348 64 492 598 112 
6 231 357 266 481 607 516 
6 182 332 213 432 582 463 
6 245 344 236 495 594 486 
6 258 346 259 508 596 509 
6 145 366 275 395 616 525 
6 291 369 136 541 619 386 
6 236 333 246 486 583 496 
6 331 335 214 581 585 464 
6 312 336 129 562 586 379 
6 315 372 262 565 622 512 
6 220 374 311 470 624 561 
6 140 374 287 390 624 537 
6 126 360 304 376 610 554 
6 230 347 276 480 597 526 
6 313 364 326 563 614 576 
6 56 373 143 104 623 393 
6 239 367 366 489 617 616 
6 204 351 152 454 601 402 
6 300 375 301 550 625 551 
6 214 335 239 464 585 489 
6 247 329 243 497 579 493 
6 262 372 250 512 622 500 
6 248 330 241 498 580 491 
6 318 346 258 568 596 508 
6 333 369 246 583 619 496 
6 282 338 227 532 588 477 
6 146 340 323 396 590 573 
6 304 360 264 554 610 514 
6 366 367 275 616 617 525 
6 129 336 76 379 586 124 
6 73 345 128 121 595 378 
6 76 336 131 124 586 381 
6 250 350 233 500 600 483 
6 129 371 328 379 621 578 
6 132 345 73 382 595 121 
6 168 343 174 418 593 424 
6 131 352 75 381 602 123 
6 66 247 243 114 497 493 
6 59 248 241 107 498 491 
6 74 358 132 122 608 382 
6 203 346 318 453 596 568 
6 313 360 126 563 610 376 
6 128 364 72 378 614 120 
6 128 353 326 378 603 576 
6 77 371 129 125 621 379 
6 129 368 312 379 618 562 
6 244 357 344 494 607 594 
6 328 354 225 578 604 475 
6 326 364 128 576 614 378 
6 75 352 130 123 602 380 
6 350 372 212 600 622 462 
6 136 369 333 386 619 583 
6 325 354 127 575 604 377 
6 213 350 212 463 600 462 
6 130 358 74 380 608 122 
6 250 372 350 500 622 600 
6 317 370 164 567 620 414 
6 72 364 126 120 614 376 
6 328 368 129 578 618 379 
6 127 371 77 377 621 125 
6 336 342 131 586 592 381 
6 212 372 315 462 622 565 
6 234 348 347 484 598 597 
6 8 266 51 23 516 99 
6 10 276 58 25 526 106 
6 246 369 321 496 619 571 
6 30 284 0 78 534 15 
6 65 286 13 113 536 28 
6 58 242 11 106 492 26 
6 266 357 51 516 607 99 
6 255 368 328 505 618 578 
6 347 348 242 597 598 492 
6 322 363 287 572 613 537 
6 323 363 322 573 613 572 
6 335 367 239 585 617 489 
6 30 361 284 78 611 534 
6 65 362 286 113 612 536 
6 237 365 282 487 615 532 
6 130 359 358 380 609 608 
6 343 375 174 593 625 424 
6 354 371 127 604 621 377 
6 328 371 354 578 621 604 
6 358 359 274 608 609 524 
6 0 284 36 15 534 84 
6 45 266 8 93 516 23 
6 52 276 10 100 526 25 
6 11 242 64 26 492 112 
6 13 286 71 28 536 119 
6 2 323 3 17 573 18 
6 31 323 2 79 573 17 
6 323 341 3 573 591 18 
6 37 340 4 85 590 19 
6 4 340 43 19 590 91 
6 38 338 5 86 588 20 
6 5 338 44 20 588 92 
6 6 282 7 21 532 22 
6 6 339 282 21 589 532 
6 282 365 7 532 615 22 

CELL_TYPES 563
13
13
13
13
13
13
13
13
13
13
13
13
13
13
13
13
13
13
13
13
13
13
13
13
13
13
13
13
13
13
13
13
13
13
13
13
13
13
13
13
13
13
13
13
13
13
13
13
13
13
13
13
13
13
13
13
13
13
13
13
13
13
13
13
13
13
13
13
13
13
13
13
13
13
13
13
13
13
13
13
13
13
13
13
13
13
13
13
13
13
13
13
13
13
13
13
13
13
13
13
13
13
13
13
13
13
13
13
13
13
13
13
13
13
13
13
13
13
13
13
13
13
13
13
13
13
13
13
13
13
13
13
13
13
13
13
13
13
13
13
13
13
13
13
13
13
13
13
13
13
13
13
13
13
13
13
13
13
13
13
13
13
13
13
13
13
13
13
13
13
13
13
13
13
13
13
13
13
13
13
13
13
13
13
13
13
13
13
13
13
13
13
13
13
13
13
13
13
13
13
13
13
13
13
13
13
13
13
13
13
13
13
13
13
13
13
13
13
13
13
13
13
13
13
13
13
13
13
13
13
13
13
13
13
13
13
13
13
13
13
13
13
13
13
13
13
13
13
13
13
13
13
13
13
13
13
13
13
13
13
13
13
13
13
13
13
13
13
13
13
13
13
13
13
13
13
13
13
13
13
13
13
13
13
13
13
13
13
13
13
13
13
13
13
13
13
13
13
13
13
13
13
13
13
13
13
13
13
13
13
13
13
13
13
13
13
13
13
13
13
13
13
13
13
13
13
13
13
13
13
13
13
13
13
13
13
13
13
13
13
13
13
13
13
13
13
13
13
13
13
13
13
13
13
13
13
13
13
13
13
13
13
13
13
13
13
13
13
13
13
13
13
13
13
13
13
13
13
13
13
13
13
13
13
13
13
13
13
13
13
13
13
13
13
13
13
13
13
13
13
13
13
13
13
13
13
13
13
13
13
13
13
13
13
13
13
13
13
13
13
13
13
13
13
13
13
13
13
13
13
13
13
13
13
13
13
13
13
13
13
13
13
13
13
13
13
13
13
13
13
13
13
13
13
13
13
13
13
13
13
13
13
13
13
13
13
13
13
13
13
13
13
13
13
13
13
13
13
13
13
13
13
13
13
13
13
13
13
13
13
13
13
13
13
13
13
13
13
13
13
13
13
13
13
13
13
13
13
13
13
13
13
13
13
13
13
13
13
13
13
13
13
13
13
13
13
13
13
13
13
13
13
13
13
13
13
13
13
13
13
13
13
13
13
13
13
13
13
13
13
13
13
13
13
13
13
13
13
13
13
13
13
13

POINT_DATA 626
VECTORS displacement float
-5.29903e-06 0.000110854 6.06214e-05
5.24884e-06 0.000110884 6.07007e-05
-9.34679e-05 5.99973e-05 6.06824e-05
-9.28986e-05 5.7043e-05 6.06183e-05
-9.87315e-05 5.08425e-05 6.06497e-05
-9.86974e-05 -5.09831e-05 6.0696e-05
-9.28137e-05 -5.7164e-05 6.07128e-05
-9.34265e-05 -6.00791e-05 6.08229e-05
-5.11839e-06 -0.000110865 6.06142e-05
5.34456e-06 -0.000110855 6.07012e-05
9.33988e-05 -5.99603e-05 6.06003e-05
9.87304e-05 -5.07702e-05 6.0601e-05
9.86165e-05 5.0917e-05 6.06832e-05
9.33132e-05 6.00355e-05 6.06029e-05
0 0 0
-5.29903e-06 0.000110854 -6.06214e-05
5.24884e-06 0.000110884 -6.07007e-05
-9.34679e-05 5.99973e-05 -6.06824e-05
-9.28986e-05 5.7043e-05 -6.06183e-05
-9.87315e-05 5.08425e-05 -6.06497e-05
-9.86974e-05 -5.09831e-05 -6.0696e-05
-9.28137e-05 -5.7164e-05 -6.07128e-05
-9.34265e-05 -6.00791e-05 -6.08229e-05
-5.11839e-06 -0.000110865 -6.06142e-05
5.34456e-06 -0.000110855 -6.07012e-05
9.33988e-05 -5.99603e-05 -6.06003e-05
9.87304e-05 -5.07702e-05 -6.0601e-05
9.86165e-05 5.0917e-05 -6.06832e-05
9.33132e-05 6.00355e-05 -6.06029e-05
0 0 0
2.60889e-08 0.000108212 6.05836e-05
-7.82296e-05 6.6749e-05 5.96688e-05
-6.47546e-05 7.23352e-05 5.84203e-05
-5.26117e-05 7.80903e-05 5.76814e-05
-4.13081e-05 8.46068e-05 5.76697e-05
-3.02316e-05 9.22188e-05 5.83825e-05
-1.86036e-05 0.000101036 5.96426e-05
-9.47268e-05 5.28629e-05 6.05861e-05
-9.69099e-05 -3.44988e-05 5.97225e-05
-9.50483e-05 -1.99736e-05 5.84312e-05
-9.39723e-05 -6.58767e-06 5.77152e-05
-9.39825e-05 6.48815e-06 5.77225e-05
-9.50444e-05 1.99027e-05 5.84291e-05
-9.68992e-05 3.43973e-05 5.96969e-05
-9.4678e-05 -5.3003e-05 6.06374e-05
-1.84999e-05 -0.000101068 5.96273e-05
-3.00929e-05 -9.22494e-05 5.83816e-05
-4.11937e-05 -8.46662e-05 5.7686e-05
-5.25026e-05 -7.81811e-05 5.7692e-05
-6.46853e-05 -7.24375e-05 5.84533e-05
-7.81839e-05 -6.68589e-05 5.96899e-05
2.06164e-07 -0.000108183 6.05728e-05
7.82034e-05 -6.65784e-05 5.95919e-05
6.47844e-05 -7.21917e-05 5.83249e-05
5.26711e-05 -7.79973e-05 5.75935e-05
4.1358e-05 -8.4468e-05 5.76658e-05
3.03599e-05 -9.21094e-05 5.83266e-05
1.8787e-05 -0.000101038 5.96355e-05
9.37511e-05 -5.40456e-05 6.05741e-05
9.68061e-05 3.43508e-05 5.95699e-05
9.48923e-05 1.99994e-05 5.83984e-05
9.38806e-05 6.56589e-06 5.76183e-05
9.3879e-05 -6.46638e-06 5.76157e-05
9.49548e-05 -1.98489e-05 5.83573e-05
9.67975e-05 -3.42593e-05 5.95902e-05
9.36909e-05 5.41026e-05 6.05654e-05
1.86912e-05 0.000101027 5.95865e-05
3.01711e-05 9.21818e-05 5.84034e-05
4.1295e-05 8.45776e-05 5.76296e-05
5.25761e-05 7.80503e-05 5.76205e-05
6.47033e-05 7.22864e-05 5.83492e-05
7.81539e-05 6.66399e-05 5.9618e-05
0 0 0
0 0 0
0 0 0
0 0 0
0 0 0
0 0 0
2.60889e-08 0.000108212 -6.05836e-05
-7.82296e-05 6.6749e-05 -5.96688e-05
-6.47546e-05 7.23352e-05 -5.84203e-05
-5.26117e-05 7.80903e-05 -5.76814e-05
-4.13081e-05 8.46068e-05 -5.76697e-05
-3.02316e-05 9.22188e-05 -5.83825e-05
-1.86036e-05 0.000101036 -5.96426e-05
-9.47268e-05 5.28629e-05 -6.05861e-05
-9.69099e-05 -3.44988e-05 -5.97225e-05
-9.50483e-05 -1.99736e-05 -5.84312e-05
-9.39723e-05 -6.58767e-06 -5.77152e-05
-9.39825e-05 6.48815e-06 -5.77225e-05
-9.50444e-05 1.99027e-05 -5.84291e-05
-9.68992e-05 3.43973e-05 -5.96969e-05
-9.4678e-05 -5.3003e-05 -6.06374e-05
-1.84999e-05 -0.000101068 -5.96273e-05
-3.00929e-05 -9.22494e-05 -5.83816e-05
-4.11937e-05 -8.46662e-05 -5.7686e-05
-5.25026e-05 -7.81811e-05 -5.7692e-05
-6.46853e-05 -7.24375e-05 -5.84533e-05
-7.81839e-05 -6.68589e-05 -5.96899e-05
2.06164e-07 -0.000108183 -6.05728e-05
7.82034e-05 -6.65784e-05 -5.95919e-05
6.47844e-05 -7.21917e-05 -5.83249e-05
5.26711e-05 -7.79973e-05 -5.75935e-05
4.1358e-05 -8.4468e-05 -5.76658e-05
3.03599e-05 -9.21094e-05 -5.83266e-05
1.8787e-05 -0.000101038 -5.96355e-05
9.37511e-05 -5.40456e-05 -6.05741e-05
9.68061e-05 3.43508e-05 -5.95699e-05
9.48923e-05 1.99994e-05 -5.83984e-05
9.38806e-05 6.56589e-06 -5.76183e-05
9.3879e-05 -6.46638e-06 -5.76157e-05
9.49548e-05 -1.98489e-05 -5.83573e-05
9.67975e-05 -3.42593e-05 -5.95902e-05
9.36909e-05 5.41026e-05 -6.05654e-05
1.86912e-05 0.000101027 -5.95865e-05
3.01711e-05 9.21818e-05 -5.84034e-05
4.1295e-05 8.45776e-05 -5.76296e-05
5.25761e-05 7.80503e-05 -5.76205e-05
6.47033e-05 7.22864e-05 -5.83492e-05
7.81539e-05 6.66399e-05 -5.9618e-05
0 0 0
0 0 0
0 0 0
0 0 0
0 0 0
0 0 0
8.65496e-06 4.17961e-06 1.99429e-05
8.41291e-06 -4.03073e-06 1.95617e-05
2.08461e-06 9.00997e-06 1.97857e-05
2.09155e-06 -8.69954e-06 1.91882e-05
-9.00538e-06 8.79163e-08 1.94612e-05
-5.49316e-06 -6.39313e-06 1.83131e-05
-5.65224e-06 6.39717e-06 1.8518e-05
-8.3504e-05 -2.76634e-05 5.85811e-05
-8.24431e-05 2.79473e-05 5.85196e-05
-1.75688e-05 8.53811e-05 5.84558e-05
-1.75038e-05 -8.61513e-05 5.8509e-05
6.52578e-05 5.78198e-05 5.84407e-05
6.57623e-05 -5.74328e-05 5.84588e-05
7.96088e-05 1.22426e-05 5.72179e-05
-5.28e-05 6.42874e-05 5.75316e-05
-5.1522e-05 -6.29218e-05 5.73935e-05
2.90834e-05 7.49973e-05 5.72304e-05
2.86362e-05 -7.6716e-05 5.73768e-05
8.09246e-05 -1.33015e-05 5.73761e-05
-7.99167e-05 2.22076e-08 5.70618e-05
-8.23897e-05 4.07661e-05 5.94734e-05
-7.04325e-05 3.48423e-05 5.78202e-05
-6.84832e-05 2.21595e-05 5.66037e-05
-5.77503e-05 2.87042e-05 5.54045e-05
-5.56366e-05 1.68285e-05 5.39365e-05
-4.57819e-05 2.27878e-05 5.21812e-05
-4.37845e-05 1.23588e-05 5.03769e-05
-3.45447e-05 1.77029e-05 4.77654e-05
-3.64397e-05 2.82239e-05 5.05857e-05
-2.58936e-05 2.29173e-05 4.57263e-05
-2.76982e-05 3.34749e-05 4.96153e-05
-1.79695e-05 2.80217e-05 4.50278e-05
-1.94889e-05 3.89948e-05 4.96561e-05
-1.00343e-05 3.33553e-05 4.58315e-05
-1.13413e-05 4.49338e-05 5.06458e-05
-1.96401e-06 3.93996e-05 4.80527e-05
-2.9429e-06 5.15498e-05 5.23041e-05
6.95783e-06 4.62737e-05 5.07972e-05
-2.18579e-05 5.01232e-05 5.30332e-05
7.03066e-06 3.42934e-05 4.59059e-05
1.62211e-05 4.1016e-05 4.98065e-05
1.55431e-05 2.97804e-05 4.51043e-05
2.4607e-05 3.63661e-05 4.97061e-05
2.40492e-05 2.548e-05 4.58664e-05
3.36125e-05 3.22764e-05 5.06907e-05
3.32837e-05 2.13359e-05 4.80551e-05
4.34435e-05 2.81533e-05 5.23202e-05
4.32174e-05 1.73688e-05 5.07118e-05
3.36356e-05 4.35569e-05 5.3092e-05
3.3132e-05 1.10214e-05 4.58603e-05
4.3194e-05 7.03142e-06 4.96978e-05
3.33731e-05 1.49796e-06 4.50667e-05
4.38324e-05 -3.07128e-06 4.97536e-05
3.38675e-05 -8.08732e-06 4.5809e-05
4.46498e-05 -1.33019e-05 5.06709e-05
3.48009e-05 -1.81766e-05 4.78882e-05
4.56553e-05 -2.3818e-05 5.22239e-05
3.60411e-05 -2.87565e-05 5.05197e-05
2.56897e-05 -2.29731e-05 4.55941e-05
2.6974e-05 -3.37422e-05 4.94587e-05
1.72669e-05 -2.77442e-05 4.46152e-05
1.83833e-05 -3.88453e-05 4.938e-05
9.36713e-06 -3.28912e-05 4.54606e-05
1.00163e-05 -4.43845e-05 5.03226e-05
9.05041e-07 -3.85939e-05 4.76299e-05
1.28736e-06 -5.07566e-05 5.20352e-05
-7.76373e-06 -4.49369e-05 5.03857e-05
-7.73085e-06 -3.31428e-05 4.54168e-05
-1.69522e-05 -4.0056e-05 4.96375e-05
-1.60642e-05 -2.83231e-05 4.46308e-05
-2.57491e-05 -3.51419e-05 4.96736e-05
-2.46181e-05 -2.38211e-05 4.55466e-05
-3.42558e-05 -2.99744e-05 5.03909e-05
-3.35877e-05 -1.94401e-05 4.77834e-05
-4.40711e-05 -2.54176e-05 5.21201e-05
-1.72974e-05 -5.17602e-05 5.30179e-05
-4.35246e-05 -1.46709e-05 5.05521e-05
2.86101e-05 -4.50531e-05 5.26486e-05
-3.24578e-05 8.31563e-06 4.5135e-05
-5.24267e-05 4.10252e-06 5.24914e-05
6.73213e-06 5.88238e-05 5.42144e-05
5.44219e-05 1.82167e-06 5.2932e-05
5.40177e-05 2.38037e-05 5.41731e-05
-3.81381e-05 4.01423e-05 5.32488e-05
-2.33222e-05 -1.37703e-05 4.10465e-05
-4.5752e-05 -3.62972e-05 5.40687e-05
4.64749e-05 -3.428e-05 5.38328e-05
5.70657e-05 -2.88608e-05 5.52239e-05
-5.4536e-05 -2.0464e-05 5.40027e-05
1.0927e-05 -5.68182e-05 5.38634e-05
1.60459e-06 -6.37079e-05 5.52098e-05
1.53487e-05 1.91934e-05 3.90697e-05
5.40087e-05 3.5842e-05 5.54217e-05
6.78974e-05 3.09303e-05 5.7153e-05
-5.94998e-05 4.3153e-05 5.70096e-05
-4.22408e-06 6.46291e-05 5.54279e-05
7.12726e-06 7.43176e-05 5.71732e-05
-9.12373e-06 2.27825e-05 3.9131e-05
2.42614e-05 -3.43444e-06 3.91628e-05
1.57953e-05 -1.62528e-05 3.73729e-05
-7.80161e-06 -2.26589e-05 3.86328e-05
-8.25389e-05 -4.08084e-05 5.95123e-05
-7.05994e-05 -3.47773e-05 5.78699e-05
7.79211e-05 5.17639e-05 5.95716e-05
7.65962e-05 -5.23482e-05 5.94372e-05
-6.12057e-06 -9.34984e-05 5.95829e-05
-5.84089e-06 9.33854e-05 5.95919e-05
6.65081e-05 -4.45929e-05 5.79428e-05
7.65892e-05 -4.00724e-05 5.88056e-05
1.41991e-05 -7.21781e-05 5.68244e-05
2.80999e-06 -7.67298e-05 5.75232e-05
-7.21881e-05 -4.67907e-05 5.88609e-05
-5.41409e-05 -9.0656e-06 5.31104e-05
-6.40062e-05 -1.43101e-05 5.54043e-05
-4.22201e-05 -4.44542e-06 4.92859e-05
8.90382e-05 4.11729e-05 5.98561e-05
9.21398e-05 -4.56092e-05 6.02345e-05
8.89309e-06 9.77161e-05 5.98742e-05
8.45135e-06 -9.67242e-05 5.98156e-05
1.19689e-05 -8.57151e-05 5.8639e-05
-7.8209e-06 -6.98993e-05 5.64118e-05
1.44177e-05 8.82792e-05 5.88381e-05
8.36229e-05 3.16539e-05 5.88157e-05
1.7632e-05 6.64179e-05 5.59484e-05
5.48873e-05 -4.97554e-05 5.68171e-05
-5.99527e-05 -4.16119e-05 5.69681e-05
-6.50143e-05 -1.48802e-06 5.51991e-05
6.63683e-05 1.80355e-05 5.59467e-05
2.69004e-07 -2.7476e-05 4.13445e-05
7.67153e-06 -2.13768e-05 3.74027e-05
2.50896e-05 -1.25958e-05 4.17058e-05
-8.07141e-05 1.44475e-05 5.7493e-05
2.20437e-05 -6.27792e-05 5.54795e-05
3.45596e-05 -6.6734e-05 5.65399e-05
6.60385e-05 4.45329e-05 5.79124e-05
5.30022e-05 -6.16059e-05 5.73753e-05
4.14109e-05 -5.31577e-05 5.55868e-05
-1.5504e-05 -1.84491e-05 3.88101e-05
2.36263e-05 4.99581e-06 3.88312e-05
2.25637e-05 1.39325e-05 4.06558e-05
-5.76043e-06 -0.00010282 6.02873e-05
8.24687e-06 2.31313e-05 3.90812e-05
-4.99533e-07 2.64073e-05 4.06205e-05
-1.65098e-05 1.80267e-05 3.90695e-05
-2.41748e-05 1.30453e-05 4.13932e-05
-2.26861e-05 4.55774e-06 3.77938e-05
-3.17903e-05 -2.42887e-07 4.41883e-05
-1.94652e-05 -3.63615e-06 3.49944e-05
-1.42122e-05 8.5823e-06 3.1206e-05
-8.28939e-05 -1.39527e-05 5.76066e-05
8.53168e-05 -5.63998e-05 6.02113e-05
-5.57212e-06 7.9468e-05 5.79321e-05
8.05146e-05 -3.22247e-07 5.7019e-05
6.78813e-05 -6.37506e-06 5.56546e-05
6.64939e-05 -1.90019e-05 5.60491e-05
8.14601e-05 -2.8239e-05 5.84103e-05
-8.45045e-05 -5.17147e-05 6.02025e-05
6.68446e-05 6.38753e-06 5.54918e-05
-5.69495e-06 0.000103191 6.03198e-05
-1.92748e-06 1.68057e-05 3.16471e-05
8.64811e-05 5.65437e-05 6.03002e-05
-6.54554e-05 5.77821e-05 5.85296e-05
-4.02582e-05 -6.98542e-05 5.70792e-05
-3.89609e-05 -5.52276e-05 5.5627e-05
-2.89099e-05 -6.19327e-05 5.57404e-05
-2.74199e-05 -7.60172e-05 5.73656e-05
-4.05176e-05 7.00969e-05 5.71018e-05
-3.98603e-05 5.53511e-05 5.57351e-05
-2.89814e-05 7.72896e-05 5.74633e-05
-1.61078e-05 7.08812e-05 5.66402e-05
4.07362e-05 6.94647e-05 5.70176e-05
5.25907e-05 6.35907e-05 5.74362e-05
5.35415e-05 4.93262e-05 5.66369e-05
-2.83087e-05 6.26565e-05 5.57726e-05
4.04952e-05 5.59364e-05 5.57891e-05
2.97908e-05 6.19395e-05 5.57183e-05
-1.42275e-05 -8.68959e-06 3.12332e-05
-2.85669e-05 -4.88391e-05 5.34875e-05
1.40721e-05 1.85151e-07 2.83384e-05
1.91621e-05 5.3157e-05 5.34652e-05
5.5407e-05 -8.88149e-06 5.33592e-05
-6.47728e-05 -5.63294e-05 5.84733e-05
-6.68689e-05 9.34972e-06 5.56821e-05
-4.75988e-05 3.47473e-05 5.41897e-05
-3.22936e-05 -9.60731e-06 4.53604e-05
-4.79654e-05 4.54363e-05 5.55286e-05
-6.63419e-07 -1.7123e-05 3.18918e-05
1.25093e-05 1.04153e-05 3.07245e-05
-7.88032e-06 -5.72917e-05 5.38808e-05
3.69473e-05 -3.97851e-05 5.29144e-05
5.45422e-05 1.24079e-05 5.33421e-05
-2.90863e-05 4.43628e-05 5.26093e-05
1.97371e-05 -5.04884e-05 5.28709e-05
4.30609e-05 4.07321e-05 5.41531e-05
-1.40635e-05 5.7342e-05 5.41249e-05
-1.78628e-05 -6.40001e-05 5.55586e-05
-7.25156e-05 4.76226e-05 5.88964e-05
-8.43101e-05 5.37055e-05 6.0225e-05
-4.94974e-05 -4.85229e-05 5.61318e-05
1.69899e-05 -7.17049e-06 3.31768e-05
8.1032e-06 1.34528e-05 3.0091e-05
-3.63601e-05 -4.17752e-05 5.32527e-05
7.94129e-06 -1.30277e-05 2.94976e-05
3.45263e-06 8.91942e-05 5.91865e-05
7.89447e-05 4.15989e-05 5.91667e-05
-5.65386e-05 -3.06434e-05 5.54017e-05
5.37617e-05 -1.87529e-05 5.36133e-05
-7.01612e-06 -8.14494e-05 5.81775e-05
6.82641e-05 -3.19172e-05 5.72315e-05
-6.38563e-05 -2.42744e-05 5.60511e-05
-2.10292e-06 -9.2556e-06 2.09409e-05
-8.28711e-06 1.37518e-05 3.04211e-05
-9.06003e-05 -4.7446e-05 6.03745e-05
-9.06618e-05 -5.23305e-05 6.05237e-05
-9.05874e-05 4.76044e-05 6.03452e-05
-9.06356e-05 5.28036e-05 6.04896e-05
-7.56858e-06 -1.43243e-05 3.05452e-05
2.51431e-05 4.51816e-05 5.2155e-05
1.83675e-06 -8.90717e-05 5.91736e-05
-2.52511e-06 8.73955e-06 2.02953e-05
2.87656e-05 -5.57613e-05 5.46941e-05
8.50371e-05 -4.8302e-05 6.00065e-05
8.64497e-05 -3.92829e-05 5.95479e-05
4.53417e-05 -6.87201e-05 5.71547e-05
5.63952e-05 -3.8827e-05 5.60799e-05
-4.09687e-05 4.08684e-06 4.87284e-05
-8.41658e-06 -3.93242e-06 2.0641e-05
3.49217e-06 1.68829e-05 3.19206e-05
1.08515e-05 -9.29211e-06 2.79897e-05
7.59214e-05 2.24976e-05 5.74752e-05
1.8795e-05 7.76274e-05 5.75614e-05
1.09229e-06 -0.000100598 6.02434e-05
-8.35934e-06 3.44139e-06 2.0133e-05
-1.48151e-05 2.88545e-06 2.90347e-05
1.62403e-05 6.69411e-06 3.21557e-05
1.6099e-06 0.0001026 6.03814e-05
8.96243e-05 4.9923e-05 6.03632e-05
-7.51463e-05 5.64794e-05 5.94273e-05
5.68536e-06 6.62653e-06 1.95041e-05
-7.62551e-05 -5.70165e-05 5.96226e-05
-7.24957e-05 -8.95685e-06 5.64256e-05
-7.39157e-05 -2.13244e-05 5.72239e-05
4.16123e-06 -1.49548e-05 2.97349e-05
-1.63533e-05 -7.48858e-05 5.71995e-05
-3.08679e-05 5.37997e-05 5.45668e-05
5.61543e-06 -6.34544e-06 1.89838e-05
4.62057e-05 -4.34633e-05 5.49876e-05
2.21799e-05 -8.48179e-05 5.82247e-05
-5.50811e-05 5.41054e-05 5.72029e-05
3.09336e-05 5.19964e-05 5.42237e-05
8.65496e-06 4.17961e-06 -1.99429e-05
8.41291e-06 -4.03073e-06 -1.95617e-05
2.08461e-06 9.00997e-06 -1.97857e-05
2.09155e-06 -8.69954e-06 -1.91882e-05
-9.00538e-06 8.79163e-08 -1.94612e-05
-5.49316e-06 -6.39313e-06 -1.83131e-05
-5.65224e-06 6.39717e-06 -1.8518e-05
-8.3504e-05 -2.76634e-05 -5.85811e-05
-8.24431e-05 2.79473e-05 -5.85196e-05
-1.75688e-05 8.53811e-05 -5.84558e-05
-1.75038e-05 -8.61513e-05 -5.8509e-05
6.52578e-05 5.78198e-05 -5.84407e-05
6.57623e-05 -5.74328e-05 -5.84588e-05
7.96088e-05 1.22426e-05 -5.72179e-05
-5.28e-05 6.42874e-05 -5.75316e-05
-5.1522e-05 -6.29218e-05 -5.73935e-05
2.90834e-05 7.49973e-05 -5.72304e-05
2.86362e-05 -7.6716e-05 -5.73768e-05
8.09246e-05 -1.33015e-05 -5.73761e-05
-7.99167e-05 2.22076e-08 -5.70618e-05
-8.23897e-05 4.07661e-05 -5.94734e-05
-7.04325e-05 3.48423e-05 -5.78202e-05
-6.84832e-05 2.21595e-05 -5.66037e-05
-5.77503e-05 2.87042e-05 -5.54045e-05
-5.56366e-05 1.68285e-05 -5.39365e-05
-4.57819e-05 2.27878e-05 -5.21812e-05
-4.37845e-05 1.23588e-05 -5.03769e-05
-3.45447e-05 1.77029e-05 -4.77654e-05
-3.64397e-05 2.82239e-05 -5.05857e-05
-2.58936e-05 2.29173e-05 -4.57263e-05
-2.76982e-05 3.34749e-05 -4.96153e-05
-1.79695e-05 2.80217e-05 -4.50278e-05
-1.94889e-05 3.89948e-05 -4.96561e-05
-1.00343e-05 3.33553e-05 -4.58315e-05
-1.13413e-05 4.49338e-05 -5.06458e-05
-1.96401e-06 3.93996e-05 -4.80527e-05
-2.9429e-06 5.15498e-05 -5.23041e-05
6.95783e-06 4.62737e-05 -5.07972e-05
-2.18579e-05 5.01232e-05 -5.30332e-05
7.03066e-06 3.42934e-05 -4.59059e-05
1.62211e-05 4.1016e-05 -4.98065e-05
1.55431e-05 2.97804e-05 -4.51043e-05
2.4607e-05 3.63661e-05 -4.97061e-05
2.40492e-05 2.548e-05 -4.58664e-05
3.36125e-05 3.22764e-05 -5.06907e-05
3.32837e-05 2.13359e-05 -4.80551e-05
4.34435e-05 2.81533e-05 -5.23202e-05
4.32174e-05 1.73688e-05 -5.07118e-05
3.36356e-05 4.35569e-05 -5.3092e-05
3.3132e-05 1.10214e-05 -4.58603e-05
4.3194e-05 7.03142e-06 -4.96978e-05
3.33731e-05 1.49796e-06 -4.50667e-05
4.38324e-05 -3.07128e-06 -4.97536e-05
3.38675e-05 -8.08732e-06 -4.5809e-05
4.46498e-05 -1.33019e-05 -5.06709e-05
3.48009e-05 -1.81766e-05 -4.78882e-05
4.56553e-05 -2.3818e-05 -5.22239e-05
3.60411e-05 -2.87565e-05 -5.05197e-05
2.56897e-05 -2.29731e-05 -4.55941e-05
2.6974e-05 -3.37422e-05 -4.94587e-05
1.72669e-05 -2.77442e-05 -4.46152e-05
1.83833e-05 -3.88453e-05 -4.938e-05
9.36713e-06 -3.28912e-05 -4.54606e-05
1.00163e-05 -4.43845e-05 -5.03226e-05
9.05041e-07 -3.85939e-05 -4.76299e-05
1.28736e-06 -5.07566e-05 -5.20352e-05
-7.76373e-06 -4.49369e-05 -5.03857e-05
-7.73085e-06 -3.31428e-05 -4.54168e-05
-1.69522e-05 -4.0056e-05 -4.96375e-05
-1.60642e-05 -2.83231e-05 -4.46308e-05
-2.57491e-05 -3.51419e-05 -4.96736e-05
-2.46181e-05 -2.38211e-05 -4.55466e-05
-3.42558e-05 -2.99744e-05 -5.03909e-05
-3.35877e-05 -1.94401e-05 -4.77834e-05
-4.40711e-05 -2.54176e-05 -5.21201e-05
-1.72974e-05 -5.17602e-05 -5.30179e-05
-4.35246e-05 -1.46709e-05 -5.05521e-05
2.86101e-05 -4.50531e-05 -5.26486e-05
-3.24578e-05 8.31563e-06 -4.5135e-05
-5.24267e-05 4.10252e-06 -5.24914e-05
6.73213e-06 5.88238e-05 -5.42144e-05
5.44219e-05 1.82167e-06 -5.2932e-05
5.40177e-05 2.38037e-05 -5.41731e-05
-3.81381e-05 4.01423e-05 -5.32488e-05
-2.33222e-05 -1.37703e-05 -4.10465e-05
-4.5752e-05 -3.62972e-05 -5.40687e-05
4.64749e-05 -3.428e-05 -5.38328e-05
5.70657e-05 -2.88608e-05 -5.52239e-05
-5.4536e-05 -2.0464e-05 -5.40027e-05
1.0927e-05 -5.68182e-05 -5.38634e-05
1.60459e-06 -6.37079e-05 -5.52098e-05
1.53487e-05 1.91934e-05 -3.90697e-05
5.40087e-05 3.5842e-05 -5.54217e-05
6.78974e-05 3.09303e-05 -5.7153e-05
-5.94998e-05 4.3153e-05 -5.70096e-05
-4.22408e-06 6.46291e-05 -5.54279e-05
7.12726e-06 7.43176e-05 -5.71732e-05
-9.12373e-06 2.27825e-05 -3.9131e-05
2.42614e-05 -3.43444e-06 -3.91628e-05
1.57953e-05 -1.62528e-05 -3.73729e-05
-7.80161e-06 -2.26589e-05 -3.86328e-05
-8.25389e-05 -4.08084e-05 -5.95123e-05
-7.05994e-05 -3.47773e-05 -5.78699e-05
7.79211e-05 5.17639e-05 -5.95716e-05
7.65962e-05 -5.23482e-05 -5.94372e-05
-6.12057e-06 -9.34984e-05 -5.95829e-05
-5.84089e-06 9.33854e-05 -5.95919e-05
6.65081e-05 -4.45929e-05 -5.79428e-05
7.65892e-05 -4.00724e-05 -5.88056e-05
1.41991e-05 -7.21781e-05 -5.68244e-05
2.80999e-06 -7.67298e-05 -5.75232e-05
-7.21881e-05 -4.67907e-05 -5.88609e-05
-5.41409e-05 -9.0656e-06 -5.31104e-05
-6.40062e-05 -1.43101e-05 -5.54043e-05
-4.22201e-05 -4.44542e-06 -4.92859e-05
8.90382e-05 4.11729e-05 -5.98561e-05
9.21398e-05 -4.56092e-05 -6.02345e-05
8.89309e-06 9.77161e-05 -5.98742e-05
8.45135e-06 -9.67242e-05 -5.98156e-05
1.19689e-05 -8.57151e-05 -5.8639e-05
-7.8209e-06 -6.98993e-05 -5.64118e-05
1.44177e-05 8.82792e-05 -5.88381e-05
8.36229e-05 3.16539e-05 -5.88157e-05
1.7632e-05 6.64179e-05 -5.59484e-05
5.48873e-05 -4.97554e-05 -5.68171e-05
-5.99527e-05 -4.16119e-05 -5.69681e-05
-6.50143e-05 -1.48802e-06 -5.51991e-05
6.63683e-05 1.80355e-05 -5.59467e-05
2.69004e-07 -2.7476e-05 -4.13445e-05
7.67153e-06 -2.13768e-05 -3.74027e-05
2.50896e-05 -1.25958e-05 -4.17058e-05
-8.07141e-05 1.44475e-05 -5.7493e-05
2.20437e-05 -6.27792e-05 -5.54795e-05
3.45596e-05 -6.6734e-05 -5.65399e-05
6.60385e-05 4.45329e-05 -5.79124e-05
5.30022e-05 -6.16059e-05 -5.73753e-05
4.14109e-05 -5.31577e-05 -5.55868e-05
-1.5504e-05 -1.84491e-05 -3.88101e-05
2.36263e-05 4.99581e-06 -3.88312e-05
2.25637e-05 1.39325e-05 -4.06558e-05
-5.76043e-06 -0.00010282 -6.02873e-05
8.24687e-06 2.31313e-05 -3.90812e-05
-4.99533e-07 2.64073e-05 -4.06205e-05
-1.65098e-05 1.80267e-05 -3.90695e-05
-2.41748e-05 1.30453e-05 -4.13932e-05
-2.26861e-05 4.55774e-06 -3.77938e-05
-3.17903e-05 -2.42887e-07 -4.41883e-05
-1.94652e-05 -3.63615e-06 -3.49944e-05
-1.42122e-05 8.5823e-06 -3.1206e-05
-8.28939e-05 -1.39527e-05 -5.76066e-05
8.53168e-05 -5.63998e-05 -6.02113e-05
-5.57212e-06 7.9468e-05 -5.79321e-05
8.05146e-05 -3.22247e-07 -5.7019e-05
6.78813e-05 -6.37506e-06 -5.56546e-05
6.64939e-05 -1.90019e-05 -5.60491e-05
8.14601e-05 -2.8239e-05 -5.84103e-05
-8.45045e-05 -5.17147e-05 -6.02025e-05
6.68446e-05 6.38753e-06 -5.54918e-05
-5.69495e-06 0.000103191 -6.03198e-05
-1.92748e-06 1.68057e-05 -3.16471e-05
8.64811e-05 5.65437e-05 -6.03002e-05
-6.54554e-05 5.77821e-05 -5.85296e-05
-4.02582e-05 -6.98542e-05 -5.70792e-05
-3.89609e-05 -5.52276e-05 -5.5627e-05
-2.89099e-05 -6.19327e-05 -5.57404e-05
-2.74199e-05 -7.60172e-05 -5.73656e-05
-4.05176e-05 7.00969e-05 -5.71018e-05
-3.98603e-05 5.53511e-05 -5.57351e-05
-2.89814e-05 7.72896e-05 -5.74633e-05
-1.61078e-05 7.08812e-05 -5.66402e-05
4.07362e-05 6.94647e-05 -5.70176e-05
5.25907e-05 6.35907e-05 -5.74362e-05
5.35415e-05 4.93262e-05 -5.66369e-05
-2.83087e-05 6.26565e-05 -5.57726e-05
4.04952e-05 5.59364e-05 -5.57891e-05
2.97908e-05 6.19395e-05 -5.57183e-05
-1.42275e-05 -8.68959e-06 -3.12332e-05
-2.85669e-05 -4.88391e-05 -5.34875e-05
1.40721e-05 1.85151e-07 -2.83384e-05
1.91621e-05 5.3157e-05 -5.34652e-05
5.5407e-05 -8.88149e-06 -5.33592e-05
-6.47728e-05 -5.63294e-05 -5.84733e-05
-6.68689e-05 9.34972e-06 -5.56821e-05
-4.75988e-05 3.47473e-05 -5.41897e-05
-3.22936e-05 -9.60731e-06 -4.53604e-05
-4.79654e-05 4.54363e-05 -5.55286e-05
-6.63419e-07 -1.7123e-05 -3.18918e-05
1.25093e-05 1.04153e-05 -3.07245e-05
-7.88032e-06 -5.72917e-05 -5.38808e-05
3.69473e-05 -3.97851e-05 -5.29144e-05
5.45422e-05 1.24079e-05 -5.33421e-05
-2.90863e-05 4.43628e-05 -5.26093e-05
1.97371e-05 -5.04884e-05 -5.28709e-05
4.30609e-05 4.07321e-05 -5.41531e-05
-1.40635e-05 5.7342e-05 -5.41249e-05
-1.78628e-05 -6.40001e-05 -5.55586e-05
-7.25156e-05 4.76226e-05 -5.88964e-05
-8.43101e-05 5.37055e-05 -6.0225e-05
-4.94974e-05 -4.85229e-05 -5.61318e-05
1.69899e-05 -7.17049e-06 -3.31768e-05
8.1032e-06 1.34528e-05 -3.0091e-05
-3.63601e-05 -4.17752e-05 -5.32527e-05
7.94129e-06 -1.30277e-05 -2.94976e-05
3.45263e-06 8.91942e-05 -5.91865e-05
7.89447e-05 4.15989e-05 -5.91667e-05
-5.65386e-05 -3.06434e-05 -5.54017e-05
5.37617e-05 -1.87529e-05 -5.36133e-05
-7.01612e-06 -8.14494e-05 -5.81775e-05
6.82641e-05 -3.19172e-05 -5.72315e-05
-6.38563e-05 -2.42744e-05 -5.60511e-05
-2.10292e-06 -9.2556e-06 -2.09409e-05
-8.28711e-06 1.37518e-05 -3.04211e-05
-9.06003e-05 -4.7446e-05 -6.03745e-05
-9.06618e-05 -5.23305e-05 -6.05237e-05
-9.05874e-05 4.76044e-05 -6.03452e-05
-9.06356e-05 5.28036e-05 -6.04896e-05
-7.56858e-06 -1.43243e-05 -3.05452e-05
2.51431e-05 4.51816e-05 -5.2155e-05
1.83675e-06 -8.90717e-05 -5.91736e-05
-2.52511e-06 8.73955e-06 -2.02953e-05
2.87656e-05 -5.57613e-05 -5.46941e-05
8.50371e-05 -4.8302e-05 -6.00065e-05
8.64497e-05 -3.92829e-05 -5.95479e-05
4.53417e-05 -6.87201e-05 -5.71547e-05
5.63952e-05 -3.8827e-05 -5.60799e-05
-4.09687e-05 4.08684e-06 -4.87284e-05
-8.41658e-06 -3.93242e-06 -2.0641e-05
3.49217e-06 1.68829e-05 -3.19206e-05
1.08515e-05 -9.29211e-06 -2.79897e-05
7.59214e-05 2.24976e-05 -5.74752e-05
1.8795e-05 7.76274e-05 -5.75614e-05
1.09229e-06 -0.000100598 -6.02434e-05
-8.35934e-06 3.44139e-06 -2.0133e-05
-1.48151e-05 2.88545e-06 -2.90347e-05
1.62403e-05 6.69411e-06 -3.21557e-05
1.6099e-06 0.0001026 -6.03814e-05
8.96243e-05 4.9923e-05 -6.03632e-05
-7.51463e-05 5.64794e-05 -5.94273e-05
5.68536e-06 6.62653e-06 -1.95041e-05
-7.62551e-05 -5.70165e-05 -5.96226e-05
-7.24957e-05 -8.95685e-06 -5.64256e-05
-7.39157e-05 -2.13244e-05 -5.72239e-05
4.16123e-06 -1.49548e-05 -2.97349e-05
-1.63533e-05 -7.48858e-05 -5.71995e-05
-3.08679e-05 5.37997e-05 -5.45668e-05
5.61543e-06 -6.34544e-06 -1.89838e-05
4.62057e-05 -4.34633e-05 -5.49876e-05
2.21799e-05 -8.48179e-05 -5.82247e-05
-5.50811e-05 5.41054e-05 -5.72029e-05
3.09336e-05 5.19964e-05 -5.42237e-05
SCALARS effective_fluid_pressure_TPM float
LOOKUP_TABLE default
1599
1599
1599
1599
1599
1599
1599
1599
1599
1599
1599
1599
1599
1599
933
1599
1599
1599
1599
1599
1599
1599
1599
1599
1599
1599
1599
1599
1599
933
1599
1473.57
1426.06
1404.64
1404.36
1425
1473.11
1599
1475.58
1426.18
1405.19
1405.32
1426.1
1475.12
1599
1472.71
1424.86
1404.58
1404.84
1426.66
1475.15
1599
1471.82
1424.06
1403.11
1403.95
1423.88
1472.53
1599
1471.39
1425.2
1403.52
1403.43
1424.51
1470.72
1599
1471.58
1425.21
1403.71
1403.54
1424.49
1472.78
933
933
933
933
933
933
1599
1473.57
1426.06
1404.64
1404.36
1425
1473.11
1599
1475.58
1426.18
1405.19
1405.32
1426.1
1475.12
1599
1472.71
1424.86
1404.58
1404.84
1426.66
1475.15
1599
1471.82
1424.06
1403.11
1403.95
1423.88
1472.53
1599
1471.39
1425.2
1403.52
1403.43
1424.51
1470.72
1599
1471.58
1425.21
1403.71
1403.54
1424.49
1472.78
933
933
933
933
933
933
1063.49
1060.96
1062.42
1058.51
1060.52
1052.89
1054.27
1436.15
1434.94
1432.99
1434.65
1433.02
1434.27
1399.58
1405.43
1403.06
1399.86
1402.89
1402.65
1394.37
1476.01
1423.71
1394.98
1377.65
1354.29
1332.33
1310.22
1282.25
1312.9
1261.62
1301.31
1254.68
1301.52
1262.45
1313.04
1284.89
1333.65
1315.07
1340.87
1263.17
1303.2
1255.38
1302
1262.72
1313.49
1284.81
1333.79
1313.98
1341.58
1262.57
1301.85
1254.74
1302.29
1262
1313.31
1283.21
1332.66
1311.89
1260.11
1299.35
1250.59
1298.39
1258.85
1309.42
1280.66
1330.4
1310.4
1258.53
1301.36
1250.95
1301.76
1259.88
1310.47
1282.37
1331.61
1341.32
1312.27
1335.71
1256.08
1334.12
1358.98
1339.05
1358.35
1344.66
1219.34
1356.85
1353.84
1374.86
1355.98
1353.38
1374.74
1202.36
1377.73
1407.92
1405.23
1377.81
1408.29
1202.94
1202.8
1188.54
1198.87
1477.07
1424.53
1482.1
1475.85
1482.48
1482.3
1427.1
1452.22
1399.28
1417.38
1451.45
1342.33
1373.95
1297.6
1496.47
1534.25
1496.65
1492.25
1442.51
1394.22
1446.96
1446.6
1382.92
1398.68
1404.89
1368.66
1382.99
1221.58
1188.86
1224.6
1405.29
1374.12
1387.09
1425.98
1403.55
1374.4
1200.27
1200.17
1215.36
1537.13
1202.5
1215.2
1202.42
1222.19
1192.39
1246.92
1169.44
1141.76
1406.83
1531.05
1426.25
1393.61
1374.92
1384.51
1432.89
1521.39
1372.78
1540.07
1144.98
1539.95
1435.59
1394.6
1374.8
1376.22
1402.71
1394.96
1376.25
1404.16
1395.14
1393.63
1403.85
1395.23
1376.8
1376.99
1375.79
1142.31
1346.14
1120.73
1346.59
1344.95
1433.51
1376.29
1358.9
1257.8
1377.43
1146.64
1138.13
1354.36
1340.06
1345.35
1335.52
1338.94
1356.97
1356.56
1376.79
1453.13
1523.03
1385.89
1156.23
1133.53
1344.18
1129.34
1463.65
1463.36
1377.68
1350.2
1432.42
1410.72
1387.16
1070.86
1136.32
1538.39
1564.58
1539.15
1565.01
1137.23
1330.01
1464.65
1066.52
1361.85
1509.27
1480.29
1396.13
1388.85
1291.94
1068.82
1147.08
1118.94
1410.51
1412.07
1530.34
1065.55
1126.65
1148.8
1543.63
1543.53
1471.31
1060.93
1476.11
1387
1405.1
1131.47
1405.86
1360.42
1057.61
1369.05
1424.64
1404.59
1355.65
1063.49
1060.96
1062.42
1058.51
1060.52
1052.89
1054.27
1436.15
1434.94
1432.99
1434.65
1433.02
1434.27
1399.58
1405.43
1403.06
1399.86
1402.89
1402.65
1394.37
1476.01
1423.71
1394.98
1377.65
1354.29
1332.33
1310.22
1282.25
1312.9
1261.62
1301.31
1254.68
1301.52
1262.45
1313.04
1284.89
1333.65
1315.07
1340.87
1263.17
1303.2
1255.38
1302
1262.72
1313.49
1284.81
1333.79
1313.98
1341.58
1262.57
1301.85
1254.74
1302.29
1262
1313.31
1283.21
1332.66
1311.89
1260.11
1299.35
1250.59
1298.39
1258.85
1309.42
1280.66
1330.4
1310.4
1258.53
1301.36
1250.95
1301.76
1259.88
1310.47
1282.37
1331.61
1341.32
1312.27
1335.71
1256.08
1334.12
1358.98
1339.05
1358.35
1344.66
1219.34
1356.85
1353.84
1374.86
1355.98
1353.38
1374.74
1202.36
1377.73
1407.92
1405.23
1377.81
1408.29
1202.94
1202.8
1188.54
1198.87
1477.07
1424.53
1482.1
1475.85
1482.48
1482.3
1427.1
1452.22
1399.28
1417.38
1451.45
1342.33
1373.95
1297.6
1496.47
1534.25
1496.65
1492.25
1442.51
1394.22
1446.96
1446.6
1382.92
1398.68
1404.89
1368.66
1382.99
1221.58
1188.86
1224.6
1405.29
1374.12
1387.09
1425.98
1403.55
1374.4
1200.27
1200.17
1215.36
1537.13
1202.5
1215.2
1202.42
1222.19
1192.39
1246.92
1169.44
1141.76
1406.83
1531.05
1426.25
1393.61
1374.92
1384.51
1432.89
1521.39
1372.78
1540.07
1144.98
1539.95
1435.59
1394.6
1374.8
1376.22
1402.71
1394.96
1376.25
1404.16
1395.14
1393.63
1403.85
1395.23
1376.8
1376.99
1375.79
1142.31
1346.14
1120.73
1346.59
1344.95
1433.51
1376.29
1358.9
1257.8
1377.43
1146.64
1138.13
1354.36
1340.06
1345.35
1335.52
1338.94
1356.97
1356.56
1376.79
1453.13
1523.03
1385.89
1156.23
1133.53
1344.18
1129.34
1463.65
1463.36
1377.68
1350.2
1432.42
1410.72
1387.16
1070.86
1136.32
1538.39
1564.58
1539.15
1565.01
1137.23
1330.01
1464.65
1066.52
1361.85
1509.27
1480.29
1396.13
1388.85
1291.94
1068.82
1147.08
1118.94
1410.51
1412.07
1530.34
1065.55
1126.65
1148.8
1543.63
1543.53
1471.31
1060.93
1476.11
1387
1405.1
1131.47
1405.86
1360.42
1057.61
1369.05
1424.64
1404.59
1355.65

CELL_DATA 563
TENSORS stress float
469.273 -118.909 2.10321e-12
-118.909 -92.9582 -1.50635e-12
2.10321e-12 -1.50635e-12 -219.244

-66.0256 -33.6143 1.10282e-14
-33.6143 -12.5379 5.9508e-14
1.10282e-14 5.9508e-14 -20.7152

-18.4028 48.0555 1.62477e-12
48.0555 -3.32381 1.50931e-12
1.62477e-12 1.50931e-12 -23.8051

-64.8228 -48.8128 -2.54582e-12
-48.8128 -21.4563 -1.40362e-12
-2.54582e-12 -1.40362e-12 -20.4528

-38.9157 30.7388 -3.16961e-12
30.7388 -4.60061 4.40833e-13
-3.16961e-12 4.40833e-13 -43.4971

-47.8539 -31.0492 2.27078e-13
-31.0492 25.8842 8.02913e-13
2.27078e-13 8.02913e-13 -23.9648

455.961 123.998 3.24007e-12
123.998 -91.7368 2.37795e-12
3.24007e-12 2.37795e-12 -222.575

-11.6224 50.5483 -2.06472e-12
50.5483 -17.736 8.58572e-14
-2.06472e-12 8.58572e-14 -22.4311

58.3723 9.51287 -1.8332e-12
9.51287 -39.9621 3.68731e-12
-1.8332e-12 3.68731e-12 -31.1189

19.7042 -12.2409 -3.60304e-12
-12.2409 -79.6243 7.46514e-13
-3.60304e-12 7.46514e-13 -20.5858

225.021 50.3349 -8.52651e-13
50.3349 -151.674 3.93167e-13
-8.52651e-13 3.93167e-13 -232.007

-59.3379 -23.1323 -4.85538e-14
-23.1323 30.6308 -3.25192e-12
-4.85538e-14 -3.25192e-12 -22.3824

-12.1326 47.5683 -4.44918e-12
47.5683 -8.90947 7.14095e-13
-4.44918e-12 7.14095e-13 -22.3889

-59.3997 -23.5606 -1.46068e-12
-23.5606 12.2097 2.81257e-12
-1.46068e-12 2.81257e-12 -22.3664

-36.4232 53.2253 -1.15759e-12
53.2253 -39.5351 6.20716e-13
-1.15759e-12 6.20716e-13 -36.935

35.2732 1.03529 3.12994e-12
1.03529 -57.1076 7.55507e-13
3.12994e-12 7.55507e-13 -21.8775

-78.8575 -29.7069 1.62944e-13
-29.7069 10.9784 9.46206e-13
1.62944e-13 9.46206e-13 -25.1849

18.9502 -4.55987 -1.33286e-12
-4.55987 -71.8347 -3.29159e-12
-1.33286e-12 -3.29159e-12 -20.7409

-25.0039 48.6394 3.55271e-14
48.6394 31.0991 -3.01625e-12
3.55271e-14 -3.01625e-12 -35.848

36.2526 -7.25526 2.53072e-12
-7.25526 -61.9082 -2.265e-12
2.53072e-12 -2.265e-12 -24.818

-46.5413 15.9059 1.24789e-12
15.9059 53.5008 -1.89004e-12
1.24789e-12 -1.89004e-12 -27.7834

-18.0923 10.8885 -1.45002e-11
10.8885 -22.1753 4.08266e-13
-1.45002e-11 4.08266e-13 -126.626

38.2579 3.31363 1.64846e-12
3.31363 -59.456 1.40125e-12
1.64846e-12 1.40125e-12 -26.0808

-22.783 -47.8303 4.06727e-12
-47.8303 1.40437 -3.70666e-13
4.06727e-12 -3.70666e-13 -25.4259

35.7257 11.6548 6.02777e-13
11.6548 -60.3407 2.54404e-12
6.02777e-13 2.54404e-12 -25.0898

-62.1474 31.6869 7.45182e-13
31.6869 4.5238 2.92092e-12
7.45182e-13 2.92092e-12 -21.9548

237.629 9.72676 9.37916e-13
9.72676 -43.0432 1.70412e-12
9.37916e-13 1.70412e-12 -177.015

-10.2412 52.413 -6.39488e-12
52.413 -13.5056 -3.55271e-13
-6.39488e-12 -3.55271e-13 -25.1523

37.3582 83.117 4.01457e-12
83.117 31.8725 -8.05282e-13
4.01457e-12 -8.05282e-13 -88.8741

-14.5082 15.6353 1.96228e-12
15.6353 -51.0145 -2.07086e-12
1.96228e-12 -2.07086e-12 -82.126

32.3044 23.7971 -1.00542e-12
23.7971 -52.1772 -3.03343e-12
-1.00542e-12 -3.03343e-12 -22.3725

-36.1542 -39.3835 1.34529e-12
-39.3835 107.561 7.79229e-12
1.34529e-12 7.79229e-12 -88.7433

101.348 -142.13 -2.27374e-12
-142.13 118.351 -1.38319e-12
-2.27374e-12 -1.38319e-12 -178.352

-76.0415 9.66365 1.7805e-12
9.66365 12.6193 1.32812e-12
1.7805e-12 1.32812e-12 -68.8101

-43.0547 -8.49055 -1.17832e-13
-8.49055 1.03143 4.26503e-12
-1.17832e-13 4.26503e-12 -66.6819

-1.25733 33.5636 -1.08831e-12
33.5636 -62.219 7.97111e-12
-1.08831e-12 7.97111e-12 -68.912

-67.4736 8.11306 3.79696e-12
8.11306 0.932606 -2.58164e-13
3.79696e-12 -2.58164e-13 -86.084

-5.56384 -13.873 4.08029e-12
-13.873 -35.1412 2.4246e-12
4.08029e-12 2.4246e-12 -63.8208

-8.78995 -47.9138 2.53308e-12
-47.9138 -9.28792 -1.53951e-13
2.53308e-12 -1.53951e-13 -22.7001

97.1025 139.991 -8.05282e-13
139.991 124.734 -3.56219e-12
-8.05282e-13 -3.56219e-12 -177.64

108.694 -41.9678 -1.55372e-12
-41.9678 -27.0477 5.91882e-12
-1.55372e-12 5.91882e-12 -90.1807

-64.1587 -6.08489 1.04006e-12
-6.08489 -1.74382 -5.07091e-12
1.04006e-12 -5.07091e-12 -87.0039

-22.6862 30.2339 3.32253e-12
30.2339 -43.419 9.23706e-13
3.32253e-12 9.23706e-13 -87.1516

29.8126 -20.6494 1.30029e-12
-20.6494 -52.5848 7.82485e-13
1.30029e-12 7.82485e-13 -22.1595

41.0785 -119.14 -8.52651e-14
-119.14 49.5283 2.38269e-12
-8.52651e-14 2.38269e-12 -155.117

103.815 -41.3257 -5.67487e-12
-41.3257 -29.3292 1.80004e-13
-5.67487e-12 1.80004e-13 -85.331

-42.8284 30.8624 1.86399e-12
30.8624 50.8031 -1.93741e-12
1.86399e-12 -1.93741e-12 -33.6977

-25.1587 35.2621 -1.6757e-12
35.2621 41.8581 -7.29491e-13
-1.6757e-12 -7.29491e-13 -29.3062

34.3527 -27.5902 1.50043e-12
-27.5902 -57.9156 1.51997e-12
1.50043e-12 1.51997e-12 -25.1906

-4.54374 -80.2605 1.55135e-12
-80.2605 75.4389 -4.70853e-12
1.55135e-12 -4.70853e-12 -105.515

112.052 45.7795 1.32161e-12
45.7795 -24.9321 -4.1851e-12
1.32161e-12 -4.1851e-12 -97.575

81.6781 -51.9977 3.61193e-12
-51.9977 -8.41287 1.03029e-13
3.61193e-12 1.03029e-13 -66.9736

-50.4363 31.4618 1.52796e-12
31.4618 -7.99441 2.35782e-12
1.52796e-12 2.35782e-12 -46.2914

59.0873 63.327 6.63173e-14
63.327 14.1158 1.77636e-13
6.63173e-14 1.77636e-13 -66.0697

-45.0674 -34.3086 -5.61625e-12
-34.3086 -12.7553 1.85242e-12
-5.61625e-12 1.85242e-12 -45.0519

119.734 -123.241 -1.57267e-12
-123.241 50.343 5.55171e-12
-1.57267e-12 5.55171e-12 -143.456

-45.3363 9.49145 -3.6285e-12
9.49145 2.50253 -2.47979e-12
-3.6285e-12 -2.47979e-12 -67.3928

-29.3005 -13.1637 -1.27602e-12
-13.1637 103.407 -6.6791e-13
-1.27602e-12 -6.6791e-13 -66.2658

-1.22438 15.8648 -1.37076e-12
15.8648 -41.5482 5.59853e-13
-1.37076e-12 5.59853e-13 -67.4964

-46.2477 37.0182 -1.60997e-12
37.0182 19.7323 7.78044e-13
-1.60997e-12 7.78044e-13 -24.7583

8.39106 8.36506 7.54656e-13
8.36506 -89.91 1.77251e-12
7.54656e-13 1.77251e-12 -25.4831

-1.32941 18.5881 3.82509e-13
18.5881 -55.5813 1.39266e-12
3.82509e-13 1.39266e-12 -29.4531

243.946 110.53 6.63173e-14
110.53 20.7215 -2.28321e-12
6.63173e-14 -2.28321e-12 -157.652

-59.3392 -9.52072 -3.86372e-12
-9.52072 15.4891 -8.11203e-14
-3.86372e-12 -8.11203e-14 -28.6829

-58.0959 14.635 -1.13657e-12
14.635 0.28362 1.0895e-12
-1.13657e-12 1.0895e-12 -29.5327

-71.0049 -5.04207 2.33695e-12
-5.04207 34.2573 5.68434e-13
2.33695e-12 5.68434e-13 -26.4489

-71.1743 38.2521 -2.51858e-12
38.2521 -9.69952 1.48326e-12
-2.51858e-12 1.48326e-12 -25.4653

16.3951 13.8289 -2.00728e-12
13.8289 -70.1577 -2.59911e-12
-2.00728e-12 -2.59911e-12 -21.9049

-22.8599 -48.8099 -9.45022e-13
-48.8099 1.60745 -2.31045e-12
-9.45022e-13 -2.31045e-12 -25.8221

0.826242 -2.56471 9.81289e-13
-2.56471 -88.8676 3.13527e-13
9.81289e-13 3.13527e-13 -21.2482

-50.5673 -31.1544 -3.72176e-12
-31.1544 -8.36654 4.24076e-12
-3.72176e-12 4.24076e-12 -46.0404

-45.7343 33.618 3.37093e-12
33.618 -13.0155 3.58572e-13
3.37093e-12 3.58572e-13 -46.1626

-30.446 -36.4082 1.05397e-13
-36.4082 113.149 -2.50111e-12
1.05397e-13 -2.50111e-12 -90.455

-1.8065 -45.8706 1.21858e-12
-45.8706 -35.9337 -2.84099e-12
1.21858e-12 -2.84099e-12 -28.3798

-26.5681 -43.4141 2.28617e-12
-43.4141 11.0769 4.35444e-12
2.28617e-12 4.35444e-12 -22.7158

191.878 -97.9297 2.64322e-12
-97.9297 -47.3918 2.61124e-12
2.64322e-12 2.61124e-12 -193.836

-55.7634 4.99808 6.16307e-12
4.99808 13.3919 2.94283e-13
6.16307e-12 2.94283e-13 -36.4829

3.69985 47.953 1.89952e-12
47.953 -40.784 3.25073e-13
1.89952e-12 3.25073e-13 -26.5406

-63.2042 32.8121 -2.22045e-12
32.8121 8.52189 -1.01548e-12
-2.22045e-12 -1.01548e-12 -22.0332

87.9629 16.2913 -3.55271e-14
16.2913 -47.3334 2.68881e-12
-3.55271e-14 2.68881e-12 -60.1652

104.27 -89.9104 -2.98902e-12
-89.9104 40.521 1.56319e-12
-2.98902e-12 1.56319e-12 -113.495

-31.5488 -16.3061 8.40217e-13
-16.3061 -4.53666 2.79066e-12
8.40217e-13 2.79066e-12 -48.0882

-55.2496 37.5946 -5.15143e-14
37.5946 -19.3494 6.80974e-13
-5.15143e-14 6.80974e-13 -27.0726

100.065 -82.3026 3.30639e-12
-82.3026 1.18476 1.03029e-12
3.30639e-12 1.03029e-12 -119.324

126.608 23.7501 1.19845e-12
23.7501 -12.3478 -7.56136e-13
1.19845e-12 -7.56136e-13 -84.9931

-49.7953 -58.8684 2.01143e-12
-58.8684 181.07 1.79057e-12
2.01143e-12 1.79057e-12 -149.123

-58.8579 24.6236 1.7694e-12
24.6236 33.1924 3.11455e-13
1.7694e-12 3.11455e-13 -24.9245

12.8112 38.4333 9.74628e-13
38.4333 -44.0526 -2.38032e-13
9.74628e-13 -2.38032e-13 -27.1042

31.1291 116.617 1.20792e-12
116.617 63.1989 8.05282e-13
1.20792e-12 8.05282e-13 -155.027

-5.28159 25.5541 1.57461e-11
25.5541 -55.4786 4.42905e-13
1.57461e-11 4.42905e-13 -119.975

-30.2169 -10.1471 2.46025e-12
-10.1471 104.413 -4.78432e-13
2.46025e-12 -4.78432e-13 -66.2409

-1.06751 -25.4932 -1.55283e-12
-25.4932 -61.2727 8.1033e-12
-1.55283e-12 8.1033e-12 -120.947

-5.33241 -44.0057 1.40332e-12
-44.0057 -48.627 2.0434e-12
1.40332e-12 2.0434e-12 -39.5659

14.4818 45.2428 3.4935e-13
45.2428 -50.567 3.64745e-12
3.4935e-13 3.64745e-12 -26.8483

79.7733 -50.2006 -1.64846e-12
-50.2006 -7.60485 -1.35595e-12
-1.64846e-12 -1.35595e-12 -63.9772

-6.8479 72.2172 -7.27122e-13
72.2172 78.2456 -2.46321e-12
-7.27122e-13 -2.46321e-12 -98.047

-14.0642 -30.0343 3.32771e-12
-30.0343 168.271 1.92794e-12
3.32771e-12 1.92794e-12 -112.302

-63.9613 36.235 -2.14317e-12
36.235 4.72041 -5.34683e-13
-2.14317e-12 -5.34683e-13 -20.0963

0.307252 27.1611 -1.82136e-12
27.1611 -42.7323 -3.93226e-12
-1.82136e-12 -3.93226e-12 -36.4925

-47.3319 26.2043 -3.17761e-12
26.2043 29.8697 3.74811e-12
-3.17761e-12 3.74811e-12 -22.4681

75.595 30.1471 -3.66877e-12
30.1471 -25.1225 1.44477e-12
-3.66877e-12 1.44477e-12 -45.5437

2.14593 -50.3911 -1.44714e-12
-50.3911 105.093 -3.50061e-12
-1.44714e-12 -3.50061e-12 -78.2604

124.22 -74.4705 3.97904e-13
-74.4705 -3.59741 3.07665e-12
3.97904e-13 3.07665e-12 -121.52

-53.5943 -40.1232 -1.45691e-12
-40.1232 -11.5533 8.07058e-13
-1.45691e-12 8.07058e-13 -20.4504

-37.6206 45.1454 -5.68434e-13
45.1454 -17.0282 2.94105e-12
-5.68434e-13 2.94105e-12 -21.9722

-63.4002 38.1783 2.84217e-14
38.1783 3.28267 1.31154e-12
2.84217e-14 1.31154e-12 -20.0095

-83.0209 21.6462 -6.87538e-13
21.6462 20.3823 8.59757e-13
-6.87538e-13 8.59757e-13 -30.8721

38.3345 15.9098 6.40673e-13
15.9098 -52.9542 -7.71975e-13
6.40673e-13 -7.71975e-13 -22.4943

-39.1559 -14.3469 1.6378e-12
-14.3469 155.712 -1.44477e-12
1.6378e-12 -1.44477e-12 -121.575

-70.6392 -59.5907 -8.92027e-13
-59.5907 -30.6682 -1.2849e-12
-8.92027e-13 -1.2849e-12 -24.6498

-28.7715 47.1333 4.56583e-12
47.1333 1.66002 -9.67522e-13
4.56583e-12 -9.67522e-13 -24.6159

-72.309 6.95849 1.77251e-12
6.95849 161.803 3.02218e-12
1.77251e-12 3.02218e-12 -144.865

132.538 88.5407 1.27898e-13
88.5407 -17.4867 -4.2301e-12
1.27898e-13 -4.2301e-12 -130.635

-51.7067 -37.7851 -9.91799e-14
-37.7851 -7.83843 -1.04805e-12
-9.91799e-14 -1.04805e-12 -20.5386

19.5367 9.60303 -2.08663e-12
9.60303 -79.6992 -2.61657e-12
-2.08663e-12 -2.61657e-12 -20.2123

74.9858 56.5565 9.75812e-13
56.5565 2.64939 -5.95672e-13
9.75812e-13 -5.95672e-13 -65.4374

-17.7052 20.2694 1.39444e-12
20.2694 -23.2714 1.59991e-12
1.39444e-12 1.59991e-12 -65.7162

136.23 62.5401 -6.30015e-13
62.5401 10.8621 -6.91595e-13
-6.30015e-13 -6.91595e-13 -111.56

-19.3971 -20.7763 3.07369e-12
-20.7763 -22.9352 -1.88531e-12
3.07369e-12 -1.88531e-12 -66.0186

-27.507 3.41021 -1.81781e-13
3.41021 108.05 6.39488e-13
-1.81781e-13 6.39488e-13 -65.1656

65.6567 -3.83379 -3.39403e-12
-3.83379 -49.8264 -1.25085e-13
-3.39403e-12 -1.25085e-13 -38.8962

6.65683 -25.7382 1.00157e-12
-25.7382 -85.0319 -1.43293e-13
1.00157e-12 -1.43293e-13 -36.2541

-67.892 38.7585 -1.95617e-12
38.7585 -20.0852 -6.57844e-13
-1.95617e-12 -6.57844e-13 -21.071

-76.599 -22.1925 -2.31321e-12
-22.1925 18.149 1.61412e-12
-2.31321e-12 1.61412e-12 -25.3749

11.0717 -13.1219 3.73982e-12
-13.1219 -112.761 -2.42354e-12
3.73982e-12 -2.42354e-12 -24.7043

-78.2828 -36.2414 7.13947e-13
-36.2414 6.76299 -1.7053e-13
7.13947e-13 -1.7053e-13 -38.4652

-28.624 -9.69865 2.87592e-12
-9.69865 -21.6136 -2.65073e-12
2.87592e-12 -2.65073e-12 -60.901

-47.3828 -49.2529 -3.51719e-12
-49.2529 -15.42 -2.88954e-12
-3.51719e-12 -2.88954e-12 -20.3853

-9.37838 31.7211 -1.52767e-13
31.7211 160.043 -9.4739e-15
-1.52767e-13 -9.4739e-15 -111.628

70.4094 -60.2924 1.10134e-12
-60.2924 6.79325 -7.01069e-12
1.10134e-12 -7.01069e-12 -64.8874

-74.5977 -21.9344 1.17121e-12
-21.9344 8.38782 -2.00788e-12
1.17121e-12 -2.00788e-12 -49.9629

3.47613 0.376937 8.09723e-13
0.376937 -91.2515 -1.50716e-12
8.09723e-13 -1.50716e-12 -20.9158

-62.5104 -34.4414 -6.22021e-13
-34.4414 -15.3594 9.08903e-14
-6.22021e-13 9.08903e-14 -27.0897

-64.9152 40.4885 1.05368e-12
40.4885 -24.3937 -8.01433e-13
1.05368e-12 -8.01433e-13 -21.1937

45.399 -72.4735 -1.4803e-12
-72.4735 62.6918 -2.27847e-12
-1.4803e-12 -2.27847e-12 -77.9361

-51.2791 -11.6896 -2.6051e-12
-11.6896 1.35461 9.49167e-13
-2.6051e-12 9.49167e-13 -70.8101

37.0186 -93.7672 -3.08376e-12
-93.7672 137.609 1.95162e-12
-3.08376e-12 1.95162e-12 -127.112

26.9253 -32.6359 1.68162e-13
-32.6359 -45.4468 -4.48412e-12
1.68162e-13 -4.48412e-12 -24.0824

1.75594 2.39167 -1.13628e-12
2.39167 -81.8002 -3.18738e-12
-1.13628e-12 -3.18738e-12 -27.7352

-22.1458 28.5854 -1.5176e-12
28.5854 -27.8576 -2.48483e-12
-1.5176e-12 -2.48483e-12 -70.9089

-1.46225 46.876 -2.99375e-12
46.876 108.065 4.62326e-12
-2.99375e-12 4.62326e-12 -75.2855

5.49955 46.0114 4.85538e-13
46.0114 -28.2265 -3.22705e-13
4.85538e-13 -3.22705e-13 -24.2125

52.0156 -44.8334 -1.3974e-12
-44.8334 -22.3032 1.42523e-12
-1.3974e-12 1.42523e-12 -38.5759

-61.928 -29.2882 -1.70153e-12
-29.2882 3.80098 7.79229e-13
-1.70153e-12 7.79229e-13 -22.2585

94.2495 94.6717 1.54898e-12
94.6717 60.9197 -4.63748e-12
1.54898e-12 -4.63748e-12 -114.36

-65.4451 -36.3709 -2.24354e-12
-36.3709 4.66103 3.4485e-12
-2.24354e-12 3.4485e-12 -21.3438

4.16791 51.6945 3.39995e-12
51.6945 -30.4094 -1.65024e-12
3.39995e-12 -1.65024e-12 -25.7209

30.2854 -43.1564 4.09746e-13
-43.1564 -36.3244 3.45442e-12
4.09746e-13 3.45442e-12 -26.4876

-28.858 -43.2647 5.30539e-12
-43.2647 9.2039 5.00104e-12
5.30539e-12 5.00104e-12 -23.238

73.0377 -37.1271 8.31335e-13
-37.1271 -27.5825 -3.85825e-12
8.31335e-13 -3.85825e-12 -50.3191

45.4889 -33.708 1.41516e-12
-33.708 -39.5385 1.05279e-12
1.41516e-12 1.05279e-12 -30.9244

-66.7034 -39.8967 -3.47899e-12
-39.8967 -24.7245 -2.3234e-12
-3.47899e-12 -2.3234e-12 -21.3315

40.8468 81.1411 4.38168e-13
81.1411 29.509 4.59721e-12
4.38168e-13 4.59721e-12 -89.3512

-50.3094 26.5388 -5.77316e-14
26.5388 29.54 1.13805e-12
-5.77316e-14 1.13805e-12 -21.9356

-37.9914 43.2731 -2.34361e-12
43.2731 -20.5403 -1.47438e-12
-2.34361e-12 -1.47438e-12 -22.3482

-67.5597 40.5802 -1.0457e-12
40.5802 -19.9613 -1.65379e-12
-1.0457e-12 -1.65379e-12 -20.9293

-62.5381 19.0567 -3.67553e-14
19.0567 18.8438 -1.30977e-12
-3.67553e-14 -1.30977e-12 -22.5033

120.378 -17.8475 6.53699e-13
-17.8475 -18.2443 7.02312e-12
6.53699e-13 7.02312e-12 -72.5663

-4.62682 42.7357 2.96888e-12
42.7357 108.312 2.59111e-12
2.96888e-12 2.59111e-12 -72.3388

-43.2409 -40.9858 3.96838e-12
-40.9858 -0.0402854 -7.4607e-13
3.96838e-12 -7.4607e-13 -20.8208

-6.38928 46.6184 2.20268e-12
46.6184 20.8731 -1.46135e-12
2.20268e-12 -1.46135e-12 -29.1029

47.5461 -79.3024 3.50771e-12
-79.3024 22.1184 -3.90799e-12
3.50771e-12 -3.90799e-12 -87.366

102.165 100.765 3.12165e-12
100.765 -13.5249 -4.70142e-12
3.12165e-12 -4.70142e-12 -146.777

-0.889091 -76.1668 -6.0633e-12
-76.1668 68.8949 7.17174e-12
-6.0633e-12 7.17174e-12 -95.4416

42.8348 -69.962 1.74794e-12
-69.962 58.7279 1.65556e-12
1.74794e-12 1.65556e-12 -73.2493

19.4376 -11.2518 -4.72511e-13
-11.2518 -80.5627 -8.35776e-13
-4.72511e-13 -8.35776e-13 -20.2309

31.5029 68.2903 4.00983e-12
68.2903 68.8724 4.86485e-12
4.00983e-12 4.86485e-12 -72.9293

116.934 29.3408 -1.51109e-12
29.3408 -13.8828 -2.12275e-12
-1.51109e-12 -2.12275e-12 -73.1329

-41.8697 28.9331 -1.80004e-12
28.9331 111.113 2.359e-12
-1.80004e-12 2.359e-12 -89.1395

2.28876 -51.2658 -1.29082e-12
-51.2658 100.149 2.94638e-12
-1.29082e-12 2.94638e-12 -72.7755

-76.1023 -1.66719 1.80907e-12
-1.66719 20.2919 -1.56201e-12
1.80907e-12 -1.56201e-12 -40.2678

-30.4921 6.32771 3.23593e-12
6.32771 106.799 2.96059e-12
3.23593e-12 2.96059e-12 -66.0028

-14.7289 71.1621 -2.40163e-12
71.1621 80.6368 3.99799e-12
-2.40163e-12 3.99799e-12 -95.5793

-66.643 20.0134 -1.09305e-12
20.0134 20.2587 7.22977e-12
-1.09305e-12 7.22977e-12 -22.4718

67.2389 -58.3446 -8.17124e-13
-58.3446 1.67892 4.83406e-12
-8.17124e-13 4.83406e-12 -65.033

13.4529 33.3847 -1.02141e-12
33.3847 -76.5081 1.99781e-12
-1.02141e-12 1.99781e-12 -30.8653

-5.18741 42.3949 3.07191e-12
42.3949 -50.7044 -2.29979e-12
3.07191e-12 -2.29979e-12 -40.4057

25.6318 -31.319 -1.27898e-12
-31.319 -51.6014 1.99426e-12
-1.27898e-12 1.99426e-12 -24.5505

5.52366 -1.79856 1.23279e-12
-1.79856 -55.4089 -5.87974e-13
1.23279e-12 -5.87974e-13 -44.7944

-24.6008 -52.8099 -3.81325e-13
-52.8099 -19.7838 4.58004e-12
-3.81325e-13 4.58004e-12 -22.8523

98.3293 52.8311 -8.62125e-13
52.8311 -23.4647 7.88702e-13
-8.62125e-13 7.88702e-13 -88.9776

-45.9779 49.6764 -8.40809e-14
49.6764 -15.2846 -1.72188e-12
-8.40809e-14 -1.72188e-12 -20.2524

-44.6079 48.245 6.08698e-13
48.245 -15.2239 -2.02682e-12
6.08698e-13 -2.02682e-12 -20.2473

37.5571 69.4348 3.09797e-12
69.4348 66.7619 1.47319e-12
3.09797e-12 1.47319e-12 -74.9362

-0.15493 44.6534 -2.67638e-13
44.6534 -33.901 -1.13272e-12
-2.67638e-13 -1.13272e-12 -27.4487

118.942 7.95306 4.03115e-12
7.95306 -56.7971 2.41555e-12
4.03115e-12 2.41555e-12 -96.3297

-24.3943 52.105 -7.0699e-13
52.105 -34.0234 -6.69687e-13
-7.0699e-13 -6.69687e-13 -25.5336

-62.1464 -20.5504 1.394e-12
-20.5504 12.6016 7.33043e-13
1.394e-12 7.33043e-13 -28.7987

-1.40169 39.3205 -2.89546e-13
39.3205 -48.643 1.27779e-12
-2.89546e-13 1.27779e-12 -38.8441

-38.905 -48.684 3.31231e-12
-48.684 -20.0181 1.36128e-12
3.31231e-12 1.36128e-12 -20.5561

-64.0034 -7.90274 1.0757e-12
-7.90274 30.231 1.3974e-12
1.0757e-12 1.3974e-12 -27.409

133.643 -60.1934 5.68434e-13
-60.1934 -1.32402 4.75472e-12
5.68434e-13 4.75472e-12 -108.458

65.4133 64.0656 1.76688e-12
64.0656 12.015 2.36848e-12
1.76688e-12 2.36848e-12 -66.049

-36.496 32.3364 2.07301e-12
32.3364 110.259 3.4864e-12
2.07301e-12 3.4864e-12 -88.753

1.20386 -1.62658 3.01907e-12
-1.62658 -90.0276 6.61397e-13
3.01907e-12 6.61397e-13 -21.0874

15.6606 -0.00555205 -4.24549e-13
-0.00555205 -73.9317 1.12567e-12
-4.24549e-13 1.12567e-12 -20.6808

-51.2943 38.0242 2.62309e-13
38.0242 -7.23206 -8.58572e-14
2.62309e-13 -8.58572e-14 -20.5651

-56.4494 37.4817 4.45273e-13
37.4817 -21.1252 9.06941e-13
4.45273e-13 9.06941e-13 -27.1996

-69.4824 -38.6149 1.10253e-12
-38.6149 -21.3502 -6.77384e-13
1.10253e-12 -6.77384e-13 -21.2337

-65.8035 -1.34123 1.36602e-12
-1.34123 34.061 1.09068e-12
1.36602e-12 1.09068e-12 -25.9394

-66.1207 40.3481 -1.0818e-12
40.3481 -21.9582 -1.84519e-12
-1.0818e-12 -1.84519e-12 -21.0918

54.6677 -18.6561 -2.46321e-12
-18.6561 -49.5103 -1.36158e-12
-2.46321e-12 -1.36158e-12 -34.2092

5.19157 -65.6621 -2.29979e-12
-65.6621 33.4463 -8.33703e-13
-2.29979e-12 -8.33703e-13 -58.5066

3.01909 -3.01993 -7.37484e-13
-3.01993 -80.0183 1.81188e-13
-7.37484e-13 1.81188e-13 -27.1795

57.9869 -78.1793 2.60532e-12
-78.1793 26.0434 2.34005e-12
2.60532e-12 2.34005e-12 -89.0927

-61.2044 30.3377 2.66217e-12
30.3377 -12.801 -1.38585e-12
2.66217e-12 -1.38585e-12 -27.0383

12.507 -43.5837 -3.51008e-12
-43.5837 -47.3627 2.05584e-12
-3.51008e-12 2.05584e-12 -26.3061

120.452 -20.5034 2.81849e-12
-20.5034 -14.9814 2.36344e-12
2.81849e-12 2.36344e-12 -79.3955

9.67522 -37.6838 1.40687e-12
-37.6838 -57.8786 -1.07351e-12
1.40687e-12 -1.07351e-12 -34.3529

-1.01922 3.68808 -1.45661e-12
3.68808 -89.8367 5.24617e-13
-1.45661e-12 5.24617e-13 -21.3413

-7.18338 -37.5872 -2.0132e-14
-37.5872 -38.8004 -3.57729e-12
-2.0132e-14 -3.57729e-12 -33.1529

17.7007 -42.775 -3.64982e-12
-42.775 -50.2666 -2.44604e-12
-3.64982e-12 -2.44604e-12 -25.0227

16.6273 -13.8377 5.83829e-13
-13.8377 -71.8059 2.95112e-12
5.83829e-13 2.95112e-12 -21.8969

-57.5299 -36.2534 4.60905e-12
-36.2534 -20.293 -1.8933e-12
4.60905e-12 -1.8933e-12 -27.6379

36.926 -60.3948 -4.03588e-12
-60.3948 1.09492 6.05027e-12
-4.03588e-12 6.05027e-12 -49.5773

17.3009 -40.9471 -3.81917e-12
-40.9471 -46.7178 4.70735e-12
-3.81917e-12 4.70735e-12 -25.84

81.1619 21.642 -1.88531e-12
21.642 -43.6017 1.37372e-13
-1.88531e-12 1.37372e-13 -56.4218

-23.7456 42.75 1.70649e-12
42.75 -25.8921 -1.84327e-12
1.70649e-12 -1.84327e-12 -28.9419

-70.9696 -60.6741 3.35731e-12
-60.6741 -31.9129 -2.81567e-12
3.35731e-12 -2.81567e-12 -24.6798

-68.4916 60.231 1.202e-12
60.231 -32.9549 -1.2191e-12
1.202e-12 -1.2191e-12 -24.5753

-96.8064 -46.2145 1.16818e-12
-46.2145 -9.97155 -1.71359e-12
1.16818e-12 -1.71359e-12 -24.6904

-93.0996 43.5253 -3.14844e-12
43.5253 -8.23689 7.69755e-14
-3.14844e-12 7.69755e-14 -24.2344

10.5508 -14.079 1.856e-12
-14.079 -112.846 9.2637e-13
1.856e-12 9.2637e-13 -24.4198

8.56318 15.3399 2.50348e-12
15.3399 -109.553 -2.58578e-12
2.50348e-12 -2.58578e-12 -24.2095

14.4556 -16.0775 -5.84599e-12
-16.0775 -67.5035 1.39829e-12
-5.84599e-12 1.39829e-12 -22.4579

-37.4433 51.3413 2.82559e-12
51.3413 -39.3621 8.5069e-13
2.82559e-12 8.5069e-13 -36.5251

-39.1561 -52.5247 -7.15872e-13
-52.5247 -39.4676 3.09969e-12
-7.15872e-13 3.09969e-12 -36.7666

-85.3698 25.2315 -2.26782e-13
25.2315 6.77107 4.87906e-13
-2.26782e-13 4.87906e-13 -36.6878

-83.2231 -24.751 -3.51423e-13
-24.751 6.42093 3.69601e-12
-3.51423e-13 3.69601e-12 -36.4152

9.61489 -5.1498 2.70776e-12
-5.1498 -70.2795 1.93031e-12
2.70776e-12 1.93031e-12 -45.488

11.266 4.92934 1.21088e-12
4.92934 -73.8395 -4.71327e-13
1.21088e-12 -4.71327e-13 -45.8142

-40.2324 18.6483 -6.24241e-13
18.6483 80.3589 -4.32484e-12
-6.24241e-13 -4.32484e-12 -50.5321

-37.3634 -40.4627 -7.43109e-13
-40.4627 -23.7117 3.95062e-12
-7.43109e-13 3.95062e-12 -22.5103

-89.765 -58.7847 -2.19498e-12
-58.7847 -21.8203 5.00933e-13
-2.19498e-12 5.00933e-13 -21.8664

56.2915 -8.09488 -2.94165e-12
-8.09488 -40.6476 -1.02451e-12
-2.94165e-12 -1.02451e-12 -29.1907

6.10604 -27.1235 2.10143e-12
-27.1235 -82.841 1.20674e-12
2.10143e-12 1.20674e-12 -37.0882

6.12937 26.3073 1.50605e-12
26.3073 -81.6578 -2.15946e-12
1.50605e-12 -2.15946e-12 -37.0853

12.2948 0.130014 -1.19756e-12
0.130014 -122.365 -1.10791e-12
-1.19756e-12 -1.10791e-12 -21.7873

-27.4369 46.7211 -2.134e-12
46.7211 67.6316 1.19371e-12
-2.134e-12 1.19371e-12 -58.4821

-90.3161 58.4679 2.44205e-12
58.4679 -20.9069 -1.1792e-12
2.44205e-12 -1.1792e-12 -21.8601

-65.6072 -38.5856 8.95284e-13
-38.5856 4.13739 1.47615e-12
8.95284e-13 1.47615e-12 -20.2193

62.0986 45.4717 -6.86858e-14
45.4717 -25.0744 2.4869e-13
-6.86858e-14 2.4869e-13 -48.2428

8.14587 38.8361 -2.06353e-12
38.8361 -61.6991 -6.33567e-14
-2.06353e-12 -6.33567e-14 -35.6215

37.8522 -60.4218 1.20319e-12
-60.4218 2.3045 1.47201e-12
1.20319e-12 1.47201e-12 -49.2906

2.8061 -4.52423 3.12964e-12
-4.52423 -77.4849 -2.37499e-12
3.12964e-12 -2.37499e-12 -27.3845

-95.942 -54.8548 1.81921e-12
-54.8548 -20.7964 -5.03864e-12
1.81921e-12 -5.03864e-12 -22.2144

-42.6359 15.3532 -4.47101e-13
15.3532 79.3189 6.51331e-13
-4.47101e-13 6.51331e-13 -48.1101

-30.3594 43.0881 1.01075e-12
43.0881 68.9384 -2.07952e-12
1.01075e-12 -2.07952e-12 -56.0654

100.24 96.0882 -1.44951e-12
96.0882 49.5977 7.91071e-13
-1.44951e-12 7.91071e-13 -114.684

130.07 2.95417 -1.54898e-12
2.95417 -50.4317 2.49578e-13
-1.54898e-12 2.49578e-13 -111.034

-50.2977 -35.7077 3.97312e-13
-35.7077 -22.0126 1.16766e-12
3.97312e-13 1.16766e-12 -27.2836

31.3156 86.0443 -2.02978e-12
86.0443 133.712 -5.56592e-12
-2.02978e-12 -5.56592e-12 -119.021

-34.6559 40.4138 2.93632e-12
40.4138 11.5457 1.29674e-12
2.93632e-12 1.29674e-12 -21.1812

83.3326 -10.7294 -1.19845e-12
-10.7294 -46.3081 5.49871e-12
-1.19845e-12 5.49871e-12 -56.4367

56.0875 20.356 1.11318e-13
20.356 -47.4561 -1.04213e-13
1.11318e-13 -1.04213e-13 -35.5988

11.9012 0.690227 2.25005e-12
0.690227 -123.626 5.19746e-14
2.25005e-12 5.19746e-14 -21.8744

-93.6873 -46.6399 2.23947e-12
-46.6399 -8.39843 5.22841e-13
2.23947e-12 5.22841e-13 -24.4448

-43.8248 -10.6203 4.59299e-12
-10.6203 -17.0537 -1.58096e-13
4.59299e-12 -1.58096e-13 -85.6984

-70.2742 60.426 -8.25414e-13
60.426 -32.2006 7.42739e-13
-8.25414e-13 7.42739e-13 -24.5318

199.829 5.24904 -7.01069e-13
5.24904 -17.8336 -2.20653e-12
-7.01069e-13 -2.20653e-12 -121.84

8.32717 -65.1575 4.20168e-12
-65.1575 30.4728 7.60281e-13
4.20168e-12 7.60281e-13 -57.1183

-90.1818 59.17 9.47242e-13
59.17 -21.6635 4.05601e-13
9.47242e-13 4.05601e-13 -21.8793

-59.9517 -18.7793 -1.59854e-12
-18.7793 31.368 -3.38692e-12
-1.59854e-12 -3.38692e-12 -24.325

-23.3063 -51.1295 -1.92202e-12
-51.1295 62.6193 2.28795e-12
-1.92202e-12 2.28795e-12 -58.8648

-92.9315 46.4496 -2.32222e-12
46.4496 -8.28242 -1.73491e-13
-2.32222e-12 -1.73491e-13 -24.3806

46.1038 -49.0858 1.03739e-12
-49.0858 -14.7562 2.81967e-12
1.03739e-12 2.81967e-12 -38.0879

-33.0953 16.8581 -1.51938e-12
16.8581 -27.8306 4.10264e-12
-1.51938e-12 4.10264e-12 -85.8442

-4.52042 61.5186 -4.36865e-12
61.5186 42.2421 -1.11555e-12
-4.36865e-12 -1.11555e-12 -56.4117

11.4404 13.2978 -2.58401e-12
13.2978 -114.729 1.93149e-12
-2.58401e-12 1.93149e-12 -24.7309

-19.2544 49.5419 6.93963e-13
49.5419 -33.9809 3.30106e-12
6.93963e-13 3.30106e-12 -24.8337

-50.8607 38.3936 1.02999e-12
38.3936 -8.59501 -1.65912e-12
1.02999e-12 -1.65912e-12 -20.482

-39.668 -51.8924 -1.81307e-12
-51.8924 -38.1156 -3.11118e-12
-1.81307e-12 -3.11118e-12 -37.0198

14.0666 -38.4538 1.4874e-12
-38.4538 -46.9471 1.7805e-12
1.4874e-12 1.7805e-12 -27.1243

-61.6105 16.8333 -1.33419e-12
16.8333 13.3555 -2.70125e-12
-1.33419e-12 -2.70125e-12 -46.247

-39.7637 -40.024 3.40232e-12
-40.024 7.72877 -7.75676e-12
3.40232e-12 -7.75676e-12 -20.5774

184.51 -22.8792 9.37916e-13
-22.8792 -35.85 3.17672e-12
9.37916e-13 3.17672e-12 -138.851

166.508 -42.7659 -1.14161e-12
-42.7659 -56.7357 9.09495e-13
-1.14161e-12 9.09495e-13 -151.587

8.60969 26.7651 -2.91796e-12
26.7651 -55.7624 -8.68638e-13
-2.91796e-12 -8.68638e-13 -41.746

-31.6856 39.498 4.9738e-13
39.498 26.1407 -3.68416e-12
4.9738e-13 -3.68416e-12 -25.6395

-7.47404 49.0837 -5.66066e-13
49.0837 -21.4829 -5.22249e-13
-5.66066e-13 -5.22249e-13 -24.3804

89.9262 0.906695 -2.31637e-12
0.906695 -26.2228 1.49954e-12
-2.31637e-12 1.49954e-12 -49.9762

-77.8694 10.6612 -1.94174e-12
10.6612 24.5176 -3.02218e-12
-1.94174e-12 -3.02218e-12 -35.5858

15.6641 27.3812 5.8975e-13
27.3812 -60.7369 -1.19075e-12
5.8975e-13 -1.19075e-12 -22.3461

-20.6139 -51.3086 1.38082e-12
-51.3086 59.2598 -3.0506e-12
1.38082e-12 -3.0506e-12 -56.6936

-66.0209 -4.12667 6.75756e-13
-4.12667 34.9179 -1.12739e-12
6.75756e-13 -1.12739e-12 -26.4239

-25.0726 27.07 1.16055e-13
27.07 76.6841 -4.16378e-12
1.16055e-13 -4.16378e-12 -44.8646

5.34843 -49.8091 3.53969e-12
-49.8091 -30.3415 1.11378e-12
3.53969e-12 1.11378e-12 -25.4808

31.0263 -58.6353 -3.37745e-12
-58.6353 20.0942 -2.25716e-12
-3.37745e-12 -2.25716e-12 -44.614

1.76483 63.3478 3.06954e-12
63.3478 38.3867 -3.07902e-14
3.06954e-12 -3.07902e-14 -58.1353

4.58741 -23.447 4.54274e-12
-23.447 -62.1204 4.10057e-12
4.54274e-12 4.10057e-12 -104.745

-74.251 3.02385 -2.75365e-12
3.02385 18.4708 -2.58519e-12
-2.75365e-12 -2.58519e-12 -41.2208

-87.171 32.3738 -4.57116e-13
32.3738 6.61701 -2.66335e-12
-4.57116e-13 -2.66335e-12 -38.6922

11.0852 24.7733 -1.08239e-12
24.7733 -92.3584 -7.05806e-13
-1.08239e-12 -7.05806e-13 -38.7919

-31.5158 -43.0142 -1.07943e-12
-43.0142 -21.5418 2.95675e-12
-1.07943e-12 2.95675e-12 -22.469

71.5583 34.0865 -3.31587e-14
34.0865 -22.1834 -3.33896e-12
-3.31587e-14 -3.33896e-12 -43.3314

-70.8162 -8.54998 -6.40904e-13
-8.54998 8.48805 -3.37745e-12
-6.40904e-13 -3.37745e-12 -65.9461

12.1474 -31.1117 2.43361e-12
-31.1117 -65.7904 -2.80072e-13
2.43361e-12 -2.80072e-13 -24.9663

50.7811 -27.0547 1.97294e-12
-27.0547 -40.9516 -2.01261e-12
1.97294e-12 -2.01261e-12 -29.5367

-27.6421 23.3046 -4.22654e-12
23.3046 76.3136 -2.20505e-12
-4.22654e-12 -2.20505e-12 -43.0844

4.66036 -51.4116 8.04098e-13
-51.4116 54.3462 -2.21216e-12
8.04098e-13 -2.21216e-12 -47.6559

-17.3201 -40.6911 -4.14483e-15
-40.6911 -31.5499 9.82917e-13
-4.14483e-15 9.82917e-13 -42.7581

24.515 61.7471 8.90547e-13
61.7471 12.1645 8.92915e-13
8.90547e-13 8.92915e-13 -48.2179

-1.9924 -40.6495 1.32812e-12
-40.6495 -49.7712 1.20851e-12
1.32812e-12 1.20851e-12 -38.7799

84.5384 5.10534 1.72188e-12
5.10534 -28.0148 -1.88442e-12
1.72188e-12 -1.88442e-12 -45.6838

-46.3359 -79.2099 -2.86112e-12
-79.2099 134.558 -1.7053e-12
-2.86112e-12 -1.7053e-12 -153.567

31.9391 -56.9995 -3.5314e-12
-56.9995 18.465 2.32347e-12
-3.5314e-12 2.32347e-12 -44.1583

36.0645 88.5384 1.44477e-12
88.5384 142.994 8.00545e-13
1.44477e-12 8.00545e-13 -116.361

-73.8253 -19.4022 -1.01067e-13
-19.4022 22.5937 -1.01548e-12
-1.01067e-13 -1.01548e-12 -30.4778

-37.1792 -26.3565 -1.34233e-12
-26.3565 75.0333 2.67638e-13
-1.34233e-12 2.67638e-13 -48.3181

-30.0782 -37.6382 4.03203e-12
-37.6382 -30.2205 -2.04281e-14
4.03203e-12 -2.04281e-14 -105.738

-5.70101 47.264 -2.74151e-12
47.264 60.8407 -2.25953e-12
-2.74151e-12 -2.25953e-12 -45.7897

-24.7726 -53.369 2.56328e-12
-53.369 -33.6959 -1.37904e-12
2.56328e-12 -1.37904e-12 -28.2652

-38.2891 -22.8096 2.0363e-12
-22.8096 79.1524 2.06768e-12
2.0363e-12 2.06768e-12 -50.3654

12.9989 -31.2103 -1.77221e-12
-31.2103 -70.4634 -2.55855e-12
-1.77221e-12 -2.55855e-12 -25.8574

1.40652 47.9256 4.7109e-12
47.9256 58.6977 1.53951e-12
4.7109e-12 1.53951e-12 -46.7513

38.2977 -8.25832 1.1724e-12
-8.25832 -54.763 -1.47512e-12
1.1724e-12 -1.47512e-12 -22.6434

4.30238 -106.756 -1.34056e-12
-106.756 298.144 8.52651e-14
-1.34056e-12 8.52651e-14 -161.436

-46.268 36.1936 2.58934e-12
36.1936 13.7946 -1.17003e-12
2.58934e-12 -1.17003e-12 -23.6574

68.4642 -37.7678 6.69094e-12
-37.7678 -30.7256 -2.19558e-12
6.69094e-12 -2.19558e-12 -48.7052

10.8082 -34.3847 -3.63147e-12
-34.3847 -72.5932 -9.41469e-13
-3.63147e-12 -9.41469e-13 -43.9162

31.1432 61.6962 -7.60281e-13
61.6962 8.45478 -5.8975e-13
-7.60281e-13 -5.8975e-13 -49.9725

21.7167 -52.9048 -6.27646e-14
-52.9048 -17.0451 2.66276e-12
-6.27646e-14 2.66276e-12 -30.8207

10.2823 34.3133 2.75098e-12
34.3133 -47.0257 8.16532e-13
2.75098e-12 8.16532e-13 -25.9914

-62.0818 -44.0934 2.68378e-12
-44.0934 -23.787 -5.30539e-13
2.68378e-12 -5.30539e-13 -21.2115

5.94771 -52.2045 2.4265e-12
-52.2045 50.9571 -3.6593e-12
2.4265e-12 -3.6593e-12 -46.3085

19.4847 56.4118 -9.00021e-14
56.4118 28.6925 -2.07242e-12
-9.00021e-14 -2.07242e-12 -43.449

48.0208 48.2011 -2.39927e-12
48.2011 -17.5466 2.61657e-12
-2.39927e-12 2.61657e-12 -38.221

12.3183 -23.6057 -5.55408e-13
-23.6057 -60.635 3.75107e-12
-5.55408e-13 3.75107e-12 -28.8941

-22.0952 -33.2346 2.10794e-13
-33.2346 70.472 1.72662e-12
2.10794e-13 1.72662e-12 -43.7262

28.5453 -29.2378 1.14871e-13
-29.2378 -53.9953 3.18382e-12
1.14871e-13 3.18382e-12 -22.7811

32.406 28.7594 -1.28964e-12
28.7594 -55.249 -5.73763e-12
-1.28964e-12 -5.73763e-12 -24.9671

-55.8346 -15.2 -1.01822e-12
-15.2 12.5378 -3.73627e-12
-1.01822e-12 -3.73627e-12 -44.8256

75.535 -25.2584 3.28744e-12
-25.2584 -26.3613 -6.49851e-13
3.28744e-12 -6.49851e-13 -43.3597

-42.46 2.0194 -3.07902e-13
2.0194 74.0608 -9.78181e-13
-3.07902e-13 -9.78181e-13 -38.7645

46.5972 32.334 -1.7953e-12
32.334 -36.6287 2.16716e-12
-1.7953e-12 2.16716e-12 -28.656

41.9842 50.7477 4.50247e-12
50.7477 -13.6978 2.96652e-12
4.50247e-12 2.96652e-12 -37.1415

-22.7981 -31.628 9.40285e-13
-31.628 75.332 -9.80549e-13
9.40285e-13 -9.80549e-13 -45.1547

-43.0038 -1.5198 1.79841e-12
-1.5198 72.1297 -4.51668e-12
1.79841e-12 -4.51668e-12 -37.0181

-8.99089 47.457 -1.96998e-12
47.457 -38.6912 -1.13213e-12
-1.96998e-12 -1.13213e-12 -33.0033

-63.5639 -19.0092 1.15078e-12
-19.0092 35.2797 -1.16055e-12
1.15078e-12 -1.16055e-12 -23.6399

43.6869 -49.8755 3.83219e-12
-49.8755 -15.59 9.15416e-13
3.83219e-12 9.15416e-13 -38.0264

68.7051 41.6868 2.44664e-12
41.6868 -25.9418 -3.72561e-12
2.44664e-12 -3.72561e-12 -49.7377

19.9703 39.5087 2.4265e-12
39.5087 -46.9711 -2.73559e-13
2.4265e-12 -2.73559e-13 -24.543

-64.5485 9.53389 -8.4451e-13
9.53389 37.9505 3.6439e-12
-8.4451e-13 3.6439e-12 -24.4668

25.6584 56.9512 -2.0961e-12
56.9512 25.1076 3.21639e-12
-2.0961e-12 3.21639e-12 -44.6119

-17.7415 37.0427 -1.12147e-12
37.0427 -25.5485 2.94046e-12
-1.12147e-12 2.94046e-12 -44.8874

99.5377 -208.435 -4.89801e-12
-208.435 -3.52164 3.3206e-12
-4.89801e-12 3.3206e-12 -243.044

27.6724 -43.473 2.22637e-13
-43.473 -32.9697 1.9759e-12
2.22637e-13 1.9759e-12 -26.4847

-23.1643 21.1996 -4.12233e-12
21.1996 164.385 -1.79057e-12
-4.12233e-12 -1.79057e-12 -113.672

17.2108 -51.4078 -2.10321e-12
-51.4078 -9.57064 -1.84623e-12
-2.10321e-12 -1.84623e-12 -28.7352

-572.709 -240.663 -2.449e-12
-240.663 396.112 -8.90547e-13
-2.449e-12 -8.90547e-13 -427.991

-576.669 235.187 1.0895e-13
235.187 392.228 9.85286e-13
1.0895e-13 9.85286e-13 -428.075

-176.912 539.853 -2.46321e-12
539.853 25.5232 8.71599e-13
-2.46321e-12 8.71599e-13 -421.555

-172.114 -539.377 5.61802e-12
-539.377 13.7351 -5.13486e-12
5.61802e-12 -5.13486e-12 -422.944

460.381 -5.66164 -1.40214e-12
-5.66164 -627.815 1.82817e-14
-1.40214e-12 1.82817e-14 -422.415

237.895 -417.854 3.63798e-12
-417.854 -431.477 -1.7053e-13
3.63798e-12 -1.7053e-13 -435.917

235.884 418.817 -1.00423e-12
418.817 -430.522 7.95808e-13
-1.00423e-12 7.95808e-13 -436.611

12.8672 22.9462 -4.50839e-12
22.9462 -69.4024 9.26074e-13
-4.50839e-12 9.26074e-13 -29.5105

-17.9052 41.2832 1.35595e-12
41.2832 -43.0841 3.71555e-13
1.35595e-12 3.71555e-13 -59.8075

20.8121 10.8113 2.01676e-12
10.8113 -67.7534 -2.93395e-13
2.01676e-12 -2.93395e-13 -21.9105

42.9838 38.7249 1.88175e-12
38.7249 -37.9748 3.75818e-12
1.88175e-12 3.75818e-12 -30.9934

-42.662 32.4063 5.1988e-13
32.4063 50.0686 -1.59398e-12
5.1988e-13 -1.59398e-12 -35.5265

34.8042 53.8127 2.30808e-12
53.8127 -6.66832 5.92119e-14
2.30808e-12 5.92119e-14 -37.1501

5.17295 -49.9895 -3.29455e-12
-49.9895 -30.1968 -2.65092e-12
-3.29455e-12 -2.65092e-12 -24.83

41.2127 52.6438 1.45661e-12
52.6438 -9.92746 5.21065e-14
1.45661e-12 5.21065e-14 -38.4442

-42.4493 -6.25056 -2.62309e-13
-6.25056 73.7585 1.29082e-12
-2.62309e-13 1.29082e-12 -38.8461

-20.7178 -41.975 -1.18424e-12
-41.975 -40.5499 -7.27122e-13
-1.18424e-12 -7.27122e-13 -60.3962

-42.647 -9.97575 2.04518e-12
-9.97575 71.1638 -2.84691e-12
2.04518e-12 -2.84691e-12 -37.2882

-3.69244 37.3372 -2.28321e-12
37.3372 -40.5886 -2.21452e-13
-2.28321e-12 -2.21452e-13 -32.466

79.7782 55.4888 2.15058e-12
55.4888 -2.75894 -6.37712e-12
2.15058e-12 -6.37712e-12 -66.517

-82.6828 -20.3817 2.41585e-12
-20.3817 1.10952 -5.785e-13
2.41585e-12 -5.785e-13 -35.2357

33.7211 23.4612 1.18542e-12
23.4612 -54.7562 1.47082e-12
1.18542e-12 1.47082e-12 -25.3107

21.2932 -53.0496 3.10626e-12
-53.0496 -15.5196 5.74474e-12
3.10626e-12 5.74474e-12 -30.9778

49.632 -45.2413 4.51668e-12
-45.2413 -21.3603 -2.69414e-13
4.51668e-12 -2.69414e-13 -37.6635

8.15885 -25.9746 -5.11591e-13
-25.9746 -53.3807 -4.13891e-13
-5.11591e-13 -4.13891e-13 -41.8032

19.9379 48.0425 -6.66015e-12
48.0425 -26.1761 2.71072e-12
-6.66015e-12 2.71072e-12 -26.1751

37.8715 42.6695 -4.52142e-12
42.6695 -34.642 1.42582e-12
-4.52142e-12 1.42582e-12 -30.3065

-55.902 -4.4633 -2.69799e-12
-4.4633 49.8557 1.24582e-12
-2.69799e-12 1.24582e-12 -26.1686

-53.7234 10.1008 -4.66608e-13
10.1008 55.9635 -3.15481e-12
-4.66608e-13 -3.15481e-12 -30.3121

58.9592 4.73405 -2.88717e-12
4.73405 -52.4118 8.21195e-13
-2.88717e-12 8.21195e-13 -36.1205

88.8227 -14.691 -1.88531e-12
-14.691 -42.1336 -2.32288e-12
-1.88531e-12 -2.32288e-12 -61.4252

16.6817 54.0708 -4.20049e-12
54.0708 -12.1011 -3.64035e-12
-4.20049e-12 -3.64035e-12 -31.2157

27.5002 -45.4344 3.46863e-12
-45.4344 -32.2041 2.50585e-12
3.46863e-12 2.50585e-12 -26.7269

-0.892664 -34.4696 1.14338e-12
-34.4696 -45.9018 -5.91527e-13
1.14338e-12 -5.91527e-13 -33.6934

4.70845 -57.2227 -1.53122e-12
-57.2227 4.40864 -3.22586e-12
-1.53122e-12 -3.22586e-12 -34.9624

-19.9687 -51.1106 -7.83966e-13
-51.1106 29.3694 -4.08562e-13
-7.83966e-13 -4.08562e-13 -37.5143

-7.06745 54.4231 1.75978e-12
54.4231 14.896 -2.23584e-12
1.75978e-12 -2.23584e-12 -34.3886

-49.7131 -16.8825 -9.14084e-14
-16.8825 55.5466 3.18323e-12
-9.14084e-14 3.18323e-12 -31.2476

-56.4981 -3.26378 -1.95e-12
-3.26378 52.3952 -5.56592e-13
-1.95e-12 -5.56592e-13 -26.7067

-66.2203 9.45413 -2.64274e-12
9.45413 39.2383 2.73677e-12
-2.64274e-12 2.73677e-12 -25.5653

-35.5156 -38.4101 7.10543e-14
-38.4101 44.117 2.72138e-12
7.10543e-14 2.72138e-12 -34.607

20.8705 40.5484 1.85925e-12
40.5484 -47.9556 1.91195e-12
1.85925e-12 1.91195e-12 -25.595

35.7817 -16.4934 1.64609e-12
-16.4934 -56.0144 -2.06265e-12
1.64609e-12 -2.06265e-12 -25.11

-51.6795 13.0046 7.49623e-13
13.0046 57.7607 1.48267e-12
7.49623e-13 1.48267e-12 -31.386

-60.577 -16.1946 -2.09663e-13
-16.1946 36.3341 -2.30453e-12
-2.09663e-13 -2.30453e-12 -24.7849

-51.5179 -28.1595 4.22447e-12
-28.1595 31.8718 1.8557e-12
4.22447e-12 1.8557e-12 -25.0399

63.1148 -15.3631 -2.16242e-12
-15.3631 -42.7651 -1.62537e-12
-2.16242e-12 -1.62537e-12 -36.4937

-24.1041 -52.8846 1.21444e-12
-52.8846 -35.065 1.3296e-12
1.21444e-12 1.3296e-12 -26.1967

-44.2308 17.3778 -3.73153e-12
17.3778 55.4877 5.35276e-13
-3.73153e-12 5.35276e-13 -29.1094

-0.556871 -29.4012 3.16843e-12
-29.4012 -56.267 -6.85378e-13
3.16843e-12 -6.85378e-13 -57.4034

-50.5324 67.6321 -3.83338e-12
67.6321 143.691 -3.60008e-13
-3.83338e-12 -3.60008e-13 -153.022

-23.6011 -43.1794 -1.35181e-12
-43.1794 -26.9132 1.92113e-12
-1.35181e-12 1.92113e-12 -29.5913

-10.4596 -49.1992 -5.15736e-13
-49.1992 -38.4431 -8.42585e-13
-5.15736e-13 -8.42585e-13 -33.3241

-56.4502 -0.684678 -4.29878e-13
-0.684678 52.2321 -7.40149e-13
-4.29878e-13 -7.40149e-13 -26.9039

47.4551 -29.2295 -7.40859e-12
-29.2295 -36.3878 2.32584e-12
-7.40859e-12 2.32584e-12 -28.0545

-62.8545 20.9934 -1.62155e-12
20.9934 17.7633 5.44157e-12
-1.62155e-12 5.44157e-12 -25.0473

-161.364 -5.99755 6.67585e-12
-5.99755 251.587 -2.51058e-12
6.67585e-12 -2.51058e-12 -238.397

-55.4598 24.6036 2.14095e-12
24.6036 35.33 4.18391e-12
2.14095e-12 4.18391e-12 -25.5855

17.7446 -52.7048 -2.25834e-12
-52.7048 -7.41503 -5.16328e-13
-2.25834e-12 -5.16328e-13 -29.1938

-5.65611 87.0095 -3.78956e-12
87.0095 302.903 -1.45898e-12
-3.78956e-12 -1.45898e-12 -159.558

-22.7133 41.4498 -1.13835e-11
41.4498 -30.6524 -4.68129e-12
-1.13835e-11 -4.68129e-12 -98.6801

-16.0819 -44.3607 -7.5131e-12
-44.3607 -36.4624 9.47864e-12
-7.5131e-12 9.47864e-12 -99.6613

-6.30663 -51.9382 -1.00068e-12
-51.9382 -13.8844 -4.30826e-12
-1.00068e-12 -4.30826e-12 -25.5185

2.71605 -56.7314 -7.40149e-13
-56.7314 6.08597 -2.08071e-12
-7.40149e-13 -2.08071e-12 -35.5987

41.6893 36.5167 8.05282e-14
36.5167 -33.987 -5.79625e-12
8.05282e-14 -5.79625e-12 -28.1005

53.3616 27.1336 2.12808e-12
27.1336 -46.2381 -2.14998e-12
2.12808e-12 -2.14998e-12 -34.3223

-17.699 6.8054 -2.85268e-12
6.8054 -16.7765 1.17654e-12
-2.85268e-12 1.17654e-12 -135.76

-10.8378 -13.2129 3.7305e-12
-13.2129 -24.0197 -4.73444e-12
3.7305e-12 -4.73444e-12 -134.834

19.0939 8.24823 7.75676e-14
8.24823 -71.93 -4.14631e-13
7.75676e-14 -4.14631e-13 -20.147

-60.6015 11.8409 2.03038e-12
11.8409 39.7145 1.0066e-12
2.03038e-12 1.0066e-12 -24.1114

-62.2573 11.2041 1.36131e-12
11.2041 40.0681 4.02641e-14
1.36131e-12 4.02641e-14 -25.3373

131.659 202.902 -1.5253e-12
202.902 -24.1758 4.67063e-12
-1.5253e-12 4.67063e-12 -237.716

-17.3874 -51.7997 -1.30621e-12
-51.7997 26.461 4.75353e-12
-1.30621e-12 4.75353e-12 -36.9695

12.8621 29.3607 1.12503e-12
29.3607 -73.2049 -2.53605e-12
1.12503e-12 -2.53605e-12 -25.9724

55.0871 16.7591 2.65269e-13
16.7591 -39.3598 4.44148e-12
2.65269e-13 4.44148e-12 -29.5219

0.65603 -48.7867 -5.68434e-13
-48.7867 19.9621 -1.42109e-14
-5.68434e-13 -1.42109e-14 -30.5688

43.431 -36.0978 -6.68147e-12
-36.0978 -39.2662 2.36078e-12
-6.68147e-12 2.36078e-12 -30.8513

90.1692 206.82 -5.64645e-12
206.82 -11.7123 3.09797e-12
-5.64645e-12 3.09797e-12 -245.715

-22.0153 50.8467 2.98546e-12
50.8467 -27.7042 -9.39397e-13
2.98546e-12 -9.39397e-13 -27.1455

-38.3183 -36.144 -1.5401e-12
-36.144 47.4147 1.23161e-13
-1.5401e-12 1.23161e-13 -35.887

16.5992 50.0095 -3.0577e-12
50.0095 -24.6436 -3.01744e-12
-3.0577e-12 -3.01744e-12 -26.0547

-57.1172 -7.77796 -2.71102e-12
-7.77796 49.7611 1.38556e-12
-2.71102e-12 1.38556e-12 -26.0486

-30.4857 36.0097 3.91568e-12
36.0097 44.3994 -3.60245e-12
3.91568e-12 -3.60245e-12 -30.5991

10.2951 54.1076 1.05871e-12
54.1076 -6.3845 -8.59757e-13
1.05871e-12 -8.59757e-13 -29.9295

-21.1874 -41.1469 -2.79954e-12
-41.1469 37.4641 2.4869e-13
-2.79954e-12 2.4869e-13 -30.4081

2.76628 -49.682 1.26121e-12
-49.682 16.5643 2.19084e-12
1.26121e-12 2.19084e-12 -30.2774

-31.9299 36.75 1.99307e-12
36.75 222.41 -6.45173e-12
1.99307e-12 -6.45173e-12 -179.655

43.667 -92.0792 -2.11742e-12
-92.0792 130.462 -1.80004e-12
-2.11742e-12 -1.80004e-12 -115.837

-48.2475 -20.6134 -2.87518e-12
-20.6134 52.5951 -1.38201e-12
-2.87518e-12 -1.38201e-12 -30.0457

25.091 46.1277 -1.56438e-12
46.1277 -28.7289 -5.17038e-12
-1.56438e-12 -5.17038e-12 -26.4381

4.71778 52.3429 3.0127e-12
52.3429 0.464794 7.73307e-13
3.0127e-12 7.73307e-13 -28.2191

-22.5636 -39.3604 -1.05871e-12
-39.3604 40.9513 -9.04758e-13
-1.05871e-12 -9.04758e-13 -30.7769

-42.2045 -21.8024 9.9772e-13
-21.8024 53.2696 1.56319e-12
9.9772e-13 1.56319e-12 -29.0312

14.2422 50.8434 -5.4546e-12
50.8434 -3.17822 4.2301e-12
-5.4546e-12 4.2301e-12 -28.5453

-41.9237 -25.4086 1.68813e-12
-25.4086 48.527 3.89614e-13
1.68813e-12 3.89614e-13 -28.3016

-46.3261 73.8026 2.5698e-12
73.8026 137.253 -3.1027e-12
2.5698e-12 -3.1027e-12 -153.665

-74.3544 -6.613 4.56779e-12
-6.613 22.975 1.18779e-12
4.56779e-12 1.18779e-12 -37.3554

-2.67167 56.3362 -2.02031e-12
56.3362 9.58569 1.07174e-12
-2.02031e-12 1.07174e-12 -35.1504

15.3797 24.6372 -3.33718e-12
24.6372 -60.4989 1.97768e-12
-3.33718e-12 1.97768e-12 -25.0342

15.9442 -25.9261 1.2695e-12
-25.9261 -64.8345 -2.43953e-12
1.2695e-12 -2.43953e-12 -27.6225

169.078 -69.7417 1.67688e-12
-69.7417 -48.7574 -3.20928e-12
1.67688e-12 -3.20928e-12 -155.463

-40.7502 -36.8411 -7.61347e-12
-36.8411 16.4555 -4.718e-12
-7.61347e-12 -4.718e-12 -23.1172

-29.7422 45.6305 -1.1872e-12
45.6305 2.48254 3.28863e-12
-1.1872e-12 3.28863e-12 -23.5915

-43.6506 -34.0813 -3.97904e-12
-34.0813 -8.78107 -3.41756e-12
-3.97904e-12 -3.41756e-12 -43.6201

-63.4725 22.8535 -5.16772e-12
22.8535 -4.8788 -8.07887e-12
-5.16772e-12 -8.07887e-12 -104.606

0.201901 13.9781 2.57764e-12
13.9781 -68.5533 -2.11386e-13
2.57764e-12 -2.11386e-13 -104.77

-31.4532 52.4876 -6.21133e-13
52.4876 -36.0398 1.28993e-12
-6.21133e-13 1.28993e-12 -42.1342

-25.8366 47.7821 -3.46508e-12
47.7821 36.5948 4.70853e-12
-3.46508e-12 4.70853e-12 -37.0122

26.0299 45.7281 -1.21029e-12
45.7281 -32.5121 7.11727e-13
-1.21029e-12 7.11727e-13 -26.7915

18.4785 125.774 -5.96382e-12
125.774 63.7853 -7.10543e-14
-5.96382e-12 -7.10543e-14 -158.117

-68.6923 -18.441 -6.52426e-12
-18.441 -2.01738 2.38209e-12
-6.52426e-12 2.38209e-12 -100.463

-12.9254 -6.36052 -8.37448e-12
-6.36052 -23.7093 -4.95011e-13
-8.37448e-12 -4.95011e-13 -129.681

-26.6286 -1.49509 3.46538e-12
-1.49509 -10.0572 2.34183e-13
3.46538e-12 2.34183e-13 -129.897

-36.2533 -189.251 -2.29742e-12
-189.251 106.78 8.62125e-13
-2.29742e-12 8.62125e-13 -248.824

-20.2454 -18.2394 3.55567e-12
-18.2394 -26.1234 -5.72342e-12
3.55567e-12 -5.72342e-12 -65.4788

-50.7459 14.3716 2.88628e-12
14.3716 -13.4027 3.94943e-12
2.88628e-12 3.94943e-12 -82.0394

29.7265 -44.9135 2.96059e-13
-44.9135 -36.5112 -5.01821e-12
2.96059e-13 -5.01821e-12 -26.9698

-64.8107 1.75309 2.81382e-12
1.75309 18.6479 5.87382e-12
2.81382e-12 5.87382e-12 -37.7072

-51.5587 -33.8169 -5.15736e-13
-33.8169 9.97299 -3.53969e-12
-5.15736e-13 -3.53969e-12 -21.1265

17.5621 10.0059 1.39918e-12
10.0059 -85.686 6.34677e-13
1.39918e-12 6.34677e-13 -20.6013

-80.6323 25.5681 -1.1013e-12
25.5681 16.9069 -2.34894e-12
-1.1013e-12 -2.34894e-12 -26.446

-66.81 11.6737 2.06794e-12
11.6737 26.4266 2.80664e-13
2.06794e-12 2.80664e-13 -29.4552

26.1946 34.6006 -6.86147e-12
34.6006 -45.2545 -7.69755e-14
-6.86147e-12 -7.69755e-14 -24.5872

-160.445 -14.9022 -6.50443e-13
-14.9022 241.292 8.52651e-13
-6.50443e-13 8.52651e-13 -238.975

-7.59794 -47.5339 2.14821e-12
-47.5339 -7.80144 -1.29319e-12
2.14821e-12 -1.29319e-12 -23.2286

-13.0246 -43.2111 -4.77722e-12
-43.2111 -24.3419 -1.54188e-12
-4.77722e-12 -1.54188e-12 -24.3654

-23.5611 -51.3685 1.62063e-12
-51.3685 -35.8474 1.21207e-12
1.62063e-12 1.21207e-12 -25.8919

187.487 101.936 2.43479e-12
101.936 -43.8157 -7.55544e-13
2.43479e-12 -7.55544e-13 -195.502

-35.7948 -32.4175 1.6455e-12
-32.4175 -26.4642 1.58451e-12
1.6455e-12 1.58451e-12 -74.1905

124.329 191.173 -2.28321e-12
191.173 192.952 6.40436e-12
-2.28321e-12 6.40436e-12 -163.815

-58.3068 -34.2217 -3.91983e-13
-34.2217 -13.2126 -1.25529e-12
-3.91983e-13 -1.25529e-12 -25.3441

24.1566 24.1576 8.33703e-13
24.1576 -63.9359 -1.16144e-12
8.33703e-13 -1.16144e-12 -21.8499

78.1619 -27.1927 8.02913e-13
-27.1927 -27.3076 6.98108e-13
8.02913e-13 6.98108e-13 -47.5534

-37.1835 41.0147 2.9073e-12
41.0147 7.38532 -3.26613e-12
2.9073e-12 -3.26613e-12 -20.6756

28.0474 34.325 -2.37203e-12
34.325 -47.4676 -6.76614e-12
-2.37203e-12 -6.76614e-12 -23.5584

-80.5253 18.0575 3.14356e-12
18.0575 13.6114 -1.6082e-12
3.14356e-12 -1.6082e-12 -51.0218

-13.4982 -52.8875 6.90411e-13
-52.8875 -21.7324 3.38041e-12
6.90411e-13 3.38041e-12 -22.6725

5.5646 31.7849 -3.42245e-13
31.7849 -72.2379 -1.9907e-12
-3.42245e-13 -1.9907e-12 -51.0488

-44.2763 -32.1338 -4.73754e-12
-32.1338 28.5335 -1.83557e-13
-4.73754e-12 -1.83557e-13 -23.0311

-70.2116 7.12958 3.61322e-13
7.12958 28.699 3.91154e-12
3.61322e-13 3.91154e-12 -27.7894

-4.46306 16.0121 -1.70945e-12
16.0121 -62.7875 2.01084e-12
-1.70945e-12 2.01084e-12 -78.511

-2.61128 -13.5959 3.71969e-12
-13.5959 -60.2416 1.79027e-12
3.71969e-12 1.79027e-12 -78.84

158.414 54.8022 -4.05483e-12
54.8022 -61.3685 -4.09746e-13
-4.05483e-12 -4.09746e-13 -157.741

6.51913 12.8436 -1.69346e-13
12.8436 -73.2094 -1.54306e-12
-1.69346e-13 -1.54306e-12 -22.7726

-95.7696 30.9395 5.54519e-12
30.9395 555.526 6.82121e-13
5.54519e-12 6.82121e-13 -212.367

-80.5312 -48.9904 8.75507e-12
-48.9904 578.727 -5.49486e-13
8.75507e-12 -5.49486e-13 -199.129

-11.811 248.826 5.67487e-12
248.826 444.713 7.01069e-13
5.67487e-12 7.01069e-13 -217.856

1.97254 -47.7161 6.88042e-13
-47.7161 -41.1789 -2.94342e-12
6.88042e-13 -2.94342e-12 -27.0393

-90.6795 -171.086 1.49688e-12
-171.086 215.477 5.70329e-12
1.49688e-12 5.70329e-12 -241.976

-7.80996 -246.751 1.7053e-13
-246.751 408.319 -6.82121e-12
1.7053e-13 -6.82121e-12 -229.553

-9.30878 47.7907 -3.52548e-12
47.7907 27.5574 2.70835e-12
-3.52548e-12 2.70835e-12 -30.7325

338.421 323.928 4.30115e-12
323.928 122.937 8.62125e-13
4.30115e-12 8.62125e-13 -211.935

-30.9395 20.4689 2.51384e-12
20.4689 -10.1184 -3.46922e-12
2.51384e-12 -3.46922e-12 -49.7534

2.41597 -0.999053 1.20437e-12
-0.999053 -43.275 -2.95704e-12
1.20437e-12 -2.95704e-12 -49.7965

372.512 -321.446 1.51582e-13
-321.446 120.438 -1.46846e-12
1.51582e-13 -1.46846e-12 -203.777

-38.6843 -40.7592 -3.19448e-12
-40.7592 19.7006 6.57015e-12
-3.19448e-12 6.57015e-12 -26.3396

178.446 113.941 4.09273e-12
113.941 24.3404 8.8581e-13
4.09273e-12 8.8581e-13 -176.198

63.3619 279.079 -2.31163e-12
279.079 405.055 6.72647e-12
-2.31163e-12 6.72647e-12 -210.659

-27.0039 71.5331 4.9359e-12
71.5331 212.894 -2.6148e-12
4.9359e-12 -2.6148e-12 -184.09

66.9896 -289.085 6.58436e-12
-289.085 409.752 -3.39166e-12
6.58436e-12 -3.39166e-12 -210.271

-31.2107 -43.4434 -2.97717e-12
-43.4434 231.744 -1.9611e-12
-2.97717e-12 -1.9611e-12 -182.387

-47.7664 11.3831 -4.69136e-12
11.3831 3.2983 -3.85647e-12
-4.69136e-12 -3.85647e-12 -66.5663

30.0175 -133.661 -1.64846e-12
-133.661 68.6706 4.92169e-12
-1.64846e-12 4.92169e-12 -169.49

-91.2359 163.711 2.16952e-12
163.711 200.973 1.07624e-11
2.16952e-12 1.07624e-11 -240.178

509.276 165.366 -2.48216e-12
165.366 -43.1363 -1.64846e-12
-2.48216e-12 -1.64846e-12 -210.336

9.65941 -49.8956 -8.0765e-13
-49.8956 -25.8269 -4.2674e-12
-8.0765e-13 -4.2674e-12 -24.4508

-62.5416 20.9629 9.25778e-13
20.9629 9.6136 2.86704e-12
9.25778e-13 2.86704e-12 -30.2894

172.777 -125.627 -1.06108e-12
-125.627 0.601175 1.89478e-13
-1.06108e-12 1.89478e-13 -188.604

9.01906 -48.6984 4.84353e-13
-48.6984 -28.8267 2.94165e-12
4.84353e-13 2.94165e-12 -25.2616

497.479 -158.133 3.60008e-12
-158.133 -87.5314 -3.80614e-12
3.60008e-12 -3.80614e-12 -224.227

-10.297 -47.2582 -3.45797e-13
-47.2582 -24.6495 -1.32161e-12
-3.45797e-13 -1.32161e-12 -24.3715

-33.123 -43.8871 -5.12242e-12
-43.8871 18.8233 -3.19507e-12
-5.12242e-12 -3.19507e-12 -26.0608

264.676 306.272 1.00423e-12
306.272 175.906 2.40637e-12
1.00423e-12 2.40637e-12 -223.256

-23.4332 -76.7818 1.27424e-12
-76.7818 205.639 3.78956e-14
1.27424e-12 3.78956e-14 -194.922

262.608 -315.337 3.4864e-12
-315.337 164.915 -2.63375e-12
3.4864e-12 -2.63375e-12 -227.203

-54.813 176.969 -2.10321e-12
176.969 119.521 -3.4864e-12
-2.10321e-12 -3.4864e-12 -249.341

-4.31215 -52.0189 2.35782e-12
-52.0189 -12.6415 -2.78651e-12
2.35782e-12 -2.78651e-12 -26.1296

-12.9676 -23.6469 -1.61175e-12
-23.6469 -35.5101 -6.53226e-12
-1.61175e-12 -6.53226e-12 -57.6355

-18.2028 18.1552 2.84935e-12
18.1552 -28.7793 -2.47387e-12
2.84935e-12 -2.47387e-12 -129.218

-43.0336 -6.92627 -1.28371e-12
-6.92627 -9.21267 7.16053e-12
-1.28371e-12 7.16053e-12 -128.125

-64.7724 21.7487 1.25148e-12
21.7487 22.3922 -4.39115e-12
1.25148e-12 -4.39115e-12 -24.5804

-22.1732 -17.2432 -1.32738e-12
-17.2432 -29.8399 5.23315e-12
-1.32738e-12 5.23315e-12 -130.146

-42.9317 5.27294 1.79975e-12
5.27294 -9.07724 9.02822e-12
1.79975e-12 9.02822e-12 -130.365

-6.81248 13.298 -7.39616e-12
13.298 -44.244 -3.43399e-12
-7.39616e-12 -3.43399e-12 -128.893

-68.6447 -19.5565 6.44026e-12
-19.5565 5.33928 -3.01033e-12
6.44026e-12 -3.01033e-12 -111.65

-39.652 -86.2853 -2.34242e-12
-86.2853 143.114 3.32534e-12
-2.34242e-12 3.32534e-12 -164.377

2.08129 -20.6299 8.30802e-12
-20.6299 -62.6251 -5.93688e-12
8.30802e-12 -5.93688e-12 -75.6937

-26.2138 -54.8862 -3.99503e-12
-54.8862 -35.2107 8.81665e-13
-3.99503e-12 8.81665e-13 -41.9305

-3.64524 -28.5947 1.72129e-12
-28.5947 -48.9147 1.95991e-13
1.72129e-12 1.95991e-13 -58.6764

20.9445 25.4586 4.07852e-12
25.4586 -63.0949 -2.48068e-12
4.07852e-12 -2.48068e-12 -23.9005

-73.7255 15.4776 3.25436e-12
15.4776 14.8632 -2.79835e-12
3.25436e-12 -2.79835e-12 -115.345

6.10784 30.6222 -1.90366e-12
30.6222 -64.9341 4.14831e-12
-1.90366e-12 4.14831e-12 -115.533

0.601027 17.8875 3.99621e-12
17.8875 -41.2486 -5.50078e-13
3.99621e-12 -5.50078e-13 -57.6989

246.773 -47.8837 9.28443e-13
-47.8837 -182.864 -2.25953e-12
9.28443e-13 -2.25953e-12 -251.633

-27.036 43.9817 -4.44089e-13
43.9817 15.938 8.04098e-13
-4.44089e-13 8.04098e-13 -26.6115

136.389 -218.923 6.20541e-12
-218.923 -17.4795 -1.53004e-12
6.20541e-12 -1.53004e-12 -245.648

132.602 -207.485 -3.34429e-12
-207.485 211.467 5.51381e-12
-3.34429e-12 5.51381e-12 -168.918

284.652 -125.988 7.95808e-13
-125.988 12.4817 8.05282e-14
7.95808e-13 8.05282e-14 -169.539

-78.1228 -7.8337 -6.99322e-12
-7.8337 6.18631 4.83051e-12
-6.99322e-12 4.83051e-12 -98.6097

-77.1834 4.19456 -1.9081e-12
4.19456 5.98207 -4.35859e-12
-1.9081e-12 -4.35859e-12 -97.8383

-17.2334 -37.6006 -4.15904e-12
-37.6006 -53.6116 5.09711e-12
-4.15904e-12 5.09711e-12 -96.3531

-13.1701 -33.8546 -6.37013e-12
-33.8546 -57.3649 4.32839e-13
-6.37013e-12 4.32839e-13 -96.8443

-21.6072 40.3754 -3.51541e-12
40.3754 -50.2466 -1.85689e-12
-3.51541e-12 -1.85689e-12 -98.7609

-29.5573 6.45083 7.23362e-12
6.45083 -21.1332 2.01557e-11
7.23362e-12 2.01557e-11 -125.03

-14.9371 -31.9597 -3.88104e-12
-31.9597 -50.2341 1.59132e-13
-3.88104e-12 1.59132e-13 -93.3634

-41.9796 -29.0515 2.49578e-12
-29.0515 -20.5562 -1.49499e-11
2.49578e-12 -1.49499e-11 -116.597

-27.2145 5.35693 4.60521e-13
5.35693 -19.8567 5.61329e-12
4.60521e-13 5.61329e-12 -129.336

-8.29016 -31.6553 -1.89715e-12
-31.6553 -63.4251 -1.16529e-12
-1.89715e-12 -1.16529e-12 -98.4175

-9.42853 32.4292 2.14014e-12
32.4292 -61.3074 6.4541e-14
2.14014e-12 6.4541e-14 -97.801

-25.4978 -7.20485 1.96258e-12
-7.20485 -17.7486 4.33653e-12
1.96258e-12 4.33653e-12 -128.316

-18.4612 -6.84893 -1.67629e-11
-6.84893 -29.4838 1.09746e-11
-1.67629e-11 1.09746e-11 -123.407

-38.7731 18.2669 -7.92492e-12
18.2669 -19.9675 -4.22817e-12
-7.92492e-12 -4.22817e-12 -115.256

-33.6387 42.1673 1.90485e-12
42.1673 -39.3349 -2.46662e-12
1.90485e-12 -2.46662e-12 -93.7592

VECTORS fluid_flux_TPM float
-6.97563e-05 2.55272e-05 -2.53987e-21
2.58703e-06 5.07058e-06 9.87916e-21
-9.39957e-06 -7.54129e-06 -1.43392e-21
-3.07457e-06 3.13346e-06 1.66728e-21
1.65561e-05 -4.49917e-06 -4.51862e-21
2.04975e-06 -1.1703e-05 -4.09957e-21
-6.86338e-05 -2.55402e-05 -3.78365e-21
-1.01649e-05 -7.70679e-06 -4.31249e-21
1.63328e-05 6.85871e-07 -3.28566e-21
8.36766e-06 -2.8467e-06 -6.94343e-21
4.21102e-05 9.81639e-06 -6.80358e-21
1.76051e-06 -1.26053e-05 -3.98286e-22
9.97642e-06 8.29691e-06 -2.25666e-21
1.91026e-06 1.01153e-05 6.77969e-21
1.50148e-05 -2.08849e-06 1.0411e-21
-1.20228e-05 -2.01708e-07 3.23036e-21
1.97069e-06 1.03223e-05 1.12598e-20
7.50197e-06 -1.74986e-06 -1.06642e-20
7.31461e-06 1.27219e-05 5.12117e-21
-1.09386e-05 1.38439e-06 -2.29731e-21
-2.67945e-06 -1.56759e-05 2.68383e-21
2.46154e-05 4.30649e-05 4.06561e-21
1.15716e-05 1.19925e-06 -6.75981e-21
8.26329e-06 -8.31787e-06 -1.72566e-20
-1.11089e-05 -2.44288e-06 3.54309e-22
-5.28729e-07 -8.18009e-06 4.32546e-21
4.85981e-05 -4.02659e-06 -1.88521e-21
1.03226e-05 7.53642e-06 -3.06556e-21
-1.88657e-05 -1.54071e-05 -1.58043e-20
3.56443e-05 -9.1434e-06 6.87643e-22
-1.21915e-05 -4.40174e-06 -9.54921e-21
4.10903e-06 -2.39745e-05 -3.26304e-21
3.69455e-05 -3.72714e-05 -7.38873e-21
-3.55358e-06 -2.99076e-05 -1.20574e-20
-2.1422e-05 2.68903e-05 6.83443e-21
-2.77243e-05 -1.19013e-05 -9.11079e-21
2.35924e-05 3.13991e-05 1.79138e-20
-3.24645e-05 -6.20826e-06 -1.3147e-20
1.05394e-05 -8.16835e-06 -1.74505e-20
3.60358e-05 3.88826e-05 -3.14686e-21
2.40637e-05 -1.05818e-05 8.32735e-22
2.42706e-05 -3.07701e-05 -1.722e-20
-1.45452e-05 -3.64565e-05 -1.32413e-20
-1.16968e-05 4.63553e-06 9.62235e-22
2.32091e-05 -2.22104e-05 1.62959e-21
-2.26708e-05 8.22379e-06 5.9566e-21
-2.98939e-06 -1.50367e-05 -2.23026e-21
5.82899e-06 1.49165e-05 1.58733e-21
-1.20075e-05 4.33365e-06 -5.53516e-23
-1.33796e-05 2.15666e-05 4.49469e-21
2.42861e-05 1.15473e-05 -2.12611e-21
2.1902e-05 -7.45993e-06 -4.30732e-21
-1.13411e-05 1.15386e-05 4.80799e-21
-1.75293e-05 -1.54557e-05 -1.12694e-20
-1.54163e-05 -3.64901e-06 -6.7725e-21
-3.43572e-05 2.05592e-05 -3.34805e-21
-2.12006e-05 -2.76253e-05 -7.3436e-21
4.79179e-06 -2.28283e-05 -2.63757e-21
-3.45929e-05 4.58839e-06 7.80732e-21
4.48957e-06 1.00844e-05 6.10458e-21
-4.121e-06 -5.95851e-06 -1.09147e-20
-4.86453e-06 -1.30684e-05 -1.15471e-20
4.39393e-05 1.92928e-05 -4.12033e-21
6.68489e-06 1.32644e-05 1.20424e-20
8.9222e-06 -1.05819e-05 -4.73473e-21
-1.15371e-06 -1.51487e-05 -6.80024e-21
3.34304e-06 -6.46888e-06 1.64247e-21
-7.43051e-06 -4.06143e-06 -2.5123e-21
-7.80327e-06 8.79599e-06 6.20388e-21
1.90393e-06 -2.99193e-06 -6.92408e-21
-1.08881e-05 -1.15976e-05 -6.66252e-21
-1.55782e-05 3.67357e-06 3.0622e-21
-2.58783e-06 2.58742e-05 3.46142e-21
-1.30448e-05 7.80633e-06 -4.12591e-21
-6.67229e-06 1.07685e-05 4.78739e-21
-4.71044e-05 5.35546e-06 -4.15763e-21
5.6373e-06 -1.58052e-05 -1.19542e-20
-1.37604e-05 -6.53285e-06 -3.69791e-21
1.45182e-06 8.53903e-06 1.04576e-20
1.95382e-05 3.81174e-06 3.25313e-21
2.57954e-05 -2.19501e-05 -1.88377e-22
1.60084e-05 1.50231e-05 1.8e-20
8.71929e-06 -2.00557e-06 -2.67643e-21
-2.42528e-05 1.82147e-05 4.08313e-21
2.84333e-05 3.61014e-06 -3.94118e-21
-3.62745e-06 3.77125e-05 -6.80348e-21
-1.2953e-06 -1.23809e-05 2.90303e-21
1.32303e-05 7.28241e-06 -2.44105e-21
2.22914e-05 2.29757e-05 -7.21655e-21
3.98328e-05 2.74911e-05 4.12514e-21
-4.0126e-06 2.29367e-05 1.0208e-21
4.28234e-05 -2.56847e-05 -1.02215e-20
-1.97111e-05 3.93336e-06 -9.86987e-21
1.30327e-05 8.00561e-06 -3.86803e-21
-2.21106e-05 7.32981e-06 -3.91934e-22
1.24874e-05 2.1381e-05 -5.16833e-21
7.72934e-06 -3.3567e-05 2.08738e-21
1.42836e-06 8.53511e-06 6.75246e-21
-1.08203e-05 -1.27904e-05 -8.8875e-21
2.28599e-06 1.28425e-05 6.91866e-21
1.95759e-05 3.87037e-06 3.88112e-21
-1.15968e-05 2.489e-05 8.61602e-21
3.07012e-05 -1.0005e-05 -2.87091e-21
-2.77467e-06 5.49911e-06 2.89506e-21
7.29759e-06 4.36335e-06 -4.50048e-21
-1.69515e-06 -8.31793e-06 6.38839e-21
2.30691e-06 -1.40457e-05 -2.66345e-21
1.28501e-05 2.8384e-06 -5.10786e-21
-6.05479e-06 3.09529e-05 -1.03937e-21
-7.18644e-06 2.09108e-07 1.40246e-21
6.85406e-06 8.7641e-06 4.69677e-21
-1.61527e-06 -3.15844e-05 -5.91605e-22
3.18802e-05 9.57734e-06 -4.77852e-21
3.26325e-06 -5.49737e-06 -1.00492e-20
-8.19594e-06 -2.59287e-06 -1.88572e-21
-2.18916e-05 -9.2621e-06 -4.91388e-21
1.15565e-05 2.97924e-05 6.57386e-22
-3.29709e-05 -1.17108e-05 -1.8749e-21
1.17161e-05 -2.97744e-05 -1.32137e-20
-2.79516e-06 -2.37962e-05 6.43193e-22
1.61506e-05 4.95091e-07 1.45564e-21
-5.28569e-06 1.33994e-05 1.35592e-20
-1.1598e-06 2.93019e-06 5.87339e-22
-2.64749e-06 -1.20953e-05 -7.20053e-21
3.85302e-06 -6.0698e-06 -2.61622e-21
6.77352e-06 1.15961e-05 2.49833e-20
2.40576e-05 7.61847e-06 -4.76979e-21
6.31536e-06 -5.49435e-06 -1.58158e-20
-6.2855e-06 -3.41827e-05 -6.74702e-21
1.90239e-05 -1.40515e-05 -1.21738e-21
3.58062e-06 2.01806e-05 1.61379e-20
-2.09382e-06 -2.07482e-06 3.31236e-21
-6.26531e-06 -6.12754e-06 -9.46348e-21
-3.51143e-06 3.79002e-09 1.24581e-21
-1.71304e-05 2.14488e-05 4.30719e-21
1.3546e-05 -2.71368e-05 -1.88352e-20
-2.02294e-05 3.25001e-05 5.9367e-22
-1.2026e-05 6.97653e-06 3.54538e-22
1.90762e-06 8.90242e-06 -9.38576e-21
-1.67285e-05 -2.53373e-05 -6.21715e-21
1.04497e-05 2.50419e-05 -3.74569e-21
1.27965e-05 6.89914e-06 -7.88063e-22
1.6865e-05 -6.2618e-06 -7.17827e-21
-8.80338e-07 -8.27799e-06 -7.186e-21
-2.56927e-05 -2.39551e-05 -6.5822e-21
-2.052e-06 8.29682e-06 4.72972e-21
1.26209e-05 7.43458e-06 2.47555e-21
1.38773e-05 -6.44151e-06 -1.02919e-20
6.06695e-06 -1.05687e-05 -9.66447e-21
1.80566e-05 -8.02919e-06 -4.50131e-21
1.40052e-05 -6.62869e-06 -1.01328e-21
3.41304e-06 1.23664e-07 -1.99416e-20
1.93066e-05 1.50953e-05 -5.16267e-21
-2.04673e-06 -1.25086e-05 1.68141e-21
-7.68102e-06 -3.3097e-06 -3.29165e-21
8.03637e-07 -2.87301e-06 4.31084e-22
-2.25976e-06 1.16129e-05 7.57458e-21
-2.60647e-05 2.04736e-06 1.85478e-21
-9.08647e-06 -2.48771e-05 -1.25565e-20
-5.80032e-06 7.20288e-06 4.15083e-21
1.00051e-05 1.22895e-05 -8.46889e-22
1.99148e-05 -1.39794e-05 1.64055e-21
-2.79579e-05 -1.53332e-05 -8.48527e-22
1.30354e-05 -2.06067e-05 1.25395e-21
1.70471e-05 -2.03703e-05 6.15734e-22
-8.04747e-06 2.76067e-06 4.07682e-21
-1.48249e-05 -2.15956e-05 -1.78697e-20
-2.6079e-05 -4.30266e-06 -8.33678e-22
-2.8273e-06 -2.37569e-05 -6.05748e-22
1.15728e-05 -2.36986e-05 -4.90559e-21
-6.56885e-06 -1.90659e-05 -2.13362e-21
3.45514e-06 2.34102e-05 -6.16578e-21
-1.17977e-05 -2.13749e-05 -1.89056e-20
2.10788e-06 -1.19321e-05 5.57181e-21
-1.84165e-05 1.36348e-05 2.4552e-21
-1.09872e-05 -8.79888e-06 -6.62685e-21
-1.98766e-05 -3.81365e-06 -1.2666e-21
1.14988e-05 -6.71554e-06 -9.84713e-21
-3.24305e-06 1.74137e-05 1.06935e-20
8.94479e-06 -6.86033e-06 -1.88913e-20
-2.2116e-05 -9.86095e-06 -3.5125e-21
-6.47226e-06 -5.49494e-06 2.07168e-21
6.65945e-06 5.55755e-06 2.25221e-21
1.60209e-05 2.14957e-05 -8.65228e-21
-1.2793e-05 -7.87957e-06 -7.02767e-21
-2.43335e-05 -5.44559e-07 2.86488e-21
-1.19239e-05 -3.70935e-06 -6.17421e-21
-3.29615e-06 -1.21295e-05 -5.99852e-21
1.28985e-05 1.54082e-05 -1.10359e-20
-8.03005e-06 4.33506e-06 3.09117e-21
4.50736e-07 -1.50097e-05 -5.77439e-21
-3.17108e-05 8.07722e-06 1.62361e-21
1.85135e-05 1.51237e-05 2.45414e-21
2.7928e-06 2.45554e-05 -3.90542e-21
-1.81195e-06 2.77811e-06 9.24099e-21
-6.67462e-06 1.85594e-07 5.32983e-22
3.21311e-06 5.72418e-06 3.24683e-21
-8.56545e-06 2.43062e-06 7.4017e-21
-1.49936e-06 -2.79571e-06 -1.41755e-20
1.17576e-06 1.5162e-05 4.88023e-21
3.28797e-06 3.58359e-07 1.243e-21
-1.44235e-05 3.50829e-06 -8.58433e-22
-1.28715e-05 1.43704e-05 2.20457e-22
-2.32747e-06 8.44841e-06 1.66468e-20
-2.19614e-05 1.37235e-05 5.93921e-21
-6.78619e-06 6.60458e-06 7.98303e-21
1.26595e-05 -8.44125e-06 -1.028e-20
2.74437e-05 -2.63671e-06 -1.03737e-21
-1.53821e-05 8.22144e-06 -7.22226e-21
1.66617e-06 3.29173e-06 -8.977e-21
1.58512e-05 -3.22244e-06 -8.04822e-21
-1.26412e-05 7.53235e-06 7.83218e-22
-7.27033e-06 4.04021e-06 5.61639e-22
8.6669e-06 2.67888e-06 -2.03563e-20
1.62306e-05 -9.95624e-06 -2.07227e-21
-1.27051e-05 7.28271e-06 -2.50604e-21
-1.85839e-05 -3.93986e-06 1.62552e-21
-1.22344e-05 -3.23499e-06 -4.75488e-21
7.23682e-06 -1.82503e-08 -2.32409e-20
7.45405e-06 1.693e-07 -4.14516e-22
3.19198e-06 6.11258e-06 1.82701e-20
3.51744e-06 -6.4632e-06 3.30363e-21
-3.6921e-06 6.15638e-06 1.17311e-20
-3.88365e-06 -6.33309e-06 -9.63349e-21
7.29887e-06 -5.40423e-06 -4.71204e-21
-1.48316e-05 2.30279e-06 9.86638e-21
-1.46407e-05 -2.33787e-06 -1.87349e-21
-9.31392e-06 1.16104e-05 1.30685e-20
-9.37223e-06 -1.16512e-05 -1.4234e-20
5.52856e-06 -1.44213e-05 -1.31891e-20
5.32333e-06 1.43662e-05 -9.19401e-21
1.12909e-06 1.91954e-05 -7.41875e-21
8.23806e-06 -2.34956e-06 -1.35539e-20
1.73746e-06 -2.84425e-06 -2.09779e-20
-1.58047e-05 1.03581e-06 -3.53743e-21
5.65209e-06 -1.42038e-05 -4.75822e-21
5.35733e-06 1.43131e-05 -1.12259e-20
3.50758e-06 -3.82236e-08 -1.10147e-20
6.65228e-06 1.81331e-05 -2.29868e-21
-1.65019e-06 -2.9565e-06 1.25873e-21
1.72396e-06 -8.3079e-06 -1.21281e-20
-1.66055e-05 -9.02295e-06 -3.45882e-21
-1.5535e-05 -8.36283e-06 -7.22997e-21
-1.62458e-05 1.00757e-05 -5.13105e-21
2.43406e-06 -8.96295e-06 -4.50305e-21
-1.15402e-06 2.4979e-06 4.92509e-21
-4.01065e-07 -1.8949e-05 4.24761e-22
-5.72118e-06 -1.81426e-05 -5.74621e-21
2.47024e-05 2.30101e-05 -3.70308e-21
2.66239e-05 -1.37959e-06 -3.51377e-21
-9.3068e-06 -2.59641e-06 -3.10991e-21
-1.73688e-05 -3.14127e-05 -8.407e-21
6.11218e-06 1.01177e-05 6.73303e-21
-1.87333e-05 2.25774e-06 -2.05513e-21
1.48147e-05 4.27743e-06 2.87681e-21
-3.33732e-06 -2.4594e-08 1.2335e-20
-3.39666e-06 -6.17529e-06 -1.56335e-20
-5.10574e-06 -2.85337e-05 -8.20729e-21
-7.11405e-06 -8.61333e-08 2.72443e-23
-3.6778e-05 -1.37031e-06 -1.05475e-21
1.28622e-05 -1.4178e-05 -3.29699e-21
1.78854e-06 2.94199e-06 2.47154e-21
-6.68182e-08 -1.28447e-05 -5.531e-21
-7.28161e-06 1.79074e-05 6.77382e-21
-3.18154e-06 6.33253e-06 6.97533e-21
1.51739e-05 -1.00684e-05 -3.27199e-21
-2.73071e-05 -9.85303e-06 3.5845e-22
-1.13494e-05 -1.51206e-05 -9.03629e-21
3.66579e-06 6.13382e-06 -3.61099e-21
1.21397e-05 3.82104e-06 -1.75114e-22
-3.51253e-06 -5.41406e-06 -3.45747e-21
1.44465e-05 2.52946e-06 -1.74466e-20
1.32747e-05 -7.18535e-06 -1.02933e-20
-2.40337e-07 1.97569e-05 6.88847e-21
6.12615e-06 -1.00595e-05 -8.83049e-21
3.71972e-05 1.85186e-06 -4.1496e-21
-3.20928e-05 8.64604e-06 -5.15586e-21
1.663e-05 8.40508e-06 -1.26791e-20
-4.75949e-06 -1.26647e-05 -2.82636e-21
-1.12474e-05 -6.33685e-06 -9.25479e-21
2.13859e-05 -1.60927e-07 -3.2813e-21
-4.99939e-07 -1.76423e-05 -7.22913e-21
-9.26168e-06 -7.92448e-06 -8.67837e-21
7.58531e-06 -1.74563e-05 -4.11438e-21
-3.4435e-07 1.50168e-05 2.21593e-21
5.89391e-06 1.93228e-05 -2.30184e-21
1.26404e-05 -7.22677e-06 -9.46565e-21
-1.40295e-05 1.43232e-05 -5.12345e-21
1.229e-05 1.4869e-05 -2.87175e-21
-4.50279e-05 1.16431e-05 -1.09052e-20
-7.29683e-06 1.89354e-05 6.68174e-21
9.08188e-06 -1.11627e-05 -1.3178e-20
-5.18664e-06 -1.33954e-05 -1.50459e-20
-8.68065e-06 3.34526e-06 1.72642e-20
-1.9192e-05 -5.19162e-06 -2.86934e-21
-4.60924e-06 2.81821e-05 9.11517e-21
-9.24819e-06 8.66167e-06 6.76231e-21
1.53155e-05 -3.26577e-06 -2.04132e-21
-5.11785e-06 -1.91092e-05 2.46603e-21
-1.10441e-05 1.77503e-05 -1.22323e-21
-1.58514e-05 9.14559e-06 -8.23009e-21
-1.52692e-05 -1.11365e-05 -7.60248e-21
1.3147e-05 -1.49796e-05 -1.50581e-20
-2.0424e-05 -1.07845e-06 1.62704e-21
9.33598e-06 -3.09947e-05 2.47186e-21
1.43506e-05 -1.4034e-05 9.96977e-22
1.87316e-05 3.26433e-05 -1.19483e-20
1.41007e-06 1.44931e-05 1.08251e-20
2.17214e-06 -1.88475e-05 -1.23623e-21
-3.0189e-05 3.39497e-05 -4.10879e-21
-9.43253e-06 -1.81217e-05 -6.56577e-21
1.19421e-05 -4.72581e-06 -1.06748e-20
-1.76503e-06 1.91162e-05 -6.3854e-21
9.44269e-06 -8.601e-06 -6.95617e-21
1.0308e-05 1.80536e-05 1.4004e-21
1.26834e-05 -1.01382e-06 -5.75264e-21
1.70833e-05 -4.86993e-05 1.83637e-22
-4.33848e-06 -9.47217e-06 -5.51851e-21
-1.71721e-05 7.48601e-06 -4.52656e-21
-1.45848e-05 1.35717e-05 9.431e-24
1.60439e-05 1.07736e-05 -1.82829e-21
1.37495e-05 -7.90097e-06 -1.13268e-20
1.09515e-05 9.16065e-06 -4.6565e-21
-3.98314e-06 6.44607e-08 -4.12668e-22
1.14327e-05 -1.7138e-05 -4.04948e-22
-1.25794e-05 -1.51466e-05 -4.32054e-21
1.66759e-05 7.19129e-06 5.97416e-21
9.38547e-06 -8.72454e-06 -9.6723e-21
7.10647e-06 -1.84142e-05 -4.15115e-22
1.22322e-05 -5.0439e-06 -1.02796e-20
-1.16137e-05 -5.52527e-06 -7.24963e-21
9.49653e-07 -1.91281e-05 -8.70098e-21
-1.93498e-05 3.28655e-06 8.01623e-22
1.79313e-06 1.81334e-05 -3.74783e-21
1.51648e-05 4.84844e-06 -6.12653e-21
-1.60501e-05 -7.8786e-06 -6.33911e-21
-6.68082e-06 1.89864e-05 1.63324e-21
-1.12287e-06 -1.78598e-05 3.72065e-21
1.41746e-05 8.61362e-06 -1.00268e-20
-1.34093e-06 1.32482e-05 -8.21194e-22
-1.48634e-05 1.0139e-05 -1.13153e-20
1.74121e-05 8.47731e-06 4.49919e-21
-1.25431e-05 -7.26768e-06 -8.92018e-21
2.7074e-08 -1.45119e-05 8.10297e-22
1.36148e-05 1.48323e-05 -5.30798e-21
-1.61081e-05 -1.04071e-05 -2.29769e-21
3.7644e-05 -2.61042e-05 -8.43422e-21
1.31266e-05 -7.95631e-06 -9.69236e-21
6.86412e-06 3.25331e-05 -4.14399e-21
1.25193e-05 -1.00906e-05 -1.19319e-20
-1.62014e-05 7.08702e-05 -1.40724e-21
-1.61059e-05 -7.04336e-05 -8.73489e-22
4.65945e-05 5.84555e-05 -5.25346e-22
4.6384e-05 -5.82005e-05 -6.83451e-21
7.38246e-05 3.14199e-11 -5.0606e-22
-6.34568e-05 3.04914e-05 2.1289e-21
-6.27988e-05 -3.01851e-05 1.13272e-21
8.96674e-06 8.59865e-06 -1.14469e-20
2.13111e-05 1.58696e-05 -7.97023e-21
8.42975e-06 2.43041e-06 -8.3824e-21
1.38765e-05 7.18252e-06 -4.06964e-21
3.68552e-06 1.48898e-05 -6.89199e-23
-1.3888e-05 -1.10828e-05 -5.53764e-21
1.24467e-05 -7.5051e-06 -9.68658e-21
1.46483e-05 1.07652e-05 2.2756e-21
-2.37065e-06 1.80001e-05 -9.48604e-21
2.13657e-05 -1.44968e-05 -1.34137e-20
2.83383e-06 -1.75259e-05 -3.05601e-21
1.59803e-05 3.85928e-06 -2.24293e-21
2.23171e-05 8.16071e-06 6.12437e-21
1.03143e-05 1.0366e-05 2.10792e-20
1.16853e-05 4.83027e-06 -7.16103e-21
-1.3626e-05 8.03706e-06 -3.09791e-21
-1.66798e-05 6.64434e-06 -7.83138e-21
1.66797e-05 -8.1938e-06 -1.6267e-20
-1.34161e-05 -7.32059e-06 -9.27927e-21
-1.36466e-05 -7.79525e-06 -9.68116e-21
-2.68564e-07 -1.52419e-05 -3.2843e-21
-5.0187e-08 -1.55721e-05 -1.23662e-21
-1.48703e-05 -7.39557e-07 1.22199e-21
1.98427e-05 -2.99738e-06 -7.18784e-21
1.33411e-05 8.33831e-06 -1.23225e-21
-1.31045e-05 8.04603e-06 -2.91215e-21
-1.12286e-05 1.20682e-05 2.22782e-21
1.18244e-05 -1.0144e-05 -2.87887e-21
-8.1501e-06 1.29114e-05 -1.62059e-21
-1.05092e-05 -1.0995e-05 4.31514e-24
-8.46617e-07 1.56277e-05 -2.53647e-21
-9.77521e-07 1.53906e-05 -4.60329e-21
7.27432e-08 -1.45122e-05 -1.83487e-21
4.51384e-06 -1.45784e-05 -1.45257e-21
-1.25394e-05 -7.27449e-06 -1.1363e-20
1.14796e-05 -4.02621e-06 -6.15084e-21
4.77262e-07 1.58148e-05 -8.74642e-22
2.08419e-07 1.35659e-05 -4.57279e-21
-1.74193e-06 1.24004e-05 7.92871e-22
1.61988e-05 -4.09127e-06 -2.85872e-21
-1.20681e-05 3.97162e-06 2.87881e-21
3.094e-06 1.58419e-05 -2.76336e-22
-2.36051e-05 9.3891e-06 -7.60154e-21
7.33713e-06 3.17042e-05 -8.26086e-21
-1.24437e-05 3.38148e-06 -2.48398e-21
1.43313e-05 -8.46442e-06 -7.65445e-21
7.16926e-07 1.54298e-05 -3.9961e-21
-1.5097e-05 4.90685e-06 3.71538e-22
1.7498e-06 -1.19095e-05 -2.04378e-21
1.4926e-06 -4.49226e-05 -1.67193e-21
1.49125e-06 1.28518e-05 9.51203e-22
-1.24717e-05 1.03487e-05 -1.44441e-21
1.37484e-05 4.92216e-05 -4.15727e-21
3.31331e-05 2.72832e-05 8.04919e-21
3.76791e-05 -2.55096e-05 -1.30698e-20
1.08752e-05 -7.47587e-06 -1.21307e-20
-1.16582e-05 1.03614e-05 -1.6344e-21
-1.4891e-05 -5.79892e-06 -3.93311e-21
-1.4495e-05 -5.03247e-06 -4.34516e-22
4.28887e-05 -1.78226e-05 -1.00576e-20
4.15682e-05 1.7294e-05 3.94178e-21
8.02056e-06 2.79131e-06 -8.58677e-21
6.03766e-07 1.43414e-05 3.03895e-21
5.68478e-08 1.43271e-05 -4.58665e-22
-3.75217e-05 -2.88533e-05 9.55722e-22
8.44267e-06 -1.26925e-05 -2.47819e-21
8.60229e-06 9.07304e-06 -5.89299e-21
-1.58071e-05 -2.48544e-06 -3.31533e-21
-1.03577e-05 1.27146e-05 2.30186e-21
-1.39114e-05 6.75151e-06 -5.17148e-21
3.71359e-05 2.57379e-05 2.03149e-21
1.15415e-05 5.18843e-06 -1.18998e-21
-4.11172e-06 1.48001e-05 -6.13978e-22
-1.24405e-05 -8.64668e-06 -6.38931e-21
1.39612e-06 -1.50725e-05 -5.92984e-21
-6.6233e-06 -1.42156e-05 -5.10346e-21
-1.27065e-05 -8.66949e-06 -4.325e-21
7.82086e-06 -1.398e-05 -1.86893e-21
1.04041e-05 -1.25541e-05 -3.91663e-21
-1.80338e-06 -4.751e-05 -4.91641e-21
1.98358e-05 -3.11588e-05 -8.05116e-22
1.28853e-06 -1.53101e-05 -1.19857e-21
1.31702e-05 8.35446e-06 2.29075e-21
-1.06391e-05 -1.10033e-05 5.53858e-21
-7.27868e-06 1.45563e-05 -2.23712e-21
-3.74609e-06 1.54729e-05 3.80376e-22
1.22239e-05 1.05145e-05 -1.61695e-21
4.49614e-06 -1.46218e-05 -4.91385e-21
-1.00759e-05 -3.06791e-05 -7.18058e-21
-1.43349e-06 1.82133e-05 8.75397e-21
1.09196e-05 1.06684e-05 2.28297e-21
-9.5095e-06 -7.44577e-06 -4.38238e-21
-9.90167e-06 7.72699e-06 -1.87005e-21
3.37292e-05 -1.45545e-05 -2.47837e-21
5.57628e-06 -9.86769e-06 -5.96511e-21
-6.11665e-06 -9.30837e-06 -3.47335e-21
1.5565e-05 4.55373e-06 -8.23371e-21
7.91681e-06 -3.66978e-05 -8.00354e-21
-2.78759e-05 -2.52416e-05 -2.7726e-21
1.69426e-05 4.56189e-06 -5.13551e-21
-6.89542e-06 -1.35132e-05 -9.22844e-21
1.37389e-05 6.93264e-06 -7.83575e-22
-2.17236e-05 -2.47225e-05 -4.31173e-21
6.97451e-06 3.62627e-05 1.27569e-20
2.47777e-05 -4.33882e-05 -7.86743e-21
-2.5232e-05 -4.32334e-05 4.19677e-21
2.13996e-05 -4.05497e-05 5.816e-22
-9.33806e-06 3.16053e-05 7.0114e-21
-4.52716e-06 2.82746e-05 5.37761e-21
-1.37599e-05 6.53654e-06 -2.72925e-23
4.30388e-06 1.76449e-05 1.26424e-20
-1.77954e-06 9.31019e-06 2.10144e-21
7.44124e-06 2.35219e-06 -3.43337e-21
-2.28183e-06 1.18485e-05 1.0227e-20
-1.77817e-07 1.53082e-05 8.36939e-21
1.2217e-05 7.13686e-06 -3.02989e-21
1.59286e-06 4.4706e-05 -2.33757e-21
-1.08016e-05 7.91773e-06 4.52845e-21
1.16637e-05 -4.60997e-06 -9.24041e-21
1.23153e-05 -3.3395e-06 -1.78701e-20
-4.73683e-05 -6.19366e-06 1.53841e-22
-2.50884e-05 1.21709e-05 -7.17417e-21
-3.36277e-05 -4.07111e-05 -1.06941e-21
6.29251e-06 6.1494e-06 1.37209e-20
1.04291e-05 5.30988e-06 -5.89222e-21
1.989e-05 -3.07504e-06 -5.11199e-21
-5.96352e-06 -9.74817e-06 -3.88442e-21
1.26345e-05 6.1427e-06 -5.5081e-21
5.28193e-06 -2.18283e-05 -1.28252e-20
-1.00265e-05 7.51145e-06 3.69534e-21
-1.62857e-05 -1.55259e-05 -1.33924e-20
-4.31889e-06 1.1984e-05 1.9128e-23
-2.34112e-06 1.50876e-05 1.18707e-20
2.45422e-05 1.54339e-05 -1.62336e-21
2.61764e-05 -1.39762e-05 -1.01465e-20
-3.1919e-05 -8.71617e-06 1.20161e-21
5.63603e-06 5.60829e-06 -3.63013e-21
-3.2833e-06 8.16902e-05 4.7687e-22
8.41348e-07 -8.40445e-05 -8.6954e-22
4.24053e-05 7.06692e-05 7.06054e-22
-1.39208e-05 6.20595e-06 1.84284e-21
-2.04368e-05 4.40395e-05 -9.791e-23
4.29243e-05 -6.8442e-05 -4.96346e-21
-8.64668e-06 -1.3509e-05 -2.84785e-21
6.28657e-05 5.44585e-05 -5.60121e-21
1.736e-05 -1.31734e-05 -1.1796e-20
-2.75453e-06 -2.16595e-05 -1.36249e-20
6.59201e-05 -5.29956e-05 -3.14864e-21
-4.9774e-06 1.07026e-05 4.62731e-22
-4.17651e-05 -2.71675e-05 7.55923e-21
-3.47269e-05 -7.49204e-05 3.80456e-22
-1.87461e-05 -4.46546e-05 -6.19551e-22
-3.55454e-05 7.57196e-05 -9.72711e-22
-7.85243e-06 4.9652e-05 -1.93026e-21
1.12906e-05 2.69332e-05 1.03747e-20
-2.12527e-05 2.85635e-05 -5.80504e-21
-1.95148e-05 -4.29676e-05 2.41993e-21
8.09832e-05 1.40065e-05 -2.28774e-21
-1.23844e-05 7.91511e-06 -4.13406e-21
-4.26348e-06 1.1947e-05 7.12901e-21
-3.92829e-05 2.95078e-05 -6.01149e-21
-1.2656e-05 7.27685e-06 -2.91471e-21
8.01581e-05 -1.24457e-05 2.79332e-21
-1.1243e-05 5.73896e-06 6.04623e-22
5.29856e-06 -1.06797e-05 -7.20966e-21
-6.24985e-05 -4.95352e-05 4.26231e-21
-2.01168e-05 4.47731e-05 -2.95329e-21
-6.35017e-05 4.90899e-05 -1.56286e-21
1.87665e-05 4.0533e-05 -2.9254e-21
-1.08453e-05 7.78748e-06 6.06301e-22
-1.49531e-05 1.77312e-05 2.88946e-21
-2.0598e-05 3.61414e-05 -1.6715e-21
-4.11419e-05 2.47597e-07 -1.63165e-20
-6.58419e-07 1.19328e-05 5.30923e-21
-2.08239e-05 -3.6575e-05 -2.38284e-21
-4.21743e-05 -2.55935e-07 5.68116e-22
-2.06259e-05 3.52329e-05 4.15941e-22
-1.09554e-05 4.7961e-05 2.85523e-21
-1.36134e-05 3.14519e-05 -8.02669e-21
-2.46086e-05 1.96322e-05 1.06497e-21
1.77312e-05 -4.4601e-06 -1.2793e-20
2.75613e-05 -1.66766e-06 -5.2037e-21
9.89441e-06 5.98088e-06 6.85883e-22
-7.53288e-06 -5.35153e-05 -1.69347e-21
-5.02121e-05 -2.02687e-05 -3.37271e-21
2.69403e-05 6.03347e-07 -6.35162e-21
4.52442e-05 -8.56639e-06 -2.5125e-21
-7.81e-06 -9.95297e-06 -3.24948e-21
-3.9537e-05 2.94462e-05 -4.60943e-21
-3.57505e-05 4.18127e-05 -9.10429e-21
4.80957e-05 -1.71395e-05 1.89342e-22
-2.03056e-05 -3.66401e-05 -1.42489e-20
-2.07442e-05 3.61165e-05 5.77444e-21
-4.1481e-05 -7.23785e-07 -7.24181e-21
-1.93661e-05 3.65907e-05 1.88656e-21
-4.19808e-05 -7.15082e-07 5.12121e-21
4.7898e-05 1.24387e-05 -9.60903e-22
4.08419e-05 8.14888e-07 -5.21872e-21
3.68487e-05 -2.11778e-05 -2.63298e-21
1.81655e-05 -4.30085e-05 -1.29006e-20
2.17695e-05 -3.53254e-05 -1.56993e-20
2.1218e-05 3.51998e-05 6.16603e-21
1.77464e-05 4.20357e-05 4.08262e-21
5.48903e-05 -1.43337e-05 1.01511e-20
3.35086e-05 2.10297e-05 2.52041e-21
3.37603e-05 1.00103e-05 3.54958e-21
TENSORS solid_stress_TPM float
1507.5 -118.909 2.10321e-12
-118.909 945.271 -1.50635e-12
2.10321e-12 -1.50635e-12 818.985

1331.95 -33.6143 1.10282e-14
-33.6143 1385.44 5.9508e-14
1.10282e-14 5.9508e-14 1377.26

1340.11 48.0555 1.62477e-12
48.0555 1355.19 1.50931e-12
1.62477e-12 1.50931e-12 1334.71

1330.9 -48.8128 -2.54582e-12
-48.8128 1374.27 -1.40362e-12
-2.54582e-12 -1.40362e-12 1375.27

1422.67 30.7388 -3.16961e-12
30.7388 1456.99 4.40833e-13
-3.16961e-12 4.40833e-13 1418.09

1310.22 -31.0492 2.27078e-13
-31.0492 1383.96 8.02913e-13
2.27078e-13 8.02913e-13 1334.11

1495.03 123.998 3.24007e-12
123.998 947.336 2.37795e-12
3.24007e-12 2.37795e-12 816.498

1364.77 50.5483 -2.06472e-12
50.5483 1358.66 8.58572e-14
-2.06472e-12 8.58572e-14 1353.96

1383.06 9.51287 -1.8332e-12
9.51287 1284.72 3.68731e-12
-1.8332e-12 3.68731e-12 1293.56

1411.69 -12.2409 -3.60304e-12
-12.2409 1312.36 7.46514e-13
-3.60304e-12 7.46514e-13 1371.4

1324.62 50.3349 -8.52651e-13
50.3349 947.92 3.93167e-13
-8.52651e-13 3.93167e-13 867.587

1316.83 -23.1323 -4.85538e-14
-23.1323 1406.8 -3.25192e-12
-4.85538e-14 -3.25192e-12 1353.78

1356.16 47.5683 -4.44918e-12
47.5683 1359.38 7.14095e-13
-4.44918e-12 7.14095e-13 1345.9

1332.7 -23.5606 -1.46068e-12
-23.5606 1404.31 2.81257e-12
-1.46068e-12 2.81257e-12 1369.73

1408.68 53.2253 -1.15759e-12
53.2253 1405.57 6.20716e-13
-1.15759e-12 6.20716e-13 1408.17

1397.52 1.03529 3.12994e-12
1.03529 1305.14 7.55507e-13
3.12994e-12 7.55507e-13 1340.37

1330.08 -29.7069 1.62944e-13
-29.7069 1419.92 9.46206e-13
1.62944e-13 9.46206e-13 1383.75

1398.72 -4.55987 -1.33286e-12
-4.55987 1307.94 -3.29159e-12
-1.33286e-12 -3.29159e-12 1359.03

1291.41 48.6394 3.55271e-14
48.6394 1347.52 -3.01625e-12
3.55271e-14 -3.01625e-12 1280.57

1389.22 -7.25526 2.53072e-12
-7.25526 1291.06 -2.265e-12
2.53072e-12 -2.265e-12 1328.15

1293.67 15.9059 1.24789e-12
15.9059 1393.71 -1.89004e-12
1.24789e-12 -1.89004e-12 1312.43

1558.02 10.8885 -1.45002e-11
10.8885 1553.94 4.08266e-13
-1.45002e-11 4.08266e-13 1449.49

1386.63 3.31363 1.64846e-12
3.31363 1288.91 1.40125e-12
1.64846e-12 1.40125e-12 1322.29

1329.36 -47.8303 4.06727e-12
-47.8303 1353.55 -3.70666e-13
4.06727e-12 -3.70666e-13 1326.72

1388.12 11.6548 6.02777e-13
11.6548 1292.05 2.54404e-12
6.02777e-13 2.54404e-12 1327.3

1324.04 31.6869 7.45182e-13
31.6869 1390.71 2.92092e-12
7.45182e-13 2.92092e-12 1364.23

1356.5 9.72676 9.37916e-13
9.72676 1075.83 1.70412e-12
9.37916e-13 1.70412e-12 941.857

1352.07 52.413 -6.39488e-12
52.413 1348.8 -3.55271e-13
-6.39488e-12 -3.55271e-13 1337.16

1264.17 83.117 4.01457e-12
83.117 1258.69 -8.05282e-13
4.01457e-12 -8.05282e-13 1137.94

1502.24 15.6353 1.96228e-12
15.6353 1465.74 -2.07086e-12
1.96228e-12 -2.07086e-12 1434.63

1399.34 23.7971 -1.00542e-12
23.7971 1314.86 -3.03343e-12
-1.00542e-12 -3.03343e-12 1344.67

1190.71 -39.3835 1.34529e-12
-39.3835 1334.42 7.79229e-12
1.34529e-12 7.79229e-12 1138.12

1212.13 -142.13 -2.27374e-12
-142.13 1229.13 -1.38319e-12
-2.27374e-12 -1.38319e-12 932.428

1420.49 9.66365 1.7805e-12
9.66365 1509.15 1.32812e-12
1.7805e-12 1.32812e-12 1427.72

1454.39 -8.49055 -1.17832e-13
-8.49055 1498.47 4.26503e-12
-1.17832e-13 4.26503e-12 1430.76

1495.07 33.5636 -1.08831e-12
33.5636 1434.11 7.97111e-12
-1.08831e-12 7.97111e-12 1427.42

1453.79 8.11306 3.79696e-12
8.11306 1522.19 -2.58164e-13
3.79696e-12 -2.58164e-13 1435.18

1487.34 -13.873 4.08029e-12
-13.873 1457.77 2.4246e-12
4.08029e-12 2.4246e-12 1429.09

1357.32 -47.9138 2.53308e-12
-47.9138 1356.83 -1.53951e-13
2.53308e-12 -1.53951e-13 1343.41

1207.92 139.991 -8.05282e-13
139.991 1235.55 -3.56219e-12
-8.05282e-13 -3.56219e-12 933.173

1332.25 -41.9678 -1.55372e-12
-41.9678 1196.51 5.91882e-12
-1.55372e-12 5.91882e-12 1133.37

1458.25 -6.08489 1.04006e-12
-6.08489 1520.66 -5.07091e-12
1.04006e-12 -5.07091e-12 1435.4

1499.6 30.2339 3.32253e-12
30.2339 1478.87 9.23706e-13
3.32253e-12 9.23706e-13 1435.13

1397.94 -20.6494 1.30029e-12
-20.6494 1315.54 7.82485e-13
1.30029e-12 7.82485e-13 1345.97

1201.24 -119.14 -8.52651e-14
-119.14 1209.69 2.38269e-12
-8.52651e-14 2.38269e-12 1005.05

1333.61 -41.3257 -5.67487e-12
-41.3257 1200.47 1.80004e-13
-5.67487e-12 1.80004e-13 1144.47

1278.79 30.8624 1.86399e-12
30.8624 1372.42 -1.93741e-12
1.86399e-12 -1.93741e-12 1287.92

1304.45 35.2621 -1.6757e-12
35.2621 1371.46 -7.29491e-13
-1.6757e-12 -7.29491e-13 1300.3

1394.24 -27.5902 1.50043e-12
-27.5902 1301.97 1.51997e-12
1.50043e-12 1.51997e-12 1334.7

1204.79 -80.2605 1.55135e-12
-80.2605 1284.77 -4.70853e-12
1.55135e-12 -4.70853e-12 1103.82

1327.58 45.7795 1.32161e-12
45.7795 1190.59 -4.1851e-12
1.32161e-12 -4.1851e-12 1117.95

1335.18 -51.9977 3.61193e-12
-51.9977 1245.09 1.03029e-13
3.61193e-12 1.03029e-13 1186.53

1412.85 31.4618 1.52796e-12
31.4618 1455.29 2.35782e-12
1.52796e-12 2.35782e-12 1416.99

1313.38 63.327 6.63173e-14
63.327 1268.41 1.77636e-13
6.63173e-14 1.77636e-13 1188.23

1415.58 -34.3086 -5.61625e-12
-34.3086 1447.89 1.85242e-12
-5.61625e-12 1.85242e-12 1415.6

1274.31 -123.241 -1.57267e-12
-123.241 1204.91 5.55171e-12
-1.57267e-12 5.55171e-12 1011.12

1453.16 9.49145 -3.6285e-12
9.49145 1501 -2.47979e-12
-3.6285e-12 -2.47979e-12 1431.1

1224.88 -13.1637 -1.27602e-12
-13.1637 1357.58 -6.6791e-13
-1.27602e-12 -6.6791e-13 1187.91

1497.05 15.8648 -1.37076e-12
15.8648 1456.73 5.59853e-13
-1.37076e-12 5.59853e-13 1430.78

1308.31 37.0182 -1.60997e-12
37.0182 1374.29 7.78044e-13
-1.60997e-12 7.78044e-13 1329.8

1420.16 8.36506 7.54656e-13
8.36506 1321.85 1.77251e-12
7.54656e-13 1.77251e-12 1386.28

1426.11 18.5881 3.82509e-13
18.5881 1371.86 1.39266e-12
3.82509e-13 1.39266e-12 1397.98

1370.8 110.53 6.63173e-14
110.53 1147.58 -2.28321e-12
6.63173e-14 -2.28321e-12 969.206

1362.8 -9.52072 -3.86372e-12
-9.52072 1437.63 -8.11203e-14
-3.86372e-12 -8.11203e-14 1393.46

1369.98 14.635 -1.13657e-12
14.635 1428.36 1.0895e-12
-1.13657e-12 1.0895e-12 1398.55

1328.73 -5.04207 2.33695e-12
-5.04207 1433.99 5.68434e-13
2.33695e-12 5.68434e-13 1373.28

1341.21 38.2521 -2.51858e-12
38.2521 1402.68 1.48326e-12
-2.51858e-12 1.48326e-12 1386.91

1401.51 13.8289 -2.00728e-12
13.8289 1314.96 -2.59911e-12
-2.00728e-12 -2.59911e-12 1363.21

1327.2 -48.8099 -9.45022e-13
-48.8099 1351.67 -2.31045e-12
-9.45022e-13 -2.31045e-12 1324.24

1402.48 -2.56471 9.81289e-13
-2.56471 1312.79 3.13527e-13
9.81289e-13 3.13527e-13 1380.41

1412.23 -31.1544 -3.72176e-12
-31.1544 1454.43 4.24076e-12
-3.72176e-12 4.24076e-12 1416.76

1416.9 33.618 3.37093e-12
33.618 1449.61 3.58572e-13
3.37093e-12 3.58572e-13 1416.47

1192.65 -36.4082 1.05397e-13
-36.4082 1336.25 -2.50111e-12
1.05397e-13 -2.50111e-12 1132.64

1407.08 -45.8706 1.21858e-12
-45.8706 1372.96 -2.84099e-12
1.21858e-12 -2.84099e-12 1380.51

1330.75 -43.4141 2.28617e-12
-43.4141 1368.4 4.35444e-12
2.28617e-12 4.35444e-12 1334.6

1304.52 -97.9297 2.64322e-12
-97.9297 1065.25 2.61124e-12
2.64322e-12 2.61124e-12 918.804

1383.87 4.99808 6.16307e-12
4.99808 1453.02 2.94283e-13
6.16307e-12 2.94283e-13 1403.15

1403.34 47.953 1.89952e-12
47.953 1358.86 3.25073e-13
1.89952e-12 3.25073e-13 1373.1

1322.04 32.8121 -2.22045e-12
32.8121 1393.76 -1.01548e-12
-2.22045e-12 -1.01548e-12 1363.21

1355.4 16.2913 -3.55271e-14
16.2913 1220.11 2.68881e-12
-3.55271e-14 2.68881e-12 1207.27

1293.06 -89.9104 -2.98902e-12
-89.9104 1229.31 1.56319e-12
-2.98902e-12 1.56319e-12 1075.29

1437.55 -16.3061 8.40217e-13
-16.3061 1464.56 2.79066e-12
8.40217e-13 2.79066e-12 1421.01

1365.83 37.5946 -5.15143e-14
37.5946 1401.73 6.80974e-13
-5.15143e-14 6.80974e-13 1394

1289.86 -82.3026 3.30639e-12
-82.3026 1190.98 1.03029e-12
3.30639e-12 1.03029e-12 1070.47

1351.33 23.7501 1.19845e-12
23.7501 1212.37 -7.56136e-13
1.19845e-12 -7.56136e-13 1139.73

1105.86 -58.8684 2.01143e-12
-58.8684 1336.73 1.79057e-12
2.01143e-12 1.79057e-12 1006.54

1303.97 24.6236 1.7694e-12
24.6236 1396.02 3.11455e-13
1.7694e-12 3.11455e-13 1337.9

1415.18 38.4333 9.74628e-13
38.4333 1358.31 -2.38032e-13
9.74628e-13 -2.38032e-13 1375.26

1191.07 116.617 1.20792e-12
116.617 1223.14 8.05282e-13
1.20792e-12 8.05282e-13 1004.91

1562.04 25.5541 1.57461e-11
25.5541 1511.85 4.42905e-13
1.57461e-11 4.42905e-13 1447.35

1223.48 -10.1471 2.46025e-12
-10.1471 1358.11 -4.78432e-13
2.46025e-12 -4.78432e-13 1187.46

1566.65 -25.4932 -1.55283e-12
-25.4932 1506.45 8.1033e-12
-1.55283e-12 8.1033e-12 1446.77

1440.41 -44.0057 1.40332e-12
-44.0057 1397.12 2.0434e-12
1.40332e-12 2.0434e-12 1406.18

1410.94 45.2428 3.4935e-13
45.2428 1345.89 3.64745e-12
3.4935e-13 3.64745e-12 1369.61

1336.38 -50.2006 -1.64846e-12
-50.2006 1249 -1.35595e-12
-1.64846e-12 -1.35595e-12 1192.63

1209.85 72.2172 -7.27122e-13
72.2172 1294.94 -2.46321e-12
-7.27122e-13 -2.46321e-12 1118.65

1173.64 -30.0343 3.32771e-12
-30.0343 1355.98 1.92794e-12
3.32771e-12 1.92794e-12 1075.4

1327.21 36.235 -2.14317e-12
36.235 1395.9 -5.34683e-13
-2.14317e-12 -5.34683e-13 1371.08

1439.6 27.1611 -1.82136e-12
27.1611 1396.56 -3.93226e-12
-1.82136e-12 -3.93226e-12 1402.8

1317.44 26.2043 -3.17761e-12
26.2043 1394.65 3.74811e-12
-3.17761e-12 3.74811e-12 1342.31

1364.82 30.1471 -3.66877e-12
30.1471 1264.1 1.44477e-12
-3.66877e-12 1.44477e-12 1243.68

1234.91 -50.3911 -1.44714e-12
-50.3911 1337.86 -3.50061e-12
-1.44714e-12 -3.50061e-12 1154.51

1309.67 -74.4705 3.97904e-13
-74.4705 1181.85 3.07665e-12
3.97904e-13 3.07665e-12 1063.93

1332.28 -40.1232 -1.45691e-12
-40.1232 1374.32 8.07058e-13
-1.45691e-12 8.07058e-13 1365.42

1350.3 45.1454 -5.68434e-13
45.1454 1370.89 2.94105e-12
-5.68434e-13 2.94105e-12 1365.95

1326.36 38.1783 2.84217e-14
38.1783 1393.04 1.31154e-12
2.84217e-14 1.31154e-12 1369.75

1339.42 21.6462 -6.87538e-13
21.6462 1442.82 8.59757e-13
-6.87538e-13 8.59757e-13 1391.57

1399.98 15.9098 6.40673e-13
15.9098 1308.69 -7.71975e-13
6.40673e-13 -7.71975e-13 1339.15

1146.54 -14.3469 1.6378e-12
-14.3469 1341.41 -1.44477e-12
1.6378e-12 -1.44477e-12 1064.12

1339.6 -59.5907 -8.92027e-13
-59.5907 1379.57 -1.2849e-12
-8.92027e-13 -1.2849e-12 1385.59

1326.27 47.1333 4.56583e-12
47.1333 1356.7 -9.67522e-13
4.56583e-12 -9.67522e-13 1330.42

1096.78 6.95849 1.77251e-12
6.95849 1330.89 3.02218e-12
1.77251e-12 3.02218e-12 1024.22

1309.57 88.5407 1.27898e-13
88.5407 1159.54 -4.2301e-12
1.27898e-13 -4.2301e-12 1046.4

1330.96 -37.7851 -9.91799e-14
-37.7851 1374.83 -1.04805e-12
-9.91799e-14 -1.04805e-12 1362.13

1408.19 9.60303 -2.08663e-12
9.60303 1308.96 -2.61657e-12
-2.08663e-12 -2.61657e-12 1368.44

1329.23 56.5565 9.75812e-13
56.5565 1256.9 -5.95672e-13
9.75812e-13 -5.95672e-13 1188.81

1479.31 20.2694 1.39444e-12
20.2694 1473.74 1.59991e-12
1.39444e-12 1.59991e-12 1431.3

1324.34 62.5401 -6.30015e-13
62.5401 1198.97 -6.91595e-13
-6.30015e-13 -6.91595e-13 1076.55

1477.36 -20.7763 3.07369e-12
-20.7763 1473.83 -1.88531e-12
3.07369e-12 -1.88531e-12 1430.74

1226.91 3.41021 -1.81781e-13
3.41021 1362.47 6.39488e-13
-1.81781e-13 6.39488e-13 1189.25

1373.54 -3.83379 -3.39403e-12
-3.83379 1258.06 -1.25085e-13
-3.39403e-12 -1.25085e-13 1268.99

1449.36 -25.7382 1.00157e-12
-25.7382 1357.68 -1.43293e-13
1.00157e-12 -1.43293e-13 1406.45

1332.73 38.7585 -1.95617e-12
38.7585 1380.54 -6.57844e-13
-1.95617e-12 -6.57844e-13 1379.56

1334.16 -22.1925 -2.31321e-12
-22.1925 1428.91 1.61412e-12
-2.31321e-12 1.61412e-12 1385.39

1423.31 -13.1219 3.73982e-12
-13.1219 1299.48 -2.42354e-12
3.73982e-12 -2.42354e-12 1387.53

1368.28 -36.2414 7.13947e-13
-36.2414 1453.32 -1.7053e-13
7.13947e-13 -1.7053e-13 1408.09

1460.68 -9.69865 2.87592e-12
-9.69865 1467.69 -2.65073e-12
2.87592e-12 -2.65073e-12 1428.4

1344.83 -49.2529 -3.51719e-12
-49.2529 1376.8 -2.88954e-12
-3.51719e-12 -2.88954e-12 1371.83

1178.88 31.7211 -1.52767e-13
31.7211 1348.3 -9.4739e-15
-1.52767e-13 -9.4739e-15 1076.63

1325.76 -60.2924 1.10134e-12
-60.2924 1262.15 -7.01069e-12
1.10134e-12 -7.01069e-12 1190.47

1391.87 -21.9344 1.17121e-12
-21.9344 1474.86 -2.00788e-12
1.17121e-12 -2.00788e-12 1416.51

1402.38 0.376937 8.09723e-13
0.376937 1307.65 -1.50716e-12
8.09723e-13 -1.50716e-12 1377.99

1358.21 -34.4414 -6.22021e-13
-34.4414 1405.36 9.08903e-14
-6.22021e-13 9.08903e-14 1393.63

1335.43 40.4885 1.05368e-12
40.4885 1375.95 -8.01433e-13
1.05368e-12 -8.01433e-13 1379.15

1278.48 -72.4735 -1.4803e-12
-72.4735 1295.77 -2.27847e-12
-1.4803e-12 -2.27847e-12 1155.15

1450.03 -11.6896 -2.6051e-12
-11.6896 1502.66 9.49167e-13
-2.6051e-12 9.49167e-13 1430.5

1205.93 -93.7672 -3.08376e-12
-93.7672 1306.53 1.95162e-12
-3.08376e-12 1.95162e-12 1041.8

1396.78 -32.6359 1.68162e-13
-32.6359 1324.41 -4.48412e-12
1.68162e-13 -4.48412e-12 1345.78

1424.81 2.39167 -1.13628e-12
2.39167 1341.26 -3.18738e-12
-1.13628e-12 -3.18738e-12 1395.32

1478.97 28.5854 -1.5176e-12
28.5854 1473.26 -2.48483e-12
-1.5176e-12 -2.48483e-12 1430.21

1234.65 46.876 -2.99375e-12
46.876 1344.18 4.62326e-12
-2.99375e-12 4.62326e-12 1160.83

1388.04 46.0114 4.85538e-13
46.0114 1354.31 -3.22705e-13
4.85538e-13 -3.22705e-13 1358.33

1360.28 -44.8334 -1.3974e-12
-44.8334 1285.96 1.42523e-12
-1.3974e-12 1.42523e-12 1269.69

1330.1 -29.2882 -1.70153e-12
-29.2882 1395.83 7.79229e-13
-1.70153e-12 7.79229e-13 1369.77

1279.53 94.6717 1.54898e-12
94.6717 1246.2 -4.63748e-12
1.54898e-12 -4.63748e-12 1070.92

1322.59 -36.3709 -2.24354e-12
-36.3709 1392.69 3.4485e-12
-2.24354e-12 3.4485e-12 1366.69

1383.97 51.6945 3.39995e-12
51.6945 1349.39 -1.65024e-12
3.39995e-12 -1.65024e-12 1354.08

1385.04 -43.1564 4.09746e-13
-43.1564 1318.43 3.45442e-12
4.09746e-13 3.45442e-12 1328.27

1328.54 -43.2647 5.30539e-12
-43.2647 1366.6 5.00104e-12
5.30539e-12 5.00104e-12 1334.16

1355.89 -37.1271 8.31335e-13
-37.1271 1255.27 -3.85825e-12
8.31335e-13 -3.85825e-12 1232.53

1377.77 -33.708 1.41516e-12
-33.708 1292.74 1.05279e-12
1.41516e-12 1.05279e-12 1301.36

1334.97 -39.8967 -3.47899e-12
-39.8967 1376.95 -2.3234e-12
-3.47899e-12 -2.3234e-12 1380.35

1267.34 81.1411 4.38168e-13
81.1411 1256 4.59721e-12
4.38168e-13 4.59721e-12 1137.14

1318.12 26.5388 -5.77316e-14
26.5388 1397.97 1.13805e-12
-5.77316e-14 1.13805e-12 1346.49

1354.03 43.2731 -2.34361e-12
43.2731 1371.48 -1.47438e-12
-2.34361e-12 -1.47438e-12 1369.67

1331.51 40.5802 -1.0457e-12
40.5802 1379.11 -1.65379e-12
-1.0457e-12 -1.65379e-12 1378.14

1332.58 19.0567 -3.67553e-14
19.0567 1413.96 -1.30977e-12
-3.67553e-14 -1.30977e-12 1372.61

1360.22 -17.8475 6.53699e-13
-17.8475 1221.6 7.02312e-12
6.53699e-13 7.02312e-12 1167.28

1235.72 42.7357 2.96888e-12
42.7357 1348.66 2.59111e-12
2.96888e-12 2.59111e-12 1168.01

1331.2 -40.9858 3.96838e-12
-40.9858 1374.41 -7.4607e-13
3.96838e-12 -7.4607e-13 1353.62

1324.3 46.6184 2.20268e-12
46.6184 1351.57 -1.46135e-12
2.20268e-12 -1.46135e-12 1301.59

1276.29 -79.3024 3.50771e-12
-79.3024 1250.86 -3.90799e-12
3.50771e-12 -3.90799e-12 1141.38

1269.59 100.765 3.12165e-12
100.765 1153.9 -4.70142e-12
3.12165e-12 -4.70142e-12 1020.65

1219.13 -76.1668 -6.0633e-12
-76.1668 1288.91 7.17174e-12
-6.0633e-12 7.17174e-12 1124.57

1282.41 -69.962 1.74794e-12
-69.962 1298.3 1.65556e-12
1.74794e-12 1.65556e-12 1166.33

1409.83 -11.2518 -4.72511e-13
-11.2518 1309.83 -8.35776e-13
-4.72511e-13 -8.35776e-13 1370.16

1271.66 68.2903 4.00983e-12
68.2903 1309.03 4.86485e-12
4.00983e-12 4.86485e-12 1167.22

1356.09 29.3408 -1.51109e-12
29.3408 1225.28 -2.12275e-12
-1.51109e-12 -2.12275e-12 1166.03

1185.09 28.9331 -1.80004e-12
28.9331 1338.07 2.359e-12
-1.80004e-12 2.359e-12 1137.82

1242.31 -51.2658 -1.29082e-12
-51.2658 1340.17 2.94638e-12
-1.29082e-12 2.94638e-12 1167.25

1371.08 -1.66719 1.80907e-12
-1.66719 1467.47 -1.56201e-12
1.80907e-12 -1.56201e-12 1406.91

1223.1 6.32771 3.23593e-12
6.32771 1360.39 2.96059e-12
3.23593e-12 2.96059e-12 1187.59

1205.35 71.1621 -2.40163e-12
71.1621 1300.72 3.99799e-12
-2.40163e-12 3.99799e-12 1124.5

1331.64 20.0134 -1.09305e-12
20.0134 1418.54 7.22977e-12
-1.09305e-12 7.22977e-12 1375.81

1323.21 -58.3446 -8.17124e-13
-58.3446 1257.65 4.83406e-12
-8.17124e-13 4.83406e-12 1190.94

1435.13 33.3847 -1.02141e-12
33.3847 1345.17 1.99781e-12
-1.02141e-12 1.99781e-12 1390.81

1441.84 42.3949 3.07191e-12
42.3949 1396.33 -2.29979e-12
3.07191e-12 -2.29979e-12 1406.63

1401.27 -31.319 -1.27898e-12
-31.319 1324.04 1.99426e-12
-1.27898e-12 1.99426e-12 1351.09

1466.83 -1.79856 1.23279e-12
-1.79856 1405.89 -5.87974e-13
1.23279e-12 -5.87974e-13 1416.51

1361.49 -52.8099 -3.81325e-13
-52.8099 1366.31 4.58004e-12
-3.81325e-13 4.58004e-12 1363.24

1324.36 52.8311 -8.62125e-13
52.8311 1202.57 7.88702e-13
-8.62125e-13 7.88702e-13 1137.06

1345.51 49.6764 -8.40809e-14
49.6764 1376.21 -1.72188e-12
-8.40809e-14 -1.72188e-12 1371.24

1346.21 48.245 6.08698e-13
48.245 1375.6 -2.02682e-12
6.08698e-13 -2.02682e-12 1370.57

1274.59 69.4348 3.09797e-12
69.4348 1303.79 1.47319e-12
3.09797e-12 1.47319e-12 1162.1

1403.72 44.6534 -2.67638e-13
44.6534 1369.98 -1.13272e-12
-2.67638e-13 -1.13272e-12 1376.43

1338.18 7.95306 4.03115e-12
7.95306 1162.44 2.41555e-12
4.03115e-12 2.41555e-12 1122.9

1386.3 52.105 -7.0699e-13
52.105 1376.67 -6.69687e-13
-7.0699e-13 -6.69687e-13 1385.16

1355.98 -20.5504 1.394e-12
-20.5504 1430.73 7.33043e-13
1.394e-12 7.33043e-13 1389.33

1444.52 39.3205 -2.89546e-13
39.3205 1397.27 1.27779e-12
-2.89546e-13 1.27779e-12 1407.07

1352.45 -48.684 3.31231e-12
-48.684 1371.34 1.36128e-12
3.31231e-12 1.36128e-12 1370.8

1340.11 -7.90274 1.0757e-12
-7.90274 1434.34 1.3974e-12
1.0757e-12 1.3974e-12 1376.7

1328.19 -60.1934 5.68434e-13
-60.1934 1193.22 4.75472e-12
5.68434e-13 4.75472e-12 1086.09

1319.28 64.0656 1.76688e-12
64.0656 1265.88 2.36848e-12
1.76688e-12 2.36848e-12 1187.81

1189.83 32.3364 2.07301e-12
32.3364 1336.59 3.4864e-12
2.07301e-12 3.4864e-12 1137.58

1401.1 -1.62658 3.01907e-12
-1.62658 1309.87 6.61397e-13
3.01907e-12 6.61397e-13 1378.81

1396.1 -0.00555205 -4.24549e-13
-0.00555205 1306.5 1.12567e-12
-4.24549e-13 1.12567e-12 1359.76

1330.58 38.0242 2.62309e-13
38.0242 1374.64 -8.58572e-14
2.62309e-13 -8.58572e-14 1361.31

1364 37.4817 4.45273e-13
37.4817 1399.33 9.06941e-13
4.45273e-13 9.06941e-13 1393.25

1331.68 -38.6149 1.10253e-12
-38.6149 1379.81 -6.77384e-13
1.10253e-12 -6.77384e-13 1379.93

1331.33 -1.34123 1.36602e-12
-1.34123 1431.19 1.09068e-12
1.36602e-12 1.09068e-12 1371.19

1334.71 40.3481 -1.0818e-12
40.3481 1378.88 -1.84519e-12
-1.0818e-12 -1.84519e-12 1379.74

1374.85 -18.6561 -2.46321e-12
-18.6561 1270.67 -1.36158e-12
-2.46321e-12 -1.36158e-12 1285.97

1275.21 -65.6621 -2.29979e-12
-65.6621 1303.46 -8.33703e-13
-2.29979e-12 -8.33703e-13 1211.51

1423.03 -3.01993 -7.37484e-13
-3.01993 1340 1.81188e-13
-7.37484e-13 1.81188e-13 1392.84

1282.41 -78.1793 2.60532e-12
-78.1793 1250.46 2.34005e-12
2.60532e-12 2.34005e-12 1135.33

1359.53 30.3377 2.66217e-12
30.3377 1407.94 -1.38585e-12
2.66217e-12 -1.38585e-12 1393.7

1411.29 -43.5837 -3.51008e-12
-43.5837 1351.42 2.05584e-12
-3.51008e-12 2.05584e-12 1372.48

1352.25 -20.5034 2.81849e-12
-20.5034 1216.82 2.36344e-12
2.81849e-12 2.36344e-12 1152.4

1439.69 -37.6838 1.40687e-12
-37.6838 1372.13 -1.07351e-12
1.40687e-12 -1.07351e-12 1395.66

1401.11 3.68808 -1.45661e-12
3.68808 1312.29 5.24617e-13
-1.45661e-12 5.24617e-13 1380.79

1424.13 -37.5872 -2.0132e-14
-37.5872 1392.52 -3.57729e-12
-2.0132e-14 -3.57729e-12 1398.16

1407.73 -42.775 -3.64982e-12
-42.775 1339.76 -2.44604e-12
-3.64982e-12 -2.44604e-12 1365.01

1403.99 -13.8377 5.83829e-13
-13.8377 1315.55 2.95112e-12
5.83829e-13 2.95112e-12 1365.46

1364.83 -36.2534 4.60905e-12
-36.2534 1402.07 -1.8933e-12
4.60905e-12 -1.8933e-12 1394.72

1322.52 -60.3948 -4.03588e-12
-60.3948 1286.68 6.05027e-12
-4.03588e-12 6.05027e-12 1236.01

1408.78 -40.9471 -3.81917e-12
-40.9471 1344.76 4.70735e-12
-3.81917e-12 4.70735e-12 1365.64

1354.21 21.642 -1.88531e-12
21.642 1229.45 1.37372e-13
-1.88531e-12 1.37372e-13 1216.63

1394.33 42.75 1.70649e-12
42.75 1392.18 -1.84327e-12
1.70649e-12 -1.84327e-12 1389.13

1341.07 -60.6741 3.35731e-12
-60.6741 1380.13 -2.81567e-12
3.35731e-12 -2.81567e-12 1387.36

1343.03 60.231 1.202e-12
60.231 1378.57 -1.2191e-12
1.202e-12 -1.2191e-12 1386.95

1313.44 -46.2145 1.16818e-12
-46.2145 1400.27 -1.71359e-12
1.16818e-12 -1.71359e-12 1385.55

1316.49 43.5253 -3.14844e-12
43.5253 1401.36 7.69755e-14
-3.14844e-12 7.69755e-14 1385.36

1420.75 -14.079 1.856e-12
-14.079 1297.35 9.2637e-13
1.856e-12 9.2637e-13 1385.78

1418 15.3399 2.50348e-12
15.3399 1299.88 -2.58578e-12
2.50348e-12 -2.58578e-12 1385.22

1406.64 -16.0775 -5.84599e-12
-16.0775 1324.68 1.39829e-12
-5.84599e-12 1.39829e-12 1369.73

1405.98 51.3413 2.82559e-12
51.3413 1404.07 8.5069e-13
2.82559e-12 8.5069e-13 1406.9

1404.23 -52.5247 -7.15872e-13
-52.5247 1403.92 3.09969e-12
-7.15872e-13 3.09969e-12 1406.62

1358.7 25.2315 -2.26782e-13
25.2315 1450.84 4.87906e-13
-2.26782e-13 4.87906e-13 1407.38

1360.48 -24.751 -3.51423e-13
-24.751 1450.12 3.69601e-12
-3.51423e-13 3.69601e-12 1407.28

1471.64 -5.1498 2.70776e-12
-5.1498 1391.74 1.93031e-12
2.70776e-12 1.93031e-12 1416.54

1474.2 4.92934 1.21088e-12
4.92934 1389.09 -4.71327e-13
1.21088e-12 -4.71327e-13 1417.12

1242.97 18.6483 -6.24241e-13
18.6483 1363.56 -4.32484e-12
-6.24241e-13 -4.32484e-12 1232.67

1358.06 -40.4627 -7.43109e-13
-40.4627 1371.71 3.95062e-12
-7.43109e-13 3.95062e-12 1372.92

1311.55 -58.7847 -2.19498e-12
-58.7847 1379.5 5.00933e-13
-2.19498e-12 5.00933e-13 1379.45

1385.05 -8.09488 -2.94165e-12
-8.09488 1288.12 -1.02451e-12
-2.94165e-12 -1.02451e-12 1299.57

1451.49 -27.1235 2.10143e-12
-27.1235 1362.55 1.20674e-12
2.10143e-12 1.20674e-12 1408.3

1452.1 26.3073 1.50605e-12
26.3073 1364.31 -2.15946e-12
1.50605e-12 -2.15946e-12 1408.89

1413.92 0.130014 -1.19756e-12
0.130014 1279.26 -1.10791e-12
-1.19756e-12 -1.10791e-12 1379.84

1242.84 46.7211 -2.134e-12
46.7211 1337.91 1.19371e-12
-2.134e-12 1.19371e-12 1211.8

1309.98 58.4679 2.44205e-12
58.4679 1379.39 -1.1792e-12
2.44205e-12 -1.1792e-12 1378.44

1326.36 -38.5856 8.95284e-13
-38.5856 1396.11 1.47615e-12
8.95284e-13 1.47615e-12 1371.75

1349.22 45.4717 -6.86858e-14
45.4717 1262.04 2.4869e-13
-6.86858e-14 2.4869e-13 1238.87

1440.57 38.8361 -2.06353e-12
38.8361 1370.72 -6.33567e-14
-2.06353e-12 -6.33567e-14 1396.8

1322.92 -60.4218 1.20319e-12
-60.4218 1287.37 1.47201e-12
1.20319e-12 1.47201e-12 1235.78

1424.92 -4.52423 3.12964e-12
-4.52423 1344.63 -2.37499e-12
3.12964e-12 -2.37499e-12 1394.73

1305.12 -54.8548 1.81921e-12
-54.8548 1380.27 -5.03864e-12
1.81921e-12 -5.03864e-12 1378.85

1245.07 15.3532 -4.47101e-13
15.3532 1367.03 6.51331e-13
-4.47101e-13 6.51331e-13 1239.6

1243.56 43.0881 1.01075e-12
43.0881 1342.85 -2.07952e-12
1.01075e-12 -2.07952e-12 1217.85

1287.55 96.0882 -1.44951e-12
96.0882 1236.91 7.91071e-13
-1.44951e-12 7.91071e-13 1072.62

1332.99 2.95417 -1.54898e-12
2.95417 1152.49 2.49578e-13
-1.54898e-12 2.49578e-13 1091.89

1370.33 -35.7077 3.97312e-13
-35.7077 1398.61 1.16766e-12
3.97312e-13 1.16766e-12 1393.34

1210.78 86.0443 -2.02978e-12
86.0443 1313.18 -5.56592e-12
-2.02978e-12 -5.56592e-12 1060.44

1331.06 40.4138 2.93632e-12
40.4138 1377.27 1.29674e-12
2.93632e-12 1.29674e-12 1344.54

1356.34 -10.7294 -1.19845e-12
-10.7294 1226.7 5.49871e-12
-1.19845e-12 5.49871e-12 1216.57

1373.49 20.356 1.11318e-13
20.356 1269.94 -1.04213e-13
1.11318e-13 -1.04213e-13 1281.8

1412.09 0.690227 2.25005e-12
0.690227 1276.56 5.19746e-14
2.25005e-12 5.19746e-14 1378.31

1317.49 -46.6399 2.23947e-12
-46.6399 1402.77 5.22841e-13
2.23947e-12 5.22841e-13 1386.73

1478.18 -10.6203 4.59299e-12
-10.6203 1504.95 -1.58096e-13
4.59299e-12 -1.58096e-13 1436.3

1340.35 60.426 -8.25414e-13
60.426 1378.43 7.42739e-13
-8.25414e-13 7.42739e-13 1386.1

1374.39 5.24904 -7.01069e-13
5.24904 1156.73 -2.20653e-12
-7.01069e-13 -2.20653e-12 1052.72

1280.87 -65.1575 4.20168e-12
-65.1575 1303.01 7.60281e-13
4.20168e-12 7.60281e-13 1215.42

1311.16 59.17 9.47242e-13
59.17 1379.67 4.05601e-13
9.47242e-13 4.05601e-13 1379.46

1316.55 -18.7793 -1.59854e-12
-18.7793 1407.87 -3.38692e-12
-1.59854e-12 -3.38692e-12 1352.18

1245.97 -51.1295 -1.92202e-12
-51.1295 1331.89 2.28795e-12
-1.92202e-12 2.28795e-12 1210.41

1317.78 46.4496 -2.32222e-12
46.4496 1402.43 -1.73491e-13
-2.32222e-12 -1.73491e-13 1386.33

1355.26 -49.0858 1.03739e-12
-49.0858 1294.4 2.81967e-12
1.03739e-12 2.81967e-12 1271.07

1488.76 16.8581 -1.51938e-12
16.8581 1494.03 4.10264e-12
-1.51938e-12 4.10264e-12 1436.01

1268.85 61.5186 -4.36865e-12
61.5186 1315.61 -1.11555e-12
-4.36865e-12 -1.11555e-12 1216.95

1424.18 13.2978 -2.58401e-12
13.2978 1298.01 1.93149e-12
-2.58401e-12 1.93149e-12 1388

1388.23 49.5419 6.93963e-13
49.5419 1373.51 3.30106e-12
6.93963e-13 3.30106e-12 1382.65

1331.27 38.3936 1.02999e-12
38.3936 1373.54 -1.65912e-12
1.02999e-12 -1.65912e-12 1361.65

1405.41 -51.8924 -1.81307e-12
-51.8924 1406.96 -3.11118e-12
-1.81307e-12 -3.11118e-12 1408.05

1416.26 -38.4538 1.4874e-12
-38.4538 1355.25 1.7805e-12
1.4874e-12 1.7805e-12 1375.07

1398.24 16.8333 -1.33419e-12
16.8333 1473.21 -2.70125e-12
-1.33419e-12 -2.70125e-12 1413.61

1331.39 -40.024 3.40232e-12
-40.024 1378.88 -7.75676e-12
3.40232e-12 -7.75676e-12 1350.58

1347.34 -22.8792 9.37916e-13
-22.8792 1126.98 3.17672e-12
9.37916e-13 3.17672e-12 1023.98

1326.43 -42.7659 -1.14161e-12
-42.7659 1103.18 9.09495e-13
-1.14161e-12 9.09495e-13 1008.33

1459.63 26.7651 -2.91796e-12
26.7651 1395.26 -8.68638e-13
-2.91796e-12 -8.68638e-13 1409.27

1312.4 39.498 4.9738e-13
39.498 1370.22 -3.68416e-12
4.9738e-13 -3.68416e-12 1318.44

1369.17 49.0837 -5.66066e-13
49.0837 1355.16 -5.22249e-13
-5.66066e-13 -5.22249e-13 1352.26

1368.75 0.906695 -2.31637e-12
0.906695 1252.6 1.49954e-12
-2.31637e-12 1.49954e-12 1228.84

1354.86 10.6612 -1.94174e-12
10.6612 1457.24 -3.02218e-12
-1.94174e-12 -3.02218e-12 1397.14

1413.36 27.3812 5.8975e-13
27.3812 1336.96 -1.19075e-12
5.8975e-13 -1.19075e-12 1375.35

1252.27 -51.3086 1.38082e-12
-51.3086 1332.14 -3.0506e-12
1.38082e-12 -3.0506e-12 1216.19

1329.42 -4.12667 6.75756e-13
-4.12667 1430.36 -1.12739e-12
6.75756e-13 -1.12739e-12 1369.02

1265.02 27.07 1.16055e-13
27.07 1366.78 -4.16378e-12
1.16055e-13 -4.16378e-12 1245.23

1385.94 -49.8091 3.53969e-12
-49.8091 1350.25 1.11378e-12
3.53969e-12 1.11378e-12 1355.11

1321.47 -58.6353 -3.37745e-12
-58.6353 1310.54 -2.25716e-12
-3.37745e-12 -2.25716e-12 1245.83

1272.63 63.3478 3.06954e-12
63.3478 1309.25 -3.07902e-14
3.06954e-12 -3.07902e-14 1212.73

1551.03 -23.447 4.54274e-12
-23.447 1484.32 4.10057e-12
4.54274e-12 4.10057e-12 1441.7

1375.6 3.02385 -2.75365e-12
3.02385 1468.32 -2.58519e-12
-2.75365e-12 -2.58519e-12 1408.63

1360.74 32.3738 -4.57116e-13
32.3738 1454.53 -2.66335e-12
-4.57116e-13 -2.66335e-12 1409.22

1458.82 24.7733 -1.08239e-12
24.7733 1355.37 -7.05806e-13
-1.08239e-12 -7.05806e-13 1408.94

1360.69 -43.0142 -1.07943e-12
-43.0142 1370.67 2.95675e-12
-1.07943e-12 2.95675e-12 1369.74

1364.36 34.0865 -3.31587e-14
34.0865 1270.61 -3.33896e-12
-3.31587e-14 -3.33896e-12 1249.47

1421.68 -8.54998 -6.40904e-13
-8.54998 1500.98 -3.37745e-12
-6.40904e-13 -3.37745e-12 1426.55

1418.83 -31.1117 2.43361e-12
-31.1117 1340.89 -2.80072e-13
2.43361e-12 -2.80072e-13 1381.72

1383.66 -27.0547 1.97294e-12
-27.0547 1291.93 -2.01261e-12
1.97294e-12 -2.01261e-12 1303.34

1266.17 23.3046 -4.22654e-12
23.3046 1370.13 -2.20505e-12
-4.22654e-12 -2.20505e-12 1250.73

1287.44 -51.4116 8.04098e-13
-51.4116 1337.12 -2.21216e-12
8.04098e-13 -2.21216e-12 1235.12

1434.4 -40.6911 -4.14483e-15
-40.6911 1420.17 9.82917e-13
-4.14483e-15 9.82917e-13 1408.97

1311.52 61.7471 8.90547e-13
61.7471 1299.17 8.92915e-13
8.90547e-13 8.92915e-13 1238.79

1442.9 -40.6495 1.32812e-12
-40.6495 1395.12 1.20851e-12
1.32812e-12 1.20851e-12 1406.11

1370.83 5.10534 1.72188e-12
5.10534 1258.28 -1.88442e-12
1.72188e-12 -1.88442e-12 1240.61

1115.08 -79.2099 -2.86112e-12
-79.2099 1295.97 -1.7053e-12
-2.86112e-12 -1.7053e-12 1007.84

1323.88 -56.9995 -3.5314e-12
-56.9995 1310.41 2.32347e-12
-3.5314e-12 2.32347e-12 1247.79

1214.85 88.5384 1.44477e-12
88.5384 1321.78 8.00545e-13
1.44477e-12 8.00545e-13 1062.43

1345.9 -19.4022 -1.01067e-13
-19.4022 1442.32 -1.01548e-12
-1.01067e-13 -1.01548e-12 1389.25

1249.61 -26.3565 -1.34233e-12
-26.3565 1361.83 2.67638e-13
-1.34233e-12 2.67638e-13 1238.47

1517.43 -37.6382 4.03203e-12
-37.6382 1517.29 -2.04281e-14
4.03203e-12 -2.04281e-14 1441.77

1281.16 47.264 -2.74151e-12
47.264 1347.7 -2.25953e-12
-2.74151e-12 -2.25953e-12 1241.07

1390.37 -53.369 2.56328e-12
-53.369 1381.44 -1.37904e-12
2.56328e-12 -1.37904e-12 1386.87

1244.69 -22.8096 2.0363e-12
-22.8096 1362.13 2.06768e-12
2.0363e-12 2.06768e-12 1232.61

1424.74 -31.2103 -1.77221e-12
-31.2103 1341.27 -2.55855e-12
-1.77221e-12 -2.55855e-12 1385.88

1286.09 47.9256 4.7109e-12
47.9256 1343.39 1.53951e-12
4.7109e-12 1.53951e-12 1237.94

1397.99 -8.25832 1.1724e-12
-8.25832 1304.93 -1.47512e-12
1.1724e-12 -1.47512e-12 1337.05

1120.24 -106.756 -1.34056e-12
-106.756 1414.08 8.52651e-14
-1.34056e-12 8.52651e-14 954.504

1313.07 36.1936 2.58934e-12
36.1936 1373.13 -1.17003e-12
2.58934e-12 -1.17003e-12 1335.68

1354.64 -37.7678 6.69094e-12
-37.7678 1255.45 -2.19558e-12
6.69094e-12 -2.19558e-12 1237.47

1465.94 -34.3847 -3.63147e-12
-34.3847 1382.54 -9.41469e-13
-3.63147e-12 -9.41469e-13 1411.22

1315.38 61.6962 -7.60281e-13
61.6962 1292.7 -5.8975e-13
-7.60281e-13 -5.8975e-13 1234.27

1356.43 -52.9048 -6.27646e-14
-52.9048 1317.66 2.66276e-12
-6.27646e-14 2.66276e-12 1303.89

1415.88 34.3133 2.75098e-12
34.3133 1358.57 8.16532e-13
2.75098e-12 8.16532e-13 1379.61

1338.85 -44.0934 2.68378e-12
-44.0934 1377.14 -5.30539e-13
2.68378e-12 -5.30539e-13 1379.72

1291.79 -52.2045 2.4265e-12
-52.2045 1336.8 -3.6593e-12
2.4265e-12 -3.6593e-12 1239.53

1312.22 56.4118 -9.00021e-14
56.4118 1321.43 -2.07242e-12
-9.00021e-14 -2.07242e-12 1249.29

1356.77 48.2011 -2.39927e-12
48.2011 1291.2 2.61657e-12
-2.39927e-12 2.61657e-12 1270.53

1430.2 -23.6057 -5.55408e-13
-23.6057 1357.24 3.75107e-12
-5.55408e-13 3.75107e-12 1388.99

1270.24 -33.2346 2.10794e-13
-33.2346 1362.81 1.72662e-12
2.10794e-13 1.72662e-12 1248.61

1403.73 -29.2378 1.14871e-13
-29.2378 1321.19 3.18382e-12
1.14871e-13 3.18382e-12 1352.41

1394.63 28.7594 -1.28964e-12
28.7594 1306.98 -5.73763e-12
-1.28964e-12 -5.73763e-12 1337.26

1401.56 -15.2 -1.01822e-12
-15.2 1469.94 -3.73627e-12
-1.01822e-12 -3.73627e-12 1412.57

1368.07 -25.2584 3.28744e-12
-25.2584 1266.17 -6.49851e-13
3.28744e-12 -6.49851e-13 1249.17

1264.69 2.0194 -3.07902e-13
2.0194 1381.21 -9.78181e-13
-3.07902e-13 -9.78181e-13 1268.39

1383.45 32.334 -1.7953e-12
32.334 1300.23 2.16716e-12
-1.7953e-12 2.16716e-12 1308.2

1352.84 50.7477 4.50247e-12
50.7477 1297.16 2.96652e-12
4.50247e-12 2.96652e-12 1273.72

1266.09 -31.628 9.40285e-13
-31.628 1364.22 -9.80549e-13
9.40285e-13 -9.80549e-13 1243.73

1268.2 -1.5198 1.79841e-12
-1.5198 1383.33 -4.51668e-12
1.79841e-12 -4.51668e-12 1274.18

1417.96 47.457 -1.96998e-12
47.457 1388.26 -1.13213e-12
-1.96998e-12 -1.13213e-12 1393.95

1312.03 -19.0092 1.15078e-12
-19.0092 1410.88 -1.16055e-12
1.15078e-12 -1.16055e-12 1351.96

1352.94 -49.8755 3.83219e-12
-49.8755 1293.66 9.15416e-13
3.83219e-12 9.15416e-13 1271.23

1352.85 41.6868 2.44664e-12
41.6868 1258.2 -3.72561e-12
2.44664e-12 -3.72561e-12 1234.41

1403.06 39.5087 2.4265e-12
39.5087 1336.12 -2.73559e-13
2.4265e-12 -2.73559e-13 1358.54

1318.85 9.53389 -8.4451e-13
9.53389 1421.35 3.6439e-12
-8.4451e-13 3.6439e-12 1358.93

1316.36 56.9512 -2.0961e-12
56.9512 1315.81 3.21639e-12
-2.0961e-12 3.21639e-12 1246.09

1439.4 37.0427 -1.12147e-12
37.0427 1431.6 2.94046e-12
-1.12147e-12 2.94046e-12 1412.26

1186.73 -208.435 -4.89801e-12
-208.435 1083.67 3.3206e-12
-4.89801e-12 3.3206e-12 844.147

1383.97 -43.473 2.22637e-13
-43.473 1323.32 1.9759e-12
2.22637e-13 1.9759e-12 1329.81

1165.87 21.1996 -4.12233e-12
21.1996 1353.42 -1.79057e-12
-4.12233e-12 -1.79057e-12 1075.36

1356.03 -51.4078 -2.10321e-12
-51.4078 1329.25 -1.84623e-12
-2.10321e-12 -1.84623e-12 1310.08

402.127 -240.663 -2.449e-12
-240.663 1370.95 -8.90547e-13
-2.449e-12 -8.90547e-13 546.845

399.471 235.187 1.0895e-13
235.187 1368.37 9.85286e-13
1.0895e-13 9.85286e-13 548.065

796.053 539.853 -2.46321e-12
539.853 998.488 8.71599e-13
-2.46321e-12 8.71599e-13 551.409

801.308 -539.377 5.61802e-12
-539.377 987.157 -5.13486e-12
5.61802e-12 -5.13486e-12 550.478

1435.89 -5.66164 -1.40214e-12
-5.66164 347.693 1.82817e-14
-1.40214e-12 1.82817e-14 553.092

1213.55 -417.854 3.63798e-12
-417.854 544.177 -1.7053e-13
3.63798e-12 -1.7053e-13 539.737

1212.38 418.817 -1.00423e-12
418.817 545.976 7.95808e-13
-1.00423e-12 7.95808e-13 539.886

1434.79 22.9462 -4.50839e-12
22.9462 1352.52 9.26074e-13
-4.50839e-12 9.26074e-13 1392.42

1465.4 41.2832 1.35595e-12
41.2832 1440.22 3.71555e-13
1.35595e-12 3.71555e-13 1423.5

1397.35 10.8113 2.01676e-12
10.8113 1308.78 -2.93395e-13
2.01676e-12 -2.93395e-13 1354.63

1376.27 38.7249 1.88175e-12
38.7249 1295.31 3.75818e-12
1.88175e-12 3.75818e-12 1302.29

1275.03 32.4063 5.1988e-13
32.4063 1367.76 -1.59398e-12
5.1988e-13 -1.59398e-12 1282.17

1345.5 53.8127 2.30808e-12
53.8127 1304.03 5.92119e-14
2.30808e-12 5.92119e-14 1273.55

1385.69 -49.9895 -3.29455e-12
-49.9895 1350.32 -2.65092e-12
-3.29455e-12 -2.65092e-12 1355.69

1349.36 52.6438 1.45661e-12
52.6438 1298.22 5.21065e-14
1.45661e-12 5.21065e-14 1269.71

1264.38 -6.25056 -2.62309e-13
-6.25056 1380.59 1.29082e-12
-2.62309e-13 1.29082e-12 1267.98

1463.34 -41.975 -1.18424e-12
-41.975 1443.51 -7.27122e-13
-1.18424e-12 -7.27122e-13 1423.66

1267.88 -9.97575 2.04518e-12
-9.97575 1381.69 -2.84691e-12
2.04518e-12 -2.84691e-12 1273.24

1426.25 37.3372 -2.28321e-12
37.3372 1389.36 -2.21452e-13
-2.28321e-12 -2.21452e-13 1397.48

1332.95 55.4888 2.15058e-12
55.4888 1250.41 -6.37712e-12
2.15058e-12 -6.37712e-12 1186.65

1357.67 -20.3817 2.41585e-12
-20.3817 1441.46 -5.785e-13
2.41585e-12 -5.785e-13 1405.11

1391.14 23.4612 1.18542e-12
23.4612 1302.66 1.47082e-12
1.18542e-12 1.47082e-12 1332.11

1354.09 -53.0496 3.10626e-12
-53.0496 1317.27 5.74474e-12
3.10626e-12 5.74474e-12 1301.82

1359.36 -45.2413 4.51668e-12
-45.2413 1288.36 -2.69414e-13
4.51668e-12 -2.69414e-13 1272.06

1459.11 -25.9746 -5.11591e-13
-25.9746 1397.57 -4.13891e-13
-5.11591e-13 -4.13891e-13 1409.15

1376.56 48.0425 -6.66015e-12
48.0425 1330.45 2.71072e-12
-6.66015e-12 2.71072e-12 1330.45

1373.24 42.6695 -4.52142e-12
42.6695 1300.73 1.42582e-12
-4.52142e-12 1.42582e-12 1305.07

1300.91 -4.4633 -2.69799e-12
-4.4633 1406.67 1.24582e-12
-2.69799e-12 1.24582e-12 1330.64

1282.18 10.1008 -4.66608e-13
10.1008 1391.86 -3.15481e-12
-4.66608e-13 -3.15481e-12 1305.59

1373.36 4.73405 -2.88717e-12
4.73405 1261.98 8.21195e-13
-2.88717e-12 8.21195e-13 1278.28

1353.81 -14.691 -1.88531e-12
-14.691 1222.85 -2.32288e-12
-1.88531e-12 -2.32288e-12 1203.56

1349.66 54.0708 -4.20049e-12
54.0708 1320.87 -3.64035e-12
-4.20049e-12 -3.64035e-12 1301.76

1381.29 -45.4344 3.46863e-12
-45.4344 1321.58 2.50585e-12
3.46863e-12 2.50585e-12 1327.06

1431.05 -34.4696 1.14338e-12
-34.4696 1386.04 -5.91527e-13
1.14338e-12 -5.91527e-13 1398.25

1324.33 -57.2227 -1.53122e-12
-57.2227 1324.03 -3.22586e-12
-1.53122e-12 -3.22586e-12 1284.66

1291.18 -51.1106 -7.83966e-13
-51.1106 1340.52 -4.08562e-13
-7.83966e-13 -4.08562e-13 1273.64

1311.96 54.4231 1.75978e-12
54.4231 1333.92 -2.23584e-12
1.75978e-12 -2.23584e-12 1284.64

1281.36 -16.8825 -9.14084e-14
-16.8825 1386.61 3.18323e-12
-9.14084e-14 3.18323e-12 1299.82

1296.34 -3.26378 -1.95e-12
-3.26378 1405.24 -5.56592e-13
-1.95e-12 -5.56592e-13 1326.13

1315.47 9.45413 -2.64274e-12
9.45413 1420.93 2.73677e-12
-2.64274e-12 2.73677e-12 1356.12

1282.96 -38.4101 7.10543e-14
-38.4101 1362.59 2.72138e-12
7.10543e-14 2.72138e-12 1283.87

1402.2 40.5484 1.85925e-12
40.5484 1333.38 1.91195e-12
1.85925e-12 1.91195e-12 1355.74

1390.68 -16.4934 1.64609e-12
-16.4934 1298.89 -2.06265e-12
1.64609e-12 -2.06265e-12 1329.79

1280.04 13.0046 7.49623e-13
13.0046 1389.48 1.48267e-12
7.49623e-13 1.48267e-12 1300.34

1315.22 -16.1946 -2.09663e-13
-16.1946 1412.14 -2.30453e-12
-2.09663e-13 -2.30453e-12 1351.02

1303.96 -28.1595 4.22447e-12
-28.1595 1387.35 1.8557e-12
4.22447e-12 1.8557e-12 1330.44

1375.21 -15.3631 -2.16242e-12
-15.3631 1269.33 -1.62537e-12
-2.16242e-12 -1.62537e-12 1275.6

1388.06 -52.8846 1.21444e-12
-52.8846 1377.1 1.3296e-12
1.21444e-12 1.3296e-12 1385.97

1291.13 17.3778 -3.73153e-12
17.3778 1390.85 5.35276e-13
-3.73153e-12 5.35276e-13 1306.25

1478.56 -29.4012 3.16843e-12
-29.4012 1422.85 -6.85378e-13
3.16843e-12 -6.85378e-13 1421.71

1110.38 67.6321 -3.83338e-12
67.6321 1304.6 -3.60008e-13
-3.83338e-12 -3.60008e-13 1007.89

1396.42 -43.1794 -1.35181e-12
-43.1794 1393.11 1.92113e-12
-1.35181e-12 1.92113e-12 1390.43

1416.9 -49.1992 -5.15736e-13
-49.1992 1388.91 -8.42585e-13
-5.15736e-13 -8.42585e-13 1394.03

1296.72 -0.684678 -4.29878e-13
-0.684678 1405.4 -7.40149e-13
-4.29878e-13 -7.40149e-13 1326.26

1383.61 -29.2295 -7.40859e-12
-29.2295 1299.76 2.32584e-12
-7.40859e-12 2.32584e-12 1308.1

1338.24 20.9934 -1.62155e-12
20.9934 1418.86 5.44157e-12
-1.62155e-12 5.44157e-12 1376.05

929.942 -5.99755 6.67585e-12
-5.99755 1342.89 -2.51058e-12
6.67585e-12 -2.51058e-12 852.91

1302.03 24.6036 2.14095e-12
24.6036 1392.82 4.18391e-12
2.14095e-12 4.18391e-12 1331.9

1353.01 -52.7048 -2.25834e-12
-52.7048 1327.85 -5.16328e-13
-2.25834e-12 -5.16328e-13 1306.07

1112.59 87.0095 -3.78956e-12
87.0095 1421.15 -1.45898e-12
-3.78956e-12 -1.45898e-12 958.686

1518.74 41.4498 -1.13835e-11
41.4498 1510.8 -4.68129e-12
-1.13835e-11 -4.68129e-12 1442.78

1526.31 -44.3607 -7.5131e-12
-44.3607 1505.93 9.47864e-12
-7.5131e-12 9.47864e-12 1442.73

1354.02 -51.9382 -1.00068e-12
-51.9382 1346.44 -4.30826e-12
-1.00068e-12 -4.30826e-12 1334.81

1319.82 -56.7314 -7.40149e-13
-56.7314 1323.19 -2.08071e-12
-7.40149e-13 -2.08071e-12 1281.5

1380.91 36.5167 8.05282e-14
36.5167 1305.24 -5.79625e-12
8.05282e-14 -5.79625e-12 1311.12

1373.75 27.1336 2.12808e-12
27.1336 1274.15 -2.14998e-12
2.12808e-12 -2.14998e-12 1286.07

1569.97 6.8054 -2.85268e-12
6.8054 1570.89 1.17654e-12
-2.85268e-12 1.17654e-12 1451.91

1576.69 -13.2129 3.7305e-12
-13.2129 1563.51 -4.73444e-12
3.7305e-12 -4.73444e-12 1452.69

1402.44 8.24823 7.75676e-14
8.24823 1311.41 -4.14631e-13
7.75676e-14 -4.14631e-13 1363.2

1314.52 11.8409 2.03038e-12
11.8409 1414.84 1.0066e-12
2.03038e-12 1.0066e-12 1351.01

1312.18 11.2041 1.36131e-12
11.2041 1414.51 4.02641e-14
1.36131e-12 4.02641e-14 1349.1

1219.18 202.902 -1.5253e-12
202.902 1063.34 4.67063e-12
-1.5253e-12 4.67063e-12 849.803

1295.4 -51.7997 -1.30621e-12
-51.7997 1339.24 4.75353e-12
-1.30621e-12 4.75353e-12 1275.81

1428.89 29.3607 1.12503e-12
29.3607 1342.82 -2.53605e-12
1.12503e-12 -2.53605e-12 1390.05

1383.84 16.7591 2.65269e-13
16.7591 1289.39 4.44148e-12
2.65269e-13 4.44148e-12 1299.23

1325.7 -48.7867 -5.68434e-13
-48.7867 1345 -1.42109e-14
-5.68434e-13 -1.42109e-14 1294.47

1375.49 -36.0978 -6.68147e-12
-36.0978 1292.79 2.36078e-12
-6.68147e-12 2.36078e-12 1301.2

1178.18 206.82 -5.64645e-12
206.82 1076.3 3.09797e-12
-5.64645e-12 3.09797e-12 842.293

1386.08 50.8467 2.98546e-12
50.8467 1380.39 -9.39397e-13
2.98546e-12 -9.39397e-13 1380.95

1277.26 -36.144 -1.5401e-12
-36.144 1363 1.23161e-13
-1.5401e-12 1.23161e-13 1279.69

1372.76 50.0095 -3.0577e-12
50.0095 1331.52 -3.01744e-12
-3.0577e-12 -3.01744e-12 1330.11

1298.89 -7.77796 -2.71102e-12
-7.77796 1405.77 1.38556e-12
-2.71102e-12 1.38556e-12 1329.96

1296.11 36.0097 3.91568e-12
36.0097 1371 -3.60245e-12
3.91568e-12 -3.60245e-12 1296

1345.05 54.1076 1.05871e-12
54.1076 1328.37 -8.59757e-13
1.05871e-12 -8.59757e-13 1304.82

1304.78 -41.1469 -2.79954e-12
-41.1469 1363.43 2.4869e-13
-2.79954e-12 2.4869e-13 1295.56

1329.93 -49.682 1.26121e-12
-49.682 1343.73 2.19084e-12
1.26121e-12 2.19084e-12 1296.89

1086.23 36.75 1.99307e-12
36.75 1340.57 -6.45173e-12
1.99307e-12 -6.45173e-12 938.504

1224.23 -92.0792 -2.11742e-12
-92.0792 1311.02 -1.80004e-12
-2.11742e-12 -1.80004e-12 1064.72

1286.17 -20.6134 -2.87518e-12
-20.6134 1387.01 -1.38201e-12
-2.87518e-12 -1.38201e-12 1304.37

1380.47 46.1277 -1.56438e-12
46.1277 1326.65 -5.17038e-12
-1.56438e-12 -5.17038e-12 1328.94

1342.07 52.3429 3.0127e-12
52.3429 1337.81 7.73307e-13
3.0127e-12 7.73307e-13 1309.13

1301.78 -39.3604 -1.05871e-12
-39.3604 1365.3 -9.04758e-13
-1.05871e-12 -9.04758e-13 1293.57

1291.71 -21.8024 9.9772e-13
-21.8024 1387.18 1.56319e-12
9.9772e-13 1.56319e-12 1304.88

1351.41 50.8434 -5.4546e-12
50.8434 1333.99 4.2301e-12
-5.4546e-12 4.2301e-12 1308.62

1294.9 -25.4086 1.68813e-12
-25.4086 1385.35 3.89614e-13
1.68813e-12 3.89614e-13 1308.52

1114.71 73.8026 2.5698e-12
73.8026 1298.29 -3.1027e-12
2.5698e-12 -3.1027e-12 1007.37

1363.8 -6.613 4.56779e-12
-6.613 1461.13 1.18779e-12
4.56779e-12 1.18779e-12 1400.79

1316.13 56.3362 -2.02031e-12
56.3362 1328.39 1.07174e-12
-2.02031e-12 1.07174e-12 1283.65

1415.85 24.6372 -3.33718e-12
24.6372 1339.98 1.97768e-12
-3.33718e-12 1.97768e-12 1375.44

1425.32 -25.9261 1.2695e-12
-25.9261 1344.54 -2.43953e-12
1.2695e-12 -2.43953e-12 1381.75

1322.68 -69.7417 1.67688e-12
-69.7417 1104.84 -3.20928e-12
1.67688e-12 -3.20928e-12 998.137

1318.61 -36.8411 -7.61347e-12
-36.8411 1375.82 -4.718e-12
-7.61347e-12 -4.718e-12 1336.24

1328.33 45.6305 -1.1872e-12
45.6305 1360.56 3.28863e-12
-1.1872e-12 3.28863e-12 1334.48

1416.51 -34.0813 -3.97904e-12
-34.0813 1451.38 -3.41756e-12
-3.97904e-12 -3.41756e-12 1416.54

1482.95 22.8535 -5.16772e-12
22.8535 1541.55 -8.07887e-12
-5.16772e-12 -8.07887e-12 1441.82

1546.53 13.9781 2.57764e-12
13.9781 1477.78 -2.11386e-13
2.57764e-12 -2.11386e-13 1441.56

1422.24 52.4876 -6.21133e-13
52.4876 1417.65 1.28993e-12
-6.21133e-13 1.28993e-12 1411.56

1285.9 47.7821 -3.46508e-12
47.7821 1348.33 4.70853e-12
-3.46508e-12 4.70853e-12 1274.73

1381.12 45.7281 -1.21029e-12
45.7281 1322.57 7.11727e-13
-1.21029e-12 7.11727e-13 1328.3

1176.49 125.774 -5.96382e-12
125.774 1221.79 -7.10543e-14
-5.96382e-12 -7.10543e-14 999.89

1471.84 -18.441 -6.52426e-12
-18.441 1538.51 2.38209e-12
-6.52426e-12 2.38209e-12 1440.07

1567.62 -6.36052 -8.37448e-12
-6.36052 1556.83 -4.95011e-13
-8.37448e-12 -4.95011e-13 1450.86

1553.88 -1.49509 3.46538e-12
-1.49509 1570.45 2.34183e-13
3.46538e-12 2.34183e-13 1450.61

1049.45 -189.251 -2.29742e-12
-189.251 1192.48 8.62125e-13
-2.29742e-12 8.62125e-13 836.879

1474.84 -18.2394 3.55567e-12
-18.2394 1468.96 -5.72342e-12
3.55567e-12 -5.72342e-12 1429.61

1465.9 14.3716 2.88628e-12
14.3716 1503.25 3.94943e-12
2.88628e-12 3.94943e-12 1434.61

1382.3 -44.9135 2.96059e-13
-44.9135 1316.06 -5.01821e-12
2.96059e-13 -5.01821e-12 1325.6

1376.7 1.75309 2.81382e-12
1.75309 1460.16 5.87382e-12
2.81382e-12 5.87382e-12 1403.81

1322.79 -33.8169 -5.15736e-13
-33.8169 1384.33 -3.53969e-12
-5.15736e-13 -3.53969e-12 1353.23

1413.63 10.0059 1.39918e-12
10.0059 1310.38 6.34677e-13
1.39918e-12 6.34677e-13 1375.47

1333.77 25.5681 -1.1013e-12
25.5681 1431.31 -2.34894e-12
-1.1013e-12 -2.34894e-12 1387.96

1347.86 11.6737 2.06794e-12
11.6737 1441.1 2.80664e-13
2.06794e-12 2.80664e-13 1385.22

1399.8 34.6006 -6.86147e-12
34.6006 1328.35 -7.69755e-14
-6.86147e-12 -7.69755e-14 1349.02

931.56 -14.9022 -6.50443e-13
-14.9022 1333.3 8.52651e-13
-6.50443e-13 8.52651e-13 853.029

1353.57 -47.5339 2.14821e-12
-47.5339 1353.37 -1.29319e-12
2.14821e-12 -1.29319e-12 1337.94

1382.73 -43.2111 -4.77722e-12
-43.2111 1371.41 -1.54188e-12
-4.77722e-12 -1.54188e-12 1371.39

1391.65 -51.3685 1.62063e-12
-51.3685 1379.36 1.21207e-12
1.62063e-12 1.21207e-12 1389.31

1298.49 101.936 2.43479e-12
101.936 1067.19 -7.55544e-13
2.43479e-12 -7.55544e-13 915.503

1469.6 -32.4175 1.6455e-12
-32.4175 1478.93 1.58451e-12
1.6455e-12 1.58451e-12 1431.2

1235.19 191.173 -2.28321e-12
191.173 1303.82 6.40436e-12
-2.28321e-12 6.40436e-12 947.05

1358.83 -34.2217 -3.91983e-13
-34.2217 1403.92 -1.25529e-12
-3.91983e-13 -1.25529e-12 1391.79

1412.84 24.1576 8.33703e-13
24.1576 1324.75 -1.16144e-12
8.33703e-13 -1.16144e-12 1366.83

1364.24 -27.1927 8.02913e-13
-27.1927 1258.77 6.98108e-13
8.02913e-13 6.98108e-13 1238.53

1332.29 41.0147 2.9073e-12
41.0147 1376.86 -3.26613e-12
2.9073e-12 -3.26613e-12 1348.8

1400.41 34.325 -2.37203e-12
34.325 1324.89 -6.76614e-12
-2.37203e-12 -6.76614e-12 1348.8

1388.56 18.0575 3.14356e-12
18.0575 1482.7 -1.6082e-12
3.14356e-12 -1.6082e-12 1418.06

1367.21 -52.8875 6.90411e-13
-52.8875 1358.98 3.38041e-12
6.90411e-13 3.38041e-12 1358.04

1474.37 31.7849 -3.42245e-13
31.7849 1396.57 -1.9907e-12
-3.42245e-13 -1.9907e-12 1417.76

1314.03 -32.1338 -4.73754e-12
-32.1338 1386.84 -1.83557e-13
-4.73754e-12 -1.83557e-13 1335.27

1340.62 7.12958 3.61322e-13
7.12958 1439.53 3.91154e-12
3.61322e-13 3.91154e-12 1383.04

1507.82 16.0121 -1.70945e-12
16.0121 1449.5 2.01084e-12
-1.70945e-12 2.01084e-12 1433.78

1510.12 -13.5959 3.71969e-12
-13.5959 1452.49 1.79027e-12
3.71969e-12 1.79027e-12 1433.89

1314.98 54.8022 -4.05483e-12
54.8022 1095.2 -4.09746e-13
-4.05483e-12 -4.09746e-13 998.823

1406.16 12.8436 -1.69346e-13
12.8436 1326.44 -1.54306e-12
-1.69346e-13 -1.54306e-12 1376.87

925.021 30.9395 5.54519e-12
30.9395 1576.32 6.82121e-13
5.54519e-12 6.82121e-13 808.424

940.117 -48.9904 8.75507e-12
-48.9904 1599.37 -5.49486e-13
8.75507e-12 -5.49486e-13 821.519

1007.11 248.826 5.67487e-12
248.826 1463.63 7.01069e-13
5.67487e-12 7.01069e-13 801.063

1406.85 -47.7161 6.88042e-13
-47.7161 1363.7 -2.94342e-12
6.88042e-13 -2.94342e-12 1377.84

991.141 -171.086 1.49688e-12
-171.086 1297.3 5.70329e-12
1.49688e-12 5.70329e-12 839.844

1010.12 -246.751 1.7053e-13
-246.751 1426.25 -6.82121e-12
1.7053e-13 -6.82121e-12 788.377

1315.22 47.7907 -3.52548e-12
47.7907 1352.09 2.70835e-12
-3.52548e-12 2.70835e-12 1293.8

1356.66 323.928 4.30115e-12
323.928 1141.17 8.62125e-13
4.30115e-12 8.62125e-13 806.301

1440.79 20.4689 2.51384e-12
20.4689 1461.61 -3.46922e-12
2.51384e-12 -3.46922e-12 1421.97

1473.9 -0.999053 1.20437e-12
-0.999053 1428.21 -2.95704e-12
1.20437e-12 -2.95704e-12 1421.69

1390.12 -321.446 1.51582e-13
-321.446 1138.04 -1.46846e-12
1.51582e-13 -1.46846e-12 813.828

1306.82 -40.7592 -3.19448e-12
-40.7592 1365.2 6.57015e-12
-3.19448e-12 6.57015e-12 1319.16

1295.25 113.941 4.09273e-12
113.941 1141.15 8.8581e-13
4.09273e-12 8.8581e-13 940.609

1082.15 279.079 -2.31163e-12
279.079 1423.84 6.72647e-12
-2.31163e-12 6.72647e-12 808.125

1087.34 71.5331 4.9359e-12
71.5331 1327.24 -2.6148e-12
4.9359e-12 -2.6148e-12 930.255

1083.36 -289.085 6.58436e-12
-289.085 1426.13 -3.39166e-12
6.58436e-12 -3.39166e-12 806.104

1081 -43.4434 -2.97717e-12
-43.4434 1343.95 -1.9611e-12
-2.97717e-12 -1.9611e-12 929.82

1447.98 11.3831 -4.69136e-12
11.3831 1499.05 -3.85647e-12
-4.69136e-12 -3.85647e-12 1429.18

1175.62 -133.661 -1.64846e-12
-133.661 1214.28 4.92169e-12
-1.64846e-12 4.92169e-12 976.116

994.392 163.711 2.16952e-12
163.711 1286.6 1.07624e-11
2.16952e-12 1.07624e-11 845.45

1530.06 165.366 -2.48216e-12
165.366 977.644 -1.64846e-12
-2.48216e-12 -1.64846e-12 810.444

1380.24 -49.8956 -8.0765e-13
-49.8956 1344.75 -4.2674e-12
-8.0765e-13 -4.2674e-12 1346.13

1361.77 20.9629 9.25778e-13
20.9629 1433.92 2.86704e-12
9.25778e-13 2.86704e-12 1394.02

1284.82 -125.627 -1.06108e-12
-125.627 1112.65 1.89478e-13
-1.06108e-12 1.89478e-13 923.44

1381.54 -48.6984 4.84353e-13
-48.6984 1343.69 2.94165e-12
4.84353e-13 2.94165e-12 1347.26

1517.17 -158.133 3.60008e-12
-158.133 932.16 -3.80614e-12
3.60008e-12 -3.80614e-12 795.465

1375.23 -47.2582 -3.45797e-13
-47.2582 1360.88 -1.32161e-12
-3.45797e-13 -1.32161e-12 1361.16

1312.48 -43.8871 -5.12242e-12
-43.8871 1364.43 -3.19507e-12
-5.12242e-12 -3.19507e-12 1319.54

1283.82 306.272 1.00423e-12
306.272 1195.05 2.40637e-12
1.00423e-12 2.40637e-12 795.886

1083.01 -76.7818 1.27424e-12
-76.7818 1312.08 3.78956e-14
1.27424e-12 3.78956e-14 911.517

1279.8 -315.337 3.4864e-12
-315.337 1182.11 -2.63375e-12
3.4864e-12 -2.63375e-12 789.989

1032.18 176.969 -2.10321e-12
176.969 1206.52 -3.4864e-12
-2.10321e-12 -3.4864e-12 837.654

1350 -52.0189 2.35782e-12
-52.0189 1341.68 -2.78651e-12
2.35782e-12 -2.78651e-12 1328.19

1467.63 -23.6469 -1.61175e-12
-23.6469 1445.08 -6.53226e-12
-1.61175e-12 -6.53226e-12 1422.96

1560.17 18.1552 2.84935e-12
18.1552 1549.6 -2.47387e-12
2.84935e-12 -2.47387e-12 1449.16

1533.32 -6.92627 -1.28371e-12
-6.92627 1567.14 7.16053e-12
-1.28371e-12 7.16053e-12 1448.23

1327.52 21.7487 1.25148e-12
21.7487 1414.68 -4.39115e-12
1.25148e-12 -4.39115e-12 1367.71

1557.18 -17.2432 -1.32738e-12
-17.2432 1549.52 5.23315e-12
-1.32738e-12 5.23315e-12 1449.21

1536.38 5.27294 1.79975e-12
5.27294 1570.24 9.02822e-12
1.79975e-12 9.02822e-12 1448.95

1570.6 13.298 -7.39616e-12
13.298 1533.17 -3.43399e-12
-7.39616e-12 -3.43399e-12 1448.52

1486.84 -19.5565 6.44026e-12
-19.5565 1560.83 -3.01033e-12
6.44026e-12 -3.01033e-12 1443.84

1110.24 -86.2853 -2.34242e-12
-86.2853 1293 3.32534e-12
-2.34242e-12 3.32534e-12 985.514

1510.02 -20.6299 8.30802e-12
-20.6299 1445.31 -5.93688e-12
8.30802e-12 -5.93688e-12 1432.24

1427.13 -54.8862 -3.99503e-12
-54.8862 1418.13 8.81665e-13
-3.99503e-12 8.81665e-13 1411.41

1478.84 -28.5947 1.72129e-12
-28.5947 1433.57 1.95991e-13
1.72129e-12 1.95991e-13 1423.81

1409.68 25.4586 4.07852e-12
25.4586 1325.64 -2.48068e-12
4.07852e-12 -2.48068e-12 1364.84

1487.17 15.4776 3.25436e-12
15.4776 1575.76 -2.79835e-12
3.25436e-12 -2.79835e-12 1445.55

1566.93 30.6222 -1.90366e-12
30.6222 1495.89 4.14831e-12
-1.90366e-12 4.14831e-12 1445.29

1483.59 17.8875 3.99621e-12
17.8875 1441.74 -5.50078e-13
3.99621e-12 -5.50078e-13 1425.29

1331.01 -47.8837 9.28443e-13
-47.8837 901.377 -2.25953e-12
9.28443e-13 -2.25953e-12 832.609

1315.38 43.9817 -4.44089e-13
43.9817 1358.35 8.04098e-13
-4.44089e-13 8.04098e-13 1315.8

1215.56 -218.923 6.20541e-12
-218.923 1061.69 -1.53004e-12
6.20541e-12 -1.53004e-12 833.523

1234.56 -207.485 -3.34429e-12
-207.485 1313.43 5.51381e-12
-3.34429e-12 5.51381e-12 933.045

1395.97 -125.988 7.95808e-13
-125.988 1123.8 8.05282e-14
7.95808e-13 8.05282e-14 941.78

1459.27 -7.8337 -6.99322e-12
-7.8337 1543.58 4.83051e-12
-6.99322e-12 4.83051e-12 1438.78

1459.1 4.19456 -1.9081e-12
4.19456 1542.26 -4.35859e-12
-1.9081e-12 -4.35859e-12 1438.44

1516.72 -37.6006 -4.15904e-12
-37.6006 1480.35 5.09711e-12
-4.15904e-12 5.09711e-12 1437.6

1521.49 -33.8546 -6.37013e-12
-33.8546 1477.29 4.32839e-13
-6.37013e-12 4.32839e-13 1437.81

1515.63 40.3754 -3.51541e-12
40.3754 1487 -1.85689e-12
-3.51541e-12 -1.85689e-12 1438.48

1544.12 6.45083 7.23362e-12
6.45083 1552.54 2.01557e-11
7.23362e-12 2.01557e-11 1448.65

1516.93 -31.9597 -3.88104e-12
-31.9597 1481.63 1.59132e-13
-3.88104e-12 1.59132e-13 1438.5

1520.37 -29.0515 2.49578e-12
-29.0515 1541.79 -1.49499e-11
2.49578e-12 -1.49499e-11 1445.75

1551.83 5.35693 4.60521e-13
5.35693 1559.19 5.61329e-12
4.60521e-13 5.61329e-12 1449.71

1529.47 -31.6553 -1.89715e-12
-31.6553 1474.33 -1.16529e-12
-1.89715e-12 -1.16529e-12 1439.34

1528.23 32.4292 2.14014e-12
32.4292 1476.35 6.4541e-14
2.14014e-12 6.4541e-14 1439.86

1553.3 -7.20485 1.96258e-12
-7.20485 1561.05 4.33653e-12
1.96258e-12 4.33653e-12 1450.48

1554.67 -6.84893 -1.67629e-11
-6.84893 1543.65 1.09746e-11
-1.67629e-11 1.09746e-11 1449.72

1522.88 18.2669 -7.92492e-12
18.2669 1541.69 -4.22817e-12
-7.92492e-12 -4.22817e-12 1446.4

1498.53 42.1673 1.90485e-12
42.1673 1492.83 -2.46662e-12
1.90485e-12 -2.46662e-12 1438.41

FIELD solute_concentration_TPM 2
S_ext 1 563 float
0.00301268
0.00284129
0.00284997
0.00284151
0.00284318
0.00285138
0.00301263
0.00284643
0.00285984
0.0028489
0.0029323
0.00284795
0.0028498
0.00284311
0.00284302
0.00284933
0.0028407
0.00285013
0.00285964
0.0028516
0.00285462
0.00283583
0.0028552
0.0028539
0.00285169
0.00284432
0.00292387
0.00285154
0.0028916
0.00283906
0.00284852
0.00288739
0.00293035
0.00283756
0.00283394
0.00283586
0.0028302
0.002835
0.00285204
0.00292926
0.00288647
0.00282822
0.00282651
0.00284845
0.00290978
0.00289126
0.0028591
0.00285635
0.00285057
0.00289624
0.00288853
0.00287776
0.00283667
0.00288165
0.00283713
0.00292351
0.00283513
0.00287872
0.00283322
0.00285081
0.00284025
0.00283877
0.00292109
0.00283976
0.00283937
0.00284437
0.00284056
0.00284456
0.00285163
0.00284754
0.00283793
0.00283612
0.00288913
0.00284261
0.00284969
0.0029497
0.00283946
0.00284325
0.00284486
0.00287325
0.00289864
0.00283605
0.00284377
0.00290734
0.00288581
0.00291574
0.00284953
0.00284823
0.00290884
0.00285779
0.00287796
0.00286025
0.00283846
0.00284902
0.00288084
0.00288868
0.00290209
0.00284392
0.00283846
0.0028487
0.00286768
0.00288648
0.00289933
0.00284352
0.00284656
0.00284317
0.0028406
0.00285291
0.00290273
0.00284016
0.00285144
0.00291091
0.00290149
0.00284741
0.00284353
0.00288199
0.00284574
0.00290972
0.00284822
0.00287895
0.00286352
0.00283853
0.0028423
0.00284263
0.00284728
0.00283731
0.0028472
0.00284691
0.00290395
0.00287737
0.0028367
0.00284144
0.00284127
0.00284105
0.0028881
0.00283715
0.00291323
0.00284867
0.00284617
0.00283551
0.00288258
0.00284931
0.00286405
0.00284519
0.00290978
0.00284332
0.00285028
0.00285543
0.00285244
0.0028699
0.00285908
0.00284547
0.00288509
0.00284795
0.00284318
0.00284138
0.00284339
0.00288763
0.0028847
0.00284582
0.00285664
0.00288539
0.00291916
0.00288881
0.00288228
0.00284342
0.0028859
0.00288807
0.00288884
0.0028826
0.00283918
0.00287757
0.00289289
0.00284276
0.00288064
0.00283997
0.00283758
0.00285241
0.00283752
0.00284941
0.00289304
0.00284279
0.00284515
0.00288188
0.00284281
0.002896
0.00284076
0.0028419
0.00284604
0.00284289
0.00284365
0.00290624
0.00287685
0.00288623
0.00284154
0.00284513
0.00284585
0.00283919
0.00284388
0.00284343
0.00284354
0.0028604
0.0028745
0.00284007
0.00289216
0.0028399
0.00285033
0.00288379
0.00284031
0.00284705
0.00284792
0.00284519
0.00284447
0.00284625
0.00286933
0.00284513
0.0028753
0.00284038
0.00284563
0.00284335
0.00283975
0.00284032
0.00284056
0.00284011
0.00284961
0.00283735
0.00283802
0.00283791
0.00283929
0.00284762
0.00284554
0.0028684
0.00284779
0.00284447
0.00285794
0.00284727
0.00284563
0.00284708
0.00287188
0.00284091
0.00284539
0.0028705
0.00283931
0.00287051
0.00284752
0.0028406
0.00286858
0.00287315
0.0028983
0.00289268
0.00283964
0.00291016
0.0028489
0.00287527
0.00286124
0.00284116
0.00284233
0.00283553
0.00283987
0.00291684
0.00287257
0.00284262
0.00284785
0.00287383
0.00284085
0.00286387
0.00283359
0.00287391
0.00284638
0.00284537
0.00284444
0.00284618
0.00285009
0.00283729
0.00284947
0.00290656
0.00292346
0.00284574
0.00285318
0.00284688
0.00287049
0.00284041
0.00284261
0.00287242
0.00284389
0.00286636
0.00285195
0.00286843
0.00287176
0.00283902
0.00283782
0.00283766
0.00283674
0.00284339
0.00286877
0.00283648
0.0028421
0.00285871
0.00286692
0.00286999
0.0028383
0.00287004
0.00284816
0.00287088
0.00291155
0.00286765
0.00290243
0.00284046
0.00286854
0.00283919
0.00286934
0.00284799
0.00286897
0.0028485
0.00286786
0.00285349
0.00293194
0.00284955
0.00287075
0.00283797
0.00286846
0.00285868
0.00284802
0.00284101
0.00286892
0.00286799
0.00286295
0.00284879
0.00286703
0.00285198
0.00284986
0.00283841
0.00286882
0.00286194
0.00285736
0.00286312
0.00286748
0.00286199
0.00284634
0.00284639
0.00286344
0.00286881
0.00284599
0.00284617
0.00286658
0.00283696
0.00293957
0.0028552
0.00290022
0.00285761
0.00301829
0.00302315
0.00300282
0.00300473
0.00299527
0.00305041
0.00305324
0.00284675
0.00284512
0.00285053
0.00285795
0.00285904
0.002863
0.00285156
0.00286285
0.00286211
0.00284808
0.00286218
0.00284547
0.00287709
0.00283745
0.00285368
0.00285695
0.00286348
0.00284818
0.00285139
0.00285645
0.00285143
0.00285585
0.00286196
0.00287417
0.0028575
0.00285219
0.00283997
0.00286113
0.00286144
0.00286003
0.00285596
0.00285118
0.00284684
0.00286022
0.00284649
0.00285462
0.0028558
0.00284668
0.00285014
0.00286276
0.00284099
0.00285494
0.00283678
0.00291032
0.00284069
0.00284858
0.0028512
0.00285618
0.00284304
0.00294649
0.00285014
0.00285603
0.0029292
0.00284742
0.00285109
0.00285374
0.00286044
0.00285542
0.00286037
0.00285969
0.0028536
0.00284946
0.00284696
0.00284716
0.0029628
0.00286198
0.0028468
0.00285798
0.00285797
0.00285732
0.00293832
0.00284639
0.00285988
0.00285133
0.00285172
0.00285775
0.00285627
0.00285868
0.00285912
0.00293492
0.00290306
0.00285633
0.0028538
0.00285535
0.00285769
0.00285522
0.00285621
0.00285589
0.00291709
0.0028391
0.00285968
0.0028427
0.00284234
0.00291054
0.00285138
0.00284986
0.00284664
0.00282902
0.00282706
0.00284417
0.00286176
0.00285415
0.00292136
0.00283081
0.00283658
0.00283435
0.002944
0.0028354
0.00283429
0.00285252
0.00283865
0.00284584
0.00284787
0.00284083
0.00284136
0.00285142
0.00294399
0.00284944
0.00284942
0.00284698
0.00295132
0.00283481
0.00294619
0.00283936
0.00284922
0.00286899
0.0028472
0.00285154
0.00283704
0.00284569
0.00283575
0.00284939
0.00284171
0.00284562
0.00284865
0.0029256
0.00284782
0.0029831
0.00298653
0.00298043
0.00284284
0.00295602
0.0029838
0.00285837
0.00297319
0.00283647
0.00283522
0.00297415
0.00285227
0.00294734
0.00300166
0.00293884
0.00299804
0.00293584
0.00283634
0.00292603
0.00295675
0.00297087
0.00284837
0.00283999
0.00294865
0.00284828
0.00297158
0.00284544
0.00285435
0.00300739
0.00294051
0.00300414
0.00294174
0.00285136
0.00283678
0.00283109
0.00283272
0.00284405
0.0028341
0.00283181
0.00283396
0.00283917
0.0029204
0.00283499
0.00284721
0.00284776
0.00284946
0.00284268
0.00284052
0.00284443
0.00293876
0.00285358
0.00296536
0.00294872
0.00292782
0.00282719
0.00282634
0.00282852
0.00282998
0.00282505
0.00284346
0.00284288
0.00285053
0.00285162
0.00284203
0.00284076
0.00285101
0.00283684
0.00284324
0.00284
P_ext 1 563 float
0.000138215
0.000116423
0.000120519
0.00011702
0.000102076
0.00012038
0.000138209
0.000118172
0.000123122
0.000116728
0.000133157
0.000118047
0.00011899
0.000116098
0.000105943
0.000120527
0.000113334
0.0001184
0.000123901
0.000121368
0.00012174
7.87352e-05
0.000121289
0.000120942
0.000121353
0.000117395
0.000132545
0.000119221
0.000129452
9.07405e-05
0.000119523
0.00012903
0.000133045
9.45724e-05
9.44718e-05
9.46669e-05
8.98155e-05
9.54894e-05
0.000119236
0.00013298
0.000128829
8.96112e-05
8.96815e-05
0.000119465
0.000131404
0.000129406
0.000123602
0.000122869
0.000119992
0.000130082
0.00012911
0.000127421
0.000101718
0.000128041
0.000102354
0.000132501
9.43138e-05
0.000127695
9.44108e-05
0.000120814
0.000113289
0.000109769
0.000132339
0.000110262
0.000109588
0.000113667
0.000113105
0.000117584
0.000121396
0.000115725
0.00010188
0.000101975
0.000129298
0.00011204
0.000120853
0.000134357
0.000106309
0.000113797
0.000117283
0.000126757
0.000130284
0.000100434
0.000111194
0.000131106
0.000128712
0.00013199
0.000119483
0.000112784
0.000131366
8.04854e-05
0.000127758
8.04156e-05
0.00010527
0.000113818
0.000127961
0.000129317
0.000130679
0.000117021
0.000106451
0.000119532
0.000125421
0.000128943
0.000130349
0.000118063
0.000116823
0.000117483
0.000110053
0.000119854
0.000130799
0.000114062
0.000120735
0.000131476
0.000130635
0.000118263
0.000117672
0.000128069
9.45302e-05
0.000131293
9.45985e-05
0.00012773
0.000124371
0.000106622
0.000115968
0.000112852
0.00011355
0.000105452
9.61683e-05
0.000116903
0.000130841
0.000127353
0.000100815
0.000116533
0.000111427
0.000116213
0.000129055
9.3605e-05
0.000131727
0.000118477
0.000110855
9.36951e-05
0.000128495
0.000116241
0.00012401
0.000116326
0.000131292
0.000117338
0.000116309
0.000119674
0.000120636
0.000125791
0.000122105
0.000115851
0.000128756
0.000119344
0.000116461
0.000116423
0.000115433
0.000128957
0.000128635
0.000119241
0.00012274
0.000128696
0.000132078
0.000129222
0.00012827
0.000117426
0.000128765
0.000128976
0.000129183
0.000128369
0.000104924
0.000127692
0.000129669
0.000115192
0.000127947
0.000110265
0.000105025
0.000117301
0.000102273
0.0001167
0.000129578
0.000117197
0.000117023
0.000128352
0.000112878
0.000129964
0.000112957
0.000110812
0.000105064
0.000117056
0.000112725
0.000130983
0.000127385
0.00012899
0.000116358
0.000118786
0.000118296
0.00011156
0.000115964
0.000114007
0.000115914
0.000123969
0.000127174
0.000111659
0.000129513
0.000111317
0.000113649
0.000128456
0.000108119
0.000115672
0.000107971
0.000115466
0.000117263
0.000111034
0.000125633
0.000114945
0.00012717
0.000110913
0.000113673
0.000113692
0.000114116
0.000114248
0.000114216
0.000114357
0.000116011
0.000106467
0.000106423
0.000106204
0.000106342
0.000101956
0.000101764
0.000125978
0.000115788
0.000116191
0.00012342
0.000105898
0.000105763
0.000116035
0.000126787
0.00011649
0.000116983
0.000126118
0.000107654
0.000126179
0.000111006
0.000116365
0.00012582
0.000126891
0.000130299
0.000129648
0.000111417
0.000131377
0.000119841
0.000127202
0.000123548
0.00011658
0.000113881
8.93665e-05
0.00011408
0.000131894
0.000126618
0.000116134
0.000117428
0.000127157
0.000113884
0.00012392
8.94426e-05
0.000127027
0.000113476
0.000113215
0.000118533
0.000105975
0.000112905
0.00010204
0.000119378
0.000131138
0.000132464
0.000103756
0.000122053
0.000117552
0.000126133
0.000107511
0.000115377
0.000126716
0.000114091
0.000125567
0.000116279
0.000125864
0.00012668
8.46353e-05
0.000104361
0.000105425
0.000105526
0.000116269
0.000125821
9.53171e-05
0.000113639
0.000122283
0.000125529
0.000126414
0.000103797
0.000126125
0.000105276
0.000126403
0.000131564
0.000125323
0.000130787
0.000110245
0.000125845
8.44404e-05
0.000126187
0.000111412
0.000126133
0.000112465
0.000125937
0.000120233
0.000133166
0.000120673
0.000126213
0.000103406
0.000125712
0.000121738
0.000112765
0.000116031
0.000125918
0.000125798
0.00012392
0.000110677
0.000125527
0.000117875
0.00011962
0.000102564
0.000125902
0.000124287
0.000121754
0.000124313
0.000125887
0.000124057
0.000108456
0.000117831
0.000124401
0.000125671
0.000116518
0.000116363
0.000125411
0.000102685
0.000133695
0.000119396
0.000130557
0.000121514
0.000138648
0.00013892
0.000137686
0.000137791
0.000137207
0.000140512
0.000140671
0.000110084
9.71851e-05
0.000118403
0.000121876
0.000123685
0.000124348
0.000116508
0.00012398
0.000124377
9.70623e-05
0.000124117
0.000108143
0.000127404
0.000107157
0.000119893
0.000122352
0.000124421
0.000103798
0.000119761
0.000122137
0.000119575
0.000121904
0.000124555
0.000126896
0.000121905
0.000120068
0.000108008
0.000123386
0.000124614
0.000123996
0.000122432
0.000120041
0.000116291
0.00012379
0.00011647
0.000120425
0.000122211
0.00011734
0.000120524
0.000124035
0.000112599
0.00012202
9.81546e-05
0.000131532
0.00011052
0.000108454
0.00011991
0.000122444
0.000114021
0.000134183
0.000119921
0.000122255
0.000133017
8.54046e-05
8.52226e-05
0.000119401
0.00012399
0.000121948
0.000123827
7.66327e-05
7.66232e-05
0.000118004
0.000117495
0.000117293
0.00013522
0.000124217
0.000111876
0.000123328
0.0001235
0.000122585
0.000133617
0.000112402
0.000124122
0.000119924
0.00011977
0.000123383
0.000122335
0.000123278
0.00012298
0.000133378
0.000130768
0.000122159
0.000119462
0.00012231
0.000123593
0.000122424
0.000121732
0.00012215
0.000132002
0.00010638
0.000123506
0.000114215
0.00011245
0.000131466
0.000120477
0.000120814
0.000102421
8.45581e-05
8.46182e-05
0.000103558
0.000124606
0.000119493
0.000132314
8.5694e-05
7.78952e-05
7.7938e-05
0.000134011
9.51109e-05
9.03915e-05
0.000120282
0.000105816
0.000119112
0.000116277
0.000112133
0.000110893
0.000117375
0.000134049
0.000120052
0.00011465
0.000112096
0.000134469
9.2763e-05
0.000134144
0.000112267
0.000116387
0.000125639
0.000119774
0.000117896
0.000100395
0.000117545
0.000100509
0.000120565
0.000111855
9.12601e-05
9.11829e-05
0.00013262
0.000115102
0.000136522
0.000136713
0.000136338
0.000112968
0.000134849
0.000136527
0.000123645
0.000135872
9.99758e-05
0.00010008
0.000135925
0.000121936
0.000134176
0.00013764
0.000133667
0.00013744
0.000133485
9.46555e-05
0.000132714
0.000134873
0.000135716
0.000118192
0.000109663
0.000134272
0.000117742
0.000135757
0.000116322
0.000121736
0.000137974
0.000133822
0.000137794
0.000133887
0.000120422
9.78754e-05
7.8353e-05
7.87879e-05
0.000115255
7.81996e-05
7.82444e-05
7.86002e-05
8.27711e-05
0.000132328
9.2289e-05
0.000103712
9.74597e-05
0.000115842
8.17363e-05
8.17906e-05
9.73005e-05
0.000133654
0.000122254
0.000135412
0.000134341
0.00013286
8.65872e-05
8.67626e-05
8.72941e-05
8.7202e-05
8.66619e-05
7.92329e-05
8.76039e-05
8.14396e-05
7.82207e-05
8.64432e-05
8.64519e-05
7.82626e-05
7.92657e-05
8.15424e-05
8.74235e-05
FIELD solute_flux_TPM 2
S_ext 3 563 float
-1.27215e-07 4.3303e-08 2.69765e-24
5.0757e-09 9.78993e-09 5.84709e-24
-1.80313e-08 -1.44001e-08 -3.83528e-23
-5.92751e-09 6.02627e-09 -6.19051e-24
3.2849e-08 -9.17682e-09 -2.8763e-23
3.99342e-09 -2.25136e-08 -6.17476e-23
-1.25319e-07 -4.37196e-08 -3.99174e-24
-1.96397e-08 -1.47316e-08 -4.49598e-23
3.15067e-08 1.31856e-09 -1.17392e-23
1.63214e-08 -5.69341e-09 -2.77943e-23
8.08796e-08 1.90999e-08 -1.33911e-23
3.38772e-09 -2.43532e-08 -5.6719e-23
1.94724e-08 1.58987e-08 1.70649e-25
3.79512e-09 1.95362e-08 -2.82441e-23
2.97091e-08 -4.2649e-09 -1.66898e-23
-2.29719e-08 -3.68441e-10 4.66536e-23
3.95747e-09 2.00845e-08 4.2323e-24
1.45708e-08 -3.46711e-09 -3.73821e-23
1.40839e-08 2.44099e-08 4.12376e-23
-2.09254e-08 2.6584e-09 2.22031e-23
-5.04361e-09 -3.00538e-08 -5.56823e-23
6.09194e-08 8.71397e-08 -4.99954e-23
2.24073e-08 2.29099e-09 -1.774e-23
1.60626e-08 -1.5999e-08 -6.90718e-23
-2.12347e-08 -4.6875e-09 4.37641e-23
-9.18229e-10 -1.57813e-08 -5.14608e-23
9.29696e-08 -7.63e-09 -1.92345e-24
2.01076e-08 1.45441e-08 5.53619e-24
-3.58444e-08 -2.91217e-08 -5.81293e-23
6.96229e-08 -1.81256e-08 1.28013e-23
-2.33361e-08 -8.53779e-09 3.92547e-23
7.72909e-09 -4.58098e-08 -5.67634e-23
7.02213e-08 -7.13303e-08 -8.35286e-24
-7.32846e-09 -5.95406e-08 -9.27596e-23
-4.18473e-08 5.24436e-08 -1.09709e-23
-5.52334e-08 -2.33931e-08 -1.39679e-23
4.59481e-08 6.05252e-08 5.92615e-25
-6.36102e-08 -1.21944e-08 -5.07343e-23
2.06067e-08 -1.56854e-08 -5.40886e-23
6.85764e-08 7.4337e-08 -2.89092e-24
4.61569e-08 -2.02742e-08 -1.19609e-23
4.6866e-08 -5.82483e-08 -1.26977e-22
-2.70321e-08 -6.9659e-08 -3.51003e-23
-2.23778e-08 9.00814e-09 1.60766e-23
4.41186e-08 -4.2766e-08 -4.2361e-24
-4.29212e-08 1.53674e-08 -6.24076e-24
-5.72899e-09 -2.872e-08 -6.22485e-23
1.12213e-08 2.85725e-08 5.02777e-23
-2.30625e-08 8.37037e-09 4.13712e-24
-2.5713e-08 4.07604e-08 -1.09941e-23
4.65951e-08 2.20516e-08 2.2805e-23
4.19803e-08 -1.442e-08 -2.4351e-23
-2.22615e-08 2.26055e-08 -1.65407e-23
-3.32555e-08 -2.90767e-08 -5.50596e-23
-3.02667e-08 -7.19093e-09 -2.8532e-23
-6.4842e-08 3.85073e-08 -1.27972e-23
-4.14357e-08 -5.39784e-08 -9.08783e-23
8.98376e-09 -4.34714e-08 -5.94447e-23
-6.74878e-08 8.98607e-09 2.3184e-23
8.66838e-09 1.93877e-08 5.0189e-23
-7.9519e-09 -1.16558e-08 -1.47452e-24
-9.39906e-09 -2.55449e-08 -5.35856e-24
8.37467e-08 3.66991e-08 -1.8443e-24
1.31985e-08 2.58425e-08 8.86605e-24
1.75572e-08 -2.06496e-08 -7.62898e-23
-2.30249e-09 -2.94473e-08 -7.51087e-23
6.63197e-09 -1.26007e-08 -6.31194e-23
-1.42575e-08 -7.87869e-09 5.3143e-23
-1.50041e-08 1.68001e-08 -4.22485e-23
3.68746e-09 -5.9744e-09 -6.34994e-23
-2.13453e-08 -2.27418e-08 -8.72536e-23
-3.05213e-08 7.21417e-09 -2.93991e-24
-5.21842e-09 4.90528e-08 -2.19508e-24
-2.53502e-08 1.51861e-08 -5.70982e-24
-1.28189e-08 2.05748e-08 -4.87019e-23
-8.80987e-08 1.01764e-08 -4.45176e-24
1.11834e-08 -3.08802e-08 -9.01197e-23
-2.67448e-08 -1.25471e-08 -8.74219e-24
2.79609e-09 1.6489e-08 3.77674e-23
3.75844e-08 7.26239e-09 2.39713e-23
4.93002e-08 -4.19937e-08 -1.73343e-23
3.15876e-08 2.94367e-08 3.13411e-23
1.7269e-08 -4.10131e-09 -2.52169e-23
-4.59434e-08 3.39596e-08 -1.42248e-24
5.44183e-08 6.92257e-09 1.70847e-23
-7.48936e-09 7.12909e-08 -1.3384e-23
-2.44588e-09 -2.38343e-08 -6.44247e-23
2.60221e-08 1.41489e-08 -2.93097e-23
4.24094e-08 4.41006e-08 -6.28103e-24
9.13e-08 5.69936e-08 -1.24747e-23
-7.68718e-09 4.36778e-08 -3.31047e-25
9.53427e-08 -5.38015e-08 -3.55214e-23
-3.86598e-08 7.59544e-09 -3.26663e-23
2.55941e-08 1.57508e-08 -4.80232e-23
-4.18451e-08 1.38932e-08 -2.83446e-23
2.37483e-08 4.09269e-08 1.36096e-23
1.4439e-08 -6.37321e-08 -3.1616e-23
2.79171e-09 1.64821e-08 2.44793e-23
-2.10182e-08 -2.50513e-08 5.20162e-24
4.38992e-09 2.47145e-08 4.78587e-23
3.76315e-08 7.46517e-09 3.13234e-23
-2.20749e-08 4.71385e-08 -1.67216e-24
5.86479e-08 -1.93197e-08 -2.34772e-23
-5.36112e-09 1.05342e-08 -1.83272e-23
1.4322e-08 8.35032e-09 -1.07643e-23
-3.1749e-09 -1.60409e-08 -3.01891e-23
4.63071e-09 -2.74323e-08 -7.49222e-23
2.49176e-08 5.53584e-09 -2.57181e-23
-1.17609e-08 5.88897e-08 -1.35699e-24
-1.4069e-08 3.27223e-10 4.36907e-23
1.33275e-08 1.68333e-08 2.42823e-23
-3.61093e-09 -6.01714e-08 -3.32472e-23
6.09029e-08 1.85305e-08 3.08225e-24
6.42577e-09 -1.05493e-08 -6.77785e-23
-1.57317e-08 -5.03629e-09 3.2785e-23
-4.13749e-08 -1.75556e-08 -4.73183e-23
2.30641e-08 5.95473e-08 -5.20217e-23
-6.18408e-08 -2.19604e-08 -1.48907e-23
2.33814e-08 -5.9679e-08 -2.62029e-23
-5.31409e-09 -4.52969e-08 -4.04972e-23
3.11464e-08 8.90685e-10 -2.34266e-24
-1.03628e-08 2.63818e-08 8.33371e-24
-2.22012e-09 5.62232e-09 -5.04382e-24
-5.20454e-09 -2.35482e-08 -7.75128e-23
7.57188e-09 -1.21087e-08 -4.1715e-23
1.33533e-08 2.26814e-08 5.50824e-23
4.81066e-08 1.54282e-08 3.57538e-24
1.24875e-08 -1.05402e-08 -5.93824e-23
-1.20758e-08 -6.46562e-08 -4.47303e-23
3.65162e-08 -2.69114e-08 -1.8419e-23
7.0976e-09 3.9612e-08 1.68158e-23
-4.00343e-09 -4.03781e-09 2.50682e-23
-1.22437e-08 -1.19206e-08 -8.0822e-23
-6.80972e-09 6.98421e-11 -1.98724e-23
-3.25149e-08 4.03749e-08 -2.26781e-23
2.76424e-08 -5.38657e-08 -1.11264e-22
-3.84911e-08 6.11634e-08 -6.13232e-25
-2.30785e-08 1.34375e-08 4.97518e-24
3.72031e-09 1.76362e-08 -9.75546e-23
-3.27727e-08 -5.0827e-08 -2.93012e-24
1.98311e-08 4.77117e-08 1.99954e-23
2.50826e-08 1.32422e-08 1.01627e-23
3.2506e-08 -1.21661e-08 -2.84484e-23
-1.70127e-09 -1.59943e-08 -6.62149e-23
-4.8458e-08 -4.48033e-08 -3.74713e-23
-3.86972e-09 1.60213e-08 -3.20693e-23
2.46803e-08 1.45025e-08 7.82797e-24
2.69663e-08 -1.26326e-08 -2.31663e-23
1.18514e-08 -2.0295e-08 -6.78058e-23
3.47613e-08 -1.54216e-08 -1.74983e-23
2.71248e-08 -1.28236e-08 -1.0331e-23
6.83578e-09 3.92925e-10 -3.66813e-23
3.68901e-08 2.8962e-08 -9.39525e-24
-3.81232e-09 -2.40508e-08 -6.47159e-23
-1.48624e-08 -6.29875e-09 -4.38162e-23
1.63472e-09 -5.55475e-09 -3.61101e-23
-4.45408e-09 2.24808e-08 1.68716e-23
-4.91404e-08 3.87085e-09 -8.98442e-24
-1.72768e-08 -4.71064e-08 -4.51262e-23
-1.11508e-08 1.38012e-08 -3.90203e-23
1.93114e-08 2.35331e-08 1.05724e-23
3.80593e-08 -2.68929e-08 -1.71761e-23
-5.29837e-08 -2.86949e-08 -1.82344e-23
2.48084e-08 -3.95e-08 -2.45446e-23
3.25835e-08 -3.89148e-08 -1.70644e-23
-1.54686e-08 5.42478e-09 3.47356e-23
-2.81246e-08 -4.07123e-08 -5.79661e-23
-4.91279e-08 -8.14028e-09 -1.57553e-23
-5.65763e-09 -4.51242e-08 -3.0115e-23
2.19904e-08 -4.51758e-08 -4.88782e-23
-1.29151e-08 -3.73481e-08 -7.58385e-23
6.4326e-09 4.45661e-08 -3.89543e-24
-2.26405e-08 -4.04495e-08 -5.98502e-23
4.25801e-09 -2.31339e-08 -5.65071e-23
-3.49646e-08 2.56343e-08 -3.17536e-23
-2.13614e-08 -1.72187e-08 2.51034e-23
-3.89094e-08 -7.36175e-09 -3.77743e-24
2.245e-08 -1.31343e-08 -7.25846e-24
-6.37826e-09 3.41911e-08 -8.52938e-24
1.76476e-08 -1.32581e-08 -5.07793e-23
-4.18932e-08 -1.84814e-08 -2.90664e-23
-1.25205e-08 -1.0528e-08 -3.10622e-23
1.30856e-08 1.06459e-08 7.38246e-24
3.06136e-08 4.10197e-08 -9.36575e-24
-2.47481e-08 -1.53163e-08 4.90984e-24
-4.60276e-08 -1.07753e-09 1.35648e-24
-2.32386e-08 -7.08189e-09 -3.69959e-23
-6.4254e-09 -2.36049e-08 -8.20047e-23
2.55619e-08 3.06309e-08 -7.99904e-23
-1.5583e-08 8.2663e-09 1.14094e-23
9.79149e-10 -2.9154e-08 -7.94266e-23
-5.9682e-08 1.51977e-08 -8.21066e-24
3.5524e-08 2.88995e-08 5.72005e-24
5.22831e-09 4.68693e-08 8.40217e-24
-3.46117e-09 5.4547e-09 4.39028e-23
-1.27819e-08 3.67442e-10 3.72259e-23
6.29665e-09 1.09783e-08 1.8303e-23
-1.67209e-08 4.81356e-09 -9.33713e-24
-2.8539e-09 -5.35209e-09 -6.92015e-23
2.40298e-09 2.943e-08 -1.46916e-23
6.54478e-09 5.64577e-10 1.36924e-24
-2.74957e-08 6.67042e-09 -2.92806e-24
-2.45822e-08 2.7261e-08 -4.83449e-23
-4.49312e-09 1.6563e-08 3.14246e-23
-4.16622e-08 2.59297e-08 -1.19088e-23
-1.32857e-08 1.28533e-08 -3.74659e-24
2.48595e-08 -1.67352e-08 -1.51824e-24
5.25236e-08 -5.13634e-09 -6.9627e-24
-3.01028e-08 1.602e-08 -2.45649e-23
3.21891e-09 6.4773e-09 -7.73788e-23
3.1471e-08 -6.20044e-09 2.49424e-23
-2.44602e-08 1.46971e-08 8.61209e-24
-1.39902e-08 7.87123e-09 1.25594e-23
1.72648e-08 5.44963e-09 -3.04061e-23
3.11983e-08 -1.92027e-08 -1.78388e-23
-2.46259e-08 1.40451e-08 3.86349e-24
-3.52682e-08 -7.43971e-09 -2.02134e-23
-2.37949e-08 -6.22315e-09 -2.43609e-23
1.44315e-08 1.11311e-10 -3.57897e-23
1.47706e-08 1.90968e-10 -1.54783e-23
6.30489e-09 1.19064e-08 4.51585e-23
6.95379e-09 -1.25899e-08 -3.86108e-23
-7.1569e-09 1.20958e-08 4.23918e-23
-7.50241e-09 -1.23656e-08 -1.61134e-23
1.42381e-08 -1.06896e-08 -1.80259e-24
-2.90887e-08 4.55774e-09 -2.23093e-24
-2.87717e-08 -4.64589e-09 2.98777e-24
-1.82825e-08 2.27592e-08 3.53092e-25
-1.83924e-08 -2.28599e-08 -1.00506e-22
1.09347e-08 -2.87919e-08 -1.61438e-23
1.05438e-08 2.85602e-08 -8.37127e-23
2.15569e-09 3.66932e-08 2.52765e-24
1.625e-08 -4.39534e-09 -3.69521e-23
3.53509e-09 -5.44959e-09 -6.1178e-23
-3.00613e-08 2.01428e-09 1.50956e-24
1.11967e-08 -2.83253e-08 -1.00419e-23
1.06161e-08 2.84498e-08 -1.02061e-22
6.86633e-09 -1.17787e-10 -8.81779e-23
1.27061e-08 3.47004e-08 3.37933e-23
-3.17111e-09 -5.71771e-09 -2.03383e-23
3.40104e-09 -1.60542e-08 -6.97022e-23
-3.15787e-08 -1.7037e-08 -4.65458e-23
-3.03644e-08 -1.62908e-08 1.00927e-23
-3.09264e-08 1.91451e-08 -5.10928e-23
4.76013e-09 -1.78427e-08 -9.81117e-24
-2.24708e-09 4.80724e-09 2.25852e-23
-8.60969e-10 -3.61318e-08 -3.72757e-23
-1.10014e-08 -3.44879e-08 -3.45416e-23
4.71982e-08 4.39472e-08 6.18099e-24
5.11144e-08 -2.66074e-09 -3.74413e-24
-1.82126e-08 -5.16125e-09 2.39971e-23
-3.29799e-08 -5.90837e-08 -3.93248e-23
1.18766e-08 1.94369e-08 3.15593e-23
-3.55517e-08 4.2343e-09 -1.73536e-23
2.86157e-08 8.20825e-09 1.13111e-23
-6.44028e-09 -1.98213e-11 4.2554e-23
-6.59773e-09 -1.20207e-08 -8.36263e-23
-1.16568e-08 -5.56641e-08 -9.50291e-23
-1.38885e-08 -1.06832e-10 -2.17793e-23
-6.88929e-08 -2.57794e-09 -1.03053e-24
2.4663e-08 -2.7231e-08 -1.95688e-23
3.59326e-09 5.64679e-09 2.71389e-24
-9.75603e-11 -2.48089e-08 -7.09388e-23
-1.40031e-08 3.40155e-08 -2.35616e-23
-6.20329e-09 1.23244e-08 -1.88771e-24
2.93112e-08 -1.93504e-08 -1.56178e-23
-5.40328e-08 -1.76921e-08 9.72954e-24
-2.16499e-08 -2.87039e-08 -3.9005e-23
7.20812e-09 1.21469e-08 -7.79881e-23
2.39526e-08 7.26502e-09 -1.06261e-23
-6.72707e-09 -1.0377e-08 -5.02237e-23
2.87532e-08 5.15322e-09 -2.43981e-23
2.61737e-08 -1.40456e-08 1.50034e-23
-5.11672e-10 3.8683e-08 -1.35378e-23
1.19453e-08 -1.93455e-08 -7.16519e-23
7.11006e-08 3.34458e-09 -1.33385e-23
-6.05277e-08 1.58734e-08 -8.8e-24
3.30731e-08 1.65252e-08 -6.46471e-23
-9.08376e-09 -2.41919e-08 -6.16402e-23
-2.16707e-08 -1.21679e-08 -3.62076e-23
4.1064e-08 -3.38271e-10 -9.42111e-24
-9.78169e-10 -3.45341e-08 -7.99413e-23
-1.78329e-08 -1.54419e-08 3.46628e-23
1.45203e-08 -3.34385e-08 -4.76503e-23
-7.16657e-10 2.91373e-08 -9.45016e-24
1.12164e-08 3.69002e-08 2.66173e-23
2.47457e-08 -1.41513e-08 1.86395e-23
-2.67399e-08 2.70928e-08 -5.70065e-23
2.35356e-08 2.85021e-08 7.15416e-24
-9.28819e-08 2.23302e-08 -4.65828e-23
-1.43634e-08 3.70799e-08 -1.51061e-23
1.78836e-08 -2.18638e-08 -9.15837e-23
-1.00937e-08 -2.62381e-08 -3.04378e-23
-1.68443e-08 6.35242e-09 3.97604e-23
-3.63651e-08 -9.89204e-09 -3.75519e-23
-9.48005e-09 5.59627e-08 -1.1731e-23
-1.78801e-08 1.69878e-08 7.06094e-24
2.96117e-08 -6.42709e-09 -1.22542e-23
-9.71503e-09 -3.6403e-08 -3.0109e-23
-2.10419e-08 3.36564e-08 -5.76783e-23
-3.10337e-08 1.78883e-08 -3.54865e-23
-2.9028e-08 -2.11622e-08 -5.83643e-23
2.60888e-08 -2.99075e-08 -2.07606e-23
-3.86537e-08 -2.04353e-09 -9.92111e-24
1.74634e-08 -5.93297e-08 -1.14518e-23
2.76281e-08 -2.68778e-08 -7.42757e-24
3.55362e-08 6.2175e-08 -9.43861e-24
2.79333e-09 2.82744e-08 -6.23176e-25
4.17842e-09 -3.60445e-08 -5.33381e-23
-6.06133e-08 7.08472e-08 -3.58303e-23
-1.79362e-08 -3.43856e-08 -4.11887e-23
2.36958e-08 -9.19277e-09 1.76431e-23
-3.48193e-09 3.64128e-08 -2.0864e-23
1.85572e-08 -1.71365e-08 -2.55472e-25
1.9739e-08 3.4481e-08 3.50802e-23
2.45715e-08 -2.05333e-09 -1.16267e-23
3.18581e-08 -9.23621e-08 -4.25175e-24
-8.27918e-09 -1.81552e-08 -7.3153e-23
-3.26571e-08 1.41192e-08 -3.61981e-23
-2.86034e-08 2.66695e-08 -2.50126e-23
3.08019e-08 2.06969e-08 -1.65477e-23
2.66331e-08 -1.53284e-08 -2.57824e-23
2.14399e-08 1.80444e-08 -6.12503e-23
-7.78571e-09 4.35052e-11 2.88598e-23
2.19241e-08 -3.27684e-08 -1.85663e-23
-2.39467e-08 -2.86751e-08 -4.3175e-23
3.21223e-08 1.38734e-08 2.76786e-23
1.84951e-08 -1.7275e-08 -1.73796e-24
1.3567e-08 -3.51935e-08 -4.10908e-23
2.38206e-08 -9.9998e-09 -1.58347e-23
-2.22841e-08 -1.06147e-08 4.56262e-23
1.90387e-09 -3.7458e-08 -7.84836e-23
-3.66823e-08 6.28372e-09 -1.34695e-23
3.35367e-09 3.4665e-08 1.1015e-23
2.93189e-08 9.41988e-09 -5.16467e-24
-3.05328e-08 -1.50335e-08 -5.10061e-23
-1.27257e-08 3.6141e-08 -2.37764e-23
-2.09359e-09 -3.41664e-08 -4.75141e-23
2.80059e-08 1.69613e-08 -4.14902e-23
-2.45725e-09 2.55906e-08 -4.29546e-23
-2.83706e-08 1.91989e-08 -5.70292e-23
3.35343e-08 1.62359e-08 2.95563e-23
-2.41329e-08 -1.41334e-08 4.00831e-23
2.13354e-10 -2.80781e-08 -6.95114e-23
2.6178e-08 2.83601e-08 -1.81911e-23
-3.14758e-08 -2.03455e-08 5.73328e-24
7.19432e-08 -5.05759e-08 -1.46746e-23
2.55941e-08 -1.53949e-08 -1.31911e-23
1.27507e-08 6.18134e-08 -2.44126e-24
2.43272e-08 -1.94047e-08 -2.07206e-23
-3.47807e-08 1.35731e-07 -1.89737e-23
-3.51167e-08 -1.34527e-07 1.27942e-23
8.82333e-08 1.14752e-07 -2.06829e-23
8.72414e-08 -1.14819e-07 -5.78211e-24
1.43224e-07 4.52393e-12 -1.7736e-23
-1.24907e-07 5.01498e-08 3.76668e-24
-1.22894e-07 -5.07386e-08 1.11387e-23
1.76792e-08 1.69738e-08 -8.64978e-23
4.24615e-08 3.15026e-08 -4.29408e-23
1.63778e-08 4.74479e-09 -4.09276e-23
2.68952e-08 1.38287e-08 9.81985e-24
7.08049e-09 2.85562e-08 4.3872e-23
-2.65035e-08 -2.10026e-08 -5.34459e-23
2.44813e-08 -1.45245e-08 1.24064e-23
2.82868e-08 2.0632e-08 5.10605e-24
-4.4977e-09 3.44162e-08 -1.42758e-23
4.26838e-08 -2.89421e-08 -6.19171e-24
5.37208e-09 -3.35392e-08 -5.83669e-23
3.16277e-08 7.39596e-09 -1.62221e-23
4.27369e-08 1.57053e-08 3.39938e-23
2.02667e-08 2.0282e-08 5.29036e-23
2.26841e-08 9.37186e-09 -3.14301e-23
-2.60791e-08 1.53832e-08 -2.41548e-23
-3.17499e-08 1.26976e-08 -3.96293e-23
3.32192e-08 -1.62111e-08 -1.00589e-23
-2.57071e-08 -1.40881e-08 -1.74138e-23
-2.6113e-08 -1.48417e-08 -3.07763e-23
-4.28449e-10 -2.93475e-08 -6.84023e-23
-1.16471e-10 -2.98754e-08 -5.9691e-23
-2.83103e-08 -1.41352e-09 3.0004e-24
3.81689e-08 -5.78862e-09 -1.96641e-23
2.58058e-08 1.60939e-08 5.30877e-24
-2.52069e-08 1.53662e-08 -6.07986e-24
-2.18519e-08 2.36556e-08 -1.3205e-23
2.28446e-08 -1.95518e-08 -7.80049e-24
-1.56167e-08 2.45889e-08 -6.86341e-23
-2.00629e-08 -2.09473e-08 -3.14224e-23
-1.65957e-09 2.99287e-08 -1.1736e-23
-1.7921e-09 2.96225e-08 -1.22108e-23
1.37833e-10 -2.80847e-08 -6.35464e-23
8.71049e-09 -2.79665e-08 -4.24661e-23
-2.42182e-08 -1.39844e-08 3.16276e-24
2.22611e-08 -7.86484e-09 -1.07796e-23
9.50835e-10 3.0359e-08 7.8993e-24
4.1274e-10 2.61816e-08 -3.41951e-23
-3.32998e-09 2.37953e-08 -4.75667e-23
3.12275e-08 -7.90004e-09 -1.84411e-23
-2.35856e-08 7.59472e-09 2.33668e-23
5.89134e-09 3.0398e-08 1.8121e-23
-4.66124e-08 1.83665e-08 -3.6056e-23
1.36806e-08 6.06218e-08 -1.50642e-24
-2.42723e-08 6.50797e-09 -1.13478e-23
2.84149e-08 -1.67686e-08 2.35631e-23
1.32598e-09 2.96947e-08 -1.49732e-23
-2.8784e-08 9.44064e-09 4.57232e-24
3.49447e-09 -2.30874e-08 -8.12854e-23
1.85622e-09 -8.5819e-08 -1.23324e-23
2.88261e-09 2.4748e-08 1.72298e-23
-2.39223e-08 1.96748e-08 -3.69709e-23
2.56224e-08 9.34028e-08 5.42721e-24
6.77341e-08 5.60637e-08 -2.26947e-25
7.75934e-08 -5.30324e-08 -3.01187e-23
2.12114e-08 -1.44777e-08 -1.20257e-23
-2.23061e-08 1.974e-08 -5.63445e-23
-2.84008e-08 -1.11448e-08 8.8237e-24
-2.7635e-08 -9.56686e-09 -7.34633e-24
9.56264e-08 -2.67745e-08 -3.26835e-23
9.73589e-08 2.11729e-08 8.02482e-24
1.55836e-08 5.43705e-09 -4.63387e-23
1.09516e-09 2.77074e-08 -2.06994e-24
1.50076e-10 2.76852e-08 -1.67521e-23
-7.17765e-08 -5.32262e-08 -1.46009e-23
1.62781e-08 -2.43728e-08 -2.59171e-23
1.69102e-08 1.79762e-08 -7.72476e-23
-3.00659e-08 -4.77852e-09 9.72058e-24
-1.98193e-08 2.41721e-08 -5.82354e-23
-2.6604e-08 1.28615e-08 -1.72773e-23
7.10545e-08 4.98344e-08 2.95522e-24
2.27366e-08 1.00665e-08 -5.42996e-24
-7.90864e-09 2.8244e-08 -3.99301e-23
-2.39342e-08 -1.64974e-08 -3.34458e-23
2.65343e-09 -2.90374e-08 -7.51608e-23
-1.25999e-08 -2.71487e-08 -6.9771e-23
-2.42827e-08 -1.65575e-08 -4.17416e-23
1.50679e-08 -2.67945e-08 -4.18148e-23
2.01543e-08 -2.40653e-08 -1.7643e-23
-3.97693e-09 -8.98042e-08 -2.44136e-23
3.76208e-08 -5.93833e-08 -1.82169e-23
2.52311e-09 -2.93919e-08 -5.44301e-23
2.56443e-08 1.608e-08 1.84164e-23
-2.03961e-08 -2.09278e-08 -1.7833e-23
-1.3892e-08 2.77537e-08 -6.51122e-23
-7.1094e-09 2.96271e-08 -2.8136e-23
2.3705e-08 2.01493e-08 6.19647e-24
8.62793e-09 -2.80755e-08 -5.68768e-23
-1.98111e-08 -5.79879e-08 -3.81113e-23
-2.86111e-09 3.56723e-08 -9.91964e-24
2.10674e-08 2.04966e-08 7.28288e-24
-1.8345e-08 -1.44533e-08 5.51664e-23
-1.92366e-08 1.50499e-08 -1.35904e-23
6.46257e-08 -2.79474e-08 -1.71759e-23
1.0814e-08 -1.89637e-08 -5.87726e-23
-1.17485e-08 -1.77817e-08 -4.96503e-23
3.10282e-08 9.26395e-09 -1.6025e-24
1.89393e-08 -6.83753e-08 -1.03359e-22
-4.97578e-08 -5.05362e-08 -1.02582e-23
3.36306e-08 8.86483e-09 -2.90496e-23
-1.31839e-08 -2.57473e-08 -6.02504e-23
2.66822e-08 1.34961e-08 2.39981e-24
-4.16046e-08 -4.64685e-08 -3.04289e-23
1.53498e-08 6.94883e-08 -2.09768e-23
6.66151e-08 -8.74004e-08 -1.10315e-22
-4.23825e-08 -1.01367e-07 -8.43297e-25
3.99669e-08 -7.83478e-08 7.17686e-24
-1.83292e-08 6.20007e-08 -1.51386e-23
-1.02729e-08 5.50356e-08 -2.19173e-23
-2.64019e-08 1.26245e-08 5.70316e-24
8.55934e-09 3.45345e-08 7.1597e-24
-3.38e-09 1.78739e-08 -5.27305e-23
1.45262e-08 4.63973e-09 -5.55981e-23
-4.5083e-09 2.30817e-08 5.74433e-24
-3.15019e-10 2.98086e-08 -6.05894e-24
2.38291e-08 1.38598e-08 -2.46525e-23
2.04591e-09 8.53711e-08 -2.01635e-24
-2.07864e-08 1.5085e-08 -3.25479e-23
2.29375e-08 -8.87765e-09 1.75857e-23
2.44429e-08 -6.38278e-09 -1.43382e-23
-8.84733e-08 -1.18813e-08 6.98293e-25
-4.92988e-08 2.34539e-08 -3.31905e-23
-6.34902e-08 -7.57845e-08 -2.49827e-23
1.23435e-08 1.19749e-08 3.57507e-23
2.03419e-08 1.04655e-08 -5.59712e-23
3.82255e-08 -6.01497e-09 -1.91516e-23
-1.14184e-08 -1.86713e-08 -5.99761e-23
2.45964e-08 1.20363e-08 -4.06073e-23
1.04665e-08 -4.28368e-08 -9.38947e-23
-1.94495e-08 1.43769e-08 -1.85517e-23
-3.1861e-08 -3.04636e-08 -1.60035e-23
-8.22565e-09 2.2996e-08 -6.50941e-23
-4.64148e-09 2.93721e-08 5.25095e-24
4.92469e-08 3.05934e-08 -4.00501e-23
5.24926e-08 -2.78878e-08 -1.69496e-23
-6.02383e-08 -1.6197e-08 6.88078e-24
1.09757e-08 1.10427e-08 -5.88113e-23
-6.97389e-09 1.55221e-07 -7.55853e-24
6.80328e-10 -1.59325e-07 3.34085e-24
7.89731e-08 1.34411e-07 -3.21379e-24
-2.71305e-08 1.19405e-08 4.21981e-24
-4.04538e-08 8.26294e-08 -6.33878e-24
7.96444e-08 -1.3012e-07 5.50519e-25
-1.65145e-08 -2.56993e-08 -3.50648e-23
1.20073e-07 1.04191e-07 -3.07989e-23
3.4201e-08 -2.58168e-08 -9.89218e-23
-5.29615e-09 -4.24944e-08 -2.32146e-23
1.2591e-07 -1.01686e-07 -3.80237e-24
-9.54883e-09 2.04707e-08 -6.2508e-23
-7.80503e-08 -4.99993e-08 8.48784e-24
-6.66018e-08 -1.39254e-07 7.8513e-24
-3.61209e-08 -8.45384e-08 -1.84554e-23
-6.8515e-08 1.41471e-07 -1.38891e-23
-1.53706e-08 9.40298e-08 -8.99682e-24
2.28721e-08 5.34186e-08 -6.47206e-24
-4.08764e-08 5.33121e-08 -1.70015e-23
-3.86242e-08 -8.04598e-08 -1.1478e-23
1.54394e-07 2.71641e-08 -2.20141e-23
-2.39364e-08 1.51362e-08 -1.84239e-23
-8.36468e-09 2.32645e-08 -9.12921e-24
-7.38434e-08 5.39884e-08 -1.26449e-23
-2.44044e-08 1.4034e-08 1.13405e-25
1.53046e-07 -2.43459e-08 1.78484e-24
-2.17551e-08 1.10117e-08 -7.35178e-24
1.02963e-08 -2.05382e-08 -5.59044e-23
-1.18773e-07 -9.20668e-08 1.42125e-23
-3.89059e-08 8.48836e-08 -1.24593e-23
-1.21654e-07 9.14496e-08 -1.07352e-23
3.51475e-08 7.80963e-08 6.46606e-24
-2.08693e-08 1.48997e-08 -3.02594e-23
-2.93296e-08 3.50297e-08 -1.29846e-23
-5.14724e-08 6.57982e-08 -3.93807e-23
-8.17306e-08 -9.9204e-09 -6.55877e-23
-1.29456e-09 2.31181e-08 7.38218e-24
-5.45448e-08 -6.61404e-08 -1.04868e-22
-8.45787e-08 1.41794e-08 5.60009e-24
-3.27413e-08 7.44752e-08 -2.95386e-23
-2.46283e-08 9.89982e-08 -3.87908e-23
-2.6554e-08 5.9505e-08 -1.62808e-23
-4.80384e-08 3.86941e-08 -2.114e-23
3.53682e-08 -8.76913e-09 -3.28809e-24
5.51294e-08 -3.15825e-09 1.43064e-23
1.93467e-08 1.17179e-08 -4.50411e-23
-1.7341e-08 -1.13885e-07 -8.92836e-23
-1.07321e-07 -4.18936e-08 -6.29476e-24
5.37304e-08 9.05607e-10 -2.65703e-23
8.68958e-08 -1.69148e-08 -1.23741e-23
-1.49206e-08 -1.90098e-08 -3.99055e-23
-7.60512e-08 5.41568e-08 -1.3837e-23
-6.78214e-08 7.80606e-08 -2.13396e-23
9.16179e-08 -3.29067e-08 -2.42691e-24
-3.99154e-08 -6.79098e-08 -1.268e-22
-4.06219e-08 6.73753e-08 -1.11098e-23
-7.90924e-08 -2.65527e-09 -3.88545e-23
-3.61019e-08 7.07297e-08 -2.30794e-23
-7.88222e-08 6.76171e-10 1.15668e-23
9.8349e-08 3.43612e-08 1.59459e-23
7.91954e-08 2.77666e-09 4.96624e-24
7.47338e-08 -3.81482e-08 -4.81919e-24
2.27474e-08 -1.04508e-07 -5.10642e-23
3.94667e-08 -6.84621e-08 -4.1149e-23
3.91894e-08 6.84927e-08 -3.33847e-23
2.22736e-08 1.0224e-07 -2.19699e-23
1.07178e-07 -2.94398e-08 4.44185e-23
6.89552e-08 3.41361e-08 7.90497e-24
6.60836e-08 1.8054e-08 1.82338e-23
P_ext 3 563 float
-5.77841e-09 1.9749e-09 -1.80744e-23
9.31226e-12 1.99642e-10 1.67793e-23
-4.83058e-10 -4.66162e-10 2.9302e-23
-1.51859e-10 1.46479e-10 1.19703e-23
1.21275e-10 6.27526e-13 1.52479e-23
1.70686e-10 -6.49633e-10 4.41294e-23
-5.69184e-09 -1.99396e-09 -1.67177e-23
-3.83125e-10 -4.34985e-10 2.88657e-23
1.06332e-09 2.04781e-11 3.51063e-24
3.90257e-10 -3.90455e-11 1.61029e-23
3.58283e-09 8.51092e-10 -6.34456e-24
1.91258e-10 -5.54108e-10 4.76425e-23
4.36157e-10 5.10421e-10 -3.93902e-24
-4.2586e-11 4.02474e-10 3.59725e-23
1.35932e-10 4.69149e-11 1.78252e-23
-6.82988e-10 -1.05822e-11 -4.09154e-23
-7.89469e-11 2.71841e-10 1.15351e-23
4.14211e-10 -5.97408e-11 1.3203e-23
4.79734e-10 8.44335e-10 -2.61594e-23
-6.41164e-10 6.26792e-11 -2.84377e-23
-2.30953e-10 -8.92521e-10 5.27476e-23
5.46874e-11 -1.18319e-10 6.85137e-24
7.05757e-10 5.55728e-11 4.64912e-24
4.4939e-10 -5.17612e-10 2.3533e-23
-6.53765e-10 -1.02643e-10 -4.39933e-23
-1.19974e-10 -3.57306e-10 5.20939e-23
4.11495e-09 -3.48225e-10 -7.50627e-24
4.84341e-10 4.12257e-10 -7.85941e-24
-1.47305e-09 -1.17923e-09 1.85053e-23
1.15857e-10 6.43708e-12 2.4478e-24
-6.48664e-10 -1.18415e-10 -6.59075e-23
2.98251e-10 -1.8685e-09 4.36296e-23
3.11642e-09 -3.17752e-09 -7.13356e-24
-2.13853e-11 -1.55544e-10 3.04284e-23
-7.33062e-11 1.46608e-10 -2.99279e-24
-1.45231e-10 -5.91796e-11 -1.70693e-23
1.14461e-11 1.22439e-10 5.47607e-24
-1.6807e-10 -2.49155e-12 1.73486e-23
4.70679e-10 -5.04551e-10 1.28177e-23
3.04049e-09 3.31157e-09 -1.34644e-23
1.88017e-09 -8.47438e-10 1.30922e-23
1.2379e-11 -1.18484e-10 4.45628e-23
-9.66469e-11 -7.0063e-11 -1.09401e-23
-6.42051e-10 1.33843e-10 -2.15494e-23
1.89901e-09 -1.847e-09 4.67011e-24
-1.74878e-09 6.31205e-10 1.67011e-23
-2.16881e-10 -9.5205e-10 5.12248e-23
3.97213e-10 9.46141e-10 -4.68825e-23
-6.21639e-10 1.614e-10 -1.21714e-23
-1.07643e-09 1.69436e-09 1.41645e-23
1.90985e-09 9.30519e-10 -3.36226e-23
1.64782e-09 -5.39588e-10 1.25561e-23
-5.61013e-11 8.67954e-11 2.70357e-24
-1.29494e-09 -1.1669e-09 2.75159e-23
-1.07065e-10 -9.33834e-13 1.18465e-23
-2.84919e-09 1.67546e-09 -5.29642e-24
-6.86393e-11 -1.47622e-10 3.57231e-23
3.74815e-10 -1.70582e-09 4.8526e-23
-1.62336e-10 -1.38235e-11 -4.44439e-24
2.92361e-10 5.76826e-10 -3.85827e-23
-1.51837e-10 -4.75549e-11 -2.35996e-23
-1.54128e-10 -1.61371e-10 -2.41047e-23
3.69733e-09 1.63201e-09 -8.4863e-24
1.48317e-11 3.08102e-10 2.81388e-24
6.27747e-11 -2.08191e-10 5.19765e-23
7.56381e-11 -4.62116e-10 4.52942e-23
-2.74776e-11 -1.52586e-10 5.45796e-23
-3.7388e-10 -9.34475e-11 -5.56649e-23
-4.30391e-10 5.37073e-10 5.28037e-23
1.16522e-10 -4.30538e-11 4.843e-23
-5.28362e-11 -9.04174e-11 4.46831e-23
-1.04626e-10 1.30987e-12 4.98022e-24
-2.07816e-10 2.0181e-09 3.95975e-24
-3.68954e-10 1.9545e-10 -5.83777e-24
-3.68355e-10 6.34643e-10 5.87652e-23
-3.93428e-09 4.36338e-10 -1.18904e-23
1.58374e-11 -2.77863e-10 4.51309e-23
-3.61198e-10 -2.93147e-10 1.53268e-25
1.55575e-10 3.68678e-10 -1.41669e-23
1.43478e-09 2.84021e-10 -1.84609e-23
2.08352e-09 -1.80456e-09 1.63402e-23
8.45793e-11 1.22166e-10 -4.94207e-24
1.37784e-10 3.86649e-11 1.46698e-23
-1.94999e-09 1.45317e-09 5.50881e-24
2.24281e-09 2.72127e-10 -2.7486e-23
-3.25323e-10 3.11071e-09 -6.25538e-24
-1.1749e-10 -6.05754e-10 6.24733e-23
4.04681e-10 2.69644e-10 2.32194e-23
1.82547e-09 1.90911e-09 -1.31628e-23
3.19137e-11 -4.48332e-11 2.05155e-23
-3.35682e-10 1.71604e-09 1.28018e-24
2.87786e-11 4.13678e-11 -1.55286e-23
-2.22805e-10 1.32343e-10 6.8376e-24
4.41016e-10 1.83505e-10 3.75883e-23
-1.65624e-09 5.16169e-10 2.53333e-23
9.72108e-10 1.69121e-09 -2.62024e-23
6.16389e-10 -2.72738e-09 3.49429e-23
1.41704e-10 3.64221e-10 -1.15008e-23
-2.3043e-10 -1.53049e-10 -2.95147e-23
2.11784e-10 6.61776e-10 -3.6401e-23
1.38621e-09 2.36216e-10 -2.1521e-23
-9.25329e-10 1.93081e-09 1.64226e-23
2.49555e-09 -8.09157e-10 1.42623e-23
-1.34795e-10 3.01921e-10 2.34753e-23
2.62506e-10 2.66243e-10 3.28753e-24
-1.5036e-10 -3.61035e-10 3.99306e-23
-5.67656e-11 -2.78205e-10 5.74464e-23
7.17561e-10 8.61157e-11 1.57091e-23
-5.24959e-10 2.50966e-09 -2.79179e-24
-1.23294e-10 7.68277e-11 -3.87275e-23
3.65195e-10 5.34275e-10 -1.53215e-23
-1.65563e-10 -2.58484e-09 2.96433e-23
2.60485e-09 7.7204e-10 -1.99397e-23
1.79972e-10 -3.08822e-10 3.90656e-23
-3.98253e-10 -4.73672e-11 -3.61976e-23
-1.64778e-09 -6.66392e-10 3.16257e-23
8.28984e-11 1.29523e-10 5.04788e-23
-2.66346e-09 -9.31839e-10 4.6003e-24
8.42927e-11 -1.30219e-10 -1.38506e-23
-2.43721e-10 -1.785e-09 3.84774e-23
1.09748e-09 3.97949e-11 7.45147e-24
-9.99062e-11 8.43847e-11 1.86376e-23
3.00512e-11 1.18461e-10 6.54717e-25
7.0637e-11 -3.22661e-10 4.81989e-23
1.29331e-10 -6.30821e-11 3.78007e-23
-2.60929e-12 1.27446e-10 -1.12033e-23
1.17364e-10 1.95238e-11 -1.90975e-23
2.14409e-10 -3.03141e-10 1.902e-23
-5.32898e-10 -2.76985e-09 2.8025e-23
1.41111e-09 -1.07792e-09 1.50114e-23
-8.14577e-12 1.72569e-10 1.47626e-24
-1.19868e-10 -2.21789e-11 -1.02293e-23
-3.81016e-11 -1.25744e-10 4.61573e-23
-9.60954e-11 -7.04007e-11 2.07022e-23
-1.32537e-09 1.66651e-09 2.59487e-23
5.39296e-11 -1.18252e-10 3.32761e-23
-1.67834e-09 2.65563e-09 -1.6792e-24
-6.08207e-10 2.78897e-10 -1.22668e-23
8.01334e-11 9.45385e-11 7.23588e-23
-7.45308e-11 -1.06258e-10 -1.79232e-23
8.13368e-10 1.94426e-09 -3.09686e-23
4.59417e-10 3.95218e-10 -4.48132e-24
1.11599e-09 -3.67815e-10 1.12993e-23
6.92547e-11 -3.41301e-10 4.12443e-23
-2.08216e-09 -1.93063e-09 1.63466e-23
-1.90505e-10 3.43517e-10 3.59277e-23
5.00496e-10 2.74981e-10 -8.93566e-26
7.36452e-10 -2.55571e-10 -3.86712e-24
3.2887e-10 -6.36555e-10 3.5627e-23
1.2772e-09 -5.80696e-10 8.39554e-24
8.46076e-10 -3.89791e-10 8.67387e-24
9.03711e-11 -6.79539e-11 -1.0031e-23
1.49709e-09 1.1758e-09 -6.50554e-24
-2.08121e-10 -6.18766e-10 6.21273e-23
-2.58328e-10 -2.27627e-10 2.88806e-23
-3.95785e-11 -1.16217e-10 3.35533e-23
5.83867e-11 4.35195e-10 -3.69677e-24
-2.0044e-09 1.45168e-10 1.18834e-23
-7.2315e-10 -1.91032e-09 8.49099e-24
-3.06538e-10 4.02021e-10 4.64448e-23
6.10543e-10 8.10167e-10 -1.41967e-23
1.54054e-09 -1.08463e-09 1.68453e-23
-2.29026e-09 -1.22817e-09 9.32547e-24
1.00958e-09 -1.6265e-09 2.57585e-23
1.30223e-09 -1.5918e-09 1.50665e-23
-3.81176e-10 4.10547e-11 -2.57434e-23
-1.14015e-09 -1.66206e-09 1.28578e-23
-2.00744e-09 -3.15157e-10 9.4418e-24
-2.28946e-10 -1.83399e-09 2.50143e-23
8.9485e-10 -1.83236e-09 3.41858e-23
4.11642e-12 -2.62223e-10 4.53144e-23
2.69611e-10 1.75329e-09 -9.25794e-24
-9.39182e-10 -1.66393e-09 1.08116e-23
-7.70019e-11 -4.03613e-10 6.07334e-23
-1.35964e-09 1.0224e-09 2.92784e-23
-2.67998e-10 -9.05061e-11 -4.14327e-23
-2.2469e-10 -1.33397e-10 -4.75144e-24
5.34047e-10 -2.6384e-10 -1.06143e-23
-4.12368e-11 1.1448e-10 2.86359e-23
2.92478e-10 -3.59828e-10 7.07319e-24
-1.70583e-09 -7.60619e-10 1.38253e-23
-2.22688e-10 -3.0111e-10 3.2076e-23
2.3812e-10 3.13999e-10 -2.96667e-24
1.22648e-09 1.68213e-09 -1.29101e-23
-4.12162e-10 -2.03615e-10 -2.40906e-23
-1.90147e-09 -4.17878e-11 2.86998e-24
-2.43813e-10 -2.19879e-10 1.68583e-23
-6.96835e-12 -3.07727e-10 4.92733e-23
2.3367e-10 1.38702e-10 5.40221e-23
-2.70548e-10 2.6711e-10 -1.9606e-24
-2.91183e-11 -4.60047e-10 5.05362e-23
-2.55056e-09 6.28773e-10 6.93281e-24
1.37294e-09 1.16252e-09 -1.575e-24
1.93958e-10 1.91588e-09 -1.48637e-23
-1.10765e-10 3.97269e-11 -1.90061e-23
-3.72007e-10 1.10841e-11 -4.25782e-23
1.74721e-10 3.22749e-10 -1.5131e-23
-1.28881e-10 -2.86335e-11 2.252e-23
1.89769e-11 -1.1251e-10 2.97107e-23
-6.01214e-11 4.92223e-10 1.32489e-23
8.64833e-11 8.38643e-11 2.87486e-24
-9.33391e-10 2.04238e-10 -4.95434e-24
-9.42904e-10 1.04083e-09 4.22915e-23
-9.51313e-11 9.51518e-11 6.65526e-24
-1.72444e-09 1.0483e-09 1.86865e-23
-4.55158e-11 1.38365e-10 1.3442e-23
4.51644e-10 -1.69946e-10 -1.95259e-23
2.14759e-09 -1.9601e-10 2.1314e-24
-2.69654e-10 1.61174e-10 1.42179e-24
1.08209e-10 5.15035e-11 5.61264e-23
2.7482e-10 -1.56239e-10 -4.13564e-23
-4.73604e-10 1.65708e-10 -1.16676e-23
-3.50936e-10 8.93616e-11 -1.78453e-23
1.2337e-10 -2.66181e-11 -1.64169e-23
1.13127e-09 -6.86251e-10 7.82925e-24
-4.39469e-10 2.76449e-10 -1.43764e-23
-1.34257e-09 -2.78758e-10 1.69702e-23
-2.6885e-10 -1.4666e-10 6.21341e-24
1.16596e-10 -6.94588e-11 -1.89003e-23
1.28789e-10 8.12325e-11 1.13091e-23
-2.36132e-11 1.41998e-10 -4.61657e-24
-5.70745e-12 -1.58306e-10 4.0462e-23
-1.26565e-10 6.86496e-11 -9.17386e-24
-1.40784e-10 -7.63259e-11 -1.51446e-24
3.48289e-10 -1.27419e-10 -5.40809e-24
-1.31478e-10 -3.95246e-11 2.1168e-23
-1.27891e-10 3.7977e-11 -9.88999e-24
-2.76821e-11 1.31119e-10 1.14183e-23
-3.11224e-11 -1.34219e-10 4.6135e-23
6.38363e-11 -8.45128e-11 -1.81142e-23
5.97633e-11 8.00941e-11 5.94799e-23
5.91682e-11 1.34922e-09 -2.00023e-23
2.63418e-10 -2.09939e-10 5.31025e-24
6.55639e-11 -1.13939e-10 6.59127e-24
-1.01758e-09 3.91398e-11 -1.50527e-23
1.01991e-10 -9.3957e-11 -6.04753e-24
9.64874e-11 9.56171e-11 7.41532e-23
1.39503e-10 -2.83906e-12 6.36826e-23
4.77593e-10 1.32564e-09 -3.80535e-23
-6.74829e-11 -1.17595e-10 2.31397e-23
1.53418e-10 -3.46144e-10 3.28696e-23
-1.14104e-09 -6.30831e-10 3.65324e-23
-2.55591e-10 -1.53428e-10 -2.81579e-23
-1.1399e-09 6.85002e-10 3.25928e-23
9.50547e-11 -1.03388e-10 2.15715e-24
-4.56378e-11 1.10502e-10 -1.00021e-23
-2.2379e-11 -1.30973e-09 3.34715e-23
-4.25907e-10 -1.30641e-09 1.79956e-23
1.99506e-09 1.89051e-09 -1.31591e-23
2.1232e-09 -1.18413e-10 -7.08413e-24
-1.44974e-10 2.66459e-11 -3.00066e-23
-1.42938e-09 -2.54755e-09 1.77906e-23
3.37045e-10 5.69695e-10 -2.0287e-23
-1.35893e-09 1.59942e-10 1.00625e-23
9.66812e-10 2.63989e-10 -3.59538e-24
-1.33504e-10 -4.37515e-13 -1.0074e-23
4.02527e-12 -1.39191e-10 3.56605e-23
6.06764e-12 -4.53336e-11 3.06371e-23
-1.19369e-10 -7.12352e-11 2.21831e-23
-2.98794e-09 -1.12353e-10 -5.40469e-24
9.22347e-10 -1.03595e-09 8.05903e-24
6.68744e-11 1.19261e-10 3.45296e-24
4.26305e-11 -5.68059e-10 5.00341e-23
-5.4391e-10 1.30504e-09 3.16264e-23
1.22966e-11 1.47046e-10 1.32059e-23
9.72667e-10 -6.87133e-10 8.79991e-24
-3.5514e-11 -2.77894e-11 -1.58786e-23
-8.30381e-10 -1.09283e-09 1.47679e-23
1.17041e-10 6.23312e-11 7.07373e-23
2.77525e-10 2.50666e-10 1.31709e-23
-1.90593e-10 -3.05617e-10 4.00326e-23
1.22101e-10 -3.85021e-11 -1.03241e-23
3.96353e-10 -2.62872e-10 -3.51849e-23
2.53425e-12 2.13467e-10 8.32339e-24
3.31644e-10 -5.50751e-10 4.233e-23
3.07829e-09 1.62534e-10 -3.41317e-24
-2.62984e-09 6.97912e-10 -6.12245e-24
2.20094e-10 1.23888e-10 3.84952e-23
-3.15377e-10 -7.6243e-10 5.28066e-23
-4.69332e-10 -3.17026e-10 1.0463e-23
1.56211e-09 -1.50717e-11 2.20725e-24
5.41003e-12 -2.99239e-10 4.56362e-23
-3.89093e-10 -1.44807e-10 -5.27132e-23
5.44255e-10 -1.27661e-09 3.01066e-23
3.85246e-11 5.02919e-10 4.94467e-24
4.42158e-10 1.35248e-09 -3.27331e-23
5.14724e-10 -2.7626e-10 -3.57097e-23
-9.5673e-10 1.0242e-09 3.86446e-23
8.88239e-10 1.09038e-09 -1.07825e-23
-5.96724e-11 -6.62291e-12 1.52765e-23
-4.19543e-12 2.49183e-10 9.11462e-24
1.6786e-11 -1.09601e-10 4.54764e-23
-8.78088e-11 -6.80694e-11 -1.10931e-23
-2.86768e-10 2.32809e-10 1.34578e-24
-1.34435e-09 -3.20197e-10 2.62275e-23
-2.05006e-11 1.58754e-10 5.41272e-24
-3.4716e-10 1.15459e-10 4.25991e-24
9.46004e-10 -1.37742e-10 8.13747e-24
-4.00349e-10 -1.31728e-09 2.95266e-23
-7.98618e-10 1.28257e-09 4.6281e-23
-2.08613e-10 1.15934e-10 1.16375e-23
-1.07254e-09 -7.68992e-10 3.27923e-23
2.40477e-10 -1.33738e-10 -2.11084e-23
-1.46215e-09 -7.08009e-11 8.73062e-24
7.39986e-10 -2.56816e-09 1.53046e-23
9.73711e-10 -1.01477e-09 3.35221e-24
1.52231e-09 2.68221e-09 -2.09344e-23
-1.78973e-11 3.17105e-10 1.07988e-23
1.39032e-10 -1.32501e-09 4.06851e-23
-1.8352e-11 4.49275e-11 2.17688e-23
-6.87086e-10 -1.29372e-09 2.22243e-23
2.34132e-10 -1.97109e-10 -3.33484e-23
-1.2979e-10 1.34527e-09 2.09763e-24
3.21806e-10 -1.01819e-10 -8.37704e-24
7.39595e-10 1.30664e-09 -3.1788e-23
7.32547e-10 -1.84713e-11 -1.54103e-24
1.40894e-09 -4.10768e-09 6.47797e-25
-2.82438e-10 -5.3616e-10 5.37509e-23
-1.19519e-09 5.19688e-10 1.97587e-23
-1.83009e-10 8.51514e-11 2.19918e-23
1.12773e-09 7.53569e-10 1.3166e-23
7.96868e-10 -4.41766e-10 -4.95471e-24
4.11474e-10 1.86216e-10 5.22331e-23
-8.55333e-11 7.48861e-11 -2.46784e-23
8.10502e-10 -1.24232e-09 1.53098e-23
-8.58244e-10 -1.07835e-09 2.59696e-23
1.10153e-09 4.34186e-10 -8.55869e-24
2.74706e-10 -1.62835e-10 -1.95125e-23
5.23695e-10 -1.28578e-09 3.21619e-23
6.04042e-10 -1.17377e-10 -7.84333e-24
-5.92976e-10 -2.30811e-10 -6.04704e-23
3.78751e-12 -2.25674e-10 3.62527e-23
-1.35927e-09 1.91336e-10 9.46539e-24
1.44965e-10 1.18356e-09 -2.39885e-23
9.19475e-10 2.14697e-10 -1.79762e-24
-1.04813e-09 -4.75534e-10 3.40525e-23
-5.11826e-10 1.33054e-09 2.10451e-23
-1.08388e-10 -1.15256e-09 4.95834e-23
2.95687e-10 1.5384e-10 2.14186e-23
-1.87886e-10 5.59202e-10 3.36805e-23
-9.45612e-10 6.78607e-10 2.23066e-23
1.21735e-09 6.0614e-10 -1.85773e-23
-5.44301e-10 -1.7795e-10 -6.33664e-23
-1.22298e-10 -5.63588e-10 5.65882e-23
9.29874e-10 1.07351e-09 9.75684e-24
-1.92662e-10 -1.16222e-10 -1.50736e-23
3.20176e-09 -2.25743e-09 -6.86376e-24
6.42007e-10 -4.38741e-10 -1.35104e-23
5.48969e-10 2.63412e-09 -1.14998e-23
6.78853e-10 -6.44991e-10 -8.5199e-24
-1.60131e-09 6.19612e-09 -9.45787e-24
-1.61797e-09 -6.14231e-09 -1.88032e-23
4.0107e-09 5.23609e-09 1.41489e-24
3.96521e-09 -5.23984e-09 -1.69011e-23
6.51574e-09 3.21989e-13 1.45083e-24
-5.72221e-09 2.28812e-09 -1.48182e-23
-5.62996e-09 -2.31652e-09 -1.90648e-23
2.41142e-10 1.25422e-10 5.83719e-23
1.51965e-10 1.06477e-10 2.70828e-23
4.60574e-10 6.0538e-11 2.39103e-23
8.07651e-10 4.21844e-10 -9.74612e-24
2.49462e-10 9.54718e-10 -4.6717e-23
-8.66119e-10 -7.46112e-10 3.44756e-23
4.37537e-10 -3.91229e-10 -3.34824e-23
9.30253e-10 7.37749e-10 2.65126e-24
-2.06243e-10 1.17352e-09 -1.21909e-23
1.44695e-10 -9.71685e-11 -2.97486e-23
2.23024e-10 -1.12546e-09 4.58312e-23
2.83234e-10 1.72814e-10 1.17695e-23
1.68675e-09 5.88908e-10 -2.17615e-23
4.78476e-11 1.29099e-10 -1.67434e-23
6.48772e-10 2.063e-10 1.66268e-23
-7.96764e-10 4.49923e-10 1.12681e-23
-1.09837e-09 3.85056e-10 1.34745e-23
2.20184e-10 -1.25305e-10 -2.8297e-23
-6.91561e-10 -3.28601e-10 -8.88193e-24
-7.70606e-10 -4.53491e-10 2.61149e-24
-5.64369e-11 -7.65328e-10 5.01217e-23
4.42509e-12 -8.86019e-10 4.58475e-23
-9.89048e-10 -4.21299e-11 -1.75365e-24
1.46259e-09 -2.23801e-10 2.45616e-24
7.78305e-10 4.8229e-10 -6.64484e-24
-6.45319e-10 4.3767e-10 -6.241e-24
-2.76298e-10 1.52098e-10 9.84989e-24
7.33367e-10 -6.56936e-10 4.00093e-25
-5.49065e-10 8.66262e-10 5.65724e-23
-6.74251e-10 -7.23432e-10 2.63764e-23
-6.36647e-11 9.29602e-10 -6.36013e-24
-1.28162e-10 7.8082e-10 -1.19302e-23
1.99234e-11 -5.64667e-10 5.07375e-23
3.05537e-10 -9.52382e-10 2.97067e-23
-4.7938e-10 -3.00566e-10 -3.4251e-23
6.69214e-10 -1.83422e-10 -1.01205e-24
1.25787e-11 9.26122e-10 -1.63886e-23
-2.2299e-11 5.88306e-10 1.09049e-23
-1.50751e-10 6.7013e-10 3.5906e-23
1.09619e-09 -2.63181e-10 1.2272e-23
-2.35346e-10 2.1905e-10 -1.32609e-23
2.50543e-10 9.25584e-10 -2.64313e-23
-1.57986e-10 7.67284e-11 1.53155e-23
5.76125e-10 2.62607e-09 -2.16723e-23
-2.59008e-10 1.44495e-10 1.62541e-24
2.82346e-10 -1.55418e-10 -4.22245e-23
8.22217e-11 7.84226e-10 -9.9379e-24
-9.26642e-10 2.22194e-10 -9.16524e-24
-2.95596e-11 -3.96519e-10 6.43117e-23
6.97621e-11 -3.83039e-09 2.63989e-24
1.21164e-10 6.67644e-10 -2.42121e-23
-6.90147e-10 6.59513e-10 2.64737e-23
1.13013e-09 4.15183e-09 -1.99334e-23
3.85592e-11 5.40925e-11 2.11447e-23
4.47001e-11 -4.77349e-11 -2.0479e-23
5.2005e-10 -4.08795e-10 -1.48817e-23
-7.3869e-10 6.73131e-10 4.43491e-23
-8.85426e-10 -2.63607e-10 -1.94002e-23
-9.21084e-10 -2.98789e-10 1.50587e-24
-1.04242e-10 9.7283e-11 -2.4612e-23
-9.48997e-11 -1.2349e-10 7.08367e-24
4.28392e-10 8.55244e-11 2.81435e-23
1.34467e-10 6.16765e-10 7.41973e-25
-3.82419e-12 6.11432e-10 5.29289e-24
-3.22169e-09 -2.38056e-09 3.85832e-24
5.51917e-10 -8.57818e-10 1.44266e-23
2.77411e-10 1.0589e-10 6.23889e-23
-1.01084e-09 -1.09529e-10 -1.87454e-23
-6.35302e-10 8.46096e-10 5.86121e-23
-8.24979e-10 3.85079e-10 -1.32962e-24
3.16006e-09 2.21793e-09 -1.48198e-24
2.92105e-10 1.98832e-10 8.97534e-24
-2.9267e-10 9.62246e-10 3.18545e-23
-5.74248e-10 -4.91261e-10 1.19164e-23
1.44545e-10 -7.47161e-10 5.45664e-23
-4.61706e-10 -8.93354e-10 5.23536e-23
-7.41898e-10 -5.19809e-10 2.41623e-23
5.16587e-10 -9.07418e-10 2.75092e-23
6.1873e-10 -8.39862e-10 4.82875e-24
-1.83548e-10 -3.99069e-09 1.20431e-23
1.61021e-09 -2.55876e-09 1.57745e-23
8.65173e-11 -9.08981e-10 4.75523e-23
6.40975e-10 4.76701e-10 -5.82748e-24
-5.77763e-10 -7.03951e-10 2.39214e-23
-4.97771e-10 9.39348e-10 5.24995e-23
-3.01644e-10 9.16062e-10 1.89839e-23
6.70227e-10 6.86361e-10 -4.02455e-24
3.32436e-10 -8.5559e-10 3.97312e-23
-8.59142e-10 -2.50907e-09 1.81947e-23
1.11062e-11 2.93617e-10 1.16813e-23
6.83059e-10 7.01532e-10 2.02692e-24
-3.62721e-10 -1.74015e-10 -6.42432e-23
-3.03909e-10 1.57826e-10 4.22411e-24
2.79589e-09 -1.22659e-09 7.17091e-24
3.42045e-10 -5.61231e-10 3.5527e-23
-3.22681e-10 -5.5534e-10 3.69977e-23
1.11846e-10 1.24859e-11 -1.67053e-23
-7.90407e-11 1.99197e-12 3.74548e-23
-3.77666e-11 6.98934e-11 -1.35218e-23
1.48566e-10 1.01912e-10 1.42247e-23
-4.70984e-10 -8.999e-10 3.40057e-23
7.16391e-10 2.89678e-10 2.53877e-24
-1.81167e-09 -2.01086e-09 1.66091e-23
-6.38592e-11 2.3996e-11 9.98517e-24
5.39556e-11 1.29661e-10 3.14997e-23
1.4008e-10 1.82442e-11 -1.12624e-23
1.77298e-09 -3.50318e-09 -9.55048e-24
-7.83222e-11 1.44878e-10 2.96881e-23
1.23323e-11 6.78957e-11 1.33751e-25
-7.23471e-10 2.64252e-10 -8.99753e-24
-4.97615e-12 2.863e-10 2.57382e-24
-1.59855e-10 4.77934e-10 5.45551e-23
3.31958e-10 1.64896e-11 4.83157e-23
7.55522e-11 2.88503e-10 7.42312e-24
-6.31508e-12 3.85502e-10 1.2165e-23
5.61012e-10 2.95716e-10 2.25483e-23
8.26773e-11 3.81002e-09 -1.41169e-23
-5.19859e-10 4.99147e-10 3.66554e-23
3.86363e-10 -2.59466e-10 -3.12294e-23
2.38532e-10 -2.03757e-10 -2.15717e-23
-3.95294e-09 -5.13687e-10 -7.66881e-24
-7.90248e-11 7.4128e-11 1.65473e-23
-2.83864e-09 -3.38444e-09 1.20817e-23
5.35887e-11 1.32892e-10 -1.03169e-23
4.7527e-10 9.63773e-11 4.497e-23
1.42083e-09 -1.84607e-10 9.43201e-24
-3.2145e-10 -5.36286e-10 4.46535e-23
6.16073e-10 1.78295e-10 2.88446e-23
-7.9659e-12 -1.77893e-10 3.87314e-23
-3.50468e-10 4.06548e-10 2.17955e-23
-1.57788e-10 -8.3188e-11 -1.81135e-23
-3.09759e-10 6.44198e-10 5.6301e-23
5.13983e-11 4.02693e-10 1.09615e-23
8.3031e-11 3.00378e-11 3.3056e-23
8.16183e-11 -2.71834e-11 -1.80592e-23
-2.61942e-09 -7.10677e-10 -7.77263e-24
2.76271e-10 1.03187e-10 5.19664e-23
-3.32364e-10 7.04981e-09 -1.25286e-23
1.61414e-11 -7.23781e-09 -1.13557e-23
3.57897e-09 6.09953e-09 -1.21308e-23
-3.42961e-10 2.65668e-10 -9.45889e-25
-1.81834e-09 3.7047e-09 -8.77688e-24
3.60978e-09 -5.90594e-09 -1.53471e-23
-5.45604e-10 -8.88986e-10 2.7606e-23
5.43523e-09 4.73411e-09 5.9218e-24
9.70287e-11 -8.86485e-11 4.50438e-23
-2.86112e-11 -1.29043e-10 -1.70176e-23
5.7009e-09 -4.62028e-09 -1.28969e-23
-3.22106e-10 6.42081e-10 6.01394e-23
-3.47801e-09 -2.23282e-09 2.38373e-24
-3.03328e-09 -6.33325e-09 -9.9317e-24
-1.62258e-09 -3.75901e-09 1.33647e-23
-3.1197e-09 6.43406e-09 -1.20347e-23
-6.94553e-10 4.18758e-09 -8.31073e-24
4.5673e-11 1.35504e-10 7.74705e-24
-1.78703e-09 2.33634e-09 -5.55317e-24
-1.73485e-09 -3.60372e-09 7.99914e-24
6.99411e-09 1.22811e-09 9.28311e-24
-5.02709e-10 4.27105e-10 3.22583e-24
-1.00051e-11 2.69854e-10 1.10615e-23
-3.28904e-09 2.41451e-09 -9.6782e-24
-5.50919e-10 3.01944e-10 -1.17177e-23
6.93375e-09 -1.09971e-09 -7.25039e-24
-4.17833e-10 2.88116e-10 5.31306e-24
3.21288e-10 -6.47489e-10 2.89053e-23
-5.41071e-09 -4.18864e-09 -1.00092e-23
-1.74831e-09 3.78334e-09 -6.88972e-24
-5.54246e-09 4.15972e-09 -1.20117e-23
1.55534e-09 3.49153e-09 -1.81947e-23
-5.43752e-10 4.42299e-10 2.43547e-23
-1.25598e-10 9.88401e-11 1.81344e-23
5.29385e-12 -1.59142e-10 -9.70404e-24
1.44769e-10 -5.76246e-11 9.52001e-24
5.00818e-11 4.32615e-10 -1.09107e-24
-6.23129e-13 1.62539e-10 2.67968e-23
1.41451e-10 8.22727e-11 -1.16241e-23
1.23233e-10 -1.10049e-10 2.57702e-23
-6.93806e-12 4.21557e-11 -4.58329e-25
-1.16988e-09 2.59311e-09 -4.9886e-24
-1.17089e-10 3.39106e-11 2.54373e-23
1.5814e-10 -1.03345e-10 -3.03022e-23
1.72909e-10 -5.2731e-11 -3.24334e-23
4.20801e-10 1.58102e-10 4.91654e-23
2.06089e-11 -3.99137e-11 2.76236e-23
-2.40793e-11 -3.80374e-11 -1.5238e-23
1.76851e-10 3.40051e-11 1.2682e-23
3.86983e-09 -7.54114e-10 -1.63452e-24
-4.76943e-10 -6.21705e-10 3.22945e-23
-3.42187e-09 2.42678e-09 -1.08e-23
-3.04095e-09 3.49157e-09 -1.06247e-23
4.06627e-09 -1.46344e-09 3.48781e-26
6.61146e-11 -1.06084e-10 3.1751e-23
5.94647e-11 1.10913e-10 -1.0502e-23
-7.5646e-11 1.0114e-10 1.00803e-23
-1.27977e-10 8.43166e-12 2.85422e-23
-5.8961e-11 -1.10772e-10 -2.51942e-24
-8.3689e-11 1.04038e-10 -3.79551e-23
7.20159e-11 -7.60914e-11 -2.73042e-23
-5.14575e-11 -3.60223e-11 -2.8667e-23
-1.40351e-10 2.26993e-11 -9.14885e-24
1.00782e-10 3.64148e-12 -9.41221e-24
1.01504e-10 -1.70506e-12 3.91379e-23
-1.38328e-10 -3.118e-11 2.11184e-23
-6.60241e-11 -1.26387e-10 -3.73482e-24
-6.13915e-11 6.1765e-12 7.28888e-24
2.05785e-11 9.13352e-11 9.64903e-25
SCALARS rr_necrosis float
LOOKUP_TABLE default
0
0
0
0
0
0
0
0
0
0
0
0
0
0
0
0
0
0
0
0
0
0
0
0
0
0
0
0
0
0
0
0
0
0
0
0
0
0
0
0
0
0
0
0
0
0
0
0
0
0
0
0
0
0
0
0
0
0
0
0
0
0
0
0
0
0
0
0
0
0
0
0
0
0
0
0
0
0
0
0
0
0
0
0
0
0
0
0
0
0
0
0
0
0
0
0
0
0
0
0
0
0
0
0
0
0
0
0
0
0
0
0
0
0
0
0
0
0
0
0
0
0
0
0
0
0
0
0
0
0
0
0
0
0
0
0
0
0
0
0
0
0
0
0
0
0
0
0
0
0
0
0
0
0
0
0
0
0
0
0
0
0
0
0
0
0
0
0
0
0
0
0
0
0
0
0
0
0
0
0
0
0
0
0
0
0
0
0
0
0
0
0
0
0
0
0
0
0
0
0
0
0
0
0
0
0
0
0
0
0
0
0
0
0
0
0
0
0
0
0
0
0
0
0
0
0
0
0
0
0
0
0
0
0
0
0
0
0
0
0
0
0
0
0
0
0
0
0
0
0
0
0
0
0
0
0
0
0
0
0
0
0
0
0
0
0
0
0
0
0
0
0
0
0
0
0
0
0
0
0
0
0
0
0
0
0
0
0
0
0
0
0
0
0
0
0
0
0
0
0
0
0
0
0
0
0
0
0
0
0
0
0
0
0
0
0
0
0
0
0
0
0
0
0
0
0
0
0
0
0
0
0
0
0
0
0
0
0
0
0
0
0
0
0
0
0
0
0
0
0
0
0
0
0
0
0
0
0
0
0
0
0
0
0
0
0
0
0
0
0
0
0
0
0
0
0
0
0
0
0
0
0
0
0
0
0
0
0
0
0
0
0
0
0
0
0
0
0
0
0
0
0
0
0
0
0
0
0
0
0
0
0
0
0
0
0
0
0
0
0
0
0
0
0
0
0
0
0
0
0
0
0
0
0
0
0
0
0
0
0
0
0
0
0
0
0
0
0
0
0
0
0
0
0
0
0
0
0
0
0
0
0
0
0
0
0
0
0
0
0
0
0
0
0
0
0
0
0
0
0
0
0
0
0
0
0
0
0
0
0
0
0
0
0
0
0
0
0
0
0
0
0
0
0
0
0
0
0
0
0
0
0
0
0
0
0
0
0
0
0
0
0
0
0
0
0
0
0
0
0
0
0
0
0
0
0
0
0
0
0
0
0
0
0
0
0
0
0
0
0
0
0
0
0
0
0
0
0
0
0
0
0
0
SCALARS rr_protein float
LOOKUP_TABLE default
0.5
0.5
0.5
0.5
0.5
0.5
0.5
0.5
0.5
0.5
0.5
0.5
0.5
0.5
0.5
0.5
0.5
0.5
0.5
0.5
0.5
0.5
0.5
0.5
0.5
0.5
0.5
0.5
0.5
0.5
0.5
0.5
0.5
0.5
0.5
0.5
0.5
0.5
0.5
0.5
0.5
0.5
0.5
0.5
0.5
0.5
0.5
0.5
0.5
0.5
0.5
0.5
0.5
0.5
0.5
0.5
0.5
0.5
0.5
0.5
0.5
0.5
0.5
0.5
0.5
0.5
0.5
0.5
0.5
0.5
0.5
0.5
0.5
0.5
0.5
0.5
0.5
0.5
0.5
0.5
0.5
0.5
0.5
0.5
0.5
0.5
0.5
0.5
0.5
0.5
0.5
0.5
0.5
0.5
0.5
0.5
0.5
0.5
0.5
0.5
0.5
0.5
0.5
0.5
0.5
0.5
0.5
0.5
0.5
0.5
0.5
0.5
0.5
0.5
0.5
0.5
0.5
0.5
0.5
0.5
0.5
0.5
0.5
0.5
0.5
0.5
0.5
0.5
0.5
0.5
0.5
0.5
0.5
0.5
0.5
0.5
0.5
0.5
0.5
0.5
0.5
0.5
0.5
0.5
0.5
0.5
0.5
0.5
0.5
0.5
0.5
0.5
0.5
0.5
0.5
0.5
0.5
0.5
0.5
0.5
0.5
0.5
0.5
0.5
0.5
0.5
0.5
0.5
0.5
0.5
0.5
0.5
0.5
0.5
0.5
0.5
0.5
0.5
0.5
0.5
0.5
0.5
0.5
0.5
0.5
0.5
0.5
0.5
0.5
0.5
0.5
0.5
0.5
0.5
0.5
0.5
0.5
0.5
0.5
0.5
0.5
0.5
0.5
0.5
0.5
0.5
0.5
0.5
0.5
0.5
0.5
0.5
0.5
0.5
0.5
0.5
0.5
0.5
0.5
0.5
0.5
0.5
0.5
0.5
0.5
0.5
0.5
0.5
0.5
0.5
0.5
0.5
0.5
0.5
0.5
0.5
0.5
0.5
0.5
0.5
0.5
0.5
0.5
0.5
0.5
0.5
0.5
0.5
0.5
0.5
0.5
0.5
0.5
0.5
0.5
0.5
0.5
0.5
0.5
0.5
0.5
0.5
0.5
0.5
0.5
0.5
0.5
0.5
0.5
0.5
0.5
0.5
0.5
0.5
0.5
0.5
0.5
0.5
0.5
0.5
0.5
0.5
0.5
0.5
0.5
0.5
0.5
0.5
0.5
0.5
0.5
0.5
0.5
0.5
0.5
0.5
0.5
0.5
0.5
0.5
0.5
0.5
0.5
0.5
0.5
0.5
0.5
0.5
0.5
0.5
0.5
0.5
0.5
0.5
0.5
0.5
0.5
0.5
0.5
0.5
0.5
0.5
0.5
0.5
0.5
0.5
0.5
0.5
0.5
0.5
0.5
0.5
0.5
0.5
0.5
0.5
0.5
0.5
0.5
0.5
0.5
0.5
0.5
0.5
0.5
0.5
0.5
0.5
0.5
0.5
0.5
0.5
0.5
0.5
0.5
0.5
0.5
0.5
0.5
0.5
0.5
0.5
0.5
0.5
0.5
0.5
0.5
0.5
0.5
0.5
0.5
0.5
0.5
0.5
0.5
0.5
0.5
0.5
0.5
0.5
0.5
0.5
0.5
0.5
0.5
0.5
0.5
0.5
0.5
0.5
0.5
0.5
0.5
0.5
0.5
0.5
0.5
0.5
0.5
0.5
0.5
0.5
0.5
0.5
0.5
0.5
0.5
0.5
0.5
0.5
0.5
0.5
0.5
0.5
0.5
0.5
0.5
0.5
0.5
0.5
0.5
0.5
0.5
0.5
0.5
0.5
0.5
0.5
0.5
0.5
0.5
0.5
0.5
0.5
0.5
0.5
0.5
0.5
0.5
0.5
0.5
0.5
0.5
0.5
0.5
0.5
0.5
0.5
0.5
0.5
0.5
0.5
0.5
0.5
0.5
0.5
0.5
0.5
0.5
0.5
0.5
0.5
0.5
0.5
0.5
0.5
0.5
0.5
0.5
0.5
0.5
0.5
0.5
0.5
0.5
0.5
0.5
0.5
0.5
0.5
0.5
0.5
0.5
0.5
0.5
0.5
0.5
0.5
0.5
0.5
0.5
0.5
0.5
0.5
0.5
0.5
0.5
0.5
0.5
0.5
0.5
0.5
0.5
0.5
0.5
0.5
0.5
0.5
0.5
0.5
0.5
0.5
0.5
0.5
0.5
0.5
0.5
0.5
0.5
0.5
0.5
0.5
0.5
0.5
0.5
0.5
0.5
0.5
0.5
0.5
0.5
0.5
0.5
0.5
0.5
0.5
0.5
0.5
0.5
0.5
0.5
0.5
0.5
0.5
0.5
0.5
0.5
0.5
0.5
0.5
0.5
0.5
0.5
0.5
0.5
0.5
0.5
0.5
0.5
0.5
0.5
0.5
0.5
SCALARS rr_(S_ext) float
LOOKUP_TABLE default
0.00301002
0.002839
0.00284766
0.00283922
0.00284094
0.00284907
0.00300997
0.00284414
0.00285751
0.0028466
0.00292968
0.00284565
0.0028475
0.00284083
0.00284076
0.00284703
0.00283842
0.00284783
0.0028573
0.00284928
0.0028523
0.00283364
0.00285288
0.00285159
0.00284938
0.00284202
0.00292133
0.00284923
0.00288916
0.00283684
0.00284622
0.00288495
0.0029278
0.00283533
0.00283172
0.00283364
0.00282799
0.00283278
0.00284973
0.00292672
0.00288404
0.00282601
0.00282431
0.00284615
0.00290726
0.00288882
0.00285676
0.00285402
0.00284826
0.00289378
0.00288609
0.00287536
0.00283443
0.00287925
0.00283489
0.002921
0.00283291
0.00287632
0.002831
0.00284849
0.00283798
0.00283651
0.00291858
0.0028375
0.00283711
0.00284209
0.00283828
0.00284227
0.00284932
0.00284525
0.00283569
0.00283388
0.00288669
0.00284034
0.00284739
0.00294711
0.00283721
0.00284097
0.00284256
0.00287086
0.00289619
0.00283382
0.0028415
0.00290486
0.00288339
0.00291322
0.00284722
0.00284595
0.00290632
0.00285557
0.00287557
0.00285803
0.00283621
0.00284673
0.00287844
0.00288623
0.00289963
0.00284163
0.00283621
0.0028464
0.00286532
0.00288407
0.00289686
0.00284123
0.00284427
0.00284088
0.00283833
0.00285061
0.00290025
0.00283787
0.00284913
0.0029084
0.00289901
0.00284512
0.00284124
0.00287959
0.00284351
0.00290725
0.00284599
0.00287655
0.00286117
0.00283627
0.00284001
0.00284035
0.00284499
0.00283506
0.00284497
0.00284462
0.00290149
0.00287497
0.00283446
0.00283915
0.002839
0.00283876
0.00288569
0.00283492
0.00291075
0.00284637
0.0028439
0.00283329
0.00288017
0.00284702
0.0028617
0.0028429
0.00290731
0.00284102
0.00284798
0.00285311
0.00285013
0.00286753
0.00285675
0.00284318
0.00288266
0.00284565
0.0028409
0.00283909
0.0028411
0.00288522
0.00288229
0.00284352
0.00285432
0.00288296
0.00291664
0.00288636
0.00287987
0.00284113
0.00288349
0.00288566
0.0028864
0.00288019
0.00283693
0.00287517
0.00289044
0.00284048
0.00287824
0.0028377
0.00283533
0.00285011
0.00283528
0.00284711
0.0028906
0.0028405
0.00284286
0.00287948
0.00284053
0.00289355
0.00283849
0.00283963
0.00284379
0.00284061
0.00284137
0.00290378
0.00287445
0.0028838
0.00283925
0.00284283
0.00284355
0.00283692
0.00284159
0.00284115
0.00284125
0.00285806
0.00287211
0.0028378
0.00288972
0.00283763
0.00284804
0.00288138
0.00283805
0.00284476
0.00284566
0.0028429
0.00284218
0.00284398
0.00286696
0.00284284
0.00287291
0.00283812
0.00284334
0.00284106
0.00283746
0.00283804
0.00283827
0.00283782
0.00284732
0.00283509
0.00283576
0.00283565
0.00283703
0.00284537
0.00284329
0.00286602
0.0028455
0.00284217
0.00285561
0.00284501
0.00284337
0.00284478
0.00286949
0.00283862
0.0028431
0.00286813
0.00283706
0.00286814
0.00284524
0.00283831
0.00286621
0.00287077
0.00289584
0.00289022
0.00283737
0.00290769
0.00284659
0.00287289
0.00285889
0.00283886
0.00284004
0.00283332
0.00283759
0.00291437
0.00287019
0.00284032
0.00284556
0.00287144
0.00283857
0.00286152
0.00283138
0.00287152
0.00284409
0.00284309
0.00284215
0.00284392
0.00284781
0.00283505
0.00284716
0.00290407
0.00292093
0.00284348
0.00285086
0.00284458
0.00286812
0.00283815
0.00284033
0.00287003
0.00284161
0.002864
0.00284965
0.00286607
0.00286937
0.00283682
0.00283557
0.00283541
0.00283448
0.0028411
0.00286641
0.00283426
0.00283983
0.00285638
0.00286456
0.00286762
0.00283605
0.00286767
0.0028459
0.00286851
0.00290903
0.00286529
0.00289997
0.00283819
0.00286617
0.00283699
0.00286698
0.00284571
0.00286659
0.00284622
0.00286549
0.00285118
0.00292942
0.00284724
0.00286838
0.00283572
0.00286608
0.00285635
0.00284574
0.00283872
0.00286655
0.00286563
0.00286061
0.00284652
0.00286467
0.00284968
0.00284755
0.00283617
0.00286646
0.00285959
0.00285504
0.00286077
0.00286511
0.00285964
0.00284408
0.0028441
0.00286109
0.00286644
0.0028437
0.00284388
0.00286422
0.00283472
0.00293693
0.00285289
0.00289776
0.00285529
0.00301528
0.00302013
0.00299983
0.00300174
0.00299228
0.00304735
0.00305018
0.00284448
0.00284289
0.00284823
0.00285562
0.0028567
0.00286065
0.00284926
0.0028605
0.00285976
0.00284584
0.00285983
0.00284321
0.0028747
0.0028352
0.00285136
0.00285462
0.00286113
0.00284593
0.00284908
0.00285412
0.00284912
0.00285352
0.00285961
0.00287178
0.00285517
0.00284988
0.00283771
0.00285878
0.00285909
0.00285769
0.00285363
0.00284887
0.00284455
0.00285788
0.0028442
0.00285231
0.00285347
0.00284439
0.00284783
0.00286042
0.00283872
0.00285262
0.00283454
0.0029078
0.00283843
0.00284631
0.00284888
0.00285385
0.00284076
0.00294385
0.00284783
0.0028537
0.00292669
0.00284521
0.00284887
0.00285143
0.0028581
0.0028531
0.00285802
0.00285749
0.00285141
0.00284717
0.00284467
0.00284486
0.00296015
0.00285963
0.00284452
0.00285565
0.00285563
0.00285499
0.00293568
0.00284411
0.00285754
0.00284902
0.00284941
0.00285542
0.00285395
0.00285635
0.00285679
0.00293237
0.00290059
0.00285401
0.00285149
0.00285303
0.00285535
0.00285289
0.00285389
0.00285357
0.00291457
0.00283684
0.00285733
0.00284042
0.00284006
0.00290802
0.00284907
0.00284755
0.0028444
0.00282682
0.00282486
0.00284191
0.00285941
0.00285183
0.00291882
0.0028286
0.00283439
0.00283216
0.00294135
0.00283318
0.00283207
0.00285021
0.0028364
0.00284354
0.00284558
0.00283855
0.00283909
0.00284912
0.00294135
0.00284713
0.00284714
0.0028447
0.00294872
0.00283259
0.00294366
0.00283709
0.00284693
0.00286662
0.0028449
0.00284924
0.0028348
0.0028434
0.00283351
0.00284708
0.00283944
0.0028434
0.00284643
0.00292306
0.00284553
0.00298048
0.00298392
0.0029778
0.00284056
0.00295338
0.00298115
0.00285603
0.00297057
0.00283424
0.00283299
0.00297155
0.00284994
0.00294478
0.00299902
0.00293628
0.0029954
0.00293328
0.00283412
0.00292348
0.0029541
0.00296827
0.00284607
0.00283773
0.00294607
0.00284598
0.00296895
0.00284315
0.00285203
0.00300474
0.00293793
0.00300148
0.00293909
0.00284904
0.00283455
0.0028289
0.00283053
0.00284176
0.00283192
0.00282962
0.00283177
0.00283697
0.00291787
0.00283277
0.00284495
0.00284552
0.00284717
0.00284048
0.00283832
0.0028422
0.00293611
0.00285126
0.0029627
0.00294618
0.0029253
0.00282499
0.00282414
0.00282631
0.00282777
0.00282285
0.00284127
0.00284067
0.00284832
0.00284942
0.00283982
0.00283855
0.00284881
0.00283465
0.00284104
0.00283778
SCALARS rr_(P_ext) float
LOOKUP_TABLE default
0.000140864
0.00011871
0.000122828
0.00011931
0.000104317
0.00012269
0.000140861
0.000120466
0.000125456
0.00011902
0.000135774
0.000120342
0.00012129
0.000118382
0.000108202
0.000122832
0.000115611
0.0001207
0.000126246
0.000123684
0.00012406
8.09253e-05
0.00012361
0.000123259
0.000123669
0.000119687
0.000135086
0.000121529
0.00013189
9.29612e-05
0.000121824
0.000131464
0.000135591
9.68003e-05
9.66894e-05
9.68937e-05
9.20282e-05
9.77094e-05
0.000121539
0.000135525
0.000131262
9.18217e-05
9.18909e-05
0.000121765
0.000133923
0.000131839
0.000125941
0.000125196
0.000122301
0.000132542
0.000131552
0.000129819
0.000103958
0.000130442
0.000104595
0.000135011
9.65321e-05
0.000130094
9.66278e-05
0.000123129
0.000115567
0.000112029
0.000134843
0.000112523
0.000111848
0.000115946
0.000115382
0.000119876
0.000123713
0.000118016
0.000104121
0.000104215
0.000131733
0.000114312
0.00012316
0.000136948
0.00010856
0.000116075
0.000119576
0.000129148
0.000132742
0.000102663
0.000113466
0.000133586
0.000131133
0.000134505
0.000121789
0.000115062
0.000133883
8.27014e-05
0.000130155
8.26342e-05
0.00010752
0.000116103
0.000130359
0.000131763
0.000133139
0.000119309
0.000108701
0.000121833
0.000127784
0.000131358
0.000132821
0.000120357
0.000119115
0.000119771
0.00011232
0.000122161
0.000133274
0.000116346
0.000123049
0.000133987
0.00013312
0.000120561
0.000119962
0.000130469
9.67567e-05
0.000133761
9.68276e-05
0.000130126
0.000126724
0.000108879
0.000118256
0.000115127
0.000115838
0.000107705
9.84017e-05
0.000119194
0.000133303
0.000129748
0.000103056
0.000118822
0.000113698
0.0001185
0.000131471
9.58264e-05
0.00013421
0.000120776
0.00011313
9.59154e-05
0.000130904
0.000118532
0.000126359
0.000118615
0.00013376
0.000119628
0.000118605
0.000121987
0.000122947
0.000128163
0.000124436
0.000118141
0.000131189
0.000121643
0.000118749
0.000118711
0.000117714
0.000131368
0.000131042
0.000121539
0.000125067
0.000131127
0.000134598
0.000131666
0.000130677
0.000119715
0.000131175
0.000131387
0.000131619
0.000130775
0.000107174
0.000130089
0.000132116
0.000117471
0.000130346
0.000112533
0.000107274
0.000119601
0.000104512
0.000118993
0.000132017
0.000119484
0.000119313
0.00013076
0.000115152
0.000132417
0.00011523
0.000113079
0.000107319
0.000119344
0.000115
0.000133447
0.000129781
0.000131423
0.000118646
0.000121083
0.000120593
0.00011383
0.000118253
0.000116285
0.000118202
0.000126312
0.000129564
0.00011393
0.00013195
0.000113586
0.000115933
0.000130871
0.000110379
0.000117963
0.000110234
0.000117751
0.000119554
0.000113309
0.000128004
0.000117228
0.000129559
0.000113179
0.000115961
0.000115977
0.000116401
0.000116533
0.000116501
0.000116641
0.000118303
0.000108722
0.000108679
0.00010846
0.000108599
0.000104206
0.000104012
0.00012835
0.000118077
0.000118487
0.000125749
0.00010816
0.000108023
0.000118332
0.000129174
0.000118783
0.000119273
0.000128489
0.000109913
0.000128551
0.000113281
0.000118659
0.000128189
0.000129276
0.000132758
0.000132109
0.000113686
0.000133849
0.000122143
0.00012959
0.000125893
0.000118874
0.000116166
9.15814e-05
0.000116364
0.000134371
0.000129004
0.000118428
0.000119724
0.000129547
0.000116168
0.000126267
9.16561e-05
0.000129414
0.000115763
0.000115492
0.000120828
0.000108237
0.000115186
0.000104281
0.000121678
0.000133631
0.00013499
0.000106007
0.000124371
0.000119847
0.000128503
0.00010977
0.000117657
0.000129102
0.000116371
0.000127928
0.000118574
0.000128226
0.000129067
8.68435e-05
0.000106609
0.000107679
0.00010778
0.000118556
0.000128182
9.75455e-05
0.000115915
0.000124611
0.000127887
0.000128781
0.000106042
0.000128496
0.000107533
0.000128769
0.000134084
0.000127683
0.000133248
0.000112511
0.000128215
8.66491e-05
0.000128551
0.000113688
0.000128506
0.000114743
0.0001283
0.000122542
0.000135679
0.000122984
0.000128586
0.000105653
0.000128084
0.000124067
0.000115042
0.000118317
0.000128282
0.000128158
0.000126267
0.00011295
0.000127887
0.000120173
0.000121927
0.000104805
0.000128263
0.000126634
0.000124078
0.000126659
0.000128249
0.000126402
0.000110722
0.000120126
0.000126749
0.000128042
0.000118807
0.000118652
0.000127771
0.000104925
0.000136326
0.000121707
0.000133018
0.000123837
0.000141643
0.000141922
0.000140657
0.000140766
0.000140172
0.000143549
0.00014371
0.000112354
9.94239e-05
0.000120705
0.000124206
0.000126028
0.000126694
0.000118803
0.000126328
0.000126725
9.93032e-05
0.000126462
0.000110404
0.0001298
0.000109415
0.000122206
0.000124681
0.000126769
0.00010605
0.000122069
0.000124464
0.000121883
0.00012423
0.000126903
0.000129289
0.000124235
0.000122379
0.000110265
0.000125729
0.000126964
0.000126338
0.000124762
0.000122352
0.000118582
0.000126132
0.000118762
0.00012274
0.00012454
0.000119635
0.000122835
0.000126382
0.000114871
0.000124343
0.000100388
0.00013405
0.000112786
0.000110722
0.00012222
0.000124767
0.0001163
0.000136818
0.000122231
0.00012458
0.000135527
8.76189e-05
8.74394e-05
0.000121712
0.000126334
0.000124269
0.000126169
7.88362e-05
7.88216e-05
0.000120301
0.000119789
0.000119589
0.000137868
0.000126566
0.000114151
0.000125658
0.000125831
0.000124915
0.000136253
0.00011468
0.000126467
0.000122233
0.000122079
0.000125715
0.000124662
0.00012561
0.000125311
0.000135931
0.00013323
0.000124486
0.000121773
0.000124634
0.000125925
0.000124749
0.000124055
0.000124473
0.000134526
0.000108635
0.000125849
0.000116494
0.000114724
0.000133983
0.000122787
0.000123125
0.000104668
8.67608e-05
8.68195e-05
0.000105811
0.000126955
0.000121805
0.000134849
8.79011e-05
8.00832e-05
8.01244e-05
0.000136657
9.73319e-05
9.26083e-05
0.000122594
0.000108067
0.00012141
0.000118568
0.000114405
0.000113161
0.000119673
0.000136684
0.000122357
0.000116935
0.000114371
0.000137063
9.49844e-05
0.00013667
0.000114537
0.000118677
0.000128006
0.000122074
0.000120195
0.000102636
0.000119837
0.000102749
0.000122872
0.000114126
9.34883e-05
9.34122e-05
0.000135156
0.00011739
0.000139131
0.000139311
0.000138958
0.000115242
0.000137491
0.000139163
0.000125978
0.000138475
0.000102206
0.000102309
0.000138517
0.000124257
0.000136737
0.000140265
0.00013623
0.000140061
0.000136042
9.68769e-05
0.000135262
0.000137517
0.000138311
0.000120489
0.000111926
0.000136851
0.000120039
0.000138376
0.000118611
0.000124057
0.000140614
0.000136397
0.000140439
0.000136532
0.000122734
0.000100105
8.05406e-05
8.09791e-05
0.00011754
8.03906e-05
8.04338e-05
8.07917e-05
8.49776e-05
0.000134863
9.45089e-05
0.000105966
9.96984e-05
0.000118134
8.39424e-05
8.39951e-05
9.95325e-05
0.000136301
0.000124576
0.000138068
0.000136871
0.000135377
8.87931e-05
8.89681e-05
8.95023e-05
8.9411e-05
8.88663e-05
8.14324e-05
8.98219e-05
8.36521e-05
8.0424e-05
8.86604e-05
8.86676e-05
8.04643e-05
8.14588e-05
8.37478e-05
8.96412e-05
SCALARS rr_(S) float
LOOKUP_TABLE default
0.00299575
0.00282546
0.00283408
0.00282568
0.00282737
0.00283549
0.00299569
0.00283058
0.00284389
0.00283303
0.00291579
0.00283209
0.00283392
0.00282728
0.0028272
0.00283345
0.00282488
0.00283425
0.00284368
0.0028357
0.00283871
0.0028201
0.00283928
0.00283799
0.00283579
0.00282847
0.00290746
0.00283564
0.00287542
0.00282328
0.00283265
0.00287123
0.0029139
0.00282179
0.00281819
0.0028201
0.00281448
0.00281925
0.00283615
0.00291282
0.00287032
0.00281251
0.00281081
0.00283258
0.00289345
0.00287508
0.00284315
0.00284042
0.00283468
0.00288002
0.00287237
0.00286167
0.00282089
0.00286555
0.00282136
0.00290712
0.00281938
0.00286263
0.00281748
0.00283491
0.00282444
0.00282298
0.00290471
0.00282396
0.00282357
0.00282853
0.00282475
0.00282872
0.00283574
0.00283168
0.00282215
0.00282035
0.00287296
0.00282679
0.00283381
0.00293312
0.00282366
0.00282742
0.00282901
0.00285719
0.00288241
0.00282029
0.00282794
0.00289105
0.00286967
0.00289938
0.00283365
0.00283237
0.00289251
0.00284192
0.00286188
0.00284437
0.00282267
0.00283316
0.00286473
0.00287251
0.00288585
0.00282808
0.00282268
0.00283282
0.00285167
0.00287034
0.00288309
0.00282768
0.0028307
0.00282733
0.00282479
0.00283701
0.00288646
0.00282434
0.00283554
0.00289458
0.00288523
0.00283155
0.00282769
0.00286589
0.00282993
0.00289343
0.0028324
0.00286286
0.00284754
0.00282274
0.00282647
0.0028268
0.00283142
0.00282152
0.00283138
0.00283105
0.00288769
0.00286128
0.00282093
0.00282561
0.00282545
0.00282522
0.00287195
0.00282138
0.00289691
0.0028328
0.00283033
0.00281976
0.00286646
0.00283344
0.00284807
0.00282934
0.00289348
0.00282748
0.0028344
0.00283951
0.00283654
0.00285387
0.00284314
0.00282962
0.00286895
0.00283208
0.00282735
0.00282555
0.00282755
0.00287149
0.00286857
0.00282996
0.00284071
0.00286925
0.00290278
0.00287263
0.00286617
0.00282758
0.00286977
0.00287192
0.00287267
0.00286648
0.00282339
0.00286148
0.00287669
0.00282694
0.00286454
0.00282416
0.0028218
0.00283652
0.00282175
0.00283353
0.00287685
0.00282695
0.0028293
0.00286577
0.00282698
0.00287979
0.00282495
0.00282608
0.00283021
0.00282706
0.00282782
0.00288997
0.00286077
0.00287008
0.00282571
0.00282928
0.00282999
0.00282339
0.00282804
0.0028276
0.0028277
0.00284444
0.00285844
0.00282426
0.00287598
0.00282409
0.00283446
0.00286767
0.0028245
0.00283119
0.00283208
0.00282934
0.00282863
0.00283041
0.0028533
0.00282928
0.00285924
0.00282458
0.00282978
0.00282751
0.00282393
0.0028245
0.00282474
0.00282429
0.00283374
0.00282156
0.00282223
0.00282212
0.0028235
0.00283179
0.00282972
0.00285238
0.00283193
0.00282862
0.002842
0.00283143
0.0028298
0.00283122
0.00285583
0.00282508
0.00282954
0.00285447
0.00282352
0.00285448
0.00283167
0.00282477
0.00285256
0.0028571
0.00288207
0.00287647
0.00282384
0.00289386
0.00283302
0.00285921
0.00284527
0.00282533
0.0028265
0.00281978
0.00282405
0.00290051
0.00285652
0.00282678
0.00283199
0.00285777
0.00282503
0.00284789
0.00281785
0.00285785
0.00283052
0.00282953
0.0028286
0.00283035
0.00283423
0.00282151
0.00283359
0.00289027
0.00290705
0.00282991
0.00283727
0.00283102
0.00285446
0.0028246
0.00282679
0.00285637
0.00282805
0.00285036
0.00283606
0.00285242
0.00285571
0.00282326
0.00282204
0.00282187
0.00282095
0.00282755
0.00285276
0.00282072
0.00282628
0.00284277
0.00285091
0.00285396
0.00282252
0.00285401
0.00283231
0.00285485
0.00289522
0.00285164
0.00288618
0.00282465
0.00285252
0.00282343
0.00285332
0.00283213
0.00285294
0.00283264
0.00285184
0.00283759
0.0029155
0.00283367
0.00285472
0.00282219
0.00285244
0.00284274
0.00283217
0.00282518
0.0028529
0.00285198
0.00284698
0.00283293
0.00285102
0.0028361
0.00283398
0.00282263
0.0028528
0.00284597
0.00284143
0.00284714
0.00285147
0.00284602
0.0028305
0.00283053
0.00284746
0.00285278
0.00283014
0.00283032
0.00285057
0.00282118
0.00292301
0.00283929
0.00288398
0.00284168
0.00300108
0.00300591
0.0029857
0.0029876
0.00297819
0.00303301
0.00303582
0.00283091
0.00282931
0.00283465
0.00284201
0.00284309
0.00284702
0.00283568
0.00284687
0.00284614
0.00283225
0.00284621
0.00282964
0.00286101
0.00282167
0.00283777
0.00284101
0.0028475
0.00283234
0.0028355
0.00284052
0.00283554
0.00283992
0.00284599
0.00285811
0.00284157
0.00283629
0.00282417
0.00284516
0.00284547
0.00284407
0.00284003
0.00283529
0.00283099
0.00284426
0.00283063
0.00283871
0.00283987
0.00283083
0.00283426
0.00284679
0.00282517
0.00283902
0.00282101
0.00289399
0.00282488
0.00283273
0.0028353
0.00284025
0.00282721
0.0029299
0.00283425
0.0028401
0.00291279
0.00283161
0.00283526
0.00283784
0.00284448
0.0028395
0.00284441
0.00284383
0.00283777
0.00283359
0.0028311
0.0028313
0.00294611
0.00284601
0.00283095
0.00284204
0.00284203
0.00284139
0.00292177
0.00283054
0.00284392
0.00283544
0.00283583
0.00284181
0.00284035
0.00284274
0.00284317
0.00291844
0.0028868
0.0028404
0.00283789
0.00283943
0.00284175
0.0028393
0.00284029
0.00283997
0.00290072
0.0028233
0.00284372
0.00282688
0.00282652
0.00289421
0.00283549
0.00283397
0.00283082
0.00281331
0.00281136
0.00282835
0.00284579
0.00283824
0.00290496
0.00281509
0.00282084
0.00281862
0.00292742
0.00281965
0.00281854
0.00283662
0.00282286
0.00282998
0.00283201
0.00282501
0.00282554
0.00283553
0.00292741
0.00283356
0.00283356
0.00283113
0.00293473
0.00281906
0.00292968
0.00282355
0.00283335
0.00285297
0.00283133
0.00283565
0.00282127
0.00282984
0.00281998
0.00283351
0.0028259
0.00282981
0.00283283
0.00290918
0.00283196
0.00296634
0.00296976
0.00296368
0.00282701
0.00293938
0.00296702
0.00284242
0.00295649
0.00282071
0.00281946
0.00295746
0.00283636
0.0029308
0.00298479
0.00292234
0.00298119
0.00291936
0.00282058
0.0029096
0.0029401
0.00295419
0.0028325
0.00282419
0.00293209
0.00283241
0.00295488
0.00282959
0.00283844
0.00299049
0.00292399
0.00298725
0.00292516
0.00283546
0.00282102
0.00281538
0.002817
0.00282821
0.00281838
0.0028161
0.00281823
0.00282341
0.00290401
0.00281923
0.00283137
0.00283194
0.00283359
0.0028269
0.00282476
0.00282862
0.00292219
0.00283767
0.00294866
0.00293219
0.0029114
0.00281149
0.00281065
0.00281281
0.00281426
0.00280936
0.00282768
0.00282709
0.00283471
0.0028358
0.00282625
0.00282498
0.00283519
0.0028211
0.00282746
0.00282423
SCALARS rr_(P) float
LOOKUP_TABLE default
0.000154968
0.000132096
0.00013625
0.000132697
0.000117727
0.000136119
0.000154965
0.000133875
0.000138919
0.000132442
0.000149502
0.000133759
0.000134714
0.000131779
0.000121606
0.000136252
0.000128998
0.000134126
0.000139705
0.000137112
0.000137502
9.43185e-05
0.000137055
0.000136698
0.000137097
0.000133087
0.000148795
0.00013496
0.000145477
0.00010636
0.000135241
0.000145031
0.00014933
0.000110189
0.000110063
0.000110274
0.000105386
0.000111087
0.000134973
0.000149259
0.000144825
0.00010517
0.000105231
0.000135182
0.000147573
0.000145426
0.000139399
0.000138644
0.000135726
0.000146145
0.000145122
0.00014335
0.000117337
0.000143991
0.000117976
0.00014873
0.000109911
0.000143629
0.000109998
0.000136553
0.000128951
0.000125412
0.000148549
0.00012591
0.000125233
0.00012935
0.000128768
0.000133277
0.000137141
0.000131432
0.000117505
0.000117591
0.000145308
0.00012771
0.000136582
0.00015077
0.000121949
0.000129474
0.000132978
0.000142659
0.000146356
0.000116042
0.000126869
0.000147237
0.000144696
0.000148185
0.00013521
0.000128485
0.000147529
9.61955e-05
0.000143688
9.61397e-05
0.000120905
0.000129528
0.000143906
0.000145333
0.000146769
0.000132708
0.000122085
0.000135251
0.000141277
0.000144927
0.000146434
0.000133752
0.000132526
0.000133166
0.000125709
0.000135598
0.000146903
0.000129728
0.000136477
0.000147645
0.00014674
0.000133974
0.000133359
0.00014402
0.000110185
0.000147427
0.000110268
0.000143664
0.000140199
0.000122262
0.000131647
0.000128524
0.000129254
0.000121083
0.000111835
0.000132607
0.000146942
0.000143278
0.000116435
0.000132209
0.00012709
0.000131885
0.000145047
0.000109215
0.000147887
0.000134195
0.000126545
0.000109296
0.000144455
0.000131957
0.000139838
0.00013202
0.000147426
0.000133024
0.000132033
0.000135435
0.000136381
0.000141664
0.000137897
0.000131547
0.000144745
0.000135058
0.000132144
0.000132098
0.000131112
0.000144943
0.000144604
0.000134945
0.000138516
0.000144685
0.000148294
0.000145237
0.000144227
0.000133111
0.000144742
0.000144965
0.000145193
0.000144327
0.000120562
0.00014362
0.000145706
0.000130867
0.000143891
0.000125919
0.000120654
0.000133038
0.000117896
0.000132418
0.00014561
0.000132878
0.000132717
0.000144308
0.00012855
0.000146021
0.000128618
0.000126475
0.000120739
0.000132738
0.000128402
0.000147097
0.000143308
0.000144985
0.000132034
0.000134486
0.000133999
0.000127212
0.000131652
0.000129685
0.000131599
0.000139775
0.000143082
0.000127316
0.00014554
0.000126972
0.000129365
0.000144426
0.000123769
0.000131377
0.000123661
0.000131158
0.000132955
0.000126724
0.000141503
0.000130635
0.000143081
0.000126567
0.000129369
0.000129375
0.000129781
0.000129915
0.000129885
0.000130023
0.000131729
0.000122099
0.000122059
0.00012184
0.000121985
0.000117636
0.000117432
0.000141844
0.000131495
0.000131886
0.000139205
0.000121584
0.00012144
0.000131744
0.00014268
0.000132166
0.000132678
0.000141993
0.000123299
0.000142055
0.000126702
0.00013204
0.000141685
0.000142789
0.000146369
0.000145694
0.00012707
0.000147515
0.000135562
0.000143113
0.00013936
0.000132258
0.000129558
0.000104965
0.000129745
0.000148068
0.000142514
0.000131819
0.00013314
0.000143062
0.000129553
0.000139746
0.00010503
0.00014293
0.000129175
0.000128902
0.000134228
0.000121656
0.000128617
0.000117663
0.000135101
0.000147272
0.000148705
0.000119427
0.000137806
0.000133258
0.000142007
0.000123161
0.000131052
0.000142611
0.000129773
0.000141415
0.000132011
0.000141723
0.000142573
0.000100247
0.000119991
0.000121059
0.000121154
0.000131953
0.000141681
0.000110928
0.000129309
0.000138071
0.000141378
0.000142284
0.000119427
0.000141998
0.000120963
0.000142276
0.000147743
0.000141177
0.000146879
0.0001259
0.00014171
0.000100054
0.000142051
0.000127111
0.000142002
0.000128168
0.000141794
0.000135982
0.000149435
0.000136404
0.000142091
0.000119036
0.000141578
0.000137526
0.000128465
0.000131702
0.00014178
0.000141653
0.000139742
0.000126377
0.000141377
0.000133609
0.000135349
0.000118192
0.000141762
0.000140104
0.000137532
0.000140135
0.000141741
0.000139872
0.00012414
0.000133535
0.000140226
0.000141537
0.000132216
0.000132061
0.000141259
0.000118305
0.000150084
0.000135155
0.000146639
0.000137293
0.00015567
0.000155972
0.000154614
0.000154731
0.000154094
0.000157723
0.000157897
0.000125773
0.000112846
0.000134132
0.000137661
0.000139485
0.000140169
0.000132237
0.000139801
0.000140195
0.000112739
0.000139934
0.000123819
0.000143329
0.000122792
0.000135645
0.000138131
0.000140246
0.000119482
0.000135499
0.000137913
0.000135313
0.000137676
0.000140373
0.000142805
0.000137688
0.000135812
0.000123654
0.000139196
0.00014043
0.0001398
0.000138207
0.00013578
0.000131995
0.000139595
0.000132172
0.000136184
0.000137985
0.000133045
0.000136258
0.000139856
0.000128261
0.000137786
0.00011377
0.000147702
0.000126176
0.00012415
0.000135648
0.000138216
0.000129697
0.000150609
0.000135654
0.000138027
0.000149271
0.000101062
0.0001009
0.000135153
0.000139797
0.000137715
0.000139633
9.23436e-05
9.23004e-05
0.000133724
0.000133201
0.000133002
0.000151736
0.000140035
0.000127568
0.000139113
0.000139286
0.000138367
0.000150004
0.000128094
0.000139927
0.000135662
0.00013551
0.000139169
0.00013811
0.000139068
0.000138771
0.000149691
0.000146864
0.000137934
0.000135214
0.000138078
0.000139378
0.000138192
0.000137504
0.00013792
0.00014821
0.000122021
0.000139308
0.00012989
0.00012812
0.000147636
0.000136216
0.000136546
0.000118093
0.000100117
0.000100166
0.000119223
0.000140423
0.000135247
0.000148551
0.000101264
9.34809e-05
9.35116e-05
0.000150433
0.000110711
0.000105985
0.000136028
0.000121452
0.000134815
0.000131985
0.000127794
0.000126554
0.000133106
0.000150464
0.000135778
0.000130362
0.000127789
0.000150892
0.000108361
0.000150492
0.000127919
0.000132101
0.000141504
0.000135485
0.000133629
0.000116017
0.000133243
0.000116124
0.000136292
0.000127519
0.000106917
0.000106855
0.000148879
0.000130808
0.000153098
0.000153298
0.000152909
0.00012864
0.000151326
0.000153126
0.000139434
0.000152395
0.000115587
0.000115685
0.000152445
0.000137687
0.000150556
0.000154319
0.000150006
0.000154098
0.000149805
0.000110261
0.000148982
0.000151356
0.000152222
0.000133907
0.000125314
0.000150671
0.000133457
0.000152284
0.000132017
0.000137497
0.000154692
0.000150177
0.000154499
0.000150297
0.000136162
0.000113488
9.39113e-05
9.43567e-05
0.000130941
9.37753e-05
9.38076e-05
9.41754e-05
9.83822e-05
0.00014856
0.000107887
0.000119393
0.000113133
0.000131559
9.73646e-05
9.74073e-05
0.000112953
0.000150051
0.000138013
0.000151945
0.000150703
0.000149111
0.000102139
0.00010231
0.000102854
0.000102769
0.000102202
9.48603e-05
0.000103241
9.71112e-05
9.38913e-05
0.000102076
0.000102077
9.3929e-05
9.48557e-05
9.71729e-05
0.000103046
SCALARS rr_(T) float
LOOKUP_TABLE default
0.0153465
0.014454
0.0144991
0.0144551
0.0144639
0.0145064
0.0153462
0.0144807
0.0145504
0.0144935
0.014927
0.0144886
0.0144982
0.0144635
0.014463
0.0144958
0.0144509
0.0144999
0.0145493
0.0145075
0.0145233
0.0144259
0.0145263
0.0145195
0.014508
0.0144697
0.0148834
0.0145072
0.0147155
0.0144425
0.0144916
0.0146936
0.0149171
0.0144347
0.0144159
0.0144259
0.0143965
0.0144215
0.0145099
0.0149115
0.0146888
0.0143862
0.0143773
0.0144912
0.01481
0.0147137
0.0145465
0.0145323
0.0145022
0.0147396
0.0146995
0.0146435
0.01443
0.0146638
0.0144325
0.0148816
0.0144221
0.0146485
0.0144122
0.0145034
0.0144486
0.0144409
0.014869
0.0144461
0.014444
0.01447
0.0144502
0.014471
0.0145077
0.0144865
0.0144366
0.0144272
0.0147026
0.0144609
0.0144976
0.0150179
0.0144445
0.0144642
0.0144725
0.01462
0.0147522
0.0144269
0.0144669
0.0147974
0.0146854
0.0148411
0.0144968
0.0144901
0.0148051
0.0145401
0.0146446
0.0145529
0.0144393
0.0144942
0.0146596
0.0147003
0.0147701
0.0144676
0.0144394
0.0144925
0.0145911
0.0146889
0.0147557
0.0144655
0.0144814
0.0144637
0.0144504
0.0145144
0.0147734
0.0144481
0.0145067
0.0148159
0.0147669
0.0144858
0.0144656
0.0146656
0.0144773
0.0148099
0.0144903
0.0146497
0.0145695
0.0144397
0.0144592
0.0144609
0.0144851
0.0144333
0.0144849
0.0144832
0.0147798
0.0146415
0.0144302
0.0144547
0.0144539
0.0144527
0.0146974
0.0144326
0.0148281
0.0144923
0.0144794
0.0144241
0.0146686
0.0144957
0.0145723
0.0144742
0.0148102
0.0144645
0.0145007
0.0145275
0.0145119
0.0146027
0.0145465
0.0144757
0.0146816
0.0144886
0.0144638
0.0144544
0.0144649
0.0146949
0.0146797
0.0144775
0.0145338
0.0146832
0.0148589
0.0147009
0.0146671
0.014465
0.0146859
0.0146972
0.0147011
0.0146687
0.0144431
0.0146425
0.0147222
0.0144617
0.0146585
0.0144471
0.0144348
0.0145118
0.0144345
0.0144962
0.014723
0.0144617
0.014474
0.014665
0.0144619
0.0147384
0.0144513
0.0144572
0.0144788
0.0144623
0.0144663
0.0147917
0.0146388
0.0146875
0.0144552
0.0144739
0.0144776
0.0144431
0.0144674
0.0144651
0.0144657
0.0145533
0.0146266
0.0144477
0.0147184
0.0144468
0.014501
0.0146749
0.0144489
0.0144839
0.0144886
0.0144743
0.0144705
0.0144798
0.0145997
0.0144739
0.0146308
0.0144493
0.0144765
0.0144647
0.0144459
0.0144489
0.0144501
0.0144478
0.0144973
0.0144335
0.014437
0.0144364
0.0144436
0.0144871
0.0144762
0.0145948
0.0144878
0.0144705
0.0145405
0.0144852
0.0144767
0.0144841
0.0146129
0.0144519
0.0144753
0.0146058
0.0144438
0.0146058
0.0144864
0.0144503
0.0145958
0.0146196
0.0147504
0.014721
0.0144454
0.0148121
0.0144935
0.0146306
0.0145576
0.0144532
0.0144594
0.0144242
0.0144466
0.014847
0.0146165
0.0144608
0.0144881
0.0146231
0.0144517
0.0145714
0.0144141
0.0146235
0.0144804
0.0144752
0.0144703
0.0144795
0.0144998
0.0144333
0.0144965
0.0147933
0.0148813
0.0144772
0.0145157
0.014483
0.0146057
0.0144495
0.0144609
0.0146157
0.0144675
0.0145843
0.0145094
0.0145951
0.0146123
0.0144424
0.014436
0.0144352
0.0144303
0.0144649
0.0145968
0.0144291
0.0144582
0.0145445
0.0145872
0.0146031
0.0144385
0.0146034
0.0144898
0.0146078
0.0148192
0.014591
0.0147719
0.0144497
0.0145956
0.0144433
0.0145998
0.0144889
0.0145978
0.0144915
0.014592
0.0145174
0.0149256
0.0144969
0.0146071
0.0144368
0.0145951
0.0145444
0.014489
0.0144525
0.0145976
0.0145928
0.0145666
0.0144931
0.0145877
0.0145096
0.0144985
0.0144391
0.0145971
0.0145613
0.0145375
0.0145674
0.0145901
0.0145615
0.0144803
0.0144805
0.0145691
0.014597
0.0144784
0.0144794
0.0145854
0.0144315
0.0149649
0.0145263
0.0147604
0.0145388
0.0153744
0.0153998
0.0152937
0.0153037
0.0152543
0.0155421
0.0155568
0.0144825
0.0144741
0.014502
0.0145406
0.0145462
0.0145668
0.0145074
0.014566
0.0145622
0.0144895
0.0145625
0.0144758
0.0146401
0.0144341
0.0145184
0.0145354
0.0145693
0.01449
0.0145065
0.0145328
0.0145067
0.0145296
0.0145614
0.0146248
0.0145382
0.0145106
0.0144472
0.0145571
0.0145587
0.0145514
0.0145302
0.0145054
0.0144829
0.0145523
0.014481
0.0145233
0.0145294
0.014482
0.0145
0.0145656
0.0144524
0.0145249
0.0144306
0.0148128
0.0144509
0.014492
0.0145055
0.0145313
0.0144631
0.015001
0.0145
0.0145306
0.0149113
0.0144861
0.0145052
0.0145187
0.0145535
0.0145274
0.0145531
0.0145501
0.0145184
0.0144965
0.0144835
0.0144845
0.015086
0.0145615
0.0144827
0.0145407
0.0145406
0.0145373
0.0149584
0.0144805
0.0145506
0.0145062
0.0145082
0.0145395
0.0145318
0.0145444
0.0145467
0.014941
0.0147751
0.0145322
0.014519
0.0145271
0.0145392
0.0145264
0.0145315
0.0145299
0.0148481
0.0144426
0.0145495
0.0144613
0.0144595
0.014814
0.0145064
0.0144985
0.014482
0.0143903
0.0143802
0.0144691
0.0145603
0.0145208
0.0148703
0.0143996
0.0144298
0.0144181
0.014988
0.0144235
0.0144177
0.0145123
0.0144403
0.0144776
0.0144882
0.0144516
0.0144544
0.0145067
0.014988
0.0144963
0.0144963
0.0144836
0.0150264
0.0144204
0.0149999
0.0144439
0.0144952
0.0145979
0.0144847
0.0145073
0.014432
0.0144769
0.0144253
0.014496
0.0144562
0.0144767
0.0144925
0.0148924
0.014488
0.0151921
0.0152101
0.0151782
0.0144621
0.0150507
0.0151957
0.0145427
0.0151405
0.0144291
0.0144225
0.0151455
0.014511
0.0150057
0.015289
0.0149614
0.0152701
0.0149458
0.0144284
0.0148946
0.0150545
0.0151284
0.0144908
0.0144473
0.0150125
0.0144903
0.015132
0.0144756
0.0145219
0.0153188
0.01497
0.0153019
0.0149762
0.0145063
0.0144307
0.0144012
0.0144097
0.0144683
0.0144169
0.0144049
0.0144161
0.0144432
0.0148653
0.0144214
0.0144849
0.0144878
0.0144965
0.0144615
0.0144502
0.0144705
0.0149606
0.0145178
0.0150994
0.015013
0.014904
0.0143808
0.0143764
0.0143877
0.0143953
0.0143697
0.0144656
0.0144625
0.0145023
0.0145081
0.0144581
0.0144514
0.0145049
0.0144311
0.0144644
0.0144475
SCALARS rr_tsim float
LOOKUP_TABLE default
1440
1440
1440
1440
1440
1440
1440
1440
1440
1440
1440
1440
1440
1440
1440
1440
1440
1440
1440
1440
1440
1440
1440
1440
1440
1440
1440
1440
1440
1440
1440
1440
1440
1440
1440
1440
1440
1440
1440
1440
1440
1440
1440
1440
1440
1440
1440
1440
1440
1440
1440
1440
1440
1440
1440
1440
1440
1440
1440
1440
1440
1440
1440
1440
1440
1440
1440
1440
1440
1440
1440
1440
1440
1440
1440
1440
1440
1440
1440
1440
1440
1440
1440
1440
1440
1440
1440
1440
1440
1440
1440
1440
1440
1440
1440
1440
1440
1440
1440
1440
1440
1440
1440
1440
1440
1440
1440
1440
1440
1440
1440
1440
1440
1440
1440
1440
1440
1440
1440
1440
1440
1440
1440
1440
1440
1440
1440
1440
1440
1440
1440
1440
1440
1440
1440
1440
1440
1440
1440
1440
1440
1440
1440
1440
1440
1440
1440
1440
1440
1440
1440
1440
1440
1440
1440
1440
1440
1440
1440
1440
1440
1440
1440
1440
1440
1440
1440
1440
1440
1440
1440
1440
1440
1440
1440
1440
1440
1440
1440
1440
1440
1440
1440
1440
1440
1440
1440
1440
1440
1440
1440
1440
1440
1440
1440
1440
1440
1440
1440
1440
1440
1440
1440
1440
1440
1440
1440
1440
1440
1440
1440
1440
1440
1440
1440
1440
1440
1440
1440
1440
1440
1440
1440
1440
1440
1440
1440
1440
1440
1440
1440
1440
1440
1440
1440
1440
1440
1440
1440
1440
1440
1440
1440
1440
1440
1440
1440
1440
1440
1440
1440
1440
1440
1440
1440
1440
1440
1440
1440
1440
1440
1440
1440
1440
1440
1440
1440
1440
1440
1440
1440
1440
1440
1440
1440
1440
1440
1440
1440
1440
1440
1440
1440
1440
1440
1440
1440
1440
1440
1440
1440
1440
1440
1440
1440
1440
1440
1440
1440
1440
1440
1440
1440
1440
1440
1440
1440
1440
1440
1440
1440
1440
1440
1440
1440
1440
1440
1440
1440
1440
1440
1440
1440
1440
1440
1440
1440
1440
1440
1440
1440
1440
1440
1440
1440
1440
1440
1440
1440
1440
1440
1440
1440
1440
1440
1440
1440
1440
1440
1440
1440
1440
1440
1440
1440
1440
1440
1440
1440
1440
1440
1440
1440
1440
1440
1440
1440
1440
1440
1440
1440
1440
1440
1440
1440
1440
1440
1440
1440
1440
1440
1440
1440
1440
1440
1440
1440
1440
1440
1440
1440
1440
1440
1440
1440
1440
1440
1440
1440
1440
1440
1440
1440
1440
1440
1440
1440
1440
1440
1440
1440
1440
1440
1440
1440
1440
1440
1440
1440
1440
1440
1440
1440
1440
1440
1440
1440
1440
1440
1440
1440
1440
1440
1440
1440
1440
1440
1440
1440
1440
1440
1440
1440
1440
1440
1440
1440
1440
1440
1440
1440
1440
1440
1440
1440
1440
1440
1440
1440
1440
1440
1440
1440
1440
1440
1440
1440
1440
1440
1440
1440
1440
1440
1440
1440
1440
1440
1440
1440
1440
1440
1440
1440
1440
1440
1440
1440
1440
1440
1440
1440
1440
1440
1440
1440
1440
1440
1440
1440
1440
1440
1440
1440
1440
1440
1440
1440
1440
1440
1440
1440
1440
1440
1440
1440
1440
1440
1440
1440
1440
1440
1440
1440
1440
1440
1440
1440
1440
1440
1440
1440
1440
1440
1440
1440
1440
1440
1440
1440
1440
1440
1440
1440
1440
1440
1440
1440
1440
1440
1440
1440
1440
1440
1440
1440
1440
1440
1440
1440
1440
1440
1440
1440
SCALARS rr_Vext float
LOOKUP_TABLE default
2.88695e-10
7.73289e-10
6.11295e-10
8.05304e-10
4.36116e-10
6.48623e-10
2.84985e-10
8.00646e-10
6.75551e-10
8.69244e-10
2.59778e-10
8.03105e-10
7.04957e-10
7.49934e-10
8.94933e-10
7.30075e-10
6.37025e-10
7.12409e-10
6.23055e-10
6.18146e-10
6.9434e-10
1.34921e-10
7.11226e-10
6.56746e-10
5.95118e-10
6.94475e-10
2.5088e-10
6.05993e-10
4.46166e-10
5.93515e-10
6.22518e-10
4.61426e-10
2.77568e-10
4.41482e-10
4.35814e-10
4.42422e-10
5.77786e-10
4.3605e-10
6.21761e-10
3.121e-10
3.75062e-10
5.09479e-10
5.09472e-10
6.83294e-10
3.5277e-10
4.08105e-10
5.88242e-10
5.99367e-10
5.66666e-10
5.03439e-10
5.20757e-10
4.13218e-10
6.98527e-10
5.31246e-10
6.4248e-10
2.58938e-10
4.6544e-10
5.35181e-10
4.65371e-10
6.74305e-10
8.12409e-10
8.04973e-10
2.51886e-10
5.67411e-10
7.71131e-10
7.2073e-10
7.86161e-10
6.74596e-10
6.13579e-10
8.87597e-10
7.57661e-10
7.49349e-10
4.63368e-10
5.85699e-10
6.07918e-10
2.82595e-10
6.46961e-10
7.13962e-10
6.80192e-10
4.57292e-10
3.99136e-10
4.94281e-10
9.11658e-10
3.96619e-10
5.4935e-10
1.94757e-10
6.99998e-10
5.95517e-10
3.73809e-10
6.59612e-11
4.60272e-10
7.17223e-11
5.4925e-10
5.1656e-10
4.36268e-10
3.87369e-10
3.67051e-10
7.62991e-10
6.47329e-10
6.05e-10
4.98777e-10
4.66616e-10
3.80737e-10
7.20088e-10
7.33817e-10
6.61e-10
5.89235e-10
5.85852e-10
4.03964e-10
8.82748e-10
5.59175e-10
2.67804e-10
3.61905e-10
7.87599e-10
7.39903e-10
5.13464e-10
5.39657e-10
3.04722e-10
5.59517e-10
5.11745e-10
4.54502e-10
8.71124e-10
8.80994e-10
7.63663e-10
8.34813e-10
6.67755e-10
3.85584e-10
8.23675e-10
3.32353e-10
4.42405e-10
3.9575e-10
7.85393e-10
7.7576e-10
7.71457e-10
4.85496e-10
3.27784e-10
3.15137e-10
5.6341e-10
6.98944e-10
3.27633e-10
4.06212e-10
6.67609e-10
4.90803e-10
8.14451e-10
3.70638e-10
6.63117e-10
6.02336e-10
5.77139e-10
3.68781e-10
4.56965e-10
5.20577e-10
7.58391e-10
4.13808e-10
6.83603e-10
7.95867e-10
8.07536e-10
5.31119e-10
4.19134e-10
4.16975e-10
6.89786e-10
5.71462e-10
4.10956e-10
2.61131e-10
3.98874e-10
4.04638e-10
7.42172e-10
4.24685e-10
4.2933e-10
4.5821e-10
4.13978e-10
6.70822e-10
4.35224e-10
3.76056e-10
5.13755e-10
4.59872e-10
5.88593e-10
6.63455e-10
6.21647e-10
5.46397e-10
6.21564e-10
4.44975e-10
7.20386e-10
7.73115e-10
4.06349e-10
7.64357e-10
3.98049e-10
7.54578e-10
6.96837e-10
6.58175e-10
6.53603e-10
7.71188e-10
3.33513e-10
4.50038e-10
4.10654e-10
7.69987e-10
7.54932e-10
7.00396e-10
7.73774e-10
7.79585e-10
6.59377e-10
8.03128e-10
5.24993e-10
4.62628e-10
8.85762e-10
4.76875e-10
8.0521e-10
6.38837e-10
3.80568e-10
4.96247e-10
7.94813e-10
6.74526e-10
6.0416e-10
7.749e-10
7.69407e-10
4.72745e-10
4.90377e-10
4.51946e-10
6.84212e-10
7.4665e-10
8.58106e-10
8.23167e-10
8.96197e-10
8.12164e-10
8.87443e-10
7.4458e-10
7.92494e-10
7.98385e-10
7.52892e-10
7.91074e-10
7.35554e-10
7.24663e-10
4.7857e-10
6.71112e-10
7.80856e-10
5.34114e-10
8.15403e-10
7.49426e-10
8.46963e-10
4.86578e-10
8.04773e-10
7.72859e-10
4.82534e-10
7.05198e-10
4.78945e-10
7.86825e-10
7.06665e-10
5.02517e-10
4.692e-10
3.90984e-10
4.48577e-10
7.87651e-10
3.27507e-10
5.96639e-10
4.67103e-10
5.35291e-10
8.05425e-10
7.84705e-10
2.58819e-10
7.87288e-10
3.92146e-10
4.42121e-10
8.01464e-10
6.52436e-10
4.46496e-10
8.995e-10
4.96552e-10
2.58792e-10
4.52269e-10
7.00163e-10
8.79078e-10
6.58207e-10
7.93612e-10
7.34601e-10
3.94231e-10
3.72812e-10
2.89091e-10
3.2855e-10
5.35521e-10
3.9265e-10
6.40302e-10
3.86002e-10
7.04342e-10
4.96345e-10
4.52898e-10
5.59218e-10
4.9898e-10
6.86548e-10
4.78543e-10
4.85563e-10
2.39419e-10
5.27285e-10
7.59188e-10
7.59559e-10
6.74726e-10
4.78157e-10
3.3568e-10
9.42746e-10
6.17028e-10
5.07484e-10
4.65696e-10
4.95238e-10
4.79513e-10
6.23066e-10
4.72533e-10
3.12465e-10
4.67294e-10
3.04711e-10
6.07458e-10
4.7418e-10
2.23141e-10
4.48124e-10
5.55438e-10
4.73356e-10
7.66657e-10
4.93884e-10
6.55389e-10
2.27293e-10
5.24522e-10
4.8671e-10
4.54535e-10
4.56494e-10
5.51014e-10
5.33645e-10
5.52682e-10
4.52874e-10
4.61151e-10
5.00966e-10
6.9836e-10
4.69508e-10
6.8694e-10
6.16246e-10
5.05875e-10
4.87232e-10
4.94445e-10
5.53952e-10
4.94407e-10
4.59095e-10
5.26232e-10
5.76965e-10
6.67589e-10
4.94633e-10
4.85484e-10
7.32675e-10
7.22576e-10
4.69587e-10
5.05916e-10
1.83844e-10
5.87526e-10
3.77741e-10
5.47744e-10
1.74563e-10
1.81139e-10
1.62437e-10
1.64943e-10
1.75008e-10
1.83447e-10
1.89138e-10
6.33056e-10
4.79812e-10
4.63753e-10
5.22708e-10
5.05114e-10
4.98632e-10
5.42167e-10
4.87496e-10
4.98244e-10
5.41928e-10
4.96762e-10
6.39372e-10
4.40077e-10
6.56184e-10
4.96223e-10
4.74887e-10
4.97137e-10
5.60998e-10
5.6509e-10
5.21468e-10
6.03006e-10
5.57994e-10
5.11863e-10
3.60857e-10
5.198e-10
5.13098e-10
5.69187e-10
5.20897e-10
4.91328e-10
4.69219e-10
5.20035e-10
5.4777e-10
7.51417e-10
4.83291e-10
7.30419e-10
7.52627e-10
5.1119e-10
7.27956e-10
5.53369e-10
4.35925e-10
6.1648e-10
5.26341e-10
4.00024e-10
3.01622e-10
6.11497e-10
6.5335e-10
5.38068e-10
4.44644e-10
5.47291e-10
2.16779e-10
5.31865e-10
4.958e-10
2.31098e-10
1.04873e-10
1.14772e-10
4.61342e-10
4.83087e-10
5.67846e-10
5.40195e-10
5.49842e-11
5.7454e-11
5.47628e-10
5.5364e-10
5.23677e-10
1.62754e-10
4.50986e-10
5.46096e-10
5.40104e-10
4.65333e-10
4.11e-10
1.68541e-10
8.02415e-10
4.85753e-10
6.04759e-10
6.14239e-10
4.36312e-10
5.53553e-10
4.26656e-10
4.71305e-10
2.09819e-10
3.31132e-10
5.54154e-10
5.62923e-10
4.80134e-10
5.01947e-10
5.19935e-10
5.49142e-10
5.24798e-10
2.34252e-10
4.78373e-10
5.13985e-10
5.02139e-10
7.55976e-10
2.34205e-10
4.01308e-10
4.12867e-10
4.08023e-10
2.73085e-10
2.73082e-10
4.6494e-10
3.55174e-10
5.18323e-10
2.49641e-10
3.25277e-10
1.08384e-10
1.08377e-10
1.75073e-10
3.48887e-10
2.36178e-10
4.41049e-10
4.93947e-10
5.12117e-10
5.8062e-10
5.31198e-10
4.93508e-10
3.82547e-10
1.99268e-10
4.77844e-10
5.01504e-10
4.882e-10
2.3065e-10
2.58059e-10
1.71907e-10
4.87024e-10
4.92976e-10
3.80626e-10
4.44131e-10
4.10876e-10
3.89401e-10
5.04407e-10
3.89328e-10
4.41769e-10
4.34704e-10
2.76383e-10
3.41526e-10
2.68693e-10
5.3553e-10
1.80018e-10
1.91108e-10
1.84127e-10
5.08922e-10
1.689e-10
1.65443e-10
3.43528e-10
1.56216e-10
4.23873e-10
4.24474e-10
1.61289e-10
4.37529e-10
1.84115e-10
1.77389e-10
2.05077e-10
1.69122e-10
1.70732e-10
3.04399e-10
2.04104e-10
1.76886e-10
1.6999e-10
4.05803e-10
4.72075e-10
1.90857e-10
4.48005e-10
1.52195e-10
4.56302e-10
3.56663e-10
1.60055e-10
1.38775e-10
1.50487e-10
1.97139e-10
3.8699e-10
3.35169e-10
1.45327e-10
1.61047e-10
4.37737e-10
1.36727e-10
1.36717e-10
1.5484e-10
1.721e-10
1.6147e-10
2.2266e-10
3.60498e-10
3.37999e-10
4.37357e-10
1.36323e-10
1.36313e-10
4.00114e-10
1.3122e-10
3.06091e-10
1.19734e-10
1.28608e-10
1.69176e-10
3.48054e-10
3.60306e-10
3.8353e-10
3.51608e-10
3.48015e-10
7.73245e-11
5.61452e-10
9.80389e-11
9.58027e-11
4.53968e-10
4.50924e-10
9.93497e-11
6.88159e-11
9.63847e-11
4.17847e-10
SCALARS rr_Vli float
LOOKUP_TABLE default
4.72728e-10
1.13345e-09
9.02628e-10
1.18231e-09
6.24795e-10
9.57928e-10
4.67121e-10
1.17591e-09
1.00538e-09
1.27404e-09
4.26862e-10
1.17952e-09
1.03724e-09
1.09775e-09
1.29307e-09
1.07643e-09
9.29661e-10
1.04765e-09
9.31639e-10
9.14962e-10
1.02883e-09
1.87667e-10
1.05401e-09
9.71975e-10
8.80976e-10
1.01975e-09
4.01424e-10
8.93999e-10
6.87524e-10
8.40331e-10
9.16214e-10
7.10838e-10
4.44573e-10
6.28284e-10
6.18366e-10
6.29675e-10
8.17295e-10
6.19353e-10
9.15238e-10
4.9975e-10
5.77954e-10
7.20414e-10
7.20462e-10
1.00559e-09
5.59804e-10
6.27578e-10
8.77638e-10
8.90492e-10
8.36657e-10
7.81917e-10
8.04931e-10
6.28977e-10
1.00216e-09
8.08344e-10
9.22375e-10
4.07937e-10
6.60283e-10
8.143e-10
6.60237e-10
9.97641e-10
1.18631e-09
1.1665e-09
3.9786e-10
8.22453e-10
1.11734e-09
1.05158e-09
1.14766e-09
9.90483e-10
9.0876e-10
1.30085e-09
1.0872e-09
1.07533e-09
7.1407e-10
8.52189e-10
8.9727e-10
4.56569e-10
9.32901e-10
1.04178e-09
9.98786e-10
6.94653e-10
6.20266e-10
7.06097e-10
1.32623e-09
6.19357e-10
8.42719e-10
3.08161e-10
1.03269e-09
8.67631e-10
5.92977e-10
9.21631e-11
7.00427e-10
1.00229e-10
7.91703e-10
7.54504e-10
6.63211e-10
5.99517e-10
5.69981e-10
1.11846e-09
9.33543e-10
8.9088e-10
7.49939e-10
7.13757e-10
5.94437e-10
1.05818e-09
1.07653e-09
9.69502e-10
8.56058e-10
8.63332e-10
6.30891e-10
1.29251e-09
8.27213e-10
4.23155e-10
5.67775e-10
1.15792e-09
1.08567e-09
7.80871e-10
7.65641e-10
4.73475e-10
7.94033e-10
7.77942e-10
6.81096e-10
1.25993e-09
1.29159e-09
1.11263e-09
1.22156e-09
9.64042e-10
5.48736e-10
1.20752e-09
5.1617e-10
6.72537e-10
5.67908e-10
1.15207e-09
1.12909e-09
1.1313e-09
7.4246e-10
4.65113e-10
4.92578e-10
8.2847e-10
1.01681e-09
4.64937e-10
6.20455e-10
9.7796e-10
7.34253e-10
1.19366e-09
5.76163e-10
9.73392e-10
8.83671e-10
8.52073e-10
5.4458e-10
6.89336e-10
7.73805e-10
1.11192e-09
6.37688e-10
1.00569e-09
1.16649e-09
1.18445e-09
7.7637e-10
6.39448e-10
6.35931e-10
1.01514e-09
8.48909e-10
6.32697e-10
4.1299e-10
6.1665e-10
6.17491e-10
1.08848e-09
6.48005e-10
6.55148e-10
7.06047e-10
6.31546e-10
9.66747e-10
6.62174e-10
5.81514e-10
7.50415e-10
6.99573e-10
8.55384e-10
9.56201e-10
9.13123e-10
7.83529e-10
9.11482e-10
6.85432e-10
1.05615e-09
1.13353e-09
6.20585e-10
1.11344e-09
6.16023e-10
1.09943e-09
1.01209e-09
9.48154e-10
9.58062e-10
1.12326e-09
5.17591e-10
6.8458e-10
6.32584e-10
1.12924e-09
1.1106e-09
1.02988e-09
1.12628e-09
1.1431e-09
9.62304e-10
1.17737e-09
7.83941e-10
7.0214e-10
1.28939e-09
7.34317e-10
1.17142e-09
9.32179e-10
5.82521e-10
7.18231e-10
1.16507e-09
9.75427e-10
8.8384e-10
1.13707e-09
1.11928e-09
7.12989e-10
7.16841e-10
6.85127e-10
9.93801e-10
1.09277e-09
1.25589e-09
1.20602e-09
1.31242e-09
1.18928e-09
1.29962e-09
1.0906e-09
1.14575e-09
1.15456e-09
1.08851e-09
1.14358e-09
1.0559e-09
1.04022e-09
7.22278e-10
9.82802e-10
1.14777e-09
7.93854e-10
1.17816e-09
1.08247e-09
1.24458e-09
7.38292e-10
1.18328e-09
1.13292e-09
7.27341e-10
1.02058e-09
7.22273e-10
1.14428e-09
1.03944e-09
7.57327e-10
7.10962e-10
6.07666e-10
6.98076e-10
1.14573e-09
5.09922e-10
8.7871e-10
7.08155e-10
7.99898e-10
1.18435e-09
1.14867e-09
3.65758e-10
1.15272e-09
6.10761e-10
6.70312e-10
1.17809e-09
9.58321e-10
6.77807e-10
1.31677e-09
7.42455e-10
3.65746e-10
6.85528e-10
1.02455e-09
1.28137e-09
9.67851e-10
1.14692e-09
1.07053e-09
5.65608e-10
5.4857e-10
4.54746e-10
5.20144e-10
7.70128e-10
5.81698e-10
9.405e-10
5.81904e-10
1.01921e-09
7.2501e-10
6.86547e-10
8.16585e-10
7.49871e-10
1.00678e-09
7.1909e-10
7.36577e-10
3.36184e-10
7.59279e-10
1.09669e-09
1.0974e-09
9.88282e-10
7.17963e-10
4.78146e-10
1.37463e-09
9.16443e-10
7.61768e-10
7.01265e-10
7.12244e-10
7.22841e-10
8.98058e-10
7.10732e-10
4.95687e-10
7.01844e-10
4.73757e-10
8.82163e-10
7.14768e-10
3.13345e-10
6.74003e-10
8.08325e-10
7.14389e-10
1.11656e-09
7.43052e-10
9.66658e-10
3.59401e-10
7.75193e-10
7.33847e-10
6.54007e-10
6.88713e-10
8.18486e-10
7.77009e-10
8.10011e-10
6.81291e-10
6.9254e-10
7.49243e-10
1.01426e-09
7.05195e-10
1.00893e-09
9.09039e-10
7.25861e-10
7.31667e-10
7.39846e-10
8.21555e-10
7.38987e-10
6.90169e-10
7.86377e-10
8.35741e-10
9.80784e-10
7.39821e-10
7.32194e-10
1.07364e-09
1.05867e-09
7.05597e-10
7.25985e-10
3.0329e-10
8.66881e-10
5.87176e-10
8.12029e-10
3.21885e-10
3.34078e-10
2.98911e-10
3.03712e-10
3.22202e-10
3.38836e-10
3.49215e-10
9.19082e-10
6.84996e-10
6.82369e-10
7.76798e-10
7.54825e-10
7.45353e-10
7.95014e-10
7.29199e-10
7.45643e-10
7.73554e-10
7.42581e-10
9.24773e-10
6.69647e-10
9.50027e-10
7.33059e-10
7.05788e-10
7.434e-10
8.06612e-10
8.33742e-10
7.74501e-10
8.89606e-10
8.28691e-10
7.65889e-10
5.48326e-10
7.72616e-10
7.57679e-10
8.23048e-10
7.77705e-10
7.35864e-10
7.00742e-10
7.73358e-10
8.09083e-10
1.10175e-09
7.21847e-10
1.07111e-09
1.11266e-09
7.60029e-10
1.06905e-09
8.17864e-10
6.51817e-10
8.97921e-10
7.80932e-10
5.7147e-10
4.78277e-10
8.87754e-10
9.46423e-10
7.94693e-10
6.59471e-10
7.98751e-10
3.57029e-10
7.85643e-10
7.35729e-10
3.65192e-10
1.47337e-10
1.61198e-10
6.80815e-10
7.21951e-10
8.41645e-10
8.06425e-10
7.62133e-11
7.96359e-11
8.04305e-10
8.12877e-10
7.69281e-10
2.68028e-10
6.75049e-10
7.94449e-10
8.02786e-10
6.92228e-10
6.11088e-10
2.78555e-10
1.16923e-09
7.26307e-10
8.92578e-10
9.06546e-10
6.49199e-10
8.22225e-10
6.34788e-10
7.00684e-10
3.35963e-10
5.14724e-10
8.2318e-10
8.30682e-10
7.12298e-10
7.47077e-10
7.71814e-10
8.14226e-10
7.7858e-10
3.71537e-10
6.90939e-10
7.67802e-10
7.33006e-10
1.10103e-09
3.71517e-10
5.92513e-10
6.10083e-10
5.85426e-10
3.83912e-10
3.83927e-10
6.69595e-10
5.31726e-10
7.65216e-10
3.97016e-10
4.58099e-10
1.50523e-10
1.50519e-10
2.89964e-10
4.9559e-10
3.34351e-10
6.51726e-10
7.1222e-10
7.53573e-10
8.50617e-10
7.73542e-10
7.16946e-10
5.61872e-10
3.28444e-10
7.04401e-10
7.32556e-10
7.10339e-10
3.72991e-10
3.66319e-10
2.72055e-10
7.09056e-10
7.21824e-10
5.7302e-10
6.53723e-10
6.03691e-10
5.5842e-10
7.40257e-10
5.58353e-10
6.51864e-10
6.32304e-10
3.91831e-10
4.8389e-10
4.268e-10
7.8365e-10
2.94591e-10
3.11249e-10
3.02761e-10
7.41499e-10
2.78443e-10
2.73254e-10
5.11264e-10
2.56037e-10
6.05431e-10
6.06328e-10
2.63393e-10
6.48891e-10
2.94557e-10
2.9028e-10
3.29231e-10
2.76887e-10
2.73899e-10
4.32267e-10
3.25983e-10
2.91519e-10
2.77927e-10
5.96444e-10
6.84588e-10
3.07321e-10
6.58368e-10
2.50867e-10
6.68665e-10
5.28648e-10
2.62714e-10
2.23827e-10
2.47754e-10
3.26505e-10
5.72089e-10
4.7813e-10
2.022e-10
2.24327e-10
6.40542e-10
1.90297e-10
1.90291e-10
2.15596e-10
2.41266e-10
2.57145e-10
3.15795e-10
5.18879e-10
4.82147e-10
6.40689e-10
1.90751e-10
1.90746e-10
5.69824e-10
2.17744e-10
4.54048e-10
1.97834e-10
2.03842e-10
2.68349e-10
4.90665e-10
5.08039e-10
5.41097e-10
4.95953e-10
4.90639e-10
1.07747e-10
7.91892e-10
1.37186e-10
1.33266e-10
6.39867e-10
6.35482e-10
1.38137e-10
9.58616e-11
1.34823e-10
5.89837e-10
SCALARS rr_S_ext' float
LOOKUP_TABLE default
-6.66813e-14
-1.51741e-13
-1.2116e-13
-1.5828e-13
-8.3797e-14
-1.28645e-13
-6.58854e-14
-1.57692e-13
-1.35363e-13
-1.71016e-13
-5.86022e-14
-1.5826e-13
-1.39247e-13
-1.47064e-13
-1.73341e-13
-1.44468e-13
-1.2446e-13
-1.40664e-13
-1.25395e-13
-1.2287e-13
-1.383e-13
-2.51392e-14
-1.41712e-13
-1.30632e-13
-1.18309e-13
-1.36651e-13
-5.50355e-14
-1.20073e-13
-9.34177e-14
-1.12609e-13
-1.22942e-13
-9.64468e-14
-6.10823e-14
-8.41277e-14
-8.27065e-14
-8.42633e-14
-1.09187e-13
-8.28653e-14
-1.22961e-13
-6.8639e-14
-7.83911e-14
-9.61787e-14
-9.61269e-14
-1.34932e-13
-7.64169e-14
-8.52718e-14
-1.18117e-13
-1.19759e-13
-1.12329e-13
-1.06368e-13
-1.09237e-13
-8.51113e-14
-1.34093e-13
-1.09532e-13
-1.23434e-13
-5.59697e-14
-8.83508e-14
-1.10228e-13
-8.82851e-14
-1.33939e-13
-1.58791e-13
-1.56118e-13
-5.45344e-14
-1.10109e-13
-1.49571e-13
-1.40964e-13
-1.53635e-13
-1.32741e-13
-1.22035e-13
-1.74534e-13
-1.45535e-13
-1.43854e-13
-9.69417e-14
-1.14183e-13
-1.20432e-13
-6.31116e-14
-1.24916e-13
-1.39596e-13
-1.33867e-13
-9.3862e-14
-8.44447e-14
-9.44786e-14
-1.77772e-13
-8.45502e-14
-1.14304e-13
-4.21584e-14
-1.38604e-13
-1.16472e-13
-8.09207e-14
-1.24389e-14
-9.47877e-14
-1.3539e-14
-1.05975e-13
-1.01301e-13
-8.98454e-14
-8.13588e-14
-7.76938e-14
-1.4987e-13
-1.24958e-13
-1.19547e-13
-1.01192e-13
-9.68493e-14
-8.09269e-14
-1.41755e-13
-1.4438e-13
-1.29873e-13
-1.14629e-13
-1.16016e-13
-8.59884e-14
-1.72975e-13
-1.11083e-13
-5.77993e-14
-7.7334e-14
-1.55324e-13
-1.45449e-13
-1.05825e-13
-1.02829e-13
-6.47057e-14
-1.06734e-13
-1.05319e-13
-9.17859e-14
-1.68625e-13
-1.72971e-13
-1.49069e-13
-1.63893e-13
-1.28981e-13
-7.37244e-14
-1.61972e-13
-7.04031e-14
-9.09996e-14
-7.59884e-14
-1.54235e-13
-1.51211e-13
-1.51436e-13
-1.00802e-13
-6.22789e-14
-6.73754e-14
-1.11179e-13
-1.36411e-13
-6.22194e-14
-8.40826e-14
-1.31296e-13
-9.89763e-14
-1.6002e-13
-7.87387e-14
-1.30395e-13
-1.18668e-13
-1.14593e-13
-7.31619e-14
-9.30698e-14
-1.04163e-13
-1.49074e-13
-8.6452e-14
-1.34925e-13
-1.56268e-13
-1.58567e-13
-1.04027e-13
-8.68128e-14
-8.62499e-14
-1.36088e-13
-1.14179e-13
-8.57885e-14
-5.6567e-14
-8.36925e-14
-8.36765e-14
-1.45824e-13
-8.79217e-14
-8.89568e-14
-9.58435e-14
-8.55918e-14
-1.29439e-13
-8.95997e-14
-7.90335e-14
-1.00531e-13
-9.47614e-14
-1.14512e-13
-1.27955e-13
-1.22706e-13
-1.04873e-13
-1.22368e-13
-9.31812e-14
-1.41464e-13
-1.51954e-13
-8.40806e-14
-1.49188e-13
-8.38096e-14
-1.47204e-13
-1.35586e-13
-1.27258e-13
-1.28332e-13
-1.50549e-13
-7.06551e-14
-9.26093e-14
-8.57954e-14
-1.51185e-13
-1.48852e-13
-1.38072e-13
-1.50723e-13
-1.53169e-13
-1.28953e-13
-1.57743e-13
-1.0555e-13
-9.49193e-14
-1.72604e-13
-9.97987e-14
-1.56808e-13
-1.25219e-13
-7.89661e-14
-9.61821e-14
-1.56287e-13
-1.30979e-13
-1.18497e-13
-1.52386e-13
-1.50162e-13
-9.62453e-14
-9.61091e-14
-9.26506e-14
-1.33065e-13
-1.46528e-13
-1.68267e-13
-1.61372e-13
-1.75648e-13
-1.59182e-13
-1.73922e-13
-1.46435e-13
-1.53284e-13
-1.54496e-13
-1.45653e-13
-1.53098e-13
-1.41823e-13
-1.39615e-13
-9.7464e-14
-1.31878e-13
-1.53806e-13
-1.06819e-13
-1.58173e-13
-1.45245e-13
-1.66934e-13
-9.97174e-14
-1.58365e-13
-1.51887e-13
-9.82253e-14
-1.36625e-13
-9.75388e-14
-1.53586e-13
-1.39096e-13
-1.02208e-13
-9.60751e-14
-8.2719e-14
-9.48362e-14
-1.53356e-13
-6.96894e-14
-1.17921e-13
-9.57634e-14
-1.07726e-13
-1.58521e-13
-1.53844e-13
-4.89576e-14
-1.54253e-13
-8.36598e-14
-9.05611e-14
-1.57767e-13
-1.28576e-13
-9.16072e-14
-1.76267e-13
-1.00078e-13
-4.89224e-14
-9.26607e-14
-1.37418e-13
-1.71837e-13
-1.29692e-13
-1.53919e-13
-1.43801e-13
-7.5697e-14
-7.3635e-14
-6.20376e-14
-7.13441e-14
-1.03362e-13
-7.81555e-14
-1.26142e-13
-7.85838e-14
-1.36495e-13
-9.71225e-14
-9.27501e-14
-1.09441e-13
-1.01139e-13
-1.35282e-13
-9.70573e-14
-9.94826e-14
-4.50683e-14
-1.01617e-13
-1.46742e-13
-1.46788e-13
-1.32408e-13
-9.69205e-14
-6.3997e-14
-1.8413e-13
-1.23352e-13
-1.02769e-13
-9.4692e-14
-9.5344e-14
-9.76017e-14
-1.2062e-13
-9.60057e-14
-6.77067e-14
-9.47063e-14
-6.45807e-14
-1.18121e-13
-9.64619e-14
-4.20089e-14
-9.09961e-14
-1.08508e-13
-9.64188e-14
-1.49906e-13
-1.00265e-13
-1.29922e-13
-4.94421e-14
-1.04035e-13
-9.91111e-14
-8.7536e-14
-9.29385e-14
-1.10166e-13
-1.04303e-13
-1.0843e-13
-9.19655e-14
-9.34623e-14
-1.0096e-13
-1.36205e-13
-9.51376e-14
-1.35561e-13
-1.22022e-13
-9.71818e-14
-9.87714e-14
-9.9656e-14
-1.10537e-13
-9.95867e-14
-9.31208e-14
-1.05933e-13
-1.1215e-13
-1.31521e-13
-9.97067e-14
-9.88198e-14
-1.43971e-13
-1.41974e-13
-9.51751e-14
-9.71485e-14
-4.17307e-14
-1.16579e-13
-7.99819e-14
-1.09267e-13
-4.51579e-14
-4.69428e-14
-4.17267e-14
-4.2422e-14
-4.4864e-14
-4.80337e-14
-4.95518e-14
-1.23338e-13
-9.195e-14
-9.16293e-14
-1.04526e-13
-1.01578e-13
-1.0044e-13
-1.06813e-13
-9.82547e-14
-1.00442e-13
-1.03946e-13
-1.00038e-13
-1.24069e-13
-9.05954e-14
-1.27094e-13
-9.85237e-14
-9.4937e-14
-1.00192e-13
-1.08352e-13
-1.11974e-13
-1.04165e-13
-1.19479e-13
-1.11431e-13
-1.03165e-13
-7.41127e-14
-1.03946e-13
-1.01782e-13
-1.10211e-13
-1.04738e-13
-9.90977e-14
-9.43357e-14
-1.03987e-13
-1.08648e-13
-1.47781e-13
-9.71827e-14
-1.43652e-13
-1.49586e-13
-1.0219e-13
-1.43374e-13
-1.09784e-13
-8.78271e-14
-1.20235e-13
-1.04981e-13
-7.64845e-14
-6.53027e-14
-1.18881e-13
-1.27102e-13
-1.06716e-13
-8.86924e-14
-1.07022e-13
-4.92448e-14
-1.05461e-13
-9.89406e-14
-5.01938e-14
-1.98093e-14
-2.17011e-14
-9.15092e-14
-9.72012e-14
-1.13167e-13
-1.08578e-13
-1.02965e-14
-1.07361e-14
-1.07973e-13
-1.0903e-13
-1.03187e-13
-3.71726e-14
-9.09278e-14
-1.06603e-13
-1.08022e-13
-9.31415e-14
-8.22077e-14
-3.83071e-14
-1.56857e-13
-9.77661e-14
-1.19871e-13
-1.21764e-13
-8.73442e-14
-1.10577e-13
-8.54333e-14
-9.43202e-14
-4.62322e-14
-7.0181e-14
-1.10707e-13
-1.11656e-13
-9.57684e-14
-1.00509e-13
-1.03762e-13
-1.09509e-13
-1.047e-13
-5.08454e-14
-9.24979e-14
-1.03349e-13
-9.82001e-14
-1.47502e-13
-5.07287e-14
-7.95727e-14
-8.18854e-14
-7.86062e-14
-5.12832e-14
-5.12498e-14
-8.9813e-14
-7.16162e-14
-1.02866e-13
-5.44031e-14
-6.12264e-14
-2.01704e-14
-2.0154e-14
-3.99479e-14
-6.63156e-14
-4.47302e-14
-8.75561e-14
-9.53401e-14
-1.01024e-13
-1.14141e-13
-1.03575e-13
-9.6027e-14
-7.54792e-14
-4.52618e-14
-9.45426e-14
-9.83674e-14
-9.53217e-14
-5.15841e-14
-4.90092e-14
-3.76053e-14
-9.48933e-14
-9.69073e-14
-7.73492e-14
-8.76789e-14
-8.10988e-14
-7.47305e-14
-9.92479e-14
-7.46875e-14
-8.74852e-14
-8.46953e-14
-5.26247e-14
-6.50596e-14
-5.85728e-14
-1.0516e-13
-4.115e-14
-4.35386e-14
-4.2242e-14
-9.93523e-14
-3.85269e-14
-3.81583e-14
-6.88001e-14
-3.56434e-14
-8.10217e-14
-8.11058e-14
-3.66869e-14
-8.71508e-14
-4.07068e-14
-4.07988e-14
-4.53593e-14
-3.88687e-14
-3.76993e-14
-5.78622e-14
-4.47299e-14
-4.03468e-14
-3.86662e-14
-8.00352e-14
-9.16574e-14
-4.24741e-14
-8.83426e-14
-3.48934e-14
-8.96484e-14
-7.10552e-14
-3.69881e-14
-3.08468e-14
-3.48383e-14
-4.49478e-14
-7.68242e-14
-6.39968e-14
-2.70406e-14
-3.00152e-14
-8.58425e-14
-2.54754e-14
-2.5454e-14
-2.88602e-14
-3.23464e-14
-3.52225e-14
-4.22541e-14
-6.96735e-14
-6.4783e-14
-8.602e-14
-2.56077e-14
-2.55875e-14
-7.64807e-14
-2.99418e-14
-6.10094e-14
-2.74558e-14
-2.8198e-14
-3.68582e-14
-6.54923e-14
-6.77904e-14
-7.22547e-14
-6.62611e-14
-6.54392e-14
-1.44708e-14
-1.0628e-13
-1.84673e-14
-1.79507e-14
-8.5854e-14
-8.52284e-14
-1.86033e-14
-1.28449e-14
-1.81034e-14
-7.90791e-14
SCALARS rr_P_ext' float
LOOKUP_TABLE default
6.66369e-14
1.51656e-13
1.21092e-13
1.58191e-13
8.37511e-14
1.28572e-13
6.58416e-14
1.57604e-13
1.35285e-13
1.7092e-13
5.85641e-14
1.58171e-13
1.39169e-13
1.46982e-13
1.73245e-13
1.44386e-13
1.24391e-13
1.40585e-13
1.25323e-13
1.228e-13
1.38222e-13
2.51258e-14
1.41631e-13
1.30558e-13
1.18242e-13
1.36574e-13
5.50008e-14
1.20005e-13
9.33618e-14
1.12547e-13
1.22873e-13
9.63892e-14
6.10436e-14
8.40819e-14
8.26617e-14
8.42174e-14
1.09128e-13
8.28203e-14
1.22892e-13
6.85957e-14
7.83443e-14
9.61267e-14
9.6075e-14
1.34856e-13
7.63694e-14
8.52208e-14
1.1805e-13
1.19691e-13
1.12265e-13
1.06303e-13
1.09171e-13
8.50612e-14
1.34019e-13
1.09468e-13
1.23366e-13
5.59351e-14
8.83029e-14
1.10163e-13
8.82373e-14
1.33863e-13
1.58702e-13
1.56032e-13
5.45005e-14
1.10048e-13
1.49488e-13
1.40886e-13
1.5355e-13
1.32666e-13
1.21966e-13
1.74436e-13
1.45455e-13
1.43775e-13
9.68838e-14
1.14119e-13
1.20364e-13
6.30711e-14
1.24847e-13
1.39518e-13
1.33792e-13
9.3807e-14
8.43936e-14
9.44271e-14
1.77674e-13
8.44986e-14
1.14236e-13
4.21323e-14
1.38525e-13
1.16407e-13
8.08705e-14
1.24321e-14
9.4732e-14
1.35316e-14
1.05916e-13
1.01244e-13
8.97925e-14
8.13099e-14
7.76468e-14
1.49786e-13
1.24889e-13
1.1948e-13
1.01133e-13
9.67919e-14
8.08776e-14
1.41676e-13
1.44299e-13
1.298e-13
1.14565e-13
1.15951e-13
8.5936e-14
1.72879e-13
1.11021e-13
5.77635e-14
7.72866e-14
1.55237e-13
1.45368e-13
1.05763e-13
1.02773e-13
6.46664e-14
1.06676e-13
1.05258e-13
9.17331e-14
1.68532e-13
1.72874e-13
1.48986e-13
1.63801e-13
1.2891e-13
7.36841e-14
1.61881e-13
7.03605e-14
9.09462e-14
7.59468e-14
1.54148e-13
1.51126e-13
1.51351e-13
1.00742e-13
6.2245e-14
6.73342e-14
1.11117e-13
1.36335e-13
6.21857e-14
8.40329e-14
1.31222e-13
9.89194e-14
1.5993e-13
7.86909e-14
1.30322e-13
1.18601e-13
1.14528e-13
7.31205e-14
9.30157e-14
1.04103e-13
1.4899e-13
8.64004e-14
1.34849e-13
1.5618e-13
1.58478e-13
1.03969e-13
8.67615e-14
8.61989e-14
1.36012e-13
1.14114e-13
8.57373e-14
5.65319e-14
8.36423e-14
8.3627e-14
1.45742e-13
8.78698e-14
8.89041e-14
9.57862e-14
8.55412e-14
1.29368e-13
8.9547e-14
7.8986e-14
1.00475e-13
9.47056e-14
1.14448e-13
1.27885e-13
1.22637e-13
1.04816e-13
1.22299e-13
9.31254e-14
1.41385e-13
1.51869e-13
8.40309e-14
1.49105e-13
8.37591e-14
1.47122e-13
1.35511e-13
1.27187e-13
1.2826e-13
1.50466e-13
7.06123e-14
9.25549e-14
8.57442e-14
1.511e-13
1.48769e-13
1.37995e-13
1.5064e-13
1.53083e-13
1.28881e-13
1.57655e-13
1.0549e-13
9.48637e-14
1.72508e-13
9.9739e-14
1.56721e-13
1.25149e-13
7.89193e-14
9.61289e-14
1.56199e-13
1.30906e-13
1.18431e-13
1.52301e-13
1.50079e-13
9.61893e-14
9.60554e-14
9.25964e-14
1.32991e-13
1.46446e-13
1.68173e-13
1.61282e-13
1.7555e-13
1.59093e-13
1.73825e-13
1.46353e-13
1.53199e-13
1.54411e-13
1.45573e-13
1.53013e-13
1.41745e-13
1.39538e-13
9.74074e-14
1.31804e-13
1.53719e-13
1.06759e-13
1.58085e-13
1.45165e-13
1.6684e-13
9.9659e-14
1.58276e-13
1.51802e-13
9.81682e-14
1.36549e-13
9.74821e-14
1.53501e-13
1.39018e-13
1.02148e-13
9.6019e-14
8.26689e-14
9.47788e-14
1.53271e-13
6.9647e-14
1.17855e-13
9.57074e-14
1.07664e-13
1.58432e-13
1.53758e-13
4.89311e-14
1.54166e-13
8.36088e-14
9.05082e-14
1.57678e-13
1.28504e-13
9.15535e-14
1.76169e-13
1.00021e-13
4.8896e-14
9.26065e-14
1.37341e-13
1.71741e-13
1.29619e-13
1.53833e-13
1.43721e-13
7.56555e-14
7.35935e-14
6.19994e-14
7.12997e-14
1.03305e-13
7.81112e-14
1.26071e-13
7.85381e-14
1.36419e-13
9.70684e-14
9.26959e-14
1.0938e-13
1.0108e-13
1.35206e-13
9.70012e-14
9.94245e-14
4.5044e-14
1.01561e-13
1.46661e-13
1.46707e-13
1.32334e-13
9.68644e-14
6.39622e-14
1.84027e-13
1.23282e-13
1.0271e-13
9.46371e-14
9.52916e-14
9.75451e-14
1.20553e-13
9.59501e-14
6.76646e-14
9.46516e-14
6.45415e-14
1.18055e-13
9.64059e-14
4.19863e-14
9.09434e-14
1.08447e-13
9.63627e-14
1.49822e-13
1.00207e-13
1.29848e-13
4.94113e-14
1.03976e-13
9.90535e-14
8.74879e-14
9.28845e-14
1.10103e-13
1.04244e-13
1.08369e-13
9.19122e-14
9.34083e-14
1.00902e-13
1.36129e-13
9.50827e-14
1.35485e-13
1.21953e-13
9.71285e-14
9.87143e-14
9.95987e-14
1.10474e-13
9.95296e-14
9.30669e-14
1.05872e-13
1.12088e-13
1.31447e-13
9.96494e-14
9.87624e-14
1.4389e-13
1.41895e-13
9.51201e-14
9.70953e-14
4.17034e-14
1.16513e-13
7.99335e-14
1.09205e-13
4.51236e-14
4.69071e-14
4.16953e-14
4.239e-14
4.48302e-14
4.79968e-14
4.95137e-14
1.23269e-13
9.18997e-14
9.15777e-14
1.04466e-13
1.0152e-13
1.00382e-13
1.06753e-13
9.81983e-14
1.00384e-13
1.03889e-13
9.99805e-14
1.24001e-13
9.05422e-14
1.27024e-13
9.8468e-14
9.48829e-14
1.00134e-13
1.08292e-13
1.1191e-13
1.04106e-13
1.19411e-13
1.11367e-13
1.03105e-13
7.40692e-14
1.03886e-13
1.01725e-13
1.1015e-13
1.04678e-13
9.90407e-14
9.42816e-14
1.03928e-13
1.08586e-13
1.47698e-13
9.7127e-14
1.43571e-13
1.49501e-13
1.02132e-13
1.43294e-13
1.09721e-13
8.77766e-14
1.20168e-13
1.04921e-13
7.64427e-14
6.52622e-14
1.18815e-13
1.27032e-13
1.06656e-13
8.8642e-14
1.06962e-13
4.92125e-14
1.05402e-13
9.88844e-14
5.01626e-14
1.97986e-14
2.16893e-14
9.14575e-14
9.71454e-14
1.13103e-13
1.08516e-13
1.02909e-14
1.07303e-14
1.07912e-13
1.08969e-13
1.03129e-13
3.71482e-14
9.08755e-14
1.06544e-13
1.07961e-13
9.30883e-14
8.21608e-14
3.8282e-14
1.56769e-13
9.771e-14
1.19803e-13
1.21695e-13
8.72944e-14
1.10514e-13
8.53846e-14
9.42664e-14
4.62029e-14
7.01385e-14
1.10644e-13
1.11592e-13
9.5714e-14
1.00452e-13
1.03703e-13
1.09446e-13
1.0464e-13
5.08137e-14
9.24469e-14
1.0329e-13
9.81453e-14
1.4742e-13
5.06972e-14
7.95277e-14
8.18391e-14
7.8563e-14
5.12556e-14
5.12223e-14
8.97635e-14
7.1575e-14
1.02808e-13
5.43691e-14
6.11934e-14
2.01596e-14
2.01432e-14
3.99216e-14
6.62796e-14
4.4706e-14
8.75065e-14
9.52876e-14
1.00968e-13
1.14077e-13
1.03518e-13
9.59738e-14
7.54367e-14
4.52321e-14
9.44893e-14
9.83124e-14
9.52687e-14
5.1551e-14
4.89826e-14
3.75817e-14
9.48406e-14
9.6853e-14
7.73044e-14
8.76296e-14
8.10532e-14
7.46895e-14
9.91923e-14
7.46466e-14
8.74359e-14
8.46482e-14
5.25961e-14
6.50241e-14
5.85362e-14
1.05101e-13
4.11229e-14
4.351e-14
4.22141e-14
9.9297e-14
3.85016e-14
3.81329e-14
6.87608e-14
3.56199e-14
8.09774e-14
8.10616e-14
3.66629e-14
8.71013e-14
4.06809e-14
4.07718e-14
4.53304e-14
3.8843e-14
3.76754e-14
5.78308e-14
4.47018e-14
4.03203e-14
3.86408e-14
7.99902e-14
9.16067e-14
4.24469e-14
8.82929e-14
3.48703e-14
8.95982e-14
7.10149e-14
3.69635e-14
3.08271e-14
3.48151e-14
4.49182e-14
7.67808e-14
6.39619e-14
2.70261e-14
2.99991e-14
8.57945e-14
2.54617e-14
2.54404e-14
2.88447e-14
3.23289e-14
3.52005e-14
4.22312e-14
6.9635e-14
6.47475e-14
8.59718e-14
2.55939e-14
2.55737e-14
7.64389e-14
2.99221e-14
6.09747e-14
2.74377e-14
2.81803e-14
3.68352e-14
6.5457e-14
6.77539e-14
7.22157e-14
6.62253e-14
6.5404e-14
1.4463e-14
1.06222e-13
1.84573e-14
1.7941e-14
8.58075e-14
8.51823e-14
1.85932e-14
1.2838e-14
1.80936e-14
7.90363e-14
SCALARS rr_S' float
LOOKUP_TABLE default
-3.70561e-15
-7.48631e-15
-6.02525e-15
-7.82272e-15
-4.03275e-15
-6.39872e-15
-3.66536e-15
-7.79687e-15
-6.78859e-15
-8.43654e-15
-3.26886e-15
-7.82486e-15
-6.89821e-15
-7.24505e-15
-8.41921e-15
-7.17305e-15
-6.11129e-15
-6.96434e-15
-6.32066e-15
-6.12628e-15
-6.90342e-15
-1.17429e-15
-7.07469e-15
-6.51227e-15
-5.89959e-15
-6.75481e-15
-2.98322e-15
-5.96522e-15
-4.86316e-15
-5.35004e-15
-6.09251e-15
-5.01937e-15
-3.31445e-15
-4.01925e-15
-3.93882e-15
-4.02614e-15
-5.18239e-15
-3.9509e-15
-6.09427e-15
-3.72347e-15
-4.08093e-15
-4.56324e-15
-4.56123e-15
-6.68615e-15
-4.10547e-15
-4.42927e-15
-5.93971e-15
-5.99524e-15
-5.58547e-15
-5.58432e-15
-5.70556e-15
-4.37281e-15
-6.46321e-15
-5.62534e-15
-5.95385e-15
-2.98348e-15
-4.20677e-15
-5.66087e-15
-4.20405e-15
-6.67491e-15
-7.80194e-15
-7.60748e-15
-2.91526e-15
-5.36702e-15
-7.28754e-15
-6.91994e-15
-7.54629e-15
-6.561e-15
-6.08865e-15
-8.60931e-15
-7.01613e-15
-6.93553e-15
-5.04696e-15
-5.58837e-15
-5.98645e-15
-3.45647e-15
-6.05434e-15
-6.85341e-15
-6.6172e-15
-4.81194e-15
-4.43606e-15
-4.53287e-15
-8.69878e-15
-4.46467e-15
-5.92197e-15
-2.25783e-15
-6.88601e-15
-5.70851e-15
-4.34576e-15
-5.83134e-16
-4.86871e-15
-6.34808e-16
-5.13409e-15
-4.97853e-15
-4.60968e-15
-4.25521e-15
-4.0781e-15
-7.39472e-15
-6.0572e-15
-5.92746e-15
-5.13095e-15
-5.00221e-15
-4.27257e-15
-7.01313e-15
-7.12965e-15
-6.41206e-15
-5.60102e-15
-5.75693e-15
-4.5412e-15
-8.52364e-15
-5.53519e-15
-3.09096e-15
-4.10413e-15
-7.68807e-15
-7.18422e-15
-5.43184e-15
-4.8964e-15
-3.39845e-15
-5.08374e-15
-5.4036e-15
-4.6374e-15
-8.19926e-15
-8.53548e-15
-7.30651e-15
-8.07028e-15
-6.25931e-15
-3.52221e-15
-7.99244e-15
-3.69593e-15
-4.66888e-15
-3.66345e-15
-7.61553e-15
-7.40309e-15
-7.47497e-15
-5.20498e-15
-2.96604e-15
-3.56131e-15
-5.50409e-15
-6.67484e-15
-2.96351e-15
-4.33605e-15
-6.47313e-15
-4.99159e-15
-7.8937e-15
-4.13759e-15
-6.44338e-15
-5.85996e-15
-5.69749e-15
-3.63861e-15
-4.73578e-15
-5.21696e-15
-7.35657e-15
-4.5008e-15
-6.68328e-15
-7.70921e-15
-7.82872e-15
-5.11714e-15
-4.47118e-15
-4.44055e-15
-6.74345e-15
-5.71498e-15
-4.46172e-15
-3.02799e-15
-4.37213e-15
-4.31088e-15
-7.19899e-15
-4.52898e-15
-4.58269e-15
-4.98919e-15
-4.40807e-15
-6.26945e-15
-4.60121e-15
-4.12978e-15
-4.94112e-15
-4.86548e-15
-5.59716e-15
-6.19812e-15
-6.06745e-15
-5.05234e-15
-6.03995e-15
-4.84887e-15
-6.98115e-15
-7.49914e-15
-4.33534e-15
-7.31098e-15
-4.38312e-15
-7.2155e-15
-6.62311e-15
-6.16102e-15
-6.33175e-15
-7.37671e-15
-3.70619e-15
-4.75476e-15
-4.46478e-15
-7.46329e-15
-7.37292e-15
-6.83537e-15
-7.37989e-15
-7.55955e-15
-6.33212e-15
-7.78353e-15
-5.31263e-15
-4.86157e-15
-8.45193e-15
-5.19134e-15
-7.67344e-15
-6.14741e-15
-4.08144e-15
-4.6804e-15
-7.71064e-15
-6.36756e-15
-5.83383e-15
-7.52713e-15
-7.34755e-15
-4.89623e-15
-4.72773e-15
-4.7394e-15
-6.50032e-15
-7.21682e-15
-8.28761e-15
-7.95721e-15
-8.65696e-15
-7.84482e-15
-8.57203e-15
-7.21869e-15
-7.45019e-15
-7.5111e-15
-7.07929e-15
-7.44023e-15
-6.83974e-15
-6.73294e-15
-4.96201e-15
-6.49975e-15
-7.61083e-15
-5.34974e-15
-7.68234e-15
-7.05195e-15
-8.25779e-15
-5.10587e-15
-7.83922e-15
-7.49417e-15
-4.99397e-15
-6.64789e-15
-4.96159e-15
-7.51263e-15
-6.88832e-15
-5.19547e-15
-4.91223e-15
-4.34592e-15
-4.98948e-15
-7.50356e-15
-3.66829e-15
-5.84789e-15
-4.89902e-15
-5.42626e-15
-7.84775e-15
-7.57876e-15
-2.32124e-15
-7.60097e-15
-4.40517e-15
-4.63311e-15
-7.80713e-15
-6.35766e-15
-4.69305e-15
-8.6839e-15
-5.04426e-15
-2.31977e-15
-4.73928e-15
-6.76675e-15
-8.42656e-15
-6.42065e-15
-7.47749e-15
-7.04977e-15
-3.64869e-15
-3.64808e-15
-3.30168e-15
-3.82312e-15
-4.99472e-15
-3.9005e-15
-6.23736e-15
-3.99588e-15
-6.64057e-15
-4.7738e-15
-4.74433e-15
-5.37718e-15
-5.1256e-15
-6.67717e-15
-4.91823e-15
-5.09255e-15
-2.12198e-15
-4.91758e-15
-7.12567e-15
-7.12913e-15
-6.52743e-15
-4.90728e-15
-3.06052e-15
-9.03283e-15
-6.17286e-15
-5.20175e-15
-4.80929e-15
-4.60779e-15
-4.96267e-15
-5.84298e-15
-4.86989e-15
-3.63626e-15
-4.79655e-15
-3.39427e-15
-5.76912e-15
-4.90448e-15
-1.97804e-15
-4.61569e-15
-5.31155e-15
-4.90867e-15
-7.34421e-15
-5.08749e-15
-6.4531e-15
-2.64595e-15
-5.1786e-15
-5.04057e-15
-4.23249e-15
-4.72976e-15
-5.51353e-15
-5.10871e-15
-5.34885e-15
-4.66589e-15
-4.73302e-15
-5.09009e-15
-6.65278e-15
-4.81861e-15
-6.70248e-15
-6.06155e-15
-4.68484e-15
-5.00158e-15
-5.02701e-15
-5.52284e-15
-5.01766e-15
-4.72101e-15
-5.3361e-15
-5.46211e-15
-6.50487e-15
-5.02732e-15
-5.02717e-15
-7.10079e-15
-7.00111e-15
-4.8226e-15
-4.68375e-15
-2.3376e-15
-5.79243e-15
-4.2028e-15
-5.45706e-15
-2.85403e-15
-2.96751e-15
-2.63135e-15
-2.67703e-15
-2.83088e-15
-3.04105e-15
-3.13588e-15
-6.02188e-15
-4.40798e-15
-4.53931e-15
-5.23389e-15
-5.11682e-15
-5.06104e-15
-5.27179e-15
-4.95445e-15
-5.0675e-15
-4.98211e-15
-5.04093e-15
-6.03305e-15
-4.653e-15
-6.18674e-15
-4.90183e-15
-4.75426e-15
-5.05057e-15
-5.23473e-15
-5.56353e-15
-5.21264e-15
-5.93584e-15
-5.57578e-15
-5.2039e-15
-3.80067e-15
-5.20587e-15
-5.06182e-15
-5.35782e-15
-5.27076e-15
-5.00387e-15
-4.74879e-15
-5.21089e-15
-5.40474e-15
-7.29322e-15
-4.89272e-15
-7.09051e-15
-7.44825e-15
-5.11956e-15
-7.08799e-15
-5.46499e-15
-4.42688e-15
-5.89138e-15
-5.24768e-15
-3.66945e-15
-3.50551e-15
-5.80436e-15
-6.19051e-15
-5.30821e-15
-4.43172e-15
-5.25537e-15
-2.75349e-15
-5.24661e-15
-4.94656e-15
-2.6844e-15
-9.33199e-16
-1.02198e-15
-4.54766e-15
-4.89664e-15
-5.65063e-15
-5.46341e-15
-4.79101e-16
-4.99565e-16
-5.33845e-15
-5.3889e-15
-5.10288e-15
-2.07814e-15
-4.5884e-15
-5.21643e-15
-5.41019e-15
-4.66909e-15
-4.11862e-15
-2.15008e-15
-7.68896e-15
-4.92784e-15
-5.95815e-15
-6.05202e-15
-4.3795e-15
-5.53403e-15
-4.28334e-15
-4.72498e-15
-2.50783e-15
-3.68775e-15
-5.54097e-15
-5.54859e-15
-4.78667e-15
-5.04121e-15
-5.18961e-15
-5.47008e-15
-5.23317e-15
-2.73006e-15
-4.49104e-15
-5.20395e-15
-4.82331e-15
-7.22685e-15
-2.72427e-15
-3.95673e-15
-4.0754e-15
-3.78898e-15
-2.41779e-15
-2.41637e-15
-4.34674e-15
-3.61461e-15
-5.1143e-15
-2.92955e-15
-2.89211e-15
-9.40612e-16
-9.39901e-16
-2.24724e-15
-3.16208e-15
-2.12486e-15
-4.35749e-15
-4.62057e-15
-5.00526e-15
-5.62803e-15
-5.07386e-15
-4.69194e-15
-3.73193e-15
-2.53294e-15
-4.69315e-15
-4.83478e-15
-4.66525e-15
-2.82791e-15
-2.33502e-15
-2.01423e-15
-4.6475e-15
-4.77546e-15
-3.92735e-15
-4.34547e-15
-4.01133e-15
-3.60016e-15
-4.90307e-15
-3.59839e-15
-4.34746e-15
-4.14387e-15
-2.50363e-15
-3.09316e-15
-3.14997e-15
-5.17857e-15
-2.28507e-15
-2.40526e-15
-2.35788e-15
-4.86984e-15
-2.15635e-15
-2.14017e-15
-3.45057e-15
-1.98265e-15
-3.88658e-15
-3.89092e-15
-2.03268e-15
-4.35452e-15
-2.20599e-15
-2.26534e-15
-2.46736e-15
-2.15931e-15
-2.04916e-15
-2.75809e-15
-2.41969e-15
-2.25745e-15
-2.14512e-15
-3.9603e-15
-4.46979e-15
-2.31782e-15
-4.37057e-15
-1.95288e-15
-4.42165e-15
-3.54799e-15
-2.06046e-15
-1.68632e-15
-1.94702e-15
-2.52848e-15
-3.82517e-15
-3.0656e-15
-1.26351e-15
-1.40421e-15
-4.22736e-15
-1.19078e-15
-1.18984e-15
-1.34959e-15
-1.52202e-15
-1.89949e-15
-2.01129e-15
-3.3699e-15
-3.1029e-15
-4.24103e-15
-1.20247e-15
-1.20159e-15
-3.65687e-15
-1.68779e-15
-3.049e-15
-1.54034e-15
-1.5128e-15
-1.97921e-15
-3.09704e-15
-3.20643e-15
-3.41969e-15
-3.13527e-15
-3.09476e-15
-6.77229e-16
-5.02822e-15
-8.67161e-16
-8.38497e-16
-4.05885e-15
-4.02867e-15
-8.68559e-16
-6.00961e-16
-8.49778e-16
-3.74467e-15
SCALARS rr_P' float
LOOKUP_TABLE default
3.74999e-15
7.57117e-15
6.09367e-15
7.91137e-15
4.0787e-15
6.47142e-15
3.70926e-15
7.88536e-15
6.8659e-15
8.53242e-15
3.30697e-15
7.91372e-15
6.97658e-15
7.32724e-15
8.51501e-15
7.25449e-15
6.18061e-15
7.04349e-15
6.39261e-15
6.19587e-15
6.98192e-15
1.18776e-15
7.15517e-15
6.58632e-15
5.9666e-15
6.83143e-15
3.01789e-15
6.03302e-15
4.91907e-15
5.41112e-15
6.16168e-15
5.077e-15
3.35305e-15
4.06506e-15
3.98366e-15
4.072e-15
5.24139e-15
3.99588e-15
6.16356e-15
3.76682e-15
4.12778e-15
4.61516e-15
4.61309e-15
6.76206e-15
4.15296e-15
4.4802e-15
6.00733e-15
6.06343e-15
5.64892e-15
5.64862e-15
5.7711e-15
4.42286e-15
6.53668e-15
5.68981e-15
6.02153e-15
3.01815e-15
4.25467e-15
5.72569e-15
4.25189e-15
6.75073e-15
7.89043e-15
7.69381e-15
2.94911e-15
5.42793e-15
7.37026e-15
6.99853e-15
7.63189e-15
6.63543e-15
6.15781e-15
8.70714e-15
7.09592e-15
7.01436e-15
5.10494e-15
5.65183e-15
6.05442e-15
3.497e-15
6.12314e-15
6.93121e-15
6.69228e-15
4.86694e-15
4.48718e-15
4.5844e-15
8.79763e-15
4.51627e-15
5.98993e-15
2.28399e-15
6.96422e-15
5.77345e-15
4.39601e-15
5.89867e-16
4.92444e-15
6.42144e-16
5.19243e-15
5.03516e-15
4.6625e-15
4.30409e-15
4.12515e-15
7.4786e-15
6.126e-15
5.99476e-15
5.18951e-15
5.05963e-15
4.32182e-15
7.09265e-15
7.21061e-15
6.48476e-15
5.66462e-15
5.82239e-15
4.59361e-15
8.62029e-15
5.59808e-15
3.12673e-15
4.15147e-15
7.77536e-15
7.26568e-15
5.4941e-15
4.95238e-15
3.43776e-15
5.14191e-15
5.46547e-15
4.69026e-15
8.29239e-15
8.63227e-15
7.38946e-15
8.16204e-15
6.3304e-15
3.56247e-15
8.0832e-15
3.7386e-15
4.72232e-15
3.70511e-15
7.70185e-15
7.48714e-15
7.5597e-15
5.26475e-15
2.99985e-15
3.60255e-15
5.5666e-15
6.75077e-15
2.99727e-15
4.38575e-15
6.54672e-15
5.0485e-15
7.9833e-15
4.18545e-15
6.51645e-15
5.9266e-15
5.76234e-15
3.67996e-15
4.78986e-15
5.27637e-15
7.4401e-15
4.55244e-15
6.75915e-15
7.79665e-15
7.91746e-15
5.1752e-15
4.52252e-15
4.49149e-15
6.81994e-15
5.77999e-15
4.51292e-15
3.06312e-15
4.42236e-15
4.36029e-15
7.28063e-15
4.58096e-15
4.63532e-15
5.04651e-15
4.4586e-15
6.34072e-15
4.65388e-15
4.17728e-15
4.99718e-15
4.92122e-15
5.6607e-15
6.26853e-15
6.13649e-15
5.10979e-15
6.10861e-15
4.90465e-15
7.0603e-15
7.58424e-15
4.38503e-15
7.39399e-15
4.43359e-15
7.29735e-15
6.69833e-15
6.23122e-15
6.40354e-15
7.46049e-15
3.74901e-15
4.80917e-15
4.51602e-15
7.5479e-15
7.45655e-15
6.91293e-15
7.4636e-15
7.64533e-15
6.404e-15
7.87184e-15
5.37312e-15
4.91716e-15
8.54783e-15
5.25104e-15
7.76051e-15
6.21738e-15
4.12825e-15
4.73357e-15
7.79824e-15
6.4401e-15
5.90007e-15
7.61252e-15
7.43113e-15
4.95214e-15
4.78142e-15
4.79361e-15
6.5741e-15
7.29882e-15
8.3817e-15
8.04742e-15
8.75512e-15
7.93378e-15
8.66922e-15
7.30077e-15
7.53478e-15
7.5964e-15
7.15969e-15
7.52477e-15
6.9178e-15
6.80973e-15
5.01865e-15
6.57361e-15
7.69721e-15
5.41061e-15
7.7699e-15
7.13228e-15
8.3516e-15
5.1642e-15
7.92806e-15
7.57923e-15
5.05101e-15
6.7234e-15
5.01826e-15
7.59813e-15
6.96638e-15
5.25477e-15
4.96838e-15
4.396e-15
5.04687e-15
7.58869e-15
3.71073e-15
5.91428e-15
4.95506e-15
5.48807e-15
7.9367e-15
7.66477e-15
2.34772e-15
7.68715e-15
4.45624e-15
4.68606e-15
7.89567e-15
6.42987e-15
4.7467e-15
8.7824e-15
5.10177e-15
2.34621e-15
4.79347e-15
6.84367e-15
8.52232e-15
6.49347e-15
7.56268e-15
7.13002e-15
3.69017e-15
3.68952e-15
3.33983e-15
3.86755e-15
5.05165e-15
3.94483e-15
6.30818e-15
4.04152e-15
6.71603e-15
4.82795e-15
4.79855e-15
5.43823e-15
5.18406e-15
6.75315e-15
4.97437e-15
5.15073e-15
2.14626e-15
4.97346e-15
7.20661e-15
7.21009e-15
6.60148e-15
4.9633e-15
3.09538e-15
9.13533e-15
6.24314e-15
5.26109e-15
4.8642e-15
4.66017e-15
5.01935e-15
5.90961e-15
4.92552e-15
3.67834e-15
4.85129e-15
3.43344e-15
5.83461e-15
4.96046e-15
2.00067e-15
4.66838e-15
5.372e-15
4.9647e-15
7.42777e-15
5.14555e-15
6.52648e-15
2.67678e-15
5.2374e-15
5.09815e-15
4.28061e-15
4.78375e-15
5.57631e-15
5.16682e-15
5.40948e-15
4.71915e-15
4.78703e-15
5.1481e-15
6.72853e-15
4.87359e-15
6.77871e-15
6.1304e-15
4.73812e-15
5.05867e-15
5.08428e-15
5.5857e-15
5.07484e-15
4.77488e-15
5.3969e-15
5.52429e-15
6.5787e-15
5.08463e-15
5.08456e-15
7.18141e-15
7.08061e-15
4.87761e-15
4.73698e-15
2.36492e-15
5.85835e-15
4.25126e-15
5.51918e-15
2.8883e-15
3.0032e-15
2.66279e-15
2.70903e-15
2.86461e-15
3.07795e-15
3.17396e-15
6.09041e-15
4.45832e-15
4.59091e-15
5.29347e-15
5.17506e-15
5.11872e-15
5.33177e-15
5.01091e-15
5.12523e-15
5.03907e-15
5.09836e-15
6.10172e-15
4.70625e-15
6.25698e-15
4.95758e-15
4.80835e-15
5.10814e-15
5.29445e-15
5.62676e-15
5.27195e-15
6.0033e-15
5.63921e-15
5.26318e-15
3.84413e-15
5.26512e-15
5.11935e-15
5.41868e-15
5.33081e-15
5.06086e-15
4.80286e-15
5.27016e-15
5.46615e-15
7.37606e-15
4.94844e-15
7.17103e-15
7.53298e-15
5.17779e-15
7.16846e-15
5.52706e-15
4.47733e-15
5.95823e-15
5.30736e-15
3.71122e-15
3.54606e-15
5.87026e-15
6.26104e-15
5.36853e-15
4.48213e-15
5.31502e-15
2.78574e-15
5.3062e-15
5.00283e-15
2.71566e-15
9.43904e-16
1.03372e-15
4.59939e-15
4.9524e-15
5.7149e-15
5.52563e-15
4.84649e-16
5.05338e-16
5.39911e-15
5.45008e-15
5.16083e-15
2.10261e-15
4.64067e-15
5.27576e-15
5.47175e-15
4.72221e-15
4.16549e-15
2.1752e-15
7.77638e-15
4.98394e-15
6.02586e-15
6.12081e-15
4.42933e-15
5.59698e-15
4.33209e-15
4.77878e-15
2.53708e-15
3.73031e-15
5.60401e-15
5.61171e-15
4.84111e-15
5.09856e-15
5.24862e-15
5.53232e-15
5.2927e-15
2.76172e-15
4.54206e-15
5.2632e-15
4.87805e-15
7.3089e-15
2.75579e-15
4.00168e-15
4.12167e-15
3.8322e-15
2.44535e-15
2.4439e-15
4.39627e-15
3.65578e-15
5.17248e-15
2.96357e-15
2.92509e-15
9.51411e-16
9.50683e-16
2.27354e-15
3.19809e-15
2.14909e-15
4.40702e-15
4.67307e-15
5.06204e-15
5.69198e-15
5.13144e-15
4.74522e-15
3.77437e-15
2.56258e-15
4.74644e-15
4.88977e-15
4.71831e-15
2.86108e-15
2.36162e-15
2.03782e-15
4.70021e-15
4.82975e-15
3.97219e-15
4.39478e-15
4.05694e-15
3.64111e-15
4.95872e-15
3.6393e-15
4.39682e-15
4.19091e-15
2.53228e-15
3.1286e-15
3.1866e-15
5.23744e-15
2.31217e-15
2.43381e-15
2.38581e-15
4.92512e-15
2.18169e-15
2.16556e-15
3.48984e-15
2.00608e-15
3.93079e-15
3.93515e-15
2.05671e-15
4.40399e-15
2.23183e-15
2.29237e-15
2.49618e-15
2.18504e-15
2.07307e-15
2.78951e-15
2.44784e-15
2.28398e-15
2.17045e-15
4.00528e-15
4.52054e-15
2.34499e-15
4.42021e-15
1.97595e-15
4.47184e-15
3.58833e-15
2.08509e-15
1.70603e-15
1.97026e-15
2.55805e-15
3.86863e-15
3.10049e-15
1.27798e-15
1.42031e-15
4.27534e-15
1.20443e-15
1.20348e-15
1.36507e-15
1.53946e-15
1.92154e-15
2.0342e-15
3.40834e-15
3.13837e-15
4.28925e-15
1.21628e-15
1.21538e-15
3.69861e-15
1.70751e-15
3.08366e-15
1.55849e-15
1.53053e-15
2.00224e-15
3.13229e-15
3.24292e-15
3.45863e-15
3.17099e-15
3.12996e-15
6.8502e-16
5.08576e-15
8.77144e-16
8.48175e-16
4.1053e-15
4.07476e-15
8.78582e-16
6.07858e-16
8.59535e-16
3.78749e-15
SCALARS rr_T' float
LOOKUP_TABLE default
4.34744e-19
9.04733e-19
7.28008e-19
9.45113e-19
4.87369e-19
7.73024e-19
4.29841e-19
9.42672e-19
8.19067e-19
1.01999e-18
3.81227e-19
9.46012e-19
8.33899e-19
8.75925e-19
1.01654e-18
8.67231e-19
7.3839e-19
8.41761e-19
7.61453e-19
7.39889e-19
8.3363e-19
1.46497e-19
8.54018e-19
7.86369e-19
7.12471e-19
8.16298e-19
3.5157e-19
7.20439e-19
5.80825e-19
6.44775e-19
7.36648e-19
5.99344e-19
3.90612e-19
4.84563e-19
4.75345e-19
4.85381e-19
6.24241e-19
4.76939e-19
7.36734e-19
4.38836e-19
4.8716e-19
5.49629e-19
5.49364e-19
8.08418e-19
4.85042e-19
5.29452e-19
7.16092e-19
7.23694e-19
6.74671e-19
6.65048e-19
6.80354e-19
5.24183e-19
7.80309e-19
6.74752e-19
7.18928e-19
3.53897e-19
5.07685e-19
6.78832e-19
5.07343e-19
8.05994e-19
9.42387e-19
9.19652e-19
3.45365e-19
6.48969e-19
8.8092e-19
8.36437e-19
9.11511e-19
7.93008e-19
7.35164e-19
1.04017e-18
8.4712e-19
8.37383e-19
6.02672e-19
6.75513e-19
7.23603e-19
4.06363e-19
7.31719e-19
8.28418e-19
7.99616e-19
5.77025e-19
5.28262e-19
5.47738e-19
1.051e-18
5.30944e-19
7.08221e-19
2.67205e-19
8.31747e-19
6.90089e-19
5.13487e-19
7.1491e-20
5.83816e-19
7.78244e-20
6.20149e-19
6.01627e-19
5.53107e-19
5.07204e-19
4.85943e-19
8.94043e-19
7.32078e-19
7.16543e-19
6.17383e-19
5.99055e-19
5.07818e-19
8.47596e-19
8.61651e-19
7.75274e-19
6.76532e-19
6.95924e-19
5.39865e-19
1.02892e-18
6.6838e-19
3.65866e-19
4.86909e-19
9.29196e-19
8.68604e-19
6.51706e-19
5.91171e-19
4.05074e-19
6.13799e-19
6.48247e-19
5.58365e-19
9.89896e-19
1.03115e-18
8.83176e-19
9.74288e-19
7.55637e-19
4.25205e-19
9.66268e-19
4.40441e-19
5.59954e-19
4.41983e-19
9.20125e-19
8.94354e-19
9.03052e-19
6.23468e-19
3.57773e-19
4.23558e-19
6.653e-19
8.0633e-19
3.57459e-19
5.19411e-19
7.82548e-19
6.01313e-19
9.54038e-19
4.93076e-19
7.78721e-19
7.08018e-19
6.88153e-19
4.39682e-19
5.69195e-19
6.29344e-19
8.88703e-19
5.37231e-19
8.08117e-19
9.31756e-19
9.45846e-19
6.18753e-19
5.36082e-19
5.32347e-19
8.15176e-19
6.89853e-19
5.32764e-19
3.58466e-19
5.21353e-19
5.16521e-19
8.70421e-19
5.42894e-19
5.4941e-19
5.95757e-19
5.28274e-19
7.57193e-19
5.51761e-19
4.92582e-19
5.97558e-19
5.83621e-19
6.76065e-19
7.48573e-19
7.33225e-19
6.10335e-19
7.30073e-19
5.79275e-19
8.44066e-19
9.06617e-19
5.19301e-19
8.83802e-19
5.2275e-19
8.72182e-19
8.00516e-19
7.44426e-19
7.65541e-19
8.9172e-19
4.41863e-19
5.70102e-19
5.33108e-19
9.01706e-19
8.91128e-19
8.26068e-19
8.91557e-19
9.13218e-19
7.65459e-19
9.40322e-19
6.40428e-19
5.83366e-19
1.02113e-18
6.20242e-19
9.2709e-19
7.43132e-19
4.88471e-19
5.65493e-19
9.31487e-19
7.69693e-19
7.05225e-19
9.09818e-19
8.87713e-19
5.88467e-19
5.71497e-19
5.69001e-19
7.85682e-19
8.71217e-19
1.00044e-18
9.60313e-19
1.04507e-18
9.4704e-19
1.03488e-18
8.72589e-19
8.99486e-19
9.06734e-19
8.54566e-19
8.98295e-19
8.25959e-19
8.12926e-19
5.96314e-19
7.85597e-19
9.18616e-19
6.45924e-19
9.27646e-19
8.51529e-19
9.96784e-19
6.12565e-19
9.46167e-19
9.06077e-19
6.00562e-19
8.02961e-19
5.9657e-19
9.07783e-19
8.3118e-19
6.24695e-19
5.89731e-19
5.17505e-19
5.93509e-19
9.06669e-19
4.36881e-19
7.07024e-19
5.88157e-19
6.53757e-19
9.47221e-19
9.14893e-19
2.79658e-19
9.17547e-19
5.24807e-19
5.55983e-19
9.4222e-19
7.68284e-19
5.63077e-19
1.04824e-18
6.0776e-19
2.79469e-19
5.68948e-19
8.16854e-19
1.01868e-18
7.76043e-19
9.02849e-19
8.52252e-19
4.40607e-19
4.41103e-19
3.9143e-19
4.52549e-19
6.03402e-19
4.71129e-19
7.53791e-19
4.80512e-19
8.02067e-19
5.77383e-19
5.69401e-19
6.49912e-19
6.1691e-19
8.06921e-19
5.92117e-19
6.10986e-19
2.55551e-19
5.93872e-19
8.6001e-19
8.60409e-19
7.89049e-19
5.90979e-19
3.69009e-19
1.09204e-18
7.4499e-19
6.26379e-19
5.78699e-19
5.56542e-19
5.96776e-19
7.05983e-19
5.86293e-19
4.29722e-19
5.77376e-19
4.04277e-19
6.97044e-19
5.89664e-19
2.38182e-19
5.55598e-19
6.41816e-19
5.89976e-19
8.8778e-19
6.12192e-19
7.7999e-19
3.13549e-19
6.25529e-19
6.06131e-19
5.10977e-19
5.68395e-19
6.65149e-19
6.17729e-19
6.46273e-19
5.61487e-19
5.69935e-19
6.13202e-19
8.04187e-19
5.80092e-19
8.10299e-19
7.32268e-19
5.65923e-19
6.0234e-19
6.05609e-19
6.66707e-19
6.0479e-19
5.68261e-19
6.43111e-19
6.5997e-19
7.86186e-19
6.05819e-19
6.04215e-19
8.58393e-19
8.46315e-19
5.80421e-19
5.65793e-19
2.72306e-19
6.99669e-19
5.00529e-19
6.58777e-19
3.19851e-19
3.32618e-19
2.94899e-19
2.99972e-19
3.17066e-19
3.41137e-19
3.51873e-19
7.27709e-19
5.31783e-19
5.4853e-19
6.31335e-19
6.16492e-19
6.10012e-19
6.37188e-19
5.96848e-19
6.10484e-19
6.01091e-19
6.07478e-19
7.29234e-19
5.57832e-19
7.46854e-19
5.91958e-19
5.73625e-19
6.08687e-19
6.32508e-19
6.72134e-19
6.29016e-19
7.17052e-19
6.72744e-19
6.27035e-19
4.55751e-19
6.27912e-19
6.11434e-19
6.47532e-19
6.35193e-19
6.02702e-19
5.72434e-19
6.28575e-19
6.52758e-19
8.81319e-19
5.89676e-19
8.56869e-19
8.99522e-19
6.17528e-19
8.56535e-19
6.60054e-19
5.33396e-19
7.12061e-19
6.33453e-19
4.42736e-19
4.14327e-19
7.01527e-19
7.48012e-19
6.41066e-19
5.35207e-19
6.35288e-19
3.21107e-19
6.33577e-19
5.97173e-19
3.18143e-19
1.12446e-19
1.23159e-19
5.49257e-19
5.90085e-19
6.8237e-19
6.5862e-19
5.98403e-20
6.23811e-20
6.45414e-19
6.51342e-19
6.16557e-19
2.42587e-19
5.52664e-19
6.30591e-19
6.53173e-19
5.6356e-19
4.96925e-19
2.50258e-19
9.29167e-19
5.93757e-19
7.19779e-19
7.31059e-19
5.28515e-19
6.67857e-19
5.169e-19
5.70278e-19
2.95674e-19
4.39273e-19
6.68597e-19
6.70188e-19
5.77945e-19
6.08375e-19
6.26477e-19
6.60379e-19
6.3179e-19
3.2278e-19
5.4243e-19
6.27024e-19
5.83078e-19
8.73441e-19
3.21928e-19
4.78096e-19
4.92354e-19
4.57776e-19
2.90927e-19
2.90743e-19
5.24715e-19
4.35447e-19
6.17629e-19
3.4607e-19
3.48037e-19
1.17366e-19
1.17268e-19
2.61432e-19
3.81612e-19
2.5598e-19
5.26282e-19
5.5825e-19
6.05038e-19
6.80345e-19
6.13113e-19
5.67068e-19
4.51013e-19
2.95255e-19
5.67277e-19
5.8457e-19
5.64008e-19
3.32372e-19
2.81433e-19
2.38817e-19
5.61673e-19
5.77477e-19
4.72383e-19
5.25464e-19
4.84876e-19
4.3435e-19
5.92738e-19
4.34142e-19
5.25449e-19
5.00893e-19
3.01721e-19
3.72875e-19
3.72398e-19
6.2583e-19
2.67732e-19
2.82424e-19
2.75674e-19
5.88685e-19
2.51517e-19
2.49809e-19
4.16447e-19
2.32014e-19
4.69532e-19
4.7006e-19
2.38239e-19
5.25671e-19
2.60373e-19
2.65702e-19
2.9066e-19
2.53166e-19
2.41424e-19
3.32804e-19
2.85426e-19
2.63351e-19
2.51246e-19
4.78695e-19
5.40157e-19
2.72858e-19
5.28162e-19
2.27976e-19
5.34437e-19
4.28381e-19
2.41445e-19
1.98294e-19
2.27829e-19
2.94117e-19
4.61937e-19
3.70025e-19
1.57548e-19
1.75065e-19
5.10883e-19
1.48464e-19
1.48336e-19
1.68273e-19
1.86469e-19
2.24256e-19
2.42425e-19
4.0697e-19
3.74559e-19
5.12565e-19
1.47359e-19
1.47242e-19
4.41628e-19
1.96138e-19
3.68128e-19
1.79596e-19
1.79281e-19
2.34166e-19
3.72728e-19
3.85895e-19
4.11641e-19
3.77433e-19
3.72437e-19
8.44731e-20
6.05746e-19
1.06273e-19
1.04638e-19
4.88717e-19
4.85092e-19
1.0841e-19
7.49512e-20
1.04133e-19
4.50875e-19
SCALARS rr_uec(SIM,_S_ext) float
LOOKUP_TABLE default
4.67104e-09
1.12073e-08
8.92462e-09
1.16903e-08
6.17775e-09
9.47135e-09
4.61564e-09
1.16269e-08
9.94021e-09
1.25969e-08
4.21917e-09
1.16625e-08
1.02556e-08
1.08541e-08
1.27854e-08
1.06431e-08
9.19224e-09
1.03585e-08
9.21111e-09
9.04652e-09
1.01723e-08
1.85564e-09
1.04212e-08
9.61014e-09
8.71048e-09
1.00829e-08
3.96787e-09
8.83925e-09
6.7967e-09
8.30903e-09
9.059e-09
7.02728e-09
4.39426e-09
6.21239e-09
6.1144e-09
6.22617e-09
8.08153e-09
6.12414e-09
9.04923e-09
4.93967e-09
5.71362e-09
7.12361e-09
7.12413e-09
9.9427e-09
5.53369e-09
6.20409e-09
8.67723e-09
8.80441e-09
8.27233e-09
7.7297e-09
7.95745e-09
6.21825e-09
9.90922e-09
7.9914e-09
9.12032e-09
4.03225e-09
6.52885e-09
8.05038e-09
6.52845e-09
9.86402e-09
1.173e-08
1.15341e-08
3.93269e-09
8.13223e-09
1.1048e-08
1.03976e-08
1.13478e-08
9.79349e-09
8.98519e-09
1.28622e-08
1.07501e-08
1.06327e-08
7.05919e-09
8.42616e-09
8.87166e-09
4.51249e-09
9.22433e-09
1.03008e-08
9.87558e-09
6.86767e-09
6.13163e-09
6.98183e-09
1.31133e-08
6.12243e-09
8.3311e-09
3.04611e-09
1.02106e-08
8.57865e-09
5.86163e-09
9.11222e-10
6.92462e-09
9.90959e-10
7.82822e-09
7.46009e-09
6.55662e-09
5.92674e-09
5.63446e-09
1.10589e-08
9.23071e-09
8.80851e-09
7.41441e-09
7.05616e-09
5.87628e-09
1.04629e-08
1.06442e-08
9.58609e-09
8.46448e-09
8.53599e-09
6.23656e-09
1.278e-08
8.17892e-09
4.18289e-09
5.61266e-09
1.14489e-08
1.07347e-08
7.71979e-09
7.57031e-09
4.68032e-09
7.85096e-09
7.69093e-09
6.7339e-09
1.24579e-08
1.27709e-08
1.10013e-08
1.20781e-08
9.53233e-09
5.42562e-09
1.19393e-08
5.10248e-09
6.64891e-09
5.61541e-09
1.13913e-08
1.11641e-08
1.1186e-08
7.33987e-09
4.59898e-09
4.86909e-09
8.19144e-09
1.00537e-08
4.59727e-09
6.13389e-09
9.66949e-09
7.25943e-09
1.18024e-08
5.6954e-09
9.62455e-09
8.73718e-09
8.42458e-09
5.38442e-09
6.81519e-09
7.65062e-09
1.09942e-08
6.30419e-09
9.94375e-09
1.15339e-08
1.17115e-08
7.67646e-09
6.32152e-09
6.28683e-09
1.00372e-08
8.39326e-09
6.25484e-09
4.08228e-09
6.09612e-09
6.10459e-09
1.07625e-08
6.40617e-09
6.47672e-09
6.97989e-09
6.24353e-09
9.559e-09
6.54645e-09
5.74868e-09
7.41984e-09
6.9161e-09
8.45783e-09
9.45478e-09
9.0283e-09
7.74743e-09
9.01219e-09
6.77597e-09
1.04429e-08
1.12079e-08
6.13518e-09
1.10093e-08
6.08974e-09
1.08709e-08
1.00073e-08
9.3749e-09
9.47299e-09
1.11064e-08
5.11648e-09
6.76798e-09
6.25371e-09
1.11656e-08
1.09811e-08
1.0183e-08
1.11364e-08
1.13026e-08
9.51491e-09
1.16414e-08
7.75081e-09
6.94166e-09
1.27492e-08
7.25926e-09
1.15828e-08
9.21679e-09
5.75883e-09
7.10169e-09
1.15196e-08
9.64449e-09
8.73902e-09
1.12429e-08
1.10669e-08
7.04905e-09
7.08782e-09
6.77343e-09
9.82645e-09
1.08048e-08
1.24178e-08
1.19249e-08
1.29769e-08
1.17593e-08
1.28503e-08
1.07832e-08
1.13291e-08
1.14161e-08
1.0763e-08
1.13075e-08
1.04402e-08
1.02852e-08
7.14091e-09
9.71742e-09
1.13486e-08
7.84889e-09
1.16491e-08
1.0703e-08
1.23058e-08
7.29914e-09
1.17e-08
1.12018e-08
7.19091e-09
1.00913e-08
7.1408e-09
1.1314e-08
1.02777e-08
7.48743e-09
7.02891e-09
6.00708e-09
6.90098e-09
1.13288e-08
5.0406e-09
8.68817e-09
7.00109e-09
7.90854e-09
1.17105e-08
1.13577e-08
3.6166e-09
1.13979e-08
6.03723e-09
6.62704e-09
1.16485e-08
9.47536e-09
6.7011e-09
1.30199e-08
7.34053e-09
3.6165e-09
6.77743e-09
1.01303e-08
1.26696e-08
9.56971e-09
1.13402e-08
1.05847e-08
5.59266e-09
5.42392e-09
4.49525e-09
5.14137e-09
7.61467e-09
5.75139e-09
9.29919e-09
5.75304e-09
1.00777e-08
7.16865e-09
6.78755e-09
8.07408e-09
7.41378e-09
9.9543e-09
7.10939e-09
7.28219e-09
3.32412e-09
7.50764e-09
1.08439e-08
1.08509e-08
9.77177e-09
7.09824e-09
4.72786e-09
1.35919e-08
9.06091e-09
7.53138e-09
6.93312e-09
7.04255e-09
7.14644e-09
8.8795e-09
7.02669e-09
4.89986e-09
6.93891e-09
4.68324e-09
8.7226e-09
7.06667e-09
3.09829e-09
6.66361e-09
7.99227e-09
7.06291e-09
1.10399e-08
7.34632e-09
9.55758e-09
3.55239e-09
7.66464e-09
7.25523e-09
6.46672e-09
6.80907e-09
8.0924e-09
7.68264e-09
8.00917e-09
6.73568e-09
6.84691e-09
7.40767e-09
1.00285e-08
6.97206e-09
9.97557e-09
8.98801e-09
7.17718e-09
7.23373e-09
7.31479e-09
8.12278e-09
7.30626e-09
6.82349e-09
7.77484e-09
8.2634e-09
9.69751e-09
7.3145e-09
7.23894e-09
1.06156e-08
1.04676e-08
6.97605e-09
7.17846e-09
2.99768e-09
8.571e-09
5.80448e-09
8.0286e-09
3.18049e-09
3.3009e-09
2.95367e-09
3.00109e-09
3.18391e-09
3.34755e-09
3.45005e-09
9.08743e-09
6.77294e-09
6.74683e-09
7.68025e-09
7.46297e-09
7.3692e-09
7.86056e-09
7.2095e-09
7.3721e-09
7.64848e-09
7.34183e-09
9.14374e-09
6.62034e-09
9.39373e-09
7.24792e-09
6.9782e-09
7.34988e-09
7.97533e-09
8.24347e-09
7.65759e-09
8.79582e-09
8.19339e-09
7.57227e-09
5.42099e-09
7.63891e-09
7.4914e-09
8.1381e-09
7.68913e-09
7.27543e-09
6.92823e-09
7.6463e-09
7.99967e-09
1.08935e-08
7.13689e-09
1.05906e-08
1.10011e-08
7.51452e-09
1.05702e-08
8.08653e-09
6.44443e-09
8.8784e-09
7.72122e-09
5.65064e-09
4.72778e-09
8.77787e-09
9.35769e-09
7.85739e-09
6.52028e-09
7.89776e-09
3.52874e-09
7.76794e-09
7.27426e-09
3.60966e-09
1.45679e-09
1.59382e-09
6.73137e-09
7.1379e-09
8.32148e-09
7.9731e-09
7.5352e-10
7.87379e-10
7.95248e-09
8.03732e-09
7.60626e-09
2.64892e-09
6.67415e-09
7.85511e-09
7.9372e-09
6.84411e-09
6.04188e-09
2.75322e-09
1.15608e-08
7.18099e-09
8.82521e-09
8.9633e-09
6.41868e-09
8.12945e-09
6.27618e-09
6.92768e-09
3.32068e-09
5.0882e-09
8.13889e-09
8.21314e-09
7.04261e-09
7.38641e-09
7.63106e-09
8.05036e-09
7.69794e-09
3.67255e-09
6.83187e-09
7.59125e-09
7.24772e-09
1.08866e-08
3.67245e-09
5.85837e-09
6.03213e-09
5.7884e-09
3.79619e-09
3.79638e-09
6.62069e-09
5.25713e-09
7.56586e-09
3.92434e-09
4.52974e-09
1.48836e-09
1.48833e-09
2.86592e-09
4.90036e-09
3.30606e-09
6.4438e-09
7.0423e-09
7.45098e-09
8.41044e-09
7.64857e-09
7.08896e-09
5.55541e-09
3.24625e-09
6.96469e-09
7.24308e-09
7.02347e-09
3.68643e-09
3.62215e-09
2.68889e-09
7.011e-09
7.13696e-09
5.66524e-09
6.46368e-09
5.96888e-09
5.52159e-09
7.31932e-09
5.52096e-09
6.44524e-09
6.25203e-09
3.87424e-09
4.78443e-09
4.21868e-09
7.74831e-09
2.9112e-09
3.07578e-09
2.99197e-09
7.33169e-09
2.75192e-09
2.70034e-09
5.05489e-09
2.5303e-09
5.98645e-09
5.99534e-09
2.60299e-09
6.41577e-09
2.91128e-09
2.86839e-09
3.25409e-09
2.73609e-09
2.70723e-09
4.27422e-09
3.22215e-09
2.88115e-09
2.74666e-09
5.8973e-09
6.76905e-09
3.03742e-09
6.50957e-09
2.47923e-09
6.61146e-09
5.22685e-09
2.59594e-09
2.21228e-09
2.44815e-09
3.22711e-09
5.65642e-09
4.7277e-09
1.99938e-09
2.21815e-09
6.33343e-09
1.88166e-09
1.88162e-09
2.13182e-09
2.38559e-09
2.54179e-09
3.12257e-09
5.13041e-09
4.76721e-09
6.33475e-09
1.88608e-09
1.88604e-09
5.63419e-09
2.15216e-09
4.48928e-09
1.95517e-09
2.01467e-09
2.65245e-09
4.85183e-09
5.02364e-09
5.35048e-09
4.90406e-09
4.8516e-09
1.06536e-09
7.82995e-09
1.3564e-09
1.31764e-09
6.3268e-09
6.28348e-09
1.36581e-09
9.47869e-10
1.33308e-09
5.83217e-09
SCALARS rr_uec(PEX,_P_ext) float
LOOKUP_TABLE default
-4.72462e-09
-1.13292e-08
-9.02184e-09
-1.18175e-08
-6.24535e-09
-9.57459e-09
-4.66858e-09
-1.17535e-08
-1.00488e-08
-1.27343e-08
-4.2663e-09
-1.17896e-08
-1.03674e-08
-1.09723e-08
-1.29251e-08
-1.0759e-08
-9.29231e-09
-1.04715e-08
-9.31168e-09
-9.1451e-09
-1.02832e-08
-1.87606e-09
-1.05349e-08
-9.71496e-09
-8.8054e-09
-1.01926e-08
-4.01207e-09
-8.93564e-09
-6.87162e-09
-8.40019e-09
-9.15768e-09
-7.10464e-09
-4.44332e-09
-6.28041e-09
-6.18127e-09
-6.29431e-09
-8.16994e-09
-6.19111e-09
-9.14793e-09
-4.99479e-09
-5.7765e-09
-7.2015e-09
-7.20197e-09
-1.0051e-08
-5.59504e-09
-6.27247e-09
-8.77196e-09
-8.90046e-09
-8.36248e-09
-7.81503e-09
-8.04508e-09
-6.2865e-09
-1.00174e-08
-8.07922e-09
-9.21989e-09
-4.07717e-09
-6.60029e-09
-8.13876e-09
-6.59982e-09
-9.9715e-09
-1.18577e-08
-1.16598e-08
-3.97645e-09
-8.22083e-09
-1.11684e-08
-1.05109e-08
-1.14713e-08
-9.90008e-09
-9.0831e-09
-1.30024e-08
-1.08675e-08
-1.07488e-08
-7.13694e-09
-8.518e-09
-8.96828e-09
-4.56319e-09
-9.32496e-09
-1.0413e-08
-9.98309e-09
-6.94295e-09
-6.19937e-09
-7.05807e-09
-1.32563e-08
-6.19026e-09
-8.42277e-09
-3.07995e-09
-1.03219e-08
-8.67232e-09
-5.9266e-09
-9.21326e-10
-7.00062e-09
-1.00196e-09
-7.91363e-09
-7.54154e-09
-6.62866e-09
-5.99201e-09
-5.69678e-09
-1.11792e-08
-9.33138e-09
-8.90447e-09
-7.49556e-09
-7.13382e-09
-5.94122e-09
-1.05767e-08
-1.07602e-08
-9.69038e-09
-8.55674e-09
-8.6291e-09
-6.30555e-09
-1.29191e-08
-8.26806e-09
-4.22928e-09
-5.67473e-09
-1.15736e-08
-1.08515e-08
-7.80464e-09
-7.65345e-09
-4.73222e-09
-7.93726e-09
-7.77538e-09
-6.80751e-09
-1.25938e-08
-1.29098e-08
-1.11212e-08
-1.22099e-08
-9.63627e-09
-5.4852e-09
-1.20694e-08
-5.15895e-09
-6.72188e-09
-5.67674e-09
-1.15152e-08
-1.12858e-08
-1.13076e-08
-7.42069e-09
-4.64934e-09
-4.92314e-09
-8.2807e-09
-1.01635e-08
-4.64759e-09
-6.20131e-09
-9.77497e-09
-7.33882e-09
-1.1931e-08
-5.75855e-09
-9.72927e-09
-8.83252e-09
-8.51657e-09
-5.44313e-09
-6.88983e-09
-7.7342e-09
-1.11139e-08
-6.37354e-09
-1.0052e-08
-1.16594e-08
-1.18389e-08
-7.76004e-09
-6.39112e-09
-6.35598e-09
-1.01464e-08
-8.48484e-09
-6.32365e-09
-4.12768e-09
-6.16326e-09
-6.17169e-09
-1.08796e-08
-6.47666e-09
-6.54804e-09
-7.05676e-09
-6.31216e-09
-9.66333e-09
-6.61829e-09
-5.81207e-09
-7.50062e-09
-6.99208e-09
-8.54999e-09
-9.55791e-09
-9.12686e-09
-7.83202e-09
-9.11049e-09
-6.8507e-09
-1.05565e-08
-1.13299e-08
-6.2026e-09
-1.11293e-08
-6.15697e-09
-1.09893e-08
-1.01164e-08
-9.47747e-09
-9.57605e-09
-1.12275e-08
-5.17315e-09
-6.84225e-09
-6.32252e-09
-1.1287e-08
-1.11006e-08
-1.02938e-08
-1.12577e-08
-1.14256e-08
-9.61856e-09
-1.17682e-08
-7.83546e-09
-7.01777e-09
-1.2888e-08
-7.3393e-09
-1.17089e-08
-9.31747e-09
-5.82216e-09
-7.17914e-09
-1.16452e-08
-9.74997e-09
-8.83424e-09
-1.13653e-08
-1.11878e-08
-7.12624e-09
-7.16505e-09
-6.84772e-09
-9.93351e-09
-1.09226e-08
-1.25531e-08
-1.20546e-08
-1.31181e-08
-1.18873e-08
-1.29901e-08
-1.09009e-08
-1.14526e-08
-1.15406e-08
-1.08803e-08
-1.14308e-08
-1.05546e-08
-1.03978e-08
-7.21907e-09
-9.82338e-09
-1.14722e-08
-7.93455e-09
-1.17765e-08
-1.082e-08
-1.24399e-08
-7.37911e-09
-1.18272e-08
-1.13238e-08
-7.26967e-09
-1.02013e-08
-7.21901e-09
-1.14376e-08
-1.03895e-08
-7.56939e-09
-7.10595e-09
-6.07343e-09
-6.97708e-09
-1.14521e-08
-5.09649e-09
-8.78281e-09
-7.07788e-09
-7.99495e-09
-1.18379e-08
-1.14813e-08
-3.65624e-09
-1.15219e-08
-6.10433e-09
-6.69966e-09
-1.17753e-08
-9.57863e-09
-6.77456e-09
-1.31616e-08
-7.4208e-09
-3.65612e-09
-6.85173e-09
-1.02408e-08
-1.28078e-08
-9.67383e-09
-1.14643e-08
-1.07004e-08
-5.65372e-09
-5.48303e-09
-4.54504e-09
-5.19863e-09
-7.69801e-09
-5.81408e-09
-9.40049e-09
-5.81605e-09
-1.01877e-08
-7.24669e-09
-6.86193e-09
-8.16206e-09
-7.49488e-09
-1.0063e-08
-7.18721e-09
-7.36197e-09
-3.36067e-09
-7.58955e-09
-1.09622e-08
-1.09692e-08
-9.87813e-09
-7.17595e-09
-4.7796e-09
-1.37399e-08
-9.15987e-09
-7.61378e-09
-7.00904e-09
-7.11942e-09
-7.2247e-09
-8.97672e-09
-7.10366e-09
-4.95421e-09
-7.01486e-09
-4.73504e-09
-8.81766e-09
-7.14402e-09
-3.13236e-09
-6.73657e-09
-8.07957e-09
-7.14022e-09
-1.11605e-08
-7.42671e-09
-9.66185e-09
-3.59206e-09
-7.74812e-09
-7.3347e-09
-6.53731e-09
-6.8836e-09
-8.1808e-09
-7.76652e-09
-8.09628e-09
-6.80942e-09
-6.92185e-09
-7.48865e-09
-1.01381e-08
-7.04834e-09
-1.00844e-08
-9.08596e-09
-7.25556e-09
-7.31292e-09
-7.39471e-09
-8.21147e-09
-7.38613e-09
-6.89816e-09
-7.8598e-09
-8.35371e-09
-9.80312e-09
-7.39446e-09
-7.31819e-09
-1.07313e-08
-1.05817e-08
-7.05237e-09
-7.25681e-09
-3.03124e-09
-8.66459e-09
-5.86864e-09
-8.11627e-09
-3.21703e-09
-3.33888e-09
-2.98743e-09
-3.03541e-09
-3.22021e-09
-3.38641e-09
-3.49014e-09
-9.18669e-09
-6.84723e-09
-6.8204e-09
-7.76412e-09
-7.54444e-09
-7.44975e-09
-7.94637e-09
-7.2883e-09
-7.45265e-09
-7.73247e-09
-7.42206e-09
-9.24365e-09
-6.693e-09
-9.49611e-09
-7.32701e-09
-7.05436e-09
-7.43023e-09
-8.0627e-09
-8.33335e-09
-7.74116e-09
-8.89172e-09
-8.2828e-09
-7.655e-09
-5.48043e-09
-7.72232e-09
-7.57309e-09
-8.22685e-09
-7.77314e-09
-7.3549e-09
-7.00388e-09
-7.72972e-09
-8.08687e-09
-1.10123e-08
-7.21483e-09
-1.0706e-08
-1.11211e-08
-7.5965e-09
-1.06853e-08
-8.17462e-09
-6.51487e-09
-8.97508e-09
-7.80544e-09
-5.71241e-09
-4.78021e-09
-8.87353e-09
-9.46004e-09
-7.94304e-09
-6.59142e-09
-7.98379e-09
-3.56834e-09
-7.85259e-09
-7.35363e-09
-3.64994e-09
-1.47285e-09
-1.61142e-09
-6.80483e-09
-7.21586e-09
-8.41227e-09
-8.06018e-09
-7.61893e-10
-7.96108e-10
-8.03918e-09
-8.12488e-09
-7.68913e-09
-2.6788e-09
-6.74708e-09
-7.94087e-09
-8.02383e-09
-6.9188e-09
-6.10783e-09
-2.78403e-09
-1.16869e-08
-7.2594e-09
-8.92142e-09
-9.06104e-09
-6.48873e-09
-8.21816e-09
-6.3447e-09
-7.00333e-09
-3.35781e-09
-5.1445e-09
-8.2277e-09
-8.30278e-09
-7.11943e-09
-7.46701e-09
-7.71429e-09
-8.13822e-09
-7.78193e-09
-3.71337e-09
-6.90639e-09
-7.67415e-09
-7.32665e-09
-1.10052e-08
-3.71318e-09
-5.92222e-09
-6.09783e-09
-5.85181e-09
-3.83779e-09
-3.83794e-09
-6.69312e-09
-5.31456e-09
-7.64844e-09
-3.96802e-09
-4.57938e-09
-1.50475e-09
-1.50471e-09
-2.89805e-09
-4.95397e-09
-3.34228e-09
-6.51407e-09
-7.11912e-09
-7.53207e-09
-8.50214e-09
-7.73188e-09
-7.16622e-09
-5.61603e-09
-3.28265e-09
-7.04057e-09
-7.32214e-09
-7.10014e-09
-3.72787e-09
-3.6618e-09
-2.71906e-09
-7.08732e-09
-7.21481e-09
-5.72727e-09
-6.53404e-09
-6.034e-09
-5.58191e-09
-7.39902e-09
-5.58124e-09
-6.51544e-09
-6.32015e-09
-3.91684e-09
-4.83709e-09
-4.2657e-09
-7.83282e-09
-2.94427e-09
-3.11075e-09
-3.02592e-09
-7.41158e-09
-2.7829e-09
-2.73102e-09
-5.11006e-09
-2.55895e-09
-6.05184e-09
-6.0608e-09
-2.63247e-09
-6.48568e-09
-2.94396e-09
-2.90117e-09
-3.29051e-09
-2.76732e-09
-2.7375e-09
-4.321e-09
-3.25807e-09
-2.91359e-09
-2.77773e-09
-5.96157e-09
-6.84282e-09
-3.07153e-09
-6.58052e-09
-2.50728e-09
-6.68348e-09
-5.28386e-09
-2.62566e-09
-2.23705e-09
-2.47615e-09
-3.26327e-09
-5.71808e-09
-4.77939e-09
-2.02135e-09
-2.24254e-09
-6.40241e-09
-1.90236e-09
-1.9023e-09
-2.15527e-09
-2.41184e-09
-2.57007e-09
-3.15676e-09
-5.1866e-09
-4.81954e-09
-6.40387e-09
-1.90687e-09
-1.90681e-09
-5.69597e-09
-2.17625e-09
-4.53822e-09
-1.97724e-09
-2.0373e-09
-2.68204e-09
-4.90491e-09
-5.07859e-09
-5.40904e-09
-4.95775e-09
-4.90464e-09
-1.07712e-09
-7.91607e-09
-1.3714e-09
-1.33223e-09
-6.3964e-09
-6.35257e-09
-1.38092e-09
-9.58304e-10
-1.34778e-09
-5.89625e-09
SCALARS cell_type float
LOOKUP_TABLE default
0
0
0
0
0
0
0
0
0
0
0
0
0
0
0
0
0
0
0
0
0
1
0
0
0
0
0
0
0
0
0
0
0
0
0
0
0
0
0
0
0
0
0
0
0
0
0
0
0
0
0
0
0
0
0
0
0
0
0
0
0
0
0
0
0
0
0
0
0
0
0
0
0
0
0
0
0
0
0
0
0
0
0
0
0
0
0
0
0
0
0
0
0
0
0
0
0
0
0
0
0
0
0
0
0
0
0
0
0
0
0
0
0
0
0
0
0
0
0
0
0
0
0
0
0
0
0
0
0
0
0
0
0
0
0
0
0
0
0
0
0
0
0
0
0
0
0
0
0
0
0
0
0
0
0
0
0
0
0
0
0
0
0
0
0
0
0
0
0
0
0
0
0
0
0
0
0
0
0
0
0
0
0
0
0
0
0
0
0
0
0
0
0
0
0
0
0
0
0
0
0
0
0
0
0
0
0
0
0
0
0
0
0
0
0
0
0
0
0
0
0
0
0
0
0
0
0
0
0
0
0
0
0
0
0
0
0
0
0
0
0
0
0
0
0
0
0
0
0
0
0
0
0
0
0
0
0
0
0
0
0
0
0
0
0
0
0
0
0
0
0
0
0
0
0
0
0
0
0
0
0
0
0
0
0
0
0
0
0
0
0
0
0
0
0
0
0
0
0
0
0
0
0
0
0
0
0
0
0
0
0
0
0
0
0
0
0
0
0
0
0
0
0
0
0
0
0
0
0
0
0
0
0
0
0
0
0
0
0
0
0
0
0
0
0
0
0
0
0
0
2
2
2
2
2
2
2
0
0
0
0
0
0
0
0
0
0
0
0
0
0
0
0
0
0
0
0
0
0
0
0
0
0
0
0
0
0
0
0
0
0
0
0
0
0
0
0
0
0
0
0
0
0
0
0
0
0
0
0
0
0
0
0
0
0
0
1
1
0
0
0
0
0
0
0
0
0
0
0
0
0
0
0
0
0
0
0
0
0
0
0
0
0
0
0
0
0
0
0
0
0
0
0
0
0
0
0
0
0
0
0
1
1
0
0
0
0
0
0
0
0
0
0
0
0
0
0
0
0
0
0
0
0
0
0
0
0
0
0
0
0
0
0
0
0
0
0
0
0
0
0
0
0
0
0
0
0
0
0
0
0
0
0
0
0
0
0
0
0
0
0
0
0
0
0
0
0
0
1
1
0
1
1
1
0
0
0
0
0
0
0
0
0
0
0
0
0
0
0
0
0
0
0
1
0
0
1
0
0
1
1
0
0
SCALARS rr_position float
LOOKUP_TABLE default
0.95456
0.36342
0.468449
0.387305
0.146693
0.472515
0.955517
0.4082
0.584541
0.389356
0.92487
0.407689
0.436332
0.358634
0.192931
0.488673
0.300516
0.446088
0.599948
0.501156
0.513411
0
0.529572
0.492211
0.502284
0.395958
0.917245
0.438564
0.766634
0.0795485
0.448075
0.75915
0.921803
0.092542
0.0769054
0.0931608
0.078938
0.079706
0.43865
0.920823
0.766396
0.0797051
0.0799793
0.440222
0.867249
0.766043
0.571822
0.560202
0.454695
0.794496
0.775163
0.704818
0.138268
0.716496
0.139613
0.873787
0.0776537
0.710043
0.0782957
0.497339
0.297446
0.245153
0.88581
0.254145
0.244019
0.321312
0.296794
0.395418
0.494079
0.357714
0.142047
0.142928
0.773665
0.291204
0.496283
0.920472
0.207558
0.3234
0.386119
0.70174
0.819597
0.137509
0.260794
0.829625
0.773209
0.875479
0.450072
0.300736
0.867397
0.0127536
0.713676
0.0128125
0.18253
0.325381
0.713898
0.788805
0.819982
0.390865
0.208631
0.448855
0.644428
0.759892
0.818097
0.41283
0.376912
0.406929
0.258058
0.475177
0.831355
0.290803
0.492453
0.853817
0.829654
0.432213
0.405372
0.718115
0.080979
0.834984
0.081711
0.714143
0.625248
0.186766
0.353916
0.290427
0.299671
0.191371
0.0843208
0.382993
0.833552
0.702626
0.136346
0.369052
0.257135
0.352234
0.749802
0.0827702
0.849772
0.415477
0.256761
0.0832441
0.746736
0.366801
0.583427
0.362233
0.831232
0.391515
0.370475
0.455624
0.49353
0.650175
0.526012
0.349827
0.763118
0.449603
0.361573
0.370929
0.338963
0.747276
0.750526
0.457514
0.554656
0.759397
0.860806
0.78522
0.746354
0.387347
0.743356
0.749764
0.77144
0.746807
0.186464
0.708515
0.784847
0.344695
0.712998
0.260302
0.187719
0.396068
0.140476
0.375583
0.773852
0.38492
0.391506
0.751677
0.310145
0.782412
0.291806
0.262192
0.187899
0.36819
0.308197
0.823527
0.70469
0.755799
0.351369
0.43781
0.436491
0.258348
0.353881
0.321143
0.356574
0.574769
0.683339
0.257075
0.769558
0.254443
0.321717
0.765014
0.232646
0.355759
0.213745
0.351456
0.376572
0.252446
0.639296
0.345881
0.68616
0.263781
0.294091
0.301198
0.309494
0.315045
0.295608
0.314255
0.363118
0.191229
0.184893
0.186359
0.189732
0.145991
0.144464
0.644465
0.350444
0.3658
0.565238
0.192719
0.191813
0.372144
0.687301
0.371046
0.387636
0.647866
0.228472
0.648029
0.258972
0.361263
0.644718
0.687158
0.821456
0.81591
0.250926
0.840293
0.480621
0.686675
0.582669
0.367844
0.296402
0.0524676
0.296201
0.841286
0.683265
0.368094
0.393769
0.695672
0.295452
0.577674
0.0528389
0.685725
0.298034
0.30264
0.436636
0.186196
0.304964
0.155323
0.466688
0.869654
0.865304
0.172067
0.53833
0.395999
0.687385
0.226991
0.345347
0.689781
0.325879
0.632816
0.369575
0.635548
0.688678
0.0333301
0.176772
0.195105
0.1953
0.35263
0.637884
0.090597
0.303816
0.540902
0.636586
0.668116
0.175215
0.647039
0.190383
0.662657
0.855472
0.631439
0.841058
0.255982
0.641101
0.0319096
0.666053
0.263678
0.652888
0.291552
0.667303
0.494752
0.8991
0.49367
0.650085
0.161156
0.642798
0.509324
0.302977
0.336737
0.664357
0.635879
0.576989
0.263409
0.636237
0.412302
0.448649
0.166169
0.639831
0.586345
0.520054
0.587036
0.646941
0.58355
0.228067
0.403238
0.588958
0.641087
0.378468
0.377373
0.636772
0.167358
0.928731
0.444893
0.815905
0.50355
1
1
1
1
1
1
1
0.251741
0.102796
0.434738
0.514855
0.571598
0.588195
0.373213
0.579588
0.590362
0.102681
0.584111
0.217453
0.702914
0.215791
0.466201
0.523868
0.589834
0.174569
0.456096
0.519962
0.453386
0.516976
0.604226
0.70848
0.513959
0.463238
0.220816
0.564564
0.60875
0.576977
0.52729
0.459705
0.376974
0.581493
0.379304
0.48573
0.520691
0.390534
0.472722
0.602361
0.280958
0.515876
0.121227
0.853046
0.251177
0.229557
0.456809
0.524638
0.325898
0.928023
0.455417
0.518411
0.894068
0.0261181
0.0253228
0.442291
0.571937
0.513876
0.571576
0
0
0.431338
0.396683
0.392917
0.937278
0.60606
0.280465
0.56107
0.56065
0.530493
0.927891
0.287553
0.586708
0.459613
0.456969
0.571813
0.523803
0.57885
0.557139
0.916455
0.841171
0.52044
0.444782
0.522598
0.57981
0.529283
0.510865
0.522301
0.869896
0.203664
0.57084
0.327753
0.289409
0.86561
0.488876
0.486538
0.143368
0.0344082
0.0345788
0.156696
0.615652
0.447103
0.858553
0.034308
0
0
0.937995
0.0788172
0.0541148
0.46799
0.192965
0.443782
0.378415
0.277635
0.269937
0.396472
0.928898
0.449887
0.32731
0.276582
0.92385
0.0678322
0.904219
0.278697
0.376682
0.654726
0.473052
0.411529
0.139985
0.387774
0.140631
0.481033
0.284519
0.0607546
0.0603084
0.871495
0.342355
0.964497
0.964803
0.965052
0.300662
0.936138
0.96736
0.577601
0.965077
0.139446
0.139863
0.964827
0.530978
0.920593
0.966595
0.922462
0.966962
0.921392
0.0798468
0.871049
0.935213
0.965372
0.409993
0.241089
0.923146
0.404339
0.967624
0.3622
0.534658
0.967619
0.927179
0.968241
0.933514
0.464132
0.113357
0
0
0.343672
0
0
0
0.0187033
0.879623
0.0626869
0.155796
0.0979735
0.362448
0.0171903
0.0173011
0.0956301
0.941107
0.539063
0.942633
0.909755
0.90231
0.049427
0.049028
0.0488679
0.0487149
0.0498239
0
0.0474771
0.0127077
0
0.0493151
0.0489652
0
0
0.0131292
0.0404498
SCALARS rr_zonation_pattern float
LOOKUP_TABLE default
0
0
0
0
0
0
0
0
0
0
0
0
0
0
0
0
0
0
0
0
0
0
0
0
0
0
0
0
0
0
0
0
0
0
0
0
0
0
0
0
0
0
0
0
0
0
0
0
0
0
0
0
0
0
0
0
0
0
0
0
0
0
0
0
0
0
0
0
0
0
0
0
0
0
0
0
0
0
0
0
0
0
0
0
0
0
0
0
0
0
0
0
0
0
0
0
0
0
0
0
0
0
0
0
0
0
0
0
0
0
0
0
0
0
0
0
0
0
0
0
0
0
0
0
0
0
0
0
0
0
0
0
0
0
0
0
0
0
0
0
0
0
0
0
0
0
0
0
0
0
0
0
0
0
0
0
0
0
0
0
0
0
0
0
0
0
0
0
0
0
0
0
0
0
0
0
0
0
0
0
0
0
0
0
0
0
0
0
0
0
0
0
0
0
0
0
0
0
0
0
0
0
0
0
0
0
0
0
0
0
0
0
0
0
0
0
0
0
0
0
0
0
0
0
0
0
0
0
0
0
0
0
0
0
0
0
0
0
0
0
0
0
0
0
0
0
0
0
0
0
0
0
0
0
0
0
0
0
0
0
0
0
0
0
0
0
0
0
0
0
0
0
0
0
0
0
0
0
0
0
0
0
0
0
0
0
0
0
0
0
0
0
0
0
0
0
0
0
0
0
0
0
0
0
0
0
0
0
0
0
0
0
0
0
0
0
0
0
0
0
0
0
0
0
0
0
0
0
0
0
0
0
0
0
0
0
0
0
0
0
0
0
0
0
0
0
0
0
0
0
0
0
0
0
0
0
0
0
0
0
0
0
0
0
0
0
0
0
0
0
0
0
0
0
0
0
0
0
0
0
0
0
0
0
0
0
0
0
0
0
0
0
0
0
0
0
0
0
0
0
0
0
0
0
0
0
0
0
0
0
0
0
0
0
0
0
0
0
0
0
0
0
0
0
0
0
0
0
0
0
0
0
0
0
0
0
0
0
0
0
0
0
0
0
0
0
0
0
0
0
0
0
0
0
0
0
0
0
0
0
0
0
0
0
0
0
0
0
0
0
0
0
0
0
0
0
0
0
0
0
0
0
0
0
0
0
0
0
0
0
0
0
0
0
0
0
0
0
0
0
0
0
0
0
0
0
0
0
0
0
0
0
0
0
0
0
0
0
0
0
0
0
0
0
0
0
0
0
0
0
0
0
0
0
0
0
0
0
0
0
0
0
0
0
0
0
0
0
0
0
0
0
0
0
0
0
0
0
0
0
0
0
0
SCALARS rr_TDETOX float
LOOKUP_TABLE default
7.03865e-14
1.59226e-13
1.27184e-13
1.66102e-13
8.78293e-14
1.35043e-13
6.95504e-14
1.65488e-13
1.4215e-13
1.79451e-13
6.18707e-14
1.66084e-13
1.46144e-13
1.54308e-13
1.81759e-13
1.5164e-13
1.30571e-13
1.47628e-13
1.31714e-13
1.28995e-13
1.45203e-13
2.63134e-14
1.48786e-13
1.37144e-13
1.24208e-13
1.43405e-13
5.80183e-14
1.26038e-13
9.82803e-14
1.17958e-13
1.29034e-13
1.01466e-13
6.43963e-14
8.81464e-14
8.66449e-14
8.82889e-14
1.14369e-13
8.68157e-14
1.29055e-13
7.23621e-14
8.24715e-14
1.00741e-13
1.00688e-13
1.41618e-13
8.05219e-14
8.97005e-14
1.24056e-13
1.25754e-13
1.17914e-13
1.11951e-13
1.14942e-13
8.94835e-14
1.40555e-13
1.15157e-13
1.29387e-13
5.89529e-14
9.2557e-14
1.15888e-13
9.24886e-14
1.40613e-13
1.66592e-13
1.63725e-13
5.74493e-14
1.15476e-13
1.56858e-13
1.47883e-13
1.61181e-13
1.39301e-13
1.28123e-13
1.83142e-13
1.5255e-13
1.50789e-13
1.01988e-13
1.1977e-13
1.26417e-13
6.65677e-14
1.3097e-13
1.46449e-13
1.40483e-13
9.86734e-14
8.88803e-14
9.9011e-14
1.8647e-13
8.90143e-14
1.20226e-13
4.4416e-14
1.45489e-13
1.2218e-13
8.5266e-14
1.30219e-14
9.96558e-14
1.41737e-14
1.11108e-13
1.06279e-13
9.44545e-14
8.56135e-14
8.17714e-14
1.57264e-13
1.31014e-13
1.25474e-13
1.06322e-13
1.01851e-13
8.51989e-14
1.48768e-13
1.51509e-13
1.36284e-13
1.20229e-13
1.21773e-13
9.0529e-14
1.81498e-13
1.16618e-13
6.08899e-14
8.14376e-14
1.63011e-13
1.52633e-13
1.11256e-13
1.07725e-13
6.81037e-14
1.11817e-13
1.10722e-13
9.64228e-14
1.76823e-13
1.81505e-13
1.56374e-13
1.71962e-13
1.3524e-13
7.72462e-14
1.69964e-13
7.40986e-14
9.56679e-14
7.96515e-14
1.61849e-13
1.58613e-13
1.5891e-13
1.06006e-13
6.52445e-14
7.09363e-14
1.16683e-13
1.43085e-13
6.51826e-14
8.84181e-14
1.37768e-13
1.03967e-13
1.67913e-13
8.28758e-14
1.36838e-13
1.24527e-13
1.2029e-13
7.68e-14
9.7805e-14
1.09379e-13
1.56429e-13
9.09523e-14
1.41607e-13
1.63976e-13
1.66395e-13
1.09143e-13
9.12835e-14
9.06899e-14
1.42831e-13
1.19893e-13
9.02497e-14
5.95947e-14
8.80641e-14
8.79868e-14
1.53022e-13
9.24502e-14
9.35389e-14
1.00832e-13
8.99993e-14
1.35708e-13
9.42004e-14
8.31628e-14
1.05472e-13
9.96262e-14
1.20108e-13
1.34152e-13
1.28773e-13
1.09925e-13
1.28407e-13
9.80295e-14
1.48445e-13
1.59452e-13
8.84154e-14
1.56498e-13
8.81922e-14
1.54419e-13
1.42208e-13
1.33418e-13
1.34663e-13
1.57925e-13
7.43608e-14
9.73635e-14
9.02597e-14
1.58647e-13
1.56224e-13
1.44907e-13
1.58102e-13
1.60727e-13
1.35285e-13
1.65526e-13
1.10862e-13
9.97803e-14
1.81055e-13
1.04989e-13
1.6448e-13
1.31366e-13
8.3047e-14
1.00862e-13
1.63997e-13
1.37345e-13
1.2433e-13
1.59912e-13
1.57509e-13
1.01141e-13
1.00836e-13
9.73894e-14
1.39564e-13
1.53744e-13
1.76553e-13
1.69329e-13
1.84304e-13
1.67026e-13
1.82493e-13
1.53653e-13
1.60733e-13
1.62006e-13
1.52732e-13
1.60537e-13
1.48662e-13
1.46347e-13
1.02425e-13
1.38377e-13
1.61415e-13
1.12169e-13
1.65854e-13
1.52296e-13
1.75191e-13
1.04823e-13
1.66203e-13
1.5938e-13
1.03219e-13
1.43272e-13
1.025e-13
1.61098e-13
1.45984e-13
1.07403e-13
1.00987e-13
8.70644e-14
9.98251e-14
1.60859e-13
7.33572e-14
1.23768e-13
1.00662e-13
1.13152e-13
1.66368e-13
1.61422e-13
5.12785e-14
1.61853e-13
8.80645e-14
9.51937e-14
1.65573e-13
1.34933e-13
9.62997e-14
1.8495e-13
1.05122e-13
5.12419e-14
9.73994e-14
1.44184e-13
1.80263e-13
1.36112e-13
1.61395e-13
1.5085e-13
7.93452e-14
7.72826e-14
6.53389e-14
7.51668e-14
1.08356e-13
8.20555e-14
1.32378e-13
8.25792e-14
1.43134e-13
1.01896e-13
9.74939e-14
1.14817e-13
1.06264e-13
1.41958e-13
1.01975e-13
1.04575e-13
4.719e-14
1.06534e-13
1.53867e-13
1.53916e-13
1.38934e-13
1.01827e-13
6.70572e-14
1.93161e-13
1.29524e-13
1.0797e-13
9.95007e-14
9.99512e-14
1.02564e-13
1.26462e-13
1.00875e-13
7.13425e-14
9.95023e-14
6.79745e-14
1.23889e-13
1.01366e-13
4.39867e-14
9.56112e-14
1.13819e-13
1.01327e-13
1.57249e-13
1.05352e-13
1.36374e-13
5.20878e-14
1.09213e-13
1.04151e-13
9.1768e-14
9.76677e-14
1.15679e-13
1.09411e-13
1.13778e-13
9.66308e-14
9.81948e-14
1.06049e-13
1.42857e-13
9.99557e-14
1.42263e-13
1.28083e-13
1.01866e-13
1.03772e-13
1.04682e-13
1.16059e-13
1.04604e-13
9.78412e-14
1.11268e-13
1.17612e-13
1.38025e-13
1.04733e-13
1.03846e-13
1.51071e-13
1.48975e-13
9.99971e-14
1.01832e-13
4.4068e-14
1.22371e-13
8.41842e-14
1.14724e-13
4.80116e-14
4.991e-14
4.43578e-14
4.50988e-14
4.76945e-14
5.10744e-14
5.26873e-14
1.29359e-13
9.63575e-14
9.61681e-14
1.09759e-13
1.06694e-13
1.05501e-13
1.12084e-13
1.03209e-13
1.05509e-13
1.08927e-13
1.05078e-13
1.30102e-13
9.52479e-14
1.3328e-13
1.03425e-13
9.96907e-14
1.05242e-13
1.13586e-13
1.17536e-13
1.09377e-13
1.25414e-13
1.17006e-13
1.08368e-13
7.79129e-14
1.09151e-13
1.06843e-13
1.15568e-13
1.10008e-13
1.04101e-13
9.90839e-14
1.09197e-13
1.14052e-13
1.55073e-13
1.02075e-13
1.50741e-13
1.57033e-13
1.07309e-13
1.50461e-13
1.15248e-13
9.22534e-14
1.26126e-13
1.10228e-13
8.01535e-14
6.88078e-14
1.24685e-13
1.33292e-13
1.12024e-13
9.31235e-14
1.12276e-13
5.1998e-14
1.10707e-13
1.03887e-13
5.28779e-14
2.07424e-14
2.27229e-14
9.60564e-14
1.02097e-13
1.18817e-13
1.14041e-13
1.07755e-14
1.12356e-14
1.13311e-13
1.14418e-13
1.08289e-13
3.92505e-14
9.55156e-14
1.11819e-13
1.13432e-13
9.781e-14
8.63258e-14
4.04569e-14
1.64545e-13
1.02693e-13
1.25828e-13
1.27815e-13
9.17232e-14
1.1611e-13
8.97162e-14
9.90446e-14
4.87397e-14
7.38683e-14
1.16247e-13
1.17203e-13
1.00555e-13
1.0555e-13
1.08951e-13
1.14978e-13
1.09932e-13
5.35751e-14
9.69884e-14
1.08553e-13
1.03023e-13
1.54728e-13
5.34527e-14
8.35289e-14
8.59603e-14
8.23947e-14
5.37007e-14
5.36659e-14
9.41592e-14
7.52304e-14
1.0798e-13
5.73323e-14
6.41181e-14
2.11109e-14
2.10938e-14
4.21949e-14
6.94773e-14
4.68548e-14
9.1913e-14
9.99601e-14
1.06029e-13
1.19769e-13
1.08649e-13
1.00718e-13
7.92106e-14
4.77944e-14
9.92352e-14
1.03202e-13
9.99864e-14
5.44117e-14
5.13439e-14
3.96193e-14
9.95402e-14
1.01682e-13
8.12761e-14
9.20238e-14
8.51096e-14
7.83302e-14
1.0415e-13
7.82855e-14
9.18321e-14
8.88386e-14
5.51281e-14
6.81524e-14
6.17224e-14
1.10338e-13
4.34348e-14
4.59436e-14
4.45996e-14
1.04222e-13
4.0683e-14
4.02982e-14
7.22503e-14
3.76258e-14
8.49078e-14
8.49962e-14
3.87193e-14
9.15048e-14
4.29125e-14
4.30639e-14
4.78263e-14
4.10278e-14
3.97482e-14
6.062e-14
4.71493e-14
4.2604e-14
4.0811e-14
8.3995e-14
9.61267e-14
4.47917e-14
9.27126e-14
3.68461e-14
9.40695e-14
7.46028e-14
3.90483e-14
3.25329e-14
3.67851e-14
4.74759e-14
8.0649e-14
6.7062e-14
2.8304e-14
3.14193e-14
9.00694e-14
2.6666e-14
2.66437e-14
3.02096e-14
3.38682e-14
3.71218e-14
4.42652e-14
7.3043e-14
6.78855e-14
9.02605e-14
2.681e-14
2.6789e-14
8.01371e-14
3.16294e-14
6.4058e-14
2.8996e-14
2.97107e-14
3.88372e-14
6.85889e-14
7.09964e-14
7.56739e-14
6.9396e-14
6.85336e-14
1.5148e-14
1.11308e-13
1.93343e-14
1.87891e-14
8.99124e-14
8.92566e-14
1.94717e-14
1.34458e-14
1.8953e-14
8.28233e-14
SCALARS rr_S2PT float
LOOKUP_TABLE default
7.03869e-14
1.59227e-13
1.27185e-13
1.66103e-13
8.78298e-14
1.35044e-13
6.95508e-14
1.65489e-13
1.42151e-13
1.79452e-13
6.18711e-14
1.66085e-13
1.46145e-13
1.54309e-13
1.8176e-13
1.51641e-13
1.30571e-13
1.47629e-13
1.31715e-13
1.28996e-13
1.45203e-13
2.63135e-14
1.48786e-13
1.37145e-13
1.24209e-13
1.43406e-13
5.80187e-14
1.26038e-13
9.82808e-14
1.17959e-13
1.29035e-13
1.01466e-13
6.43967e-14
8.81469e-14
8.66454e-14
8.82894e-14
1.14369e-13
8.68162e-14
1.29055e-13
7.23625e-14
8.2472e-14
1.00742e-13
1.00688e-13
1.41618e-13
8.05223e-14
8.9701e-14
1.24057e-13
1.25754e-13
1.17914e-13
1.11952e-13
1.14943e-13
8.94841e-14
1.40556e-13
1.15157e-13
1.29387e-13
5.89532e-14
9.25575e-14
1.15889e-13
9.24892e-14
1.40614e-13
1.66593e-13
1.63726e-13
5.74496e-14
1.15476e-13
1.56859e-13
1.47884e-13
1.61182e-13
1.39302e-13
1.28123e-13
1.83143e-13
1.52551e-13
1.50789e-13
1.01989e-13
1.19771e-13
1.26418e-13
6.65681e-14
1.3097e-13
1.4645e-13
1.40484e-13
9.8674e-14
8.88808e-14
9.90115e-14
1.86471e-13
8.90148e-14
1.20226e-13
4.44163e-14
1.4549e-13
1.22181e-13
8.52665e-14
1.3022e-14
9.96564e-14
1.41738e-14
1.11109e-13
1.06279e-13
9.4455e-14
8.5614e-14
8.17719e-14
1.57264e-13
1.31015e-13
1.25474e-13
1.06323e-13
1.01852e-13
8.51995e-14
1.48769e-13
1.51509e-13
1.36285e-13
1.2023e-13
1.21773e-13
9.05296e-14
1.81499e-13
1.16619e-13
6.08903e-14
8.14381e-14
1.63012e-13
1.52633e-13
1.11257e-13
1.07726e-13
6.81041e-14
1.11818e-13
1.10723e-13
9.64233e-14
1.76824e-13
1.81506e-13
1.56375e-13
1.71963e-13
1.3524e-13
7.72466e-14
1.69965e-13
7.40991e-14
9.56685e-14
7.96519e-14
1.6185e-13
1.58614e-13
1.58911e-13
1.06007e-13
6.52449e-14
7.09368e-14
1.16683e-13
1.43085e-13
6.51829e-14
8.84187e-14
1.37769e-13
1.03968e-13
1.67914e-13
8.28763e-14
1.36838e-13
1.24528e-13
1.2029e-13
7.68005e-14
9.78056e-14
1.0938e-13
1.5643e-13
9.09528e-14
1.41608e-13
1.63977e-13
1.66396e-13
1.09144e-13
9.1284e-14
9.06904e-14
1.42832e-13
1.19894e-13
9.02502e-14
5.9595e-14
8.80646e-14
8.79873e-14
1.53023e-13
9.24507e-14
9.35394e-14
1.00833e-13
8.99998e-14
1.35709e-13
9.42009e-14
8.31633e-14
1.05472e-13
9.96268e-14
1.20109e-13
1.34153e-13
1.28774e-13
1.09926e-13
1.28408e-13
9.80301e-14
1.48446e-13
1.59453e-13
8.84159e-14
1.56499e-13
8.81927e-14
1.5442e-13
1.42209e-13
1.33419e-13
1.34664e-13
1.57926e-13
7.43613e-14
9.73641e-14
9.02602e-14
1.58648e-13
1.56225e-13
1.44907e-13
1.58103e-13
1.60728e-13
1.35285e-13
1.65527e-13
1.10863e-13
9.97809e-14
1.81056e-13
1.0499e-13
1.64481e-13
1.31366e-13
8.30475e-14
1.00863e-13
1.63998e-13
1.37346e-13
1.24331e-13
1.59913e-13
1.5751e-13
1.01141e-13
1.00837e-13
9.739e-14
1.39565e-13
1.53745e-13
1.76554e-13
1.6933e-13
1.84305e-13
1.67027e-13
1.82494e-13
1.53654e-13
1.60734e-13
1.62007e-13
1.52732e-13
1.60538e-13
1.48662e-13
1.46348e-13
1.02426e-13
1.38378e-13
1.61416e-13
1.12169e-13
1.65855e-13
1.52297e-13
1.75192e-13
1.04823e-13
1.66204e-13
1.59381e-13
1.03219e-13
1.43273e-13
1.025e-13
1.61099e-13
1.45985e-13
1.07403e-13
1.00987e-13
8.70649e-14
9.98257e-14
1.6086e-13
7.33577e-14
1.23769e-13
1.00662e-13
1.13152e-13
1.66369e-13
1.61423e-13
5.12788e-14
1.61854e-13
8.8065e-14
9.51942e-14
1.65574e-13
1.34933e-13
9.63002e-14
1.84951e-13
1.05123e-13
5.12422e-14
9.74e-14
1.44184e-13
1.80264e-13
1.36113e-13
1.61396e-13
1.50851e-13
7.93457e-14
7.72831e-14
6.53393e-14
7.51673e-14
1.08356e-13
8.2056e-14
1.32379e-13
8.25796e-14
1.43135e-13
1.01896e-13
9.74945e-14
1.14818e-13
1.06264e-13
1.41959e-13
1.01976e-13
1.04575e-13
4.71903e-14
1.06534e-13
1.53867e-13
1.53917e-13
1.38935e-13
1.01828e-13
6.70575e-14
1.93162e-13
1.29525e-13
1.07971e-13
9.95013e-14
9.99518e-14
1.02564e-13
1.26463e-13
1.00876e-13
7.1343e-14
9.95028e-14
6.79749e-14
1.2389e-13
1.01366e-13
4.39869e-14
9.56118e-14
1.13819e-13
1.01327e-13
1.5725e-13
1.05353e-13
1.36375e-13
5.20881e-14
1.09213e-13
1.04152e-13
9.17685e-14
9.76682e-14
1.15679e-13
1.09411e-13
1.13779e-13
9.66314e-14
9.81954e-14
1.0605e-13
1.42858e-13
9.99563e-14
1.42264e-13
1.28084e-13
1.01867e-13
1.03773e-13
1.04683e-13
1.1606e-13
1.04604e-13
9.78418e-14
1.11269e-13
1.17613e-13
1.38026e-13
1.04734e-13
1.03847e-13
1.51072e-13
1.48976e-13
9.99977e-14
1.01832e-13
4.40683e-14
1.22371e-13
8.41847e-14
1.14724e-13
4.80119e-14
4.99103e-14
4.43581e-14
4.50991e-14
4.76948e-14
5.10747e-14
5.26877e-14
1.2936e-13
9.6358e-14
9.61686e-14
1.0976e-13
1.06695e-13
1.05501e-13
1.12084e-13
1.03209e-13
1.0551e-13
1.08928e-13
1.05079e-13
1.30102e-13
9.52484e-14
1.33281e-13
1.03426e-13
9.96913e-14
1.05242e-13
1.13587e-13
1.17537e-13
1.09378e-13
1.25414e-13
1.17006e-13
1.08369e-13
7.79134e-14
1.09152e-13
1.06844e-13
1.15568e-13
1.10009e-13
1.04102e-13
9.90845e-14
1.09198e-13
1.14052e-13
1.55074e-13
1.02075e-13
1.50742e-13
1.57034e-13
1.0731e-13
1.50462e-13
1.15249e-13
9.22539e-14
1.26126e-13
1.10228e-13
8.01539e-14
6.88082e-14
1.24686e-13
1.33293e-13
1.12025e-13
9.31241e-14
1.12277e-13
5.19983e-14
1.10708e-13
1.03887e-13
5.28782e-14
2.07425e-14
2.2723e-14
9.60569e-14
1.02098e-13
1.18818e-13
1.14041e-13
1.07756e-14
1.12357e-14
1.13311e-13
1.14419e-13
1.0829e-13
3.92508e-14
9.55162e-14
1.11819e-13
1.13433e-13
9.78106e-14
8.63263e-14
4.04572e-14
1.64546e-13
1.02694e-13
1.25829e-13
1.27816e-13
9.17237e-14
1.16111e-13
8.97167e-14
9.90451e-14
4.874e-14
7.38688e-14
1.16248e-13
1.17204e-13
1.00555e-13
1.0555e-13
1.08952e-13
1.14979e-13
1.09933e-13
5.35754e-14
9.69889e-14
1.08553e-13
1.03023e-13
1.54729e-13
5.3453e-14
8.35294e-14
8.59608e-14
8.23952e-14
5.3701e-14
5.36662e-14
9.41598e-14
7.52308e-14
1.0798e-13
5.73326e-14
6.41185e-14
2.1111e-14
2.10939e-14
4.21952e-14
6.94777e-14
4.68551e-14
9.19136e-14
9.99607e-14
1.0603e-13
1.19769e-13
1.08649e-13
1.00719e-13
7.92111e-14
4.77947e-14
9.92358e-14
1.03202e-13
9.9987e-14
5.44121e-14
5.13442e-14
3.96195e-14
9.95408e-14
1.01683e-13
8.12766e-14
9.20243e-14
8.51101e-14
7.83306e-14
1.04151e-13
7.82859e-14
9.18327e-14
8.88391e-14
5.51284e-14
6.81527e-14
6.17228e-14
1.10338e-13
4.34351e-14
4.59439e-14
4.45999e-14
1.04222e-13
4.06833e-14
4.02984e-14
7.22507e-14
3.7626e-14
8.49082e-14
8.49967e-14
3.87196e-14
9.15053e-14
4.29127e-14
4.30641e-14
4.78266e-14
4.1028e-14
3.97484e-14
6.06203e-14
4.71496e-14
4.26042e-14
4.08113e-14
8.39955e-14
9.61272e-14
4.47919e-14
9.27131e-14
3.68463e-14
9.40701e-14
7.46032e-14
3.90486e-14
3.25331e-14
3.67853e-14
4.74762e-14
8.06494e-14
6.70624e-14
2.83041e-14
3.14194e-14
9.00699e-14
2.66662e-14
2.66439e-14
3.02098e-14
3.38684e-14
3.7122e-14
4.42654e-14
7.30434e-14
6.78859e-14
9.0261e-14
2.68102e-14
2.67891e-14
8.01375e-14
3.16296e-14
6.40584e-14
2.89962e-14
2.97108e-14
3.88374e-14
6.85893e-14
7.09968e-14
7.56744e-14
6.93963e-14
6.8534e-14
1.51481e-14
1.11308e-13
1.93344e-14
1.87892e-14
8.99128e-14
8.92571e-14
1.94718e-14
1.34459e-14
1.89531e-14
8.28238e-14
SCALARS rr_PEX float
LOOKUP_TABLE default
6.66369e-14
1.51656e-13
1.21092e-13
1.58191e-13
8.37511e-14
1.28572e-13
6.58416e-14
1.57604e-13
1.35285e-13
1.7092e-13
5.85641e-14
1.58171e-13
1.39169e-13
1.46982e-13
1.73245e-13
1.44386e-13
1.24391e-13
1.40585e-13
1.25323e-13
1.228e-13
1.38222e-13
2.51258e-14
1.41631e-13
1.30558e-13
1.18242e-13
1.36574e-13
5.50008e-14
1.20005e-13
9.33618e-14
1.12547e-13
1.22873e-13
9.63892e-14
6.10436e-14
8.40819e-14
8.26617e-14
8.42174e-14
1.09128e-13
8.28203e-14
1.22892e-13
6.85957e-14
7.83443e-14
9.61267e-14
9.6075e-14
1.34856e-13
7.63694e-14
8.52208e-14
1.1805e-13
1.19691e-13
1.12265e-13
1.06303e-13
1.09171e-13
8.50612e-14
1.34019e-13
1.09468e-13
1.23366e-13
5.59351e-14
8.83029e-14
1.10163e-13
8.82373e-14
1.33863e-13
1.58702e-13
1.56032e-13
5.45005e-14
1.10048e-13
1.49488e-13
1.40886e-13
1.5355e-13
1.32666e-13
1.21966e-13
1.74436e-13
1.45455e-13
1.43775e-13
9.68838e-14
1.14119e-13
1.20364e-13
6.30711e-14
1.24847e-13
1.39518e-13
1.33792e-13
9.3807e-14
8.43936e-14
9.44271e-14
1.77674e-13
8.44986e-14
1.14236e-13
4.21323e-14
1.38525e-13
1.16407e-13
8.08705e-14
1.24321e-14
9.4732e-14
1.35316e-14
1.05916e-13
1.01244e-13
8.97925e-14
8.13099e-14
7.76468e-14
1.49786e-13
1.24889e-13
1.1948e-13
1.01133e-13
9.67919e-14
8.08776e-14
1.41676e-13
1.44299e-13
1.298e-13
1.14565e-13
1.15951e-13
8.5936e-14
1.72879e-13
1.11021e-13
5.77635e-14
7.72866e-14
1.55237e-13
1.45368e-13
1.05763e-13
1.02773e-13
6.46664e-14
1.06676e-13
1.05258e-13
9.17331e-14
1.68532e-13
1.72874e-13
1.48986e-13
1.63801e-13
1.2891e-13
7.36841e-14
1.61881e-13
7.03605e-14
9.09462e-14
7.59468e-14
1.54148e-13
1.51126e-13
1.51351e-13
1.00742e-13
6.2245e-14
6.73342e-14
1.11117e-13
1.36335e-13
6.21857e-14
8.40329e-14
1.31222e-13
9.89194e-14
1.5993e-13
7.86909e-14
1.30322e-13
1.18601e-13
1.14528e-13
7.31205e-14
9.30157e-14
1.04103e-13
1.4899e-13
8.64004e-14
1.34849e-13
1.5618e-13
1.58478e-13
1.03969e-13
8.67615e-14
8.61989e-14
1.36012e-13
1.14114e-13
8.57373e-14
5.65319e-14
8.36423e-14
8.3627e-14
1.45742e-13
8.78698e-14
8.89041e-14
9.57862e-14
8.55412e-14
1.29368e-13
8.9547e-14
7.8986e-14
1.00475e-13
9.47056e-14
1.14448e-13
1.27885e-13
1.22637e-13
1.04816e-13
1.22299e-13
9.31254e-14
1.41385e-13
1.51869e-13
8.40309e-14
1.49105e-13
8.37591e-14
1.47122e-13
1.35511e-13
1.27187e-13
1.2826e-13
1.50466e-13
7.06123e-14
9.25549e-14
8.57442e-14
1.511e-13
1.48769e-13
1.37995e-13
1.5064e-13
1.53083e-13
1.28881e-13
1.57655e-13
1.0549e-13
9.48637e-14
1.72508e-13
9.9739e-14
1.56721e-13
1.25149e-13
7.89193e-14
9.61289e-14
1.56199e-13
1.30906e-13
1.18431e-13
1.52301e-13
1.50079e-13
9.61893e-14
9.60554e-14
9.25964e-14
1.32991e-13
1.46446e-13
1.68173e-13
1.61282e-13
1.7555e-13
1.59093e-13
1.73825e-13
1.46353e-13
1.53199e-13
1.54411e-13
1.45573e-13
1.53013e-13
1.41745e-13
1.39538e-13
9.74074e-14
1.31804e-13
1.53719e-13
1.06759e-13
1.58085e-13
1.45165e-13
1.6684e-13
9.9659e-14
1.58276e-13
1.51802e-13
9.81682e-14
1.36549e-13
9.74821e-14
1.53501e-13
1.39018e-13
1.02148e-13
9.6019e-14
8.26689e-14
9.47788e-14
1.53271e-13
6.9647e-14
1.17855e-13
9.57074e-14
1.07664e-13
1.58432e-13
1.53758e-13
4.89311e-14
1.54166e-13
8.36088e-14
9.05082e-14
1.57678e-13
1.28504e-13
9.15535e-14
1.76169e-13
1.00021e-13
4.8896e-14
9.26065e-14
1.37341e-13
1.71741e-13
1.29619e-13
1.53833e-13
1.43721e-13
7.56555e-14
7.35935e-14
6.19994e-14
7.12997e-14
1.03305e-13
7.81112e-14
1.26071e-13
7.85381e-14
1.36419e-13
9.70684e-14
9.26959e-14
1.0938e-13
1.0108e-13
1.35206e-13
9.70012e-14
9.94245e-14
4.5044e-14
1.01561e-13
1.46661e-13
1.46707e-13
1.32334e-13
9.68644e-14
6.39622e-14
1.84027e-13
1.23282e-13
1.0271e-13
9.46371e-14
9.52916e-14
9.75451e-14
1.20553e-13
9.59501e-14
6.76646e-14
9.46516e-14
6.45415e-14
1.18055e-13
9.64059e-14
4.19863e-14
9.09434e-14
1.08447e-13
9.63627e-14
1.49822e-13
1.00207e-13
1.29848e-13
4.94113e-14
1.03976e-13
9.90535e-14
8.74879e-14
9.28845e-14
1.10103e-13
1.04244e-13
1.08369e-13
9.19122e-14
9.34083e-14
1.00902e-13
1.36129e-13
9.50827e-14
1.35485e-13
1.21953e-13
9.71285e-14
9.87143e-14
9.95987e-14
1.10474e-13
9.95296e-14
9.30669e-14
1.05872e-13
1.12088e-13
1.31447e-13
9.96494e-14
9.87624e-14
1.4389e-13
1.41895e-13
9.51201e-14
9.70953e-14
4.17034e-14
1.16513e-13
7.99335e-14
1.09205e-13
4.51236e-14
4.69071e-14
4.16953e-14
4.239e-14
4.48302e-14
4.79968e-14
4.95137e-14
1.23269e-13
9.18997e-14
9.15777e-14
1.04466e-13
1.0152e-13
1.00382e-13
1.06753e-13
9.81983e-14
1.00384e-13
1.03889e-13
9.99805e-14
1.24001e-13
9.05422e-14
1.27024e-13
9.8468e-14
9.48829e-14
1.00134e-13
1.08292e-13
1.1191e-13
1.04106e-13
1.19411e-13
1.11367e-13
1.03105e-13
7.40692e-14
1.03886e-13
1.01725e-13
1.1015e-13
1.04678e-13
9.90407e-14
9.42816e-14
1.03928e-13
1.08586e-13
1.47698e-13
9.7127e-14
1.43571e-13
1.49501e-13
1.02132e-13
1.43294e-13
1.09721e-13
8.77766e-14
1.20168e-13
1.04921e-13
7.64427e-14
6.52622e-14
1.18815e-13
1.27032e-13
1.06656e-13
8.8642e-14
1.06962e-13
4.92125e-14
1.05402e-13
9.88844e-14
5.01626e-14
1.97986e-14
2.16893e-14
9.14575e-14
9.71454e-14
1.13103e-13
1.08516e-13
1.02909e-14
1.07303e-14
1.07912e-13
1.08969e-13
1.03129e-13
3.71482e-14
9.08755e-14
1.06544e-13
1.07961e-13
9.30883e-14
8.21608e-14
3.8282e-14
1.56769e-13
9.771e-14
1.19803e-13
1.21695e-13
8.72944e-14
1.10514e-13
8.53846e-14
9.42664e-14
4.62029e-14
7.01385e-14
1.10644e-13
1.11592e-13
9.5714e-14
1.00452e-13
1.03703e-13
1.09446e-13
1.0464e-13
5.08137e-14
9.24469e-14
1.0329e-13
9.81453e-14
1.4742e-13
5.06972e-14
7.95277e-14
8.18391e-14
7.8563e-14
5.12556e-14
5.12223e-14
8.97635e-14
7.1575e-14
1.02808e-13
5.43691e-14
6.11934e-14
2.01596e-14
2.01432e-14
3.99216e-14
6.62796e-14
4.4706e-14
8.75065e-14
9.52876e-14
1.00968e-13
1.14077e-13
1.03518e-13
9.59738e-14
7.54367e-14
4.52321e-14
9.44893e-14
9.83124e-14
9.52687e-14
5.1551e-14
4.89826e-14
3.75817e-14
9.48406e-14
9.6853e-14
7.73044e-14
8.76296e-14
8.10532e-14
7.46895e-14
9.91923e-14
7.46466e-14
8.74359e-14
8.46482e-14
5.25961e-14
6.50241e-14
5.85362e-14
1.05101e-13
4.11229e-14
4.351e-14
4.22141e-14
9.9297e-14
3.85016e-14
3.81329e-14
6.87608e-14
3.56199e-14
8.09774e-14
8.10616e-14
3.66629e-14
8.71013e-14
4.06809e-14
4.07718e-14
4.53304e-14
3.8843e-14
3.76754e-14
5.78308e-14
4.47018e-14
4.03203e-14
3.86408e-14
7.99902e-14
9.16067e-14
4.24469e-14
8.82929e-14
3.48703e-14
8.95982e-14
7.10149e-14
3.69635e-14
3.08271e-14
3.48151e-14
4.49182e-14
7.67808e-14
6.39619e-14
2.70261e-14
2.99991e-14
8.57945e-14
2.54617e-14
2.54404e-14
2.88447e-14
3.23289e-14
3.52005e-14
4.22312e-14
6.9635e-14
6.47475e-14
8.59718e-14
2.55939e-14
2.55737e-14
7.64389e-14
2.99221e-14
6.09747e-14
2.74377e-14
2.81803e-14
3.68352e-14
6.5457e-14
6.77539e-14
7.22157e-14
6.62253e-14
6.5404e-14
1.4463e-14
1.06222e-13
1.84573e-14
1.7941e-14
8.58075e-14
8.51823e-14
1.85932e-14
1.2838e-14
1.80936e-14
7.90363e-14
SCALARS rr_SIM float
LOOKUP_TABLE default
6.66813e-14
1.51741e-13
1.2116e-13
1.5828e-13
8.3797e-14
1.28645e-13
6.58854e-14
1.57692e-13
1.35363e-13
1.71016e-13
5.86022e-14
1.5826e-13
1.39247e-13
1.47064e-13
1.73341e-13
1.44468e-13
1.2446e-13
1.40664e-13
1.25395e-13
1.2287e-13
1.383e-13
2.51392e-14
1.41712e-13
1.30632e-13
1.18309e-13
1.36651e-13
5.50355e-14
1.20073e-13
9.34177e-14
1.12609e-13
1.22942e-13
9.64468e-14
6.10823e-14
8.41277e-14
8.27065e-14
8.42633e-14
1.09187e-13
8.28653e-14
1.22961e-13
6.8639e-14
7.83911e-14
9.61787e-14
9.61269e-14
1.34932e-13
7.64169e-14
8.52718e-14
1.18117e-13
1.19759e-13
1.12329e-13
1.06368e-13
1.09237e-13
8.51113e-14
1.34093e-13
1.09532e-13
1.23434e-13
5.59697e-14
8.83508e-14
1.10228e-13
8.82851e-14
1.33939e-13
1.58791e-13
1.56118e-13
5.45344e-14
1.10109e-13
1.49571e-13
1.40964e-13
1.53635e-13
1.32741e-13
1.22035e-13
1.74534e-13
1.45535e-13
1.43854e-13
9.69417e-14
1.14183e-13
1.20432e-13
6.31116e-14
1.24916e-13
1.39596e-13
1.33867e-13
9.3862e-14
8.44447e-14
9.44786e-14
1.77772e-13
8.45502e-14
1.14304e-13
4.21584e-14
1.38604e-13
1.16472e-13
8.09207e-14
1.24389e-14
9.47877e-14
1.3539e-14
1.05975e-13
1.01301e-13
8.98454e-14
8.13588e-14
7.76938e-14
1.4987e-13
1.24958e-13
1.19547e-13
1.01192e-13
9.68493e-14
8.09269e-14
1.41755e-13
1.4438e-13
1.29873e-13
1.14629e-13
1.16016e-13
8.59884e-14
1.72975e-13
1.11083e-13
5.77993e-14
7.7334e-14
1.55324e-13
1.45449e-13
1.05825e-13
1.02829e-13
6.47057e-14
1.06734e-13
1.05319e-13
9.17859e-14
1.68625e-13
1.72971e-13
1.49069e-13
1.63893e-13
1.28981e-13
7.37244e-14
1.61972e-13
7.04031e-14
9.09996e-14
7.59884e-14
1.54235e-13
1.51211e-13
1.51436e-13
1.00802e-13
6.22789e-14
6.73754e-14
1.11179e-13
1.36411e-13
6.22194e-14
8.40826e-14
1.31296e-13
9.89763e-14
1.6002e-13
7.87387e-14
1.30395e-13
1.18668e-13
1.14593e-13
7.31619e-14
9.30698e-14
1.04163e-13
1.49074e-13
8.6452e-14
1.34925e-13
1.56268e-13
1.58567e-13
1.04027e-13
8.68128e-14
8.62499e-14
1.36088e-13
1.14179e-13
8.57885e-14
5.6567e-14
8.36925e-14
8.36765e-14
1.45824e-13
8.79217e-14
8.89568e-14
9.58435e-14
8.55918e-14
1.29439e-13
8.95997e-14
7.90335e-14
1.00531e-13
9.47614e-14
1.14512e-13
1.27955e-13
1.22706e-13
1.04873e-13
1.22368e-13
9.31812e-14
1.41464e-13
1.51954e-13
8.40806e-14
1.49188e-13
8.38096e-14
1.47204e-13
1.35586e-13
1.27258e-13
1.28332e-13
1.50549e-13
7.06551e-14
9.26093e-14
8.57954e-14
1.51185e-13
1.48852e-13
1.38072e-13
1.50723e-13
1.53169e-13
1.28953e-13
1.57743e-13
1.0555e-13
9.49193e-14
1.72604e-13
9.97987e-14
1.56808e-13
1.25219e-13
7.89661e-14
9.61821e-14
1.56287e-13
1.30979e-13
1.18497e-13
1.52386e-13
1.50162e-13
9.62453e-14
9.61091e-14
9.26506e-14
1.33065e-13
1.46528e-13
1.68267e-13
1.61372e-13
1.75648e-13
1.59182e-13
1.73922e-13
1.46435e-13
1.53284e-13
1.54496e-13
1.45653e-13
1.53098e-13
1.41823e-13
1.39615e-13
9.7464e-14
1.31878e-13
1.53806e-13
1.06819e-13
1.58173e-13
1.45245e-13
1.66934e-13
9.97174e-14
1.58365e-13
1.51887e-13
9.82253e-14
1.36625e-13
9.75388e-14
1.53586e-13
1.39096e-13
1.02208e-13
9.60751e-14
8.2719e-14
9.48362e-14
1.53356e-13
6.96894e-14
1.17921e-13
9.57634e-14
1.07726e-13
1.58521e-13
1.53844e-13
4.89576e-14
1.54253e-13
8.36598e-14
9.05611e-14
1.57767e-13
1.28576e-13
9.16072e-14
1.76267e-13
1.00078e-13
4.89224e-14
9.26607e-14
1.37418e-13
1.71837e-13
1.29692e-13
1.53919e-13
1.43801e-13
7.5697e-14
7.3635e-14
6.20376e-14
7.13441e-14
1.03362e-13
7.81555e-14
1.26142e-13
7.85838e-14
1.36495e-13
9.71225e-14
9.27501e-14
1.09441e-13
1.01139e-13
1.35282e-13
9.70573e-14
9.94826e-14
4.50683e-14
1.01617e-13
1.46742e-13
1.46788e-13
1.32408e-13
9.69205e-14
6.3997e-14
1.8413e-13
1.23352e-13
1.02769e-13
9.4692e-14
9.5344e-14
9.76017e-14
1.2062e-13
9.60057e-14
6.77067e-14
9.47063e-14
6.45807e-14
1.18121e-13
9.64619e-14
4.20089e-14
9.09961e-14
1.08508e-13
9.64188e-14
1.49906e-13
1.00265e-13
1.29922e-13
4.94421e-14
1.04035e-13
9.91111e-14
8.7536e-14
9.29385e-14
1.10166e-13
1.04303e-13
1.0843e-13
9.19655e-14
9.34623e-14
1.0096e-13
1.36205e-13
9.51376e-14
1.35561e-13
1.22022e-13
9.71818e-14
9.87714e-14
9.9656e-14
1.10537e-13
9.95867e-14
9.31208e-14
1.05933e-13
1.1215e-13
1.31521e-13
9.97067e-14
9.88198e-14
1.43971e-13
1.41974e-13
9.51751e-14
9.71485e-14
4.17307e-14
1.16579e-13
7.99819e-14
1.09267e-13
4.51579e-14
4.69428e-14
4.17267e-14
4.2422e-14
4.4864e-14
4.80337e-14
4.95518e-14
1.23338e-13
9.195e-14
9.16293e-14
1.04526e-13
1.01578e-13
1.0044e-13
1.06813e-13
9.82547e-14
1.00442e-13
1.03946e-13
1.00038e-13
1.24069e-13
9.05954e-14
1.27094e-13
9.85237e-14
9.4937e-14
1.00192e-13
1.08352e-13
1.11974e-13
1.04165e-13
1.19479e-13
1.11431e-13
1.03165e-13
7.41127e-14
1.03946e-13
1.01782e-13
1.10211e-13
1.04738e-13
9.90977e-14
9.43357e-14
1.03987e-13
1.08648e-13
1.47781e-13
9.71827e-14
1.43652e-13
1.49586e-13
1.0219e-13
1.43374e-13
1.09784e-13
8.78271e-14
1.20235e-13
1.04981e-13
7.64845e-14
6.53027e-14
1.18881e-13
1.27102e-13
1.06716e-13
8.86924e-14
1.07022e-13
4.92448e-14
1.05461e-13
9.89406e-14
5.01938e-14
1.98093e-14
2.17011e-14
9.15092e-14
9.72012e-14
1.13167e-13
1.08578e-13
1.02965e-14
1.07361e-14
1.07973e-13
1.0903e-13
1.03187e-13
3.71726e-14
9.09278e-14
1.06603e-13
1.08022e-13
9.31415e-14
8.22077e-14
3.83071e-14
1.56857e-13
9.77661e-14
1.19871e-13
1.21764e-13
8.73442e-14
1.10577e-13
8.54333e-14
9.43202e-14
4.62322e-14
7.0181e-14
1.10707e-13
1.11656e-13
9.57684e-14
1.00509e-13
1.03762e-13
1.09509e-13
1.047e-13
5.08454e-14
9.24979e-14
1.03349e-13
9.82001e-14
1.47502e-13
5.07287e-14
7.95727e-14
8.18854e-14
7.86062e-14
5.12832e-14
5.12498e-14
8.9813e-14
7.16162e-14
1.02866e-13
5.44031e-14
6.12264e-14
2.01704e-14
2.0154e-14
3.99479e-14
6.63156e-14
4.47302e-14
8.75561e-14
9.53401e-14
1.01024e-13
1.14141e-13
1.03575e-13
9.6027e-14
7.54792e-14
4.52618e-14
9.45426e-14
9.83674e-14
9.53217e-14
5.15841e-14
4.90092e-14
3.76053e-14
9.48933e-14
9.69073e-14
7.73492e-14
8.76789e-14
8.10988e-14
7.47305e-14
9.92479e-14
7.46875e-14
8.74852e-14
8.46953e-14
5.26247e-14
6.50596e-14
5.85728e-14
1.0516e-13
4.115e-14
4.35386e-14
4.2242e-14
9.93523e-14
3.85269e-14
3.81583e-14
6.88001e-14
3.56434e-14
8.10217e-14
8.11058e-14
3.66869e-14
8.71508e-14
4.07068e-14
4.07988e-14
4.53593e-14
3.88687e-14
3.76993e-14
5.78622e-14
4.47299e-14
4.03468e-14
3.86662e-14
8.00352e-14
9.16574e-14
4.24741e-14
8.83426e-14
3.48934e-14
8.96484e-14
7.10552e-14
3.69881e-14
3.08468e-14
3.48383e-14
4.49478e-14
7.68242e-14
6.39968e-14
2.70406e-14
3.00152e-14
8.58425e-14
2.54754e-14
2.5454e-14
2.88602e-14
3.23464e-14
3.52225e-14
4.22541e-14
6.96735e-14
6.4783e-14
8.602e-14
2.56077e-14
2.55875e-14
7.64807e-14
2.99418e-14
6.10094e-14
2.74558e-14
2.8198e-14
3.68582e-14
6.54923e-14
6.77904e-14
7.22547e-14
6.62611e-14
6.54392e-14
1.44708e-14
1.0628e-13
1.84673e-14
1.79507e-14
8.5854e-14
8.52284e-14
1.86033e-14
1.28449e-14
1.81034e-14
7.90791e-14
SCALARS element_volume_point_TPM float
LOOKUP_TABLE default
6.65815e-13
1.59641e-12
1.27131e-12
1.66522e-12
8.79993e-13
1.3492e-12
6.57917e-13
1.65622e-12
1.41603e-12
1.79442e-12
6.01214e-13
1.6613e-12
1.46091e-12
1.54612e-12
1.82122e-12
1.51609e-12
1.30938e-12
1.47557e-12
1.31217e-12
1.28868e-12
1.44906e-12
2.6432e-13
1.48452e-12
1.36898e-12
1.24081e-12
1.43627e-12
5.65386e-13
1.25915e-12
9.68344e-13
1.18356e-12
1.29044e-12
1.00118e-12
6.26159e-13
8.84908e-13
8.70938e-13
8.86866e-13
1.15112e-12
8.72328e-13
1.28907e-12
7.03873e-13
8.14019e-13
1.01467e-12
1.01473e-12
1.41632e-12
7.88456e-13
8.83913e-13
1.23611e-12
1.25421e-12
1.17839e-12
1.10129e-12
1.13371e-12
8.85883e-13
1.41149e-12
1.13851e-12
1.29912e-12
5.74559e-13
9.29977e-13
1.1469e-12
9.29912e-13
1.40513e-12
1.67086e-12
1.64296e-12
5.60366e-13
1.15838e-12
1.57372e-12
1.48109e-12
1.61642e-12
1.39505e-12
1.27994e-12
1.83219e-12
1.53127e-12
1.51455e-12
1.00573e-12
1.20027e-12
1.26376e-12
6.43055e-13
1.31395e-12
1.4673e-12
1.40674e-12
9.78385e-13
8.73614e-13
9.94503e-13
1.86794e-12
8.72333e-13
1.18693e-12
4.34029e-13
1.45449e-12
1.22202e-12
8.35179e-13
1.29807e-13
9.86517e-13
1.41167e-13
1.11508e-12
1.06268e-12
9.34101e-13
8.4439e-13
8.0279e-13
1.57529e-12
1.31485e-12
1.25476e-12
1.05625e-12
1.00529e-12
8.37236e-13
1.4904e-12
1.51624e-12
1.3655e-12
1.20572e-12
1.21596e-12
8.88579e-13
1.82044e-12
1.16509e-12
5.95993e-13
7.99683e-13
1.63087e-12
1.52911e-12
1.09982e-12
1.07837e-12
6.66866e-13
1.11836e-12
1.09569e-12
9.59291e-13
1.77455e-12
1.81915e-12
1.56708e-12
1.72051e-12
1.35781e-12
7.72868e-13
1.70073e-12
7.27e-13
9.47235e-13
7.9987e-13
1.62263e-12
1.59027e-12
1.59338e-12
1.04572e-12
6.55088e-13
6.93772e-13
1.16686e-12
1.43213e-12
6.54841e-13
8.73881e-13
1.37741e-12
1.03416e-12
1.68121e-12
8.11497e-13
1.37097e-12
1.24461e-12
1.2001e-12
7.67014e-13
9.70896e-13
1.08987e-12
1.56608e-12
8.98153e-13
1.41647e-12
1.64295e-12
1.66824e-12
1.09348e-12
9.00631e-13
8.95678e-13
1.42977e-12
1.19565e-12
8.91122e-13
5.81677e-13
8.68522e-13
8.69706e-13
1.53307e-12
9.12684e-13
9.22743e-13
9.94433e-13
8.89501e-13
1.36162e-12
9.32639e-13
8.19034e-13
1.05692e-12
9.85314e-13
1.20477e-12
1.34676e-12
1.28609e-12
1.10356e-12
1.28378e-12
9.65397e-13
1.48754e-12
1.59652e-12
8.74063e-13
1.56823e-12
8.67638e-13
1.5485e-12
1.42548e-12
1.33543e-12
1.34938e-12
1.58206e-12
7.29002e-13
9.64197e-13
8.90964e-13
1.59048e-12
1.56422e-12
1.45054e-12
1.58631e-12
1.61001e-12
1.35536e-12
1.65827e-12
1.10414e-12
9.8893e-13
1.81604e-12
1.03425e-12
1.64989e-12
1.31293e-12
8.20452e-13
1.01159e-12
1.64094e-12
1.37384e-12
1.24485e-12
1.60151e-12
1.57646e-12
1.00421e-12
1.00964e-12
9.64967e-13
1.39972e-12
1.53911e-12
1.76886e-12
1.69862e-12
1.84848e-12
1.67504e-12
1.83045e-12
1.53606e-12
1.61374e-12
1.62614e-12
1.53311e-12
1.61068e-12
1.48718e-12
1.46509e-12
1.01729e-12
1.38423e-12
1.61657e-12
1.1181e-12
1.65939e-12
1.52461e-12
1.75293e-12
1.03985e-12
1.66659e-12
1.59567e-12
1.02442e-12
1.43744e-12
1.01729e-12
1.61166e-12
1.464e-12
1.06666e-12
1.00136e-12
8.55868e-13
9.83206e-13
1.61371e-12
7.182e-13
1.23762e-12
9.97401e-13
1.12662e-12
1.6681e-12
1.61784e-12
5.15153e-13
1.62356e-12
8.60226e-13
9.44102e-13
1.65928e-12
1.34975e-12
9.54657e-13
1.85461e-12
1.04571e-12
5.15136e-13
9.65532e-13
1.44303e-12
1.80475e-12
1.36317e-12
1.61539e-12
1.50779e-12
7.96631e-13
7.72633e-13
6.40488e-13
7.32597e-13
1.08469e-12
8.19292e-13
1.32465e-12
8.19584e-13
1.43551e-12
1.02114e-12
9.66968e-13
1.15012e-12
1.05616e-12
1.41799e-12
1.0128e-12
1.03743e-12
4.73499e-13
1.06941e-12
1.54463e-12
1.54563e-12
1.39195e-12
1.01121e-12
6.73446e-13
1.93609e-12
1.29077e-12
1.07291e-12
9.87697e-13
1.00316e-12
1.01809e-12
1.26487e-12
1.00103e-12
6.98151e-13
9.88513e-13
6.67263e-13
1.24248e-12
1.00672e-12
4.41331e-13
9.493e-13
1.13849e-12
1.00618e-12
1.57262e-12
1.04655e-12
1.36149e-12
5.06199e-13
1.09182e-12
1.03359e-12
9.21136e-13
9.70018e-13
1.1528e-12
1.09438e-12
1.14086e-12
9.59565e-13
9.75408e-13
1.05527e-12
1.42854e-12
9.93232e-13
1.42102e-12
1.28034e-12
1.02234e-12
1.03052e-12
1.04204e-12
1.15712e-12
1.04083e-12
9.7207e-13
1.10757e-12
1.1771e-12
1.38139e-12
1.042e-12
1.03126e-12
1.51216e-12
1.49109e-12
9.93799e-13
1.02251e-12
4.27169e-13
1.22096e-12
8.27009e-13
1.1437e-12
4.53359e-13
4.70532e-13
4.21001e-13
4.27764e-13
4.53805e-13
4.77234e-13
4.91852e-13
1.29448e-12
9.64783e-13
9.61083e-13
1.09408e-12
1.06313e-12
1.04979e-12
1.11974e-12
1.02704e-12
1.0502e-12
1.08951e-12
1.04589e-12
1.3025e-12
9.43165e-13
1.33807e-12
1.03248e-12
9.94068e-13
1.04704e-12
1.13607e-12
1.17428e-12
1.09085e-12
1.25297e-12
1.16717e-12
1.07872e-12
7.72291e-13
1.08819e-12
1.06715e-12
1.15922e-12
1.09536e-12
1.03643e-12
9.86961e-13
1.08924e-12
1.13955e-12
1.55176e-12
1.01669e-12
1.5086e-12
1.56712e-12
1.07046e-12
1.5057e-12
1.15192e-12
9.18052e-13
1.26468e-12
1.0999e-12
8.04888e-13
6.7363e-13
1.25036e-12
1.33299e-12
1.11929e-12
9.28832e-13
1.125e-12
5.02858e-13
1.10654e-12
1.03624e-12
5.14355e-13
2.07516e-13
2.27039e-13
9.58894e-13
1.01683e-12
1.18542e-12
1.13581e-12
1.07343e-13
1.12163e-13
1.13282e-12
1.1449e-12
1.08349e-12
3.77504e-13
9.50773e-13
1.11894e-12
1.13068e-12
9.74969e-13
8.60688e-13
3.9233e-13
1.6468e-12
1.02297e-12
1.25715e-12
1.27683e-12
9.14365e-13
1.15806e-12
8.94068e-13
9.86879e-13
4.73188e-13
7.24963e-13
1.15941e-12
1.16997e-12
1.00324e-12
1.05222e-12
1.08706e-12
1.1468e-12
1.09659e-12
5.23291e-13
9.73154e-13
1.08141e-12
1.0324e-12
1.55074e-12
5.23263e-13
8.34525e-13
8.59272e-13
8.24544e-13
5.40721e-13
5.40743e-13
9.43091e-13
7.4891e-13
1.07777e-12
5.59178e-13
6.4521e-13
2.12005e-13
2.11999e-13
4.084e-13
6.98013e-13
4.70918e-13
9.17924e-13
1.00313e-12
1.06137e-12
1.19805e-12
1.0895e-12
1.00978e-12
7.91369e-13
4.62597e-13
9.92114e-13
1.03177e-12
1.00048e-12
5.25339e-13
5.15942e-13
3.83176e-13
9.98671e-13
1.01665e-12
8.0707e-13
9.20737e-13
8.50268e-13
7.86507e-13
1.04262e-12
7.86413e-13
9.18119e-13
8.90568e-13
5.51874e-13
6.81535e-13
6.01127e-13
1.10373e-12
4.14916e-13
4.38378e-13
4.26423e-13
1.04437e-12
3.92173e-13
3.84865e-13
7.2009e-13
3.60615e-13
8.5272e-13
8.53983e-13
3.70976e-13
9.1393e-13
4.14869e-13
4.08844e-13
4.63705e-13
3.89981e-13
3.85774e-13
6.08827e-13
4.59131e-13
4.10591e-13
3.91446e-13
8.40062e-13
9.64209e-13
4.32846e-13
9.27278e-13
3.53334e-13
9.41782e-13
7.44575e-13
3.7002e-13
3.1525e-13
3.48949e-13
4.59866e-13
8.05759e-13
6.73423e-13
2.84789e-13
3.15953e-13
9.02172e-13
2.68024e-13
2.68016e-13
3.03657e-13
3.39812e-13
3.62177e-13
4.44782e-13
7.30816e-13
6.7908e-13
9.02379e-13
2.68664e-13
2.68656e-13
8.02569e-13
3.06681e-13
6.39504e-13
2.78639e-13
2.87101e-13
3.77957e-13
6.91078e-13
7.15548e-13
7.62109e-13
6.98525e-13
6.9104e-13
1.51756e-13
1.11534e-12
1.93219e-13
1.87698e-13
9.01221e-13
8.95045e-13
1.94559e-13
1.35016e-13
1.89891e-13
8.30756e-13
SCALARS gauss_points_TPM float
LOOKUP_TABLE default
6
6
6
6
6
6
6
6
6
6
6
6
6
6
6
6
6
6
6
6
6
6
6
6
6
6
6
6
6
6
6
6
6
6
6
6
6
6
6
6
6
6
6
6
6
6
6
6
6
6
6
6
6
6
6
6
6
6
6
6
6
6
6
6
6
6
6
6
6
6
6
6
6
6
6
6
6
6
6
6
6
6
6
6
6
6
6
6
6
6
6
6
6
6
6
6
6
6
6
6
6
6
6
6
6
6
6
6
6
6
6
6
6
6
6
6
6
6
6
6
6
6
6
6
6
6
6
6
6
6
6
6
6
6
6
6
6
6
6
6
6
6
6
6
6
6
6
6
6
6
6
6
6
6
6
6
6
6
6
6
6
6
6
6
6
6
6
6
6
6
6
6
6
6
6
6
6
6
6
6
6
6
6
6
6
6
6
6
6
6
6
6
6
6
6
6
6
6
6
6
6
6
6
6
6
6
6
6
6
6
6
6
6
6
6
6
6
6
6
6
6
6
6
6
6
6
6
6
6
6
6
6
6
6
6
6
6
6
6
6
6
6
6
6
6
6
6
6
6
6
6
6
6
6
6
6
6
6
6
6
6
6
6
6
6
6
6
6
6
6
6
6
6
6
6
6
6
6
6
6
6
6
6
6
6
6
6
6
6
6
6
6
6
6
6
6
6
6
6
6
6
6
6
6
6
6
6
6
6
6
6
6
6
6
6
6
6
6
6
6
6
6
6
6
6
6
6
6
6
6
6
6
6
6
6
6
6
6
6
6
6
6
6
6
6
6
6
6
6
6
6
6
6
6
6
6
6
6
6
6
6
6
6
6
6
6
6
6
6
6
6
6
6
6
6
6
6
6
6
6
6
6
6
6
6
6
6
6
6
6
6
6
6
6
6
6
6
6
6
6
6
6
6
6
6
6
6
6
6
6
6
6
6
6
6
6
6
6
6
6
6
6
6
6
6
6
6
6
6
6
6
6
6
6
6
6
6
6
6
6
6
6
6
6
6
6
6
6
6
6
6
6
6
6
6
6
6
6
6
6
6
6
6
6
6
6
6
6
6
6
6
6
6
6
6
6
6
6
6
6
6
6
6
6
6
6
6
6
6
6
6
6
6
6
6
6
6
6
6
6
6
6
6
6
6
6
6
6
6
6
6
6
6
6
6
6
6
6
6
6
6
6
6
6
6
6
6
6
6
6
6
6
6
6
6
6
6
6
6
6
6
6
6
6
6
6
6
6
6
6
6
6
6
6
6
6
6
6
6
6
6
6
6
SCALARS position_x float
LOOKUP_TABLE default
0.00014084
0.000356356
0.000416052
0.000415583
-0.000744232
-0.000227637
0.000141452
0.00048159
-0.000539947
-0.000788289
-0.000179913
-0.000204687
-0.000440821
0.000222968
-0.000709043
0.000668997
0.000218906
-0.000740095
-0.00026049
0.000632477
0.000118066
1.70584e-05
-0.000612753
-0.000381324
0.000626124
0.000265488
-0.000200357
-0.000466607
0.000244107
-0.000829949
0.000662476
-7.72574e-05
-0.000132831
-2.55668e-06
-9.30993e-05
0.000825983
9.58587e-05
0.000807376
-0.00044491
-0.000129271
-0.000313398
9.74807e-05
0.000939043
0.000669069
-0.000167718
0.000326651
0.00015399
-0.000227661
0.000622763
0.000162961
-0.000299229
-0.000349904
-0.000133505
0.000306454
0.000747892
0.000189229
-9.137e-05
-4.76376e-05
0.000815093
-0.000266401
0.000855972
0.000864074
-0.000193635
0.000160605
0.000208325
-8.90529e-05
0.000261025
0.000741646
0.00038101
-0.00087365
-0.000132469
0.000750715
6.81134e-05
0.000660244
0.000350015
0.000185981
8.22356e-05
0.000602866
-0.000258324
-0.000403002
-0.000226188
0.000120786
-0.000622779
0.000237603
-0.00032926
4.72518e-05
0.00015407
-0.000648809
-0.000160827
-0.000909223
3.9808e-05
-0.000908885
0.000711127
-0.00066396
0.000358495
-0.000156976
-4.75642e-05
-0.000334872
0.000783953
-0.000226799
-0.000439691
0.000133523
-0.000252317
0.000421741
-0.000488787
0.000344889
0.000134916
-0.000648563
2.93398e-05
0.000586455
-0.000370037
4.76784e-06
-0.000239064
-0.000378968
0.000787882
0.000341131
-0.000897964
0.000257481
-0.000897295
1.74317e-05
-0.000498058
0.000918133
-0.00037249
-0.000212036
-0.00091774
0.000168316
-0.0007997
-0.00046224
4.67137e-05
-0.000324207
7.00775e-05
0.000872843
-0.000254297
0.000503526
0.00022952
4.30545e-05
0.00013265
0.00062503
-0.000887721
0.000859996
-0.000123637
-0.000543956
-0.000455737
-0.000253284
0.000208647
0.00029424
-0.00056951
-0.00056651
-0.000354024
-0.000414719
-0.000524358
-0.000503084
-0.000250042
0.000234606
0.000510331
0.000379658
-0.000212802
0.000355694
0.000119808
0.000366858
-0.000328147
-0.000261572
0.000217501
-0.000172839
-0.000234614
0.000795039
0.000213555
0.000350594
5.81605e-05
-0.000144196
-9.49867e-05
-2.55717e-05
0.000155272
0.000224732
0.00032744
0.000778437
0.000712692
-0.000638916
0.000886922
-0.000498971
0.000312692
0.000464904
-0.000454949
-0.000219162
0.0006512
0.000322731
0.00059167
-0.000132157
-0.00080254
0.000485088
-9.12012e-06
0.000270987
-0.000313003
-6.07094e-05
0.000876734
0.000751587
-0.000378066
0.000627844
-0.000377777
6.3158e-05
-0.000498554
0.000523745
0.000264059
0.000875652
0.000262212
-0.000249437
-0.000682295
-0.000340381
0.000722951
-0.00088053
-0.000676041
0.000668507
0.000749041
-0.000628639
-0.000361745
0.000633023
0.000413938
0.000636463
-0.00058566
-0.000581658
0.000334386
0.00033655
0.000918729
0.000914817
-0.000749904
0.000710659
0.000712079
-0.000211704
-0.0002119
-0.000877481
-0.000881329
-5.52341e-05
-0.000512946
-0.000459915
0.000556007
-0.000921086
-0.00092441
-0.000916243
-0.000154558
0.000460857
-0.000337675
0.000409186
0.000727986
0.000360401
-0.000877518
0.000476516
4.49392e-05
0.000146287
-0.000219481
-0.000298587
0.000630517
0.000132288
-0.00034112
0.00041902
-0.000510304
0.000918243
-0.000335647
-3.03708e-05
0.000585127
0.000261131
-0.000269983
-0.000459289
-0.000120335
0.000169903
-0.000330865
-0.000428461
0.000847173
0.000242183
-0.000924621
-0.000573514
0.000387466
-0.000710975
-0.000650474
-3.77282e-05
-0.000348312
-0.000243573
0.000238431
-0.000764917
0.000269595
0.000529332
-0.000431726
1.66894e-05
0.000767761
-0.000179199
-1.26917e-05
-0.000121292
-0.000578022
0.000329712
-0.000251295
0.00087562
-0.000101054
0.000200849
0.000923894
0.000519031
0.000444091
-1.10719e-05
0.000787659
-0.000548116
0.000112147
0.00023388
0.000745857
0.000339375
-0.000798059
0.0004494
-8.2992e-05
-0.000334479
-0.000129202
9.67393e-05
-8.71818e-05
0.000895745
0.000210379
-0.000620415
7.54954e-05
-0.000795043
-0.000220029
-0.000653063
-6.05755e-05
0.000283085
0.000422922
0.000825538
-0.000345934
-0.000468008
-0.000720161
0.000520433
-0.00024321
0.000305656
-0.000445078
-0.000759189
-0.000151804
-0.000670671
0.000619506
-2.60732e-05
0.000454403
-2.10405e-05
-0.000548018
0.000439769
0.000140181
7.51648e-06
-0.000695494
0.000164434
0.000427235
-0.000409328
0.000658777
0.000109807
-0.000315105
0.00075588
-0.000142988
-0.000537437
-3.41033e-05
-0.000439127
2.24764e-05
2.25166e-05
-6.33488e-05
-6.38544e-05
-0.000100877
9.20167e-05
9.26285e-05
-0.000780254
-0.000804507
-0.000706558
-0.000513155
-0.000153934
0.000404635
-0.000543575
-0.000411289
4.43093e-05
-0.000804031
-5.95352e-05
-0.000675136
-0.000342608
0.000227192
-0.00061347
0.000462437
0.0004587
-0.00076456
0.000538788
0.000507185
-1.47595e-06
3.88004e-05
0.000517046
-0.000399778
-0.000448137
0.000531177
0.000771865
-0.000372314
0.000270508
0.000334791
7.9835e-05
4.86001e-05
3.35268e-05
-0.000192038
0.000616535
-0.000622024
-5.25758e-05
9.26933e-05
0.0001867
-0.000502386
0.000598439
-0.000119412
0.000801558
-6.92574e-05
0.000643237
-0.00069387
-1.84608e-05
0.000553909
0.000149588
-1.19784e-05
-0.000153535
0.00043014
-4.94274e-05
-0.000880785
-0.000879676
-0.000474109
0.000364248
0.000545661
0.00051315
-0.000914766
-0.000914936
-0.000757781
-0.000118456
-5.02173e-05
0.000135913
-0.000279103
-0.000822354
0.000550642
0.000335222
0.000520346
-0.000142497
-0.000602897
0.000175354
0.000499919
-7.54051e-05
0.000219469
0.000433182
-0.000255325
-0.00034371
1.79372e-05
-0.000141328
-0.00010218
-0.000521124
0.000397056
0.000241704
0.000146194
-0.000419173
-0.000170061
8.5377e-05
-8.95226e-06
-0.000351497
0.000727862
0.000744643
-0.000224286
-0.00028692
0.000372869
-0.0007424
4.60456e-05
0.000914905
-0.000724973
0.000241719
-0.000552353
0.00015511
4.25345e-05
1.88236e-05
0.000925964
-8.40237e-05
0.000914467
-3.39917e-05
0.00055762
5.37418e-05
0.000298584
-0.000812857
-0.000207729
-4.18045e-05
-0.000615891
-4.10109e-06
0.000440969
-0.00056513
-0.000596769
0.000184239
0.000826312
0.000125933
0.000268208
-0.000732337
-0.000437608
0.000356543
-0.000642144
8.50842e-05
0.000498799
0.000845861
0.000249579
-0.000107071
-0.000858764
-0.000857344
0.000233783
-0.000791582
-7.27802e-06
-9.70917e-06
-4.99102e-05
0.00061526
8.00635e-05
-5.28871e-05
0.000302657
-0.00010448
0.000130289
0.000900166
-0.000105148
0.000275422
0.000173944
6.19108e-05
6.31609e-05
6.16871e-05
2.68433e-05
3.40398e-05
0.000151797
8.0895e-05
-0.000122785
0.000525295
-0.000137544
0.000170163
0.000563103
-0.000122947
0.00055023
-0.000292631
9.73847e-05
6.6013e-05
9.65892e-05
-7.78161e-05
0.000461072
0.000832324
-3.12704e-05
0.000899482
-0.000146197
-3.08133e-05
0.000902951
0.000933653
-1.43561e-05
8.64216e-05
0.000877203
-0.000723932
-0.000781231
-0.000703016
-1.19816e-05
0.000892245
-0.000784921
-0.0001653
0.000321739
0.000129595
0.000119619
-0.000178846
-8.70245e-05
-8.75071e-05
0.000856567
0.000946937
0.000860039
-0.000894036
-0.000853311
-0.000885556
-0.000931388
-0.000942129
-0.000942261
-0.0009315
-0.000894748
-0.000886497
-0.000846993
SCALARS position_y float
LOOKUP_TABLE default
-2.13195e-05
-0.000785992
0.000497195
-0.000758225
-0.000597095
0.000603856
2.35141e-05
0.000511809
-3.38058e-05
8.41763e-05
-3.7417e-05
0.000670099
-0.000512569
-0.000735919
-0.000649691
6.2367e-06
-0.000804877
2.80827e-05
-0.000452439
-4.81116e-05
0.000568558
-0.00105281
-2.26332e-05
0.000498086
7.31955e-05
0.000708699
-1.98714e-06
-0.00044782
0.000230542
-0.000600469
0.000129952
0.000325321
0.000136875
0.000955294
-0.000993283
0.000479806
-0.00102526
-0.000578438
0.000497497
-0.000139843
0.000102409
0.0010281
0.000429647
-0.000121324
0.000173622
-9.4923e-05
0.000510868
-0.00050854
-0.000165749
-0.000262351
-0.000106864
0.000150226
-0.000945507
0.000232488
-0.000587007
-0.00014186
0.000994013
0.0003804
0.000576151
-0.000577794
0.000193292
0.000259347
-7.65111e-05
-0.000831751
0.000879983
0.00074595
0.000839648
0.000128685
-0.000492489
7.50737e-05
0.000942913
0.000585861
-0.000323219
-0.000398857
-0.000546854
-5.23699e-05
0.000857842
0.00044919
-0.000704076
-5.38975e-05
0.000163344
-0.000953615
-0.000647726
-0.000148107
-5.28957e-05
-0.000232019
0.000631615
-0.000370679
-0.000178525
-0.000505173
-0.000379976
0.000507576
-0.000521931
-0.000311758
-0.000148993
-0.000276442
0.000272797
-0.000720577
0.000357356
-0.000627736
-0.000106762
-0.000321061
0.000108814
-0.000656002
-0.000578748
0.000716437
0.000823491
-8.78681e-05
-0.000273099
-0.000718136
-0.000518179
0.000254734
-0.000109143
0.000656038
6.42168e-05
0.000177357
-0.00041691
0.000105259
0.000417737
0.000383869
1.38569e-05
-0.000290249
-0.000792507
0.000803595
0.000146863
-0.000919444
0.000583292
0.000656452
0.000273972
0.000205693
-0.000916563
6.57515e-05
0.000870662
0.000723216
-0.000261968
0.000968238
-0.00021504
-0.000235562
-0.000216893
0.000446775
-0.000328191
-0.000441881
0.000194295
0.000732388
0.0001801
-0.000717733
-0.000380288
0.000243383
0.000544781
0.000143877
0.000187846
0.000727412
-0.000220772
0.000639869
0.000585013
0.000788242
-0.000745551
-3.94127e-05
0.00033886
-0.000616625
-0.000454188
0.000212406
0.00013144
0.000273235
0.000268239
-7.09572e-05
0.000289229
6.80552e-05
0.000330247
0.00032727
0.000877252
-0.000380866
0.000286069
0.000758589
-0.000205877
0.000294423
0.00052044
0.000238394
-0.000352293
0.000539787
0.000117985
0.000654086
-0.0006508
-0.000275107
0.000385278
1.19986e-05
0.000584304
0.000809796
-0.000353249
-0.000635383
0.000756511
-9.50182e-05
-0.000218578
-0.000328209
-7.22634e-05
-1.47526e-06
-0.000652128
0.000654709
0.000797483
-0.000738953
-0.000722218
-9.20841e-05
-0.0003197
-0.000216943
-0.000204896
-0.000868861
0.00029828
4.98701e-05
-0.000399874
-7.2886e-05
0.000505201
-0.000279096
-0.000136458
0.000656728
0.000257387
-0.000347927
7.34511e-05
0.000518624
0.000726739
-0.000722492
-0.000867111
0.000861563
-0.000142957
0.000139055
0.000161401
0.000654451
-0.000653248
-0.000944816
0.000942523
0.000355519
-0.000354286
-0.000436703
0.00060057
0.000796339
-3.68969e-05
0.000289293
-0.000288214
1.69116e-07
-0.000383798
0.000794294
0.000728142
0.000185264
0.000400572
-0.000261562
0.000219822
-0.000791068
0.000447504
0.000396276
-0.00016885
2.53043e-06
-0.000647164
0.00023299
-0.000585686
-3.67245e-05
-0.000102346
-1.24681e-06
0.000868795
0.000995835
0.000724548
7.18601e-06
0.000318778
-0.000795476
0.00067746
-0.000376737
-0.000864742
0.000252339
0.000524237
0.000345591
-0.000145103
-0.0005754
0.000653359
0.000654345
0.00037006
-0.000893663
0.000604561
1.66236e-05
-4.43204e-05
-0.000415505
0.000538447
0.000441667
-1.81875e-06
0.000830917
0.000184457
0.000378897
-0.000731821
-0.000439654
0.000373657
-0.000318312
-0.000329816
-0.00052481
-0.000885806
0.000950953
0.000301515
-0.000570746
0.000131287
-0.00094959
-0.00021175
0.000120337
0.000451298
-0.000375759
-0.000464426
0.000295088
0.000355019
2.00825e-05
0.000229191
0.000314639
-0.000231782
-0.000806222
0.000439394
-0.000492802
0.000399848
0.000530557
-0.000433975
0.000225258
-0.000386759
4.27878e-05
0.000186628
0.000592314
-0.000147889
-0.000368574
-0.000273799
0.000309374
-0.000278399
-0.000713663
0.000375402
0.000349505
-0.000218307
0.000294229
0.000435942
0.000170486
0.000192057
0.000887811
-9.11307e-05
-0.000493656
-0.00015869
0.000244939
-0.000432895
0.000503049
-0.000421158
-0.000673856
-0.000259886
-0.000163275
0.000254832
0.000698286
-0.000330701
0.0004663
9.48708e-05
0.000306867
-0.000277199
0.000370891
-9.8321e-05
9.92449e-05
-7.6283e-05
7.63393e-05
2.93054e-08
-4.43098e-05
4.48275e-05
-0.000289351
-0.000467526
-8.68841e-05
-0.000218139
-0.000498715
0.000299632
0.000432085
-0.000274631
-0.000491819
0.00047673
0.000498408
-0.000492168
-0.000164378
-0.000941272
-0.000155385
-0.000313988
-0.000203098
0.00041898
0.000312019
0.000249656
0.00062236
0.000564534
2.08635e-05
4.65227e-05
-0.000330776
-0.000310166
-0.00034515
0.000371108
-0.00043132
0.000408822
-0.000549457
-0.000610653
0.000693055
0.000488846
0.000317495
0.000107966
-0.000552791
-0.000677352
-0.000605104
7.5622e-05
-0.000578054
-0.000554899
-0.000473421
-0.00023252
-0.000519061
0.000429969
-0.00061215
-0.000147723
0.00075643
0.000174049
-0.000614665
-0.000370995
-0.000191804
-0.000502268
0.000510951
0.000426812
-0.000373644
0.000192356
0.000133663
0.000534132
-0.000532499
-3.63544e-05
-0.000672124
-0.000671716
0.000108341
0.000427773
-0.000219066
7.66077e-05
-0.000430592
-0.000201979
-9.75364e-05
-0.000503283
-0.000488686
0.000372279
0.000617327
0.000504991
0.000364608
0.000484172
0.000427618
0.000198549
0.00022768
0.00055486
-0.000328368
0.000419382
-0.000488089
-0.000547404
-0.000388636
0.00054875
0.000229506
-0.000843761
-0.000389393
0.000248499
-0.000275301
7.03679e-05
0.000590492
0.000537182
0.000600773
0.00102993
0.000475103
-0.0005373
0.000448993
-0.000272054
0.000185708
-0.0010215
0.00105841
0.000512924
0.00014837
-0.000407923
-0.000989508
-0.000254946
-0.000856863
-0.000650588
-8.02904e-05
-0.000814092
-0.000785988
-0.000265054
-0.000175939
-0.000483393
0.000494817
0.000601519
5.27359e-05
-0.000522356
0.000146854
-0.000867809
-0.000155902
9.27129e-05
0.000598065
-0.000207834
0.000927681
-0.000512498
0.000390053
-0.000600022
-0.000780429
-0.000467894
0.000474988
5.05163e-05
-0.000154681
-0.000127775
0.000126991
-0.000115595
-0.000460539
-0.00014632
0.000113944
0.000454055
-7.07649e-05
0.000964299
0.000369287
6.87613e-05
-0.000541725
9.85347e-05
0.00011065
0.000185057
-0.000108852
-0.000192343
-0.000959388
-0.000170429
0.000149687
-3.43689e-05
-0.000411288
-0.000830345
-9.68199e-05
-0.000359614
3.23676e-05
-0.000461284
0.000530712
8.38554e-05
-0.000176176
-8.2464e-05
-0.000152383
-0.000418847
-0.000432294
-0.00105944
-0.0005569
-0.00072667
0.0010605
0.000556955
-0.000500579
-0.00103062
-0.000215852
-0.000449221
0.000543855
0.000526374
-0.000209335
0.00103726
0.000529027
-0.00051831
3.33992e-05
0.000504601
-0.000103924
-0.000141385
7.17728e-05
0.00104341
-0.00104237
-0.00059703
-0.000443329
0.000597086
0.000557076
0.00058918
0.000537507
0.000502843
0.000448967
-0.000448318
-0.000502207
-0.00055091
-0.000529594
-0.000554059
SCALARS position_z float
LOOKUP_TABLE default
-0.0005
-0.0005
-0.0005
-0.0005
-0.0005
-0.0005
-0.0005
-0.0005
-0.0005
-0.0005
-0.0005
-0.0005
-0.0005
-0.0005
-0.0005
-0.0005
-0.0005
-0.0005
-0.0005
-0.0005
-0.0005
-0.0005
-0.0005
-0.0005
-0.0005
-0.0005
-0.0005
-0.0005
-0.0005
-0.0005
-0.0005
-0.0005
-0.0005
-0.0005
-0.0005
-0.0005
-0.0005
-0.0005
-0.0005
-0.0005
-0.0005
-0.0005
-0.0005
-0.0005
-0.0005
-0.0005
-0.0005
-0.0005
-0.0005
-0.0005
-0.0005
-0.0005
-0.0005
-0.0005
-0.0005
-0.0005
-0.0005
-0.0005
-0.0005
-0.0005
-0.0005
-0.0005
-0.0005
-0.0005
-0.0005
-0.0005
-0.0005
-0.0005
-0.0005
-0.0005
-0.0005
-0.0005
-0.0005
-0.0005
-0.0005
-0.0005
-0.0005
-0.0005
-0.0005
-0.0005
-0.0005
-0.0005
-0.0005
-0.0005
-0.0005
-0.0005
-0.0005
-0.0005
-0.0005
-0.0005
-0.0005
-0.0005
-0.0005
-0.0005
-0.0005
-0.0005
-0.0005
-0.0005
-0.0005
-0.0005
-0.0005
-0.0005
-0.0005
-0.0005
-0.0005
-0.0005
-0.0005
-0.0005
-0.0005
-0.0005
-0.0005
-0.0005
-0.0005
-0.0005
-0.0005
-0.0005
-0.0005
-0.0005
-0.0005
-0.0005
-0.0005
-0.0005
-0.0005
-0.0005
-0.0005
-0.0005
-0.0005
-0.0005
-0.0005
-0.0005
-0.0005
-0.0005
-0.0005
-0.0005
-0.0005
-0.0005
-0.0005
-0.0005
-0.0005
-0.0005
-0.0005
-0.0005
-0.0005
-0.0005
-0.0005
-0.0005
-0.0005
-0.0005
-0.0005
-0.0005
-0.0005
-0.0005
-0.0005
-0.0005
-0.0005
-0.0005
-0.0005
-0.0005
-0.0005
-0.0005
-0.0005
-0.0005
-0.0005
-0.0005
-0.0005
-0.0005
-0.0005
-0.0005
-0.0005
-0.0005
-0.0005
-0.0005
-0.0005
-0.0005
-0.0005
-0.0005
-0.0005
-0.0005
-0.0005
-0.0005
-0.0005
-0.0005
-0.0005
-0.0005
-0.0005
-0.0005
-0.0005
-0.0005
-0.0005
-0.0005
-0.0005
-0.0005
-0.0005
-0.0005
-0.0005
-0.0005
-0.0005
-0.0005
-0.0005
-0.0005
-0.0005
-0.0005
-0.0005
-0.0005
-0.0005
-0.0005
-0.0005
-0.0005
-0.0005
-0.0005
-0.0005
-0.0005
-0.0005
-0.0005
-0.0005
-0.0005
-0.0005
-0.0005
-0.0005
-0.0005
-0.0005
-0.0005
-0.0005
-0.0005
-0.0005
-0.0005
-0.0005
-0.0005
-0.0005
-0.0005
-0.0005
-0.0005
-0.0005
-0.0005
-0.0005
-0.0005
-0.0005
-0.0005
-0.0005
-0.0005
-0.0005
-0.0005
-0.0005
-0.0005
-0.0005
-0.0005
-0.0005
-0.0005
-0.0005
-0.0005
-0.0005
-0.0005
-0.0005
-0.0005
-0.0005
-0.0005
-0.0005
-0.0005
-0.0005
-0.0005
-0.0005
-0.0005
-0.0005
-0.0005
-0.0005
-0.0005
-0.0005
-0.0005
-0.0005
-0.0005
-0.0005
-0.0005
-0.0005
-0.0005
-0.0005
-0.0005
-0.0005
-0.0005
-0.0005
-0.0005
-0.0005
-0.0005
-0.0005
-0.0005
-0.0005
-0.0005
-0.0005
-0.0005
-0.0005
-0.0005
-0.0005
-0.0005
-0.0005
-0.0005
-0.0005
-0.0005
-0.0005
-0.0005
-0.0005
-0.0005
-0.0005
-0.0005
-0.0005
-0.0005
-0.0005
-0.0005
-0.0005
-0.0005
-0.0005
-0.0005
-0.0005
-0.0005
-0.0005
-0.0005
-0.0005
-0.0005
-0.0005
-0.0005
-0.0005
-0.0005
-0.0005
-0.0005
-0.0005
-0.0005
-0.0005
-0.0005
-0.0005
-0.0005
-0.0005
-0.0005
-0.0005
-0.0005
-0.0005
-0.0005
-0.0005
-0.0005
-0.0005
-0.0005
-0.0005
-0.0005
-0.0005
-0.0005
-0.0005
-0.0005
-0.0005
-0.0005
-0.0005
-0.0005
-0.0005
-0.0005
-0.0005
-0.0005
-0.0005
-0.0005
-0.0005
-0.0005
-0.0005
-0.0005
-0.0005
-0.0005
-0.0005
-0.0005
-0.0005
-0.0005
-0.0005
-0.0005
-0.0005
-0.0005
-0.0005
-0.0005
-0.0005
-0.0005
-0.0005
-0.0005
-0.0005
-0.0005
-0.0005
-0.0005
-0.0005
-0.0005
-0.0005
-0.0005
-0.0005
-0.0005
-0.0005
-0.0005
-0.0005
-0.0005
-0.0005
-0.0005
-0.0005
-0.0005
-0.0005
-0.0005
-0.0005
-0.0005
-0.0005
-0.0005
-0.0005
-0.0005
-0.0005
-0.0005
-0.0005
-0.0005
-0.0005
-0.0005
-0.0005
-0.0005
-0.0005
-0.0005
-0.0005
-0.0005
-0.0005
-0.0005
-0.0005
-0.0005
-0.0005
-0.0005
-0.0005
-0.0005
-0.0005
-0.0005
-0.0005
-0.0005
-0.0005
-0.0005
-0.0005
-0.0005
-0.0005
-0.0005
-0.0005
-0.0005
-0.0005
-0.0005
-0.0005
-0.0005
-0.0005
-0.0005
-0.0005
-0.0005
-0.0005
-0.0005
-0.0005
-0.0005
-0.0005
-0.0005
-0.0005
-0.0005
-0.0005
-0.0005
-0.0005
-0.0005
-0.0005
-0.0005
-0.0005
-0.0005
-0.0005
-0.0005
-0.0005
-0.0005
-0.0005
-0.0005
-0.0005
-0.0005
-0.0005
-0.0005
-0.0005
-0.0005
-0.0005
-0.0005
-0.0005
-0.0005
-0.0005
-0.0005
-0.0005
-0.0005
-0.0005
-0.0005
-0.0005
-0.0005
-0.0005
-0.0005
-0.0005
-0.0005
-0.0005
-0.0005
-0.0005
-0.0005
-0.0005
-0.0005
-0.0005
-0.0005
-0.0005
-0.0005
-0.0005
-0.0005
-0.0005
-0.0005
-0.0005
-0.0005
-0.0005
-0.0005
-0.0005
-0.0005
-0.0005
-0.0005
-0.0005
-0.0005
-0.0005
-0.0005
-0.0005
-0.0005
-0.0005
-0.0005
-0.0005
-0.0005
-0.0005
-0.0005
-0.0005
-0.0005
-0.0005
-0.0005
-0.0005
-0.0005
-0.0005
-0.0005
-0.0005
-0.0005
-0.0005
-0.0005
-0.0005
-0.0005
-0.0005
-0.0005
-0.0005
-0.0005
-0.0005
-0.0005
-0.0005
-0.0005
-0.0005
-0.0005
-0.0005
-0.0005
-0.0005
-0.0005
-0.0005
-0.0005
-0.0005
-0.0005
-0.0005
-0.0005
-0.0005
-0.0005
-0.0005
-0.0005
-0.0005
-0.0005
-0.0005
-0.0005
-0.0005
-0.0005
-0.0005
TENSORS Lagrange_strain float
0.150889 -0.0191928 6.14211e-09
-0.0191928 0.0674697 -6.32454e-08
6.14211e-09 -6.32454e-08 0.0324433

0.113423 -0.00552887 -9.38275e-08
-0.00552887 0.122326 1.47647e-07
-9.38275e-08 1.47647e-07 0.120931

0.115597 0.00788961 1.32811e-07
0.00788961 0.118031 1.75129e-07
1.32811e-07 1.75129e-07 0.114596

0.113441 -0.00804708 -1.79674e-07
-0.00804708 0.120625 1.18662e-07
-1.79674e-07 1.18662e-07 0.120766

0.126432 0.00523998 -1.70666e-07
0.00523998 0.132055 -2.3492e-08
-1.70666e-07 -2.3492e-08 0.125548

0.110681 -0.005081 -6.3426e-08
-0.005081 0.122803 -3.30524e-08
-6.3426e-08 -3.30524e-08 0.11452

0.149073 0.0199097 5.10237e-09
0.0199097 0.0679502 -1.83981e-08
5.10237e-09 -1.83981e-08 0.0327055

0.119099 0.00833601 -1.26879e-07
0.00833601 0.118057 1.17998e-07
-1.26879e-07 1.17998e-07 0.117219

0.1234 0.00154442 2.50373e-07
0.00154442 0.107377 8.27617e-08
2.50373e-07 8.27617e-08 0.10859

0.126619 -0.00204767 1.07657e-07
-0.00204767 0.110218 -1.00887e-07
1.07657e-07 -1.00887e-07 0.119931

0.12435 0.00734917 3.79225e-08
0.00734917 0.0677308 -2.02682e-07
3.79225e-08 -2.02682e-07 0.0513177

0.111168 -0.00380182 -2.90517e-08
-0.00380182 0.12602 7.63631e-08
-2.90517e-08 7.63631e-08 0.117188

0.117865 0.00783273 -2.37046e-07
0.00783273 0.118359 3.18572e-10
-2.37046e-07 3.18572e-10 0.116059

0.113413 -0.0038628 1.77397e-07
-0.0038628 0.125307 5.53187e-08
1.77397e-07 5.53187e-08 0.119519

0.124947 0.00891002 -7.51486e-08
0.00891002 0.124093 -1.7682e-07
-7.51486e-08 -1.7682e-07 0.124676

0.124857 0.000167457 -1.34411e-07
0.000167457 0.109675 -9.20016e-08
-1.34411e-07 -9.20016e-08 0.115368

0.112638 -0.00486442 1.97234e-07
-0.00486442 0.127628 1.22901e-07
1.97234e-07 1.22901e-07 0.121557

0.124803 -0.00076194 3.84128e-08
-0.00076194 0.10985 -1.41413e-08
3.84128e-08 -1.41413e-08 0.11823

0.108997 0.00789117 -2.63257e-07
0.00789117 0.118098 1.62397e-08
-2.63257e-07 1.62397e-08 0.107054

0.123873 -0.00119156 5.92654e-08
-0.00119156 0.107801 1.87655e-07
5.92654e-08 1.87655e-07 0.113792

0.108347 0.00260398 7.3169e-08
0.00260398 0.124711 1.16209e-07
7.3169e-08 1.16209e-07 0.111232

0.147245 0.00189153 -4.51278e-07
0.00189153 0.1465 8.19939e-08
-4.51278e-07 8.19939e-08 0.128334

0.123566 0.000549266 -1.58075e-07
0.000549266 0.107585 1.26251e-07
-1.58075e-07 1.26251e-07 0.112947

0.114071 -0.00783592 -1.88185e-07
-0.00783592 0.118006 4.80893e-08
-1.88185e-07 4.80893e-08 0.113532

0.123701 0.0019188 -1.55275e-07
0.0019188 0.107977 -4.08303e-08
-1.55275e-07 -4.08303e-08 0.113659

0.112317 0.00520326 -4.18831e-09
0.00520326 0.123361 6.25384e-08
-4.18831e-09 6.25384e-08 0.118937

0.12644 0.00139733 -3.30186e-08
0.00139733 0.0834392 -5.60003e-08
-3.30186e-08 -5.60003e-08 0.0572093

0.117465 0.00860821 -2.05567e-07
0.00860821 0.116891 -6.93243e-08
-2.05567e-07 -6.93243e-08 0.114906

0.108075 0.0131311 -9.17615e-08
0.0131311 0.107141 -4.99907e-08
-9.17615e-08 -4.99907e-08 0.0872332

0.138917 0.00261753 -1.76477e-08
0.00261753 0.132587 -6.17396e-08
-1.76477e-08 -6.17396e-08 0.127301

0.124978 0.00392931 -4.24713e-08
0.00392931 0.111085 1.6111e-07
-4.24713e-08 1.6111e-07 0.115888

0.0963856 -0.00619983 3.03579e-07
-0.00619983 0.119124 9.59779e-09
3.03579e-07 9.59779e-09 0.0872267

0.104491 -0.0217549 -8.81646e-08
-0.0217549 0.106988 1.61874e-07
-8.81646e-08 1.61874e-07 0.0548575

0.125366 0.00164303 1.27282e-07
0.00164303 0.140441 -1.28793e-07
1.27282e-07 -1.28793e-07 0.126573

0.130893 -0.00149448 -7.48973e-09
-0.00149448 0.138374 1.84888e-07
-7.48973e-09 1.84888e-07 0.126825

0.138054 0.00570597 -2.27495e-07
0.00570597 0.12769 -1.80213e-08
-2.27495e-07 -1.80213e-08 0.126529

0.130532 0.00147588 5.6015e-08
0.00147588 0.14219 1.99137e-07
5.6015e-08 1.99137e-07 0.127314

0.136611 -0.00232842 -1.06748e-07
-0.00232842 0.131508 2.52548e-07
-1.06748e-07 2.52548e-07 0.126633

0.1181 -0.00788574 2.93949e-08
-0.00788574 0.117986 6.13551e-08
2.93949e-08 6.13551e-08 0.115689

0.103764 0.0214289 7.029e-08
0.0214289 0.107992 -1.50126e-07
7.029e-08 -1.50126e-07 0.0548199

0.118779 -0.00666058 1.18252e-07
-0.00666058 0.0973686 3.09457e-08
1.18252e-07 3.09457e-08 0.086316

0.131261 -0.00112914 -2.01438e-07
-0.00112914 0.141906 -2.55367e-07
-2.01438e-07 -2.55367e-07 0.12732

0.13824 0.00520171 1.40622e-08
0.00520171 0.134863 1.169e-07
1.40622e-08 1.169e-07 0.127282

0.124737 -0.00341756 1.19772e-07
-0.00341756 0.111192 -6.69803e-08
1.19772e-07 -6.69803e-08 0.116097

0.101696 -0.0183708 -3.04246e-08
-0.0183708 0.10293 9.96452e-08
-3.04246e-08 9.96452e-08 0.0693843

0.118779 -0.00656883 1.28053e-07
-0.00656883 0.0977404 -1.9992e-07
1.28053e-07 -1.9992e-07 0.0880178

0.106689 0.0050053 1.55103e-08
0.0050053 0.121925 2.36268e-07
1.55103e-08 2.36268e-07 0.107988

0.110405 0.00575434 -1.265e-07
0.00575434 0.121341 -1.8905e-07
-1.265e-07 -1.8905e-07 0.109513

0.124445 -0.0045382 2.0232e-08
-0.0045382 0.109314 -1.62037e-07
2.0232e-08 -1.62037e-07 0.114587

0.0996158 -0.0125948 7.17338e-08
-0.0125948 0.112176 1.56528e-07
7.17338e-08 1.56528e-07 0.0827615

0.118366 0.00724106 -1.23047e-07
0.00724106 0.0968155 3.04885e-08
-1.23047e-07 3.04885e-08 0.0842094

0.117988 -0.00829035 8.76166e-08
-0.00829035 0.103572 7.55622e-08
8.76166e-08 7.55622e-08 0.0935368

0.12473 0.00524689 1.32271e-08
0.00524689 0.132065 1.53428e-07
1.32271e-08 1.53428e-07 0.125498

0.114432 0.0101233 1.79641e-07
0.0101233 0.107292 -5.72877e-08
1.79641e-07 -5.72877e-08 0.0937429

0.125439 -0.00582756 -6.98225e-08
-0.00582756 0.130692 2.57982e-07
-6.98225e-08 2.57982e-07 0.125326

0.11225 -0.019078 2.6291e-07
-0.019078 0.101232 4.38592e-08
2.6291e-07 4.38592e-08 0.0678507

0.13067 0.00167022 -4.0135e-08
0.00167022 0.138788 1.60674e-08
-4.0135e-08 1.60674e-08 0.126867

0.100317 -0.00212756 2.96335e-07
-0.00212756 0.121505 -5.67157e-09
2.96335e-07 -5.67157e-09 0.0936901

0.138176 0.00266159 -2.11544e-07
0.00266159 0.13123 -3.14422e-08
-2.11544e-07 -3.14422e-08 0.126819

0.110573 0.00606143 -2.61389e-09
0.00606143 0.121386 2.55858e-07
-2.61389e-09 2.55858e-07 0.114014

0.127664 0.00147967 8.10043e-08
0.00147967 0.111396 4.18341e-08
8.10043e-08 4.18341e-08 0.122052

0.127928 0.00316293 6.84212e-08
0.00316293 0.118946 -8.30928e-08
6.84212e-08 -8.30928e-08 0.123241

0.127353 0.0171024 1.23445e-07
0.0171024 0.0927968 1.99131e-07
1.23445e-07 1.99131e-07 0.0595894

0.117405 -0.00153243 -2.13871e-07
-0.00153243 0.12993 -1.33267e-07
-2.13871e-07 -1.33267e-07 0.122496

0.11855 0.00238083 -1.43745e-07
0.00238083 0.128367 6.43196e-08
-1.43745e-07 6.43196e-08 0.123326

0.112429 -0.000818539 9.55432e-09
-0.000818539 0.129902 8.24494e-10
9.55432e-09 8.24494e-10 0.119756

0.114485 0.00628526 6.3976e-08
0.00628526 0.124829 -8.76853e-08
6.3976e-08 -8.76853e-08 0.122129

0.125102 0.00231283 -9.29401e-08
0.00231283 0.110843 1.57721e-07
-9.29401e-08 1.57721e-07 0.118759

0.113788 -0.00798916 5.80372e-09
-0.00798916 0.117782 1.02389e-08
5.80372e-09 1.02389e-08 0.113204

0.125097 -0.000465712 -7.50885e-08
-0.000465712 0.110279 -1.0449e-07
-7.50885e-08 -1.0449e-07 0.121447

0.124646 -0.00519463 -1.15069e-07
-0.00519463 0.131936 -9.94835e-08
-1.15069e-07 -9.94835e-08 0.125477

0.125618 0.0057143 4.18932e-08
0.0057143 0.130946 -4.46062e-08
4.18932e-08 -4.46062e-08 0.125432

0.0967294 -0.00571538 6.56322e-08
-0.00571538 0.119453 -1.67682e-07
6.56322e-08 -1.67682e-07 0.0862335

0.125184 -0.00762856 -2.25928e-07
-0.00762856 0.119483 1.21442e-07
-2.25928e-07 1.21442e-07 0.120687

0.113995 -0.00712712 2.36126e-08
-0.00712712 0.120178 4.16573e-08
2.36126e-08 4.16573e-08 0.114519

0.119596 -0.0147661 8.20152e-08
-0.0147661 0.0830347 -1.29797e-07
8.20152e-08 -1.29797e-07 0.055512

0.120423 0.000805287 -2.29017e-08
0.000805287 0.13204 -3.26243e-08
-2.29017e-08 -3.26243e-08 0.123619

0.12484 0.00794972 7.04401e-08
0.00794972 0.117423 3.07234e-08
7.04401e-08 3.07234e-08 0.119734

0.111993 0.00539401 1.31245e-07
0.00539401 0.123859 3.17408e-08
1.31245e-07 3.17408e-08 0.118765

0.120992 0.00261555 -7.96613e-08
0.00261555 0.0993534 5.1911e-08
-7.96613e-08 5.1911e-08 0.0968397

0.113485 -0.0141221 -3.74826e-08
-0.0141221 0.103586 9.97268e-08
-3.74826e-08 9.97268e-08 0.0772169

0.128562 -0.0027272 -4.95474e-08
-0.0027272 0.13322 -2.61087e-08
-4.95474e-08 -2.61087e-08 0.125775

0.118381 0.00629905 -8.79579e-08
0.00629905 0.124175 -1.7638e-07
-8.79579e-08 -1.7638e-07 0.122966

0.113514 -0.0128901 6.82107e-08
-0.0128901 0.0981714 9.17646e-08
6.82107e-08 9.17646e-08 0.0776373

0.121356 0.00375573 -1.34928e-07
0.00375573 0.0993084 5.25594e-08
-1.34928e-07 5.25594e-08 0.0864756

0.086511 -0.00897836 -4.94851e-08
-0.00897836 0.122312 3.26174e-07
-4.94851e-08 3.26174e-07 0.0681989

0.109539 0.00402836 -9.25312e-09
0.00402836 0.124675 -8.1932e-08
-9.25312e-09 -8.1932e-08 0.115035

0.126642 0.00638837 -2.55051e-07
0.00638837 0.117195 7.25042e-08
-2.55051e-07 7.25042e-08 0.119933

0.100074 0.0179894 1.1137e-07
0.0179894 0.10497 -1.05665e-07
1.1137e-07 -1.05665e-07 0.0693075

0.148197 0.00444927 -4.43303e-07
0.00444927 0.139545 3.11651e-07
-4.43303e-07 3.11651e-07 0.128347

0.100109 -0.00164035 1.05445e-07
-0.00164035 0.121606 -8.56186e-08
1.05445e-07 -8.56186e-08 0.0936395

0.149005 -0.00444121 8.34616e-07
-0.00444121 0.138622 1.71043e-07
8.34616e-07 1.71043e-07 0.128261

0.129933 -0.00736431 1.93264e-07
-0.00736431 0.122565 -1.97157e-07
1.93264e-07 -1.97157e-07 0.124097

0.126168 0.00750753 -2.82872e-07
0.00750753 0.115402 1.75891e-07
-2.82872e-07 1.75891e-07 0.119253

0.118042 -0.00801368 -1.47653e-07
-0.00801368 0.104047 2.3052e-07
-1.47653e-07 2.3052e-07 0.0943429

0.0999907 0.0113716 -2.61727e-08
0.0113716 0.113374 -1.50437e-07
-2.61727e-08 -1.50437e-07 0.0846939

0.0947217 -0.0047554 2.2667e-07
-0.0047554 0.123316 2.0832e-07
2.2667e-07 2.0832e-07 0.0770234

0.112667 0.00597342 -1.92094e-07
0.00597342 0.124044 -2.58419e-08
-1.92094e-07 -2.58419e-08 0.119893

0.129766 0.00457897 -1.69576e-07
0.00457897 0.122596 7.95948e-08
-1.69576e-07 7.95948e-08 0.123573

0.111553 0.00430331 1.3959e-07
0.00430331 0.124266 7.63127e-08
1.3959e-07 7.63127e-08 0.115545

0.121471 0.00485353 -4.81465e-08
0.00485353 0.105197 1.0205e-07
-4.81465e-08 1.0205e-07 0.101484

0.102559 -0.00802466 -1.08085e-07
-0.00802466 0.118904 -1.86286e-07
-1.08085e-07 -1.86286e-07 0.0885969

0.116701 -0.0115853 -7.15113e-08
-0.0115853 0.0966086 1.5872e-08
-7.15113e-08 1.5872e-08 0.0763035

0.113785 -0.00661587 -1.92449e-07
-0.00661587 0.120708 1.06596e-08
-1.92449e-07 1.06596e-08 0.119222

0.116612 0.0074614 -9.2922e-08
0.0074614 0.119941 2.11316e-07
-9.2922e-08 2.11316e-07 0.119127

0.112585 0.0062904 1.15109e-08
0.0062904 0.123629 6.455e-08
1.15109e-08 6.455e-08 0.119731

0.113731 0.00354611 -1.74576e-07
0.00354611 0.131012 4.76411e-08
-1.74576e-07 4.76411e-08 0.12241

0.125208 0.00262257 -3.20888e-07
0.00262257 0.110203 -7.94271e-08
-3.20888e-07 -7.94271e-08 0.115099

0.0912003 -0.00231484 -1.23557e-07
-0.00231484 0.12162 1.15292e-07
-1.23557e-07 1.15292e-07 0.0764795

0.114712 -0.00989165 2.03718e-07
-0.00989165 0.121111 8.18188e-08
2.03718e-07 8.18188e-08 0.122203

0.113514 0.00772469 3.00462e-07
0.00772469 0.118482 -7.74509e-08
3.00462e-07 -7.74509e-08 0.114103

0.0849866 0.00113454 -6.94828e-08
0.00113454 0.121202 2.72045e-07
-6.94828e-08 2.72045e-07 0.0718711

0.117251 0.0136887 -9.96222e-08
0.0136887 0.0936888 2.46844e-08
-9.96222e-08 2.46844e-08 0.0740734

0.113614 -0.00622667 -1.75435e-07
-0.00622667 0.120841 3.20559e-08
-1.75435e-07 3.20559e-08 0.118724

0.12615 0.00160462 -3.88933e-08
0.00160462 0.109775 5.54842e-08
-3.88933e-08 5.54842e-08 0.119554

0.116946 0.00902746 7.55246e-08
0.00902746 0.105352 9.02051e-08
7.55246e-08 9.02051e-08 0.0937385

0.135076 0.00346251 -8.42623e-08
0.00346251 0.13421 -5.80179e-08
-8.42623e-08 -5.80179e-08 0.126908

0.118431 0.00980718 1.99494e-08
0.00980718 0.0987525 9.46902e-08
1.99494e-08 9.46902e-08 0.0771983

0.134765 -0.00354577 -2.07783e-07
-0.00354577 0.134247 6.7236e-08
-2.07783e-07 6.7236e-08 0.126838

0.10053 0.00056686 -1.153e-08
0.00056686 0.122198 -4.54749e-08
-1.153e-08 -4.54749e-08 0.0937441

0.12254 -0.000607601 -1.07877e-07
-0.000607601 0.10384 -2.87951e-07
-1.07877e-07 -2.87951e-07 0.105371

0.131604 -0.00444642 -1.24557e-07
-0.00444642 0.116419 7.77593e-08
-1.24557e-07 7.77593e-08 0.124483

0.113575 0.00638354 -1.59587e-07
0.00638354 0.121536 4.5302e-08
-1.59587e-07 4.5302e-08 0.121338

0.113156 -0.00363212 9.66194e-08
-0.00363212 0.128954 1.91455e-07
9.66194e-08 1.91455e-07 0.121657

0.12837 -0.00228431 -3.79067e-08
-0.00228431 0.107924 -1.6303e-07
-3.79067e-08 -1.6303e-07 0.122464

0.117834 -0.00595996 -2.16536e-07
-0.00595996 0.132285 -8.65392e-08
-2.16536e-07 -8.65392e-08 0.124589

0.132226 -0.00165786 -1.21259e-07
-0.00165786 0.133367 5.77483e-08
-1.21259e-07 5.77483e-08 0.126693

0.115628 -0.0081458 1.59934e-07
-0.0081458 0.120856 3.07612e-08
1.59934e-07 3.07612e-08 0.120029

0.095545 0.00497178 -1.08194e-07
0.00497178 0.122141 2.51381e-07
-1.08194e-07 2.51381e-07 0.0771836

0.11631 -0.00965003 6.10466e-08
-0.00965003 0.106184 1.44689e-08
6.10466e-08 1.44689e-08 0.0939664

0.121272 -0.00363813 5.35053e-08
-0.00363813 0.135329 -7.01259e-08
5.35053e-08 -7.01259e-08 0.12543

0.125164 9.88525e-05 -3.45378e-08
9.88525e-05 0.109523 5.59347e-08
-3.45378e-08 5.59347e-08 0.121133

0.116991 -0.00567296 2.53431e-07
-0.00567296 0.124997 -7.14526e-08
2.53431e-07 -7.14526e-08 0.122952

0.114117 0.00670619 -1.53475e-07
0.00670619 0.120734 1.97198e-08
-1.53475e-07 1.97198e-08 0.121296

0.109427 -0.0115233 5.29097e-08
-0.0115233 0.112218 1.56904e-07
5.29097e-08 1.56904e-07 0.088672

0.13015 -0.00202534 2.41754e-07
-0.00202534 0.139097 -1.09896e-07
2.41754e-07 -1.09896e-07 0.126783

0.100577 -0.0146427 3.42327e-08
-0.0146427 0.116264 2.13892e-07
3.42327e-08 2.13892e-07 0.0719317

0.124462 -0.00539241 1.89062e-08
-0.00539241 0.112568 -2.76134e-08
1.89062e-08 -2.76134e-08 0.115966

0.128102 0.000502964 7.26472e-08
0.000502964 0.11421 5.06467e-08
7.26472e-08 5.06467e-08 0.123189

0.135045 0.00487736 -8.52936e-08
0.00487736 0.134139 -1.90721e-07
-8.52936e-08 -1.90721e-07 0.126742

0.102341 0.0074741 -1.10076e-07
0.0074741 0.11976 2.94533e-09
-1.10076e-07 2.94533e-09 0.0894665

0.122684 0.00760009 1.79365e-07
0.00760009 0.117068 -1.66707e-07
1.79365e-07 -1.66707e-07 0.117656

0.120227 -0.00726446 3.07783e-08
-0.00726446 0.108162 1.62962e-07
3.07783e-08 1.62962e-07 0.105237

0.113112 -0.00481076 1.23251e-08
-0.00481076 0.124027 7.87878e-09
1.23251e-08 7.87878e-09 0.119664

0.111427 0.0148512 -1.25316e-07
0.0148512 0.106244 -9.22553e-08
-1.25316e-07 -9.22553e-08 0.0763442

0.112044 -0.00598137 9.1878e-08
-0.00598137 0.123655 1.62195e-08
9.1878e-08 1.62195e-08 0.119307

0.122151 0.00853069 1.32656e-07
0.00853069 0.116418 -2.19621e-08
1.32656e-07 -2.19621e-08 0.117115

0.122935 -0.00708411 -7.32225e-08
-0.00708411 0.112005 -2.60913e-08
-7.32225e-08 -2.60913e-08 0.113479

0.113684 -0.00709932 -1.34728e-07
-0.00709932 0.119934 1.03342e-07
-1.34728e-07 1.03342e-07 0.114505

0.120351 -0.00598769 8.96215e-08
-0.00598769 0.104172 7.61915e-08
8.96215e-08 7.61915e-08 0.10008

0.122409 -0.00550848 -1.86298e-07
-0.00550848 0.108557 1.37161e-07
-1.86298e-07 1.37161e-07 0.109772

0.114021 -0.00661059 7.73961e-08
-0.00661059 0.12088 1.89495e-07
7.73961e-08 1.89495e-07 0.121475

0.108571 0.012818 1.36642e-08
0.012818 0.106731 -5.02623e-08
1.36642e-08 -5.02623e-08 0.0870967

0.11156 0.00435592 -5.7519e-08
0.00435592 0.124727 -9.0505e-08
-5.7519e-08 -9.0505e-08 0.116148

0.117139 0.0071588 -2.10956e-07
0.0071588 0.119942 -2.85092e-08
-2.10956e-07 -2.85092e-08 0.119653

0.11342 0.00668191 -1.47974e-08
0.00668191 0.121346 7.06202e-09
-1.47974e-08 7.06202e-09 0.12115

0.113253 0.00312263 1.89292e-07
0.00312263 0.126767 -1.64335e-08
1.89292e-07 -1.64335e-08 0.119847

0.122208 -0.0028304 1.09713e-07
-0.0028304 0.100109 -2.33744e-07
1.09713e-07 -2.33744e-07 0.0904501

0.102325 0.00681639 -1.72316e-07
0.00681639 0.120323 1.17446e-07
-1.72316e-07 1.17446e-07 0.0904884

0.113765 -0.00674964 6.83009e-08
-0.00674964 0.120866 -1.37716e-07
6.83009e-08 -1.37716e-07 0.117398

0.113635 0.00760995 3.0383e-07
0.00760995 0.118073 -7.21945e-08
3.0383e-07 -7.21945e-08 0.109713

0.109877 -0.0125357 2.82376e-08
-0.0125357 0.105811 1.21189e-08
2.82376e-08 1.21189e-08 0.0876646

0.111863 0.0155577 -2.13972e-07
0.0155577 0.0939018 2.59809e-07
-2.13972e-07 2.59809e-07 0.0714062

0.101316 -0.0120018 -1.45769e-07
-0.0120018 0.112308 -1.4442e-07
-1.45769e-07 -1.4442e-07 0.0855267

0.109826 -0.0111464 -3.86342e-08
-0.0111464 0.112372 -1.39616e-07
-3.86342e-08 -1.39616e-07 0.0902944

0.126373 -0.00188248 -1.69499e-07
-0.00188248 0.109869 3.60334e-11
-1.69499e-07 3.60334e-11 0.119792

0.108095 0.0108786 -6.89338e-08
0.0108786 0.114072 -8.58731e-08
-6.89338e-08 -8.58731e-08 0.0904515

0.121576 0.00465954 9.76616e-08
0.00465954 0.100718 8.45021e-08
9.76616e-08 8.45021e-08 0.0902471

0.0955341 0.00455774 -1.52688e-07
0.00455774 0.119717 1.20697e-07
-1.52688e-07 1.20697e-07 0.0872444

0.103419 -0.0081815 -8.06211e-08
-0.0081815 0.118992 -2.54887e-09
-8.06211e-08 -2.54887e-09 0.0904152

0.118221 -0.000229014 -1.88234e-07
-0.000229014 0.134412 2.99004e-08
-1.88234e-07 2.99004e-08 0.124202

0.100023 0.00103849 -5.2083e-08
0.00103849 0.12195 -9.57153e-08
-5.2083e-08 -9.57153e-08 0.0936077

0.0991822 0.011216 -2.05399e-08
0.011216 0.114187 -8.15668e-08
-2.05399e-08 -8.15668e-08 0.0855461

0.113012 0.0032761 7.27651e-08
0.0032761 0.127458 -4.77132e-08
7.27651e-08 -4.77132e-08 0.120305

0.11598 -0.00933166 -1.94802e-07
-0.00933166 0.105541 1.5016e-07
-1.94802e-07 1.5016e-07 0.0941867

0.129694 0.00561341 -1.69384e-07
0.00561341 0.114785 7.90042e-08
-1.69384e-07 7.90042e-08 0.122314

0.130158 0.00709433 1.19747e-07
0.00709433 0.122424 8.84217e-08
1.19747e-07 8.84217e-08 0.124161

0.125098 -0.005183 -1.84239e-08
-0.005183 0.112391 -2.0201e-08
-1.84239e-08 -2.0201e-08 0.116749

0.133877 -0.000394911 -1.46613e-07
-0.000394911 0.123607 3.59152e-08
-1.46613e-07 3.59152e-08 0.125371

0.118409 -0.00872348 1.20255e-07
-0.00872348 0.119152 -1.2997e-08
1.20255e-07 -1.2997e-08 0.118618

0.117498 0.00836556 8.15267e-08
0.00836556 0.0982759 1.06256e-07
8.15267e-08 1.06256e-07 0.0870565

0.115746 0.00821489 -1.9523e-07
0.00821489 0.120764 -5.75026e-08
-1.9523e-07 -5.75026e-08 0.119936

0.115868 0.00797759 8.68386e-08
0.00797759 0.12067 -1.30671e-07
8.68386e-08 -1.30671e-07 0.11983

0.108668 0.0110539 6.27179e-08
0.0110539 0.113332 -1.47386e-07
6.27179e-08 -1.47386e-07 0.0896889

0.124733 0.00741902 1.97926e-07
0.00741902 0.119108 -1.4679e-07
1.97926e-07 -1.4679e-07 0.120117

0.120182 0.00124339 1.3399e-08
0.00124339 0.0925158 -9.20957e-08
1.3399e-08 -9.20957e-08 0.0854058

0.121914 0.00865266 1.48519e-07
0.00865266 0.120187 6.4439e-09
1.48519e-07 6.4439e-09 0.121623

0.116462 -0.00337993 -1.16668e-07
-0.00337993 0.12897 1.81594e-07
-1.16668e-07 1.81594e-07 0.122005

0.130481 0.0066302 1.1436e-07
0.0066302 0.122625 -1.02055e-08
1.1436e-07 -1.02055e-08 0.12419

0.116878 -0.00805021 3.97873e-08
-0.00805021 0.119936 6.12958e-08
3.97873e-08 6.12958e-08 0.119842

0.114138 -0.00130531 1.79241e-07
-0.00130531 0.129805 1.54677e-08
1.79241e-07 1.54677e-08 0.120151

0.118923 -0.00943105 -1.49343e-07
-0.00943105 0.0976877 -2.00912e-07
-1.49343e-07 -2.00912e-07 0.0789206

0.115342 0.0102453 -9.6046e-08
0.0102453 0.106854 -4.78428e-08
-9.6046e-08 -4.78428e-08 0.093597

0.0962436 0.0050889 -1.07311e-07
0.0050889 0.119456 3.1168e-09
-1.07311e-07 3.1168e-09 0.0870902

0.124933 -0.000310024 3.63504e-08
-0.000310024 0.109868 -7.72731e-12
3.63504e-08 -7.72731e-12 0.121249

0.124407 -1.86826e-06 -1.20104e-07
-1.86826e-06 0.109653 -9.11811e-08
-1.20104e-07 -9.11811e-08 0.118395

0.113569 0.00626593 -1.32143e-07
0.00626593 0.120824 -1.20963e-07
-1.32143e-07 -1.20963e-07 0.118603

0.118134 0.00627635 1.55798e-07
0.00627635 0.123829 1.92377e-08
1.55798e-07 1.92377e-08 0.122896

0.113415 -0.00635686 -9.30326e-08
-0.00635686 0.121433 -1.50203e-07
-9.30326e-08 -1.50203e-07 0.121415

0.11289 -0.000210319 -1.45958e-07
-0.000210319 0.129459 1.75622e-07
-1.45958e-07 1.75622e-07 0.119427

0.113967 0.0066877 1.48143e-07
0.0066877 0.121185 -3.69692e-08
1.48143e-07 -3.69692e-08 0.121363

0.122394 -0.00303785 -8.50417e-08
-0.00303785 0.105477 1.7382e-07
-8.50417e-08 1.7382e-07 0.107778

0.108068 -0.0105124 1.22548e-07
-0.0105124 0.112586 4.36363e-08
1.22548e-07 4.36363e-08 0.0974469

0.127862 -0.000601323 2.76225e-08
-0.000601323 0.114067 -1.7795e-07
2.76225e-08 -1.7795e-07 0.122835

0.110884 -0.0123512 4.32739e-08
-0.0123512 0.10575 1.41223e-07
4.32739e-08 1.41223e-07 0.0865693

0.117177 0.00499228 2.03056e-07
0.00499228 0.125372 -6.48695e-08
2.03056e-07 -6.48695e-08 0.122919

0.126128 -0.00724213 3.77166e-08
-0.00724213 0.116221 -1.02928e-07
3.77166e-08 -1.02928e-07 0.119628

0.121275 -0.00324634 2.04312e-08
-0.00324634 0.0997462 -1.96974e-07
2.04312e-08 -1.96974e-07 0.0883355

0.130113 -0.00631433 1.79178e-07
-0.00631433 0.118842 4.78946e-08
1.79178e-07 4.78946e-08 0.122713

0.124884 0.000650356 7.58381e-08
0.000650356 0.110216 -2.70797e-08
7.58381e-08 -2.70797e-08 0.121526

0.127482 -0.00627616 -1.69132e-07
-0.00627616 0.122119 -9.75892e-08
-1.69132e-07 -9.75892e-08 0.123052

0.125781 -0.00709095 -1.61902e-07
-0.00709095 0.114555 1.34785e-07
-1.61902e-07 1.34785e-07 0.118646

0.125453 -0.00231802 -1.8503e-07
-0.00231802 0.110877 -2.53121e-08
-1.8503e-07 -2.53121e-08 0.119073

0.118216 -0.00608005 -6.89599e-08
-0.00608005 0.124229 2.30185e-07
-6.89599e-08 2.30185e-07 0.123086

0.114975 -0.00971962 1.37492e-07
-0.00971962 0.109186 -9.56716e-08
1.37492e-07 -9.56716e-08 0.100665

0.125885 -0.00679188 -1.82136e-07
-0.00679188 0.115301 5.50321e-08
-1.82136e-07 5.50321e-08 0.118669

0.120592 0.0034722 -4.94234e-09
0.0034722 0.100601 7.98363e-08
-4.94234e-09 7.98363e-08 0.0981444

0.122935 0.00712364 9.68694e-08
0.00712364 0.122472 8.65066e-08
9.68694e-08 8.65066e-08 0.121977

0.114919 -0.0100758 -8.63643e-08
-0.0100758 0.121154 1.96163e-07
-8.63643e-08 1.96163e-07 0.122455

0.115242 0.00999943 -1.74659e-07
0.00999943 0.120896 -2.30458e-08
-1.74659e-07 -2.30458e-08 0.122385

0.11026 -0.00755752 -1.03077e-07
-0.00755752 0.124788 1.31957e-07
-1.03077e-07 1.31957e-07 0.122259

0.110731 0.0071279 5.6742e-08
0.0071279 0.124909 -8.80012e-08
5.6742e-08 -8.80012e-08 0.12218

0.128012 -0.00244017 8.41803e-08
-0.00244017 0.107655 -8.53817e-08
8.41803e-08 -8.53817e-08 0.122244

0.127565 0.00263197 7.41138e-09
0.00263197 0.108081 1.55229e-07
7.41138e-09 1.55229e-07 0.122159

0.125716 -0.00269509 1.65822e-07
-0.00269509 0.112193 3.6416e-08
1.65822e-07 3.6416e-08 0.119591

0.124541 0.00859121 9.57228e-09
0.00859121 0.123912 1.65792e-08
9.57228e-09 1.65792e-08 0.124521

0.124275 -0.00878963 -2.52515e-07
-0.00878963 0.123905 -6.03099e-08
-2.52515e-07 -6.03099e-08 0.124497

0.116397 0.00408632 9.0687e-08
0.00408632 0.131972 1.5707e-07
9.0687e-08 1.5707e-07 0.124603

0.116685 -0.00401031 2.28625e-07
-0.00401031 0.13184 -1.16024e-07
2.28625e-07 -1.16024e-07 0.124575

0.134769 -0.000976145 -1.03868e-07
-0.000976145 0.12133 -1.92966e-07
-1.03868e-07 -1.92966e-07 0.125476

0.135197 0.000948247 -7.61382e-08
0.000948247 0.120878 -3.78586e-08
-7.61382e-08 -3.78586e-08 0.12557

0.102238 0.00299075 -1.61185e-08
0.00299075 0.121645 -2.96216e-08
-1.61185e-08 -2.96216e-08 0.100193

0.117721 -0.00669881 1.23232e-07
-0.00669881 0.119892 -3.01769e-08
1.23232e-07 -3.01769e-08 0.120104

0.110393 -0.00968883 -1.1058e-07
-0.00968883 0.121588 -1.4982e-07
-1.1058e-07 -1.4982e-07 0.121577

0.123596 -0.0013225 -8.34495e-08
-0.0013225 0.107784 1.77081e-07
-8.34495e-08 1.77081e-07 0.109441

0.13187 -0.00467706 1.18803e-07
-0.00467706 0.117136 1.86654e-07
1.18803e-07 1.86654e-07 0.124698

0.131944 0.00454231 -2.84969e-08
0.00454231 0.117397 -1.08888e-07
-2.84969e-08 -1.08888e-07 0.124764

0.127236 1.9413e-05 2.12938e-08
1.9413e-05 0.105037 6.98223e-08
2.12938e-08 6.98223e-08 0.121612

0.102851 0.00747966 6.78361e-09
0.00747966 0.118078 2.17995e-07
6.78361e-09 2.17995e-07 0.0974593

0.110167 0.00963345 -1.42343e-07
0.00963345 0.121601 1.68433e-09
-1.42343e-07 1.68433e-09 0.12144

0.112523 -0.00635863 -1.86749e-07
-0.00635863 0.124084 1.15088e-08
-1.86749e-07 1.15088e-08 0.120006

0.119196 0.00733197 5.54e-08
0.00733197 0.105172 8.9703e-08
5.54e-08 8.9703e-08 0.101066

0.130254 0.00650703 9.49619e-08
0.00650703 0.118598 -1.65789e-07
9.49619e-08 -1.65789e-07 0.122901

0.115032 -0.00972432 -5.11276e-09
-0.00972432 0.109285 -1.57299e-07
-5.11276e-09 -1.57299e-07 0.100609

0.128085 -0.000848406 1.29431e-07
-0.000848406 0.114741 1.68765e-07
1.29431e-07 1.68765e-07 0.123057

0.109428 -0.00904728 -1.91347e-08
-0.00904728 0.121767 6.41719e-08
-1.91347e-08 6.41719e-08 0.121549

0.102407 0.00246115 -6.05147e-08
0.00246115 0.122059 -1.46261e-07
-6.05147e-08 -1.46261e-07 0.10116

0.1028 0.00689972 -2.51993e-07
0.00689972 0.118734 -3.98785e-08
-2.51993e-07 -3.98785e-08 0.0982843

0.112621 0.0150882 -2.81072e-08
0.0150882 0.104801 -1.10201e-07
-2.81072e-08 -1.10201e-07 0.0768023

0.119946 0.00043835 -1.37924e-07
0.00043835 0.0916622 4.25748e-08
-1.37924e-07 4.25748e-08 0.0810251

0.119114 -0.00597578 8.70428e-08
-0.00597578 0.123655 -7.59799e-08
8.70428e-08 -7.59799e-08 0.122846

0.100851 0.0134727 -7.49686e-08
0.0134727 0.116901 -1.79213e-07
-7.49686e-08 -1.79213e-07 0.0747648

0.113819 0.00664971 1.18649e-07
0.00664971 0.121415 2.59381e-07
1.18649e-07 2.59381e-07 0.115943

0.120941 -0.00172582 1.42745e-07
-0.00172582 0.100169 -2.34407e-07
1.42745e-07 -2.34407e-07 0.0981476

0.122245 0.0033112 2.52012e-07
0.0033112 0.105442 7.81375e-08
2.52012e-07 7.81375e-08 0.107164

0.126998 0.000111911 1.91585e-08
0.000111911 0.10467 -3.10276e-08
1.91585e-08 -3.10276e-08 0.121429

0.110838 -0.00763971 -4.43513e-08
-0.00763971 0.125114 -6.29134e-08
-4.43513e-08 -6.29134e-08 0.122368

0.134591 -0.00180098 -3.39135e-08
-0.00180098 0.139203 1.56888e-08
-3.39135e-08 1.56888e-08 0.127419

0.114839 0.0100291 1.5071e-07
0.0100291 0.120917 2.81617e-08
1.5071e-07 2.81617e-08 0.122286

0.126515 0.000834619 -1.21908e-07
0.000834619 0.092435 -1.00007e-07
-1.21908e-07 -1.00007e-07 0.0734009

0.108859 -0.0104419 -1.78477e-07
-0.0104419 0.112395 6.50914e-08
-1.78477e-07 6.50914e-08 0.0979582

0.110335 0.00975447 9.95826e-08
0.00975447 0.121616 4.83514e-08
9.95826e-08 4.83514e-08 0.121581

0.111129 -0.00307457 4.94295e-08
-0.00307457 0.126208 8.64396e-08
4.94295e-08 8.64396e-08 0.116933

0.103406 -0.00818027 -1.05602e-07
-0.00818027 0.117168 -1.9299e-07
-1.05602e-07 -1.9299e-07 0.0972923

0.110896 0.00761192 -1.06515e-07
0.00761192 0.125058 -4.47614e-08
-1.06515e-07 -4.47614e-08 0.122306

0.119342 -0.00796917 -9.41014e-08
-0.00796917 0.109486 -1.18728e-07
-9.41014e-08 -1.18728e-07 0.10539

0.136445 0.00288953 -2.24877e-07
0.00288953 0.137302 -4.85484e-09
-2.24877e-07 -4.85484e-09 0.127375

0.106907 0.00986331 3.11261e-08
0.00986331 0.114384 9.97531e-08
3.11261e-08 9.97531e-08 0.0981823

0.128514 0.00231708 1.00587e-07
0.00231708 0.107684 7.76385e-09
1.00587e-07 7.76385e-09 0.122544

0.122269 0.00822079 1.29325e-07
0.00822079 0.119709 1.87485e-07
1.29325e-07 1.87485e-07 0.12124

0.113684 0.00632656 8.14334e-08
0.00632656 0.120644 -4.84773e-08
8.14334e-08 -4.84773e-08 0.118661

0.124419 -0.00869195 -5.20169e-08
-0.00869195 0.124347 2.30082e-07
-5.20169e-08 2.30082e-07 0.124678

0.126841 -0.00639404 2.0195e-08
-0.00639404 0.116716 -1.38697e-07
2.0195e-08 -1.38697e-07 0.119929

0.122347 0.00281534 -1.55445e-08
0.00281534 0.135012 3.02334e-08
-1.55445e-08 3.02334e-08 0.124913

0.113776 -0.00659104 -1.47654e-07
-0.00659104 0.121592 -1.18732e-08
-1.47654e-07 -1.18732e-08 0.116845

0.123316 -0.0034433 -1.95966e-07
-0.0034433 0.0890504 2.44998e-08
-1.95966e-07 2.44998e-08 0.070186

0.120674 -0.00672121 -1.60671e-07
-0.00672121 0.086276 -1.81181e-07
-1.60671e-07 -1.81181e-07 0.0693711

0.132902 0.00451681 2.60692e-08
0.00451681 0.12209 1.54447e-07
2.60692e-08 1.54447e-07 0.124398

0.111381 0.00645635 -1.49206e-07
0.00645635 0.120857 -4.22513e-08
-1.49206e-07 -4.22513e-08 0.11224

0.119841 0.00809123 -5.03176e-08
0.00809123 0.117481 2.06833e-08
-5.03176e-08 2.06833e-08 0.116947

0.122363 0.000147901 9.15403e-08
0.000147901 0.103657 -3.10998e-07
9.15403e-08 -3.10998e-07 0.0992953

0.115915 0.00176597 1.85185e-07
0.00176597 0.133049 3.10513e-08
1.85185e-07 3.10513e-08 0.122945

0.126557 0.00457501 -2.00353e-07
0.00457501 0.113942 -6.64777e-08
-2.00353e-07 -6.64777e-08 0.12023

0.104247 -0.00821856 -4.8315e-08
-0.00821856 0.117059 -5.42113e-08
-4.8315e-08 -5.42113e-08 0.0980646

0.112633 -0.000677799 -1.13994e-07
-0.000677799 0.129372 1.78639e-07
-1.13994e-07 1.78639e-07 0.119121

0.105302 0.00438109 1.59252e-07
0.00438109 0.121726 -2.43957e-08
1.59252e-07 -2.43957e-08 0.101661

0.122434 -0.00822251 1.43825e-07
-0.00822251 0.116514 -1.31018e-07
1.43825e-07 -1.31018e-07 0.117237

0.114393 -0.0094714 9.86545e-08
-0.0094714 0.112649 4.29859e-08
9.86545e-08 4.29859e-08 0.101757

0.107605 0.0101487 7.1249e-08
0.0101487 0.11345 -1.34051e-07
7.1249e-08 -1.34051e-07 0.0975802

0.146663 -0.00401356 -2.7496e-08
-0.00401356 0.135129 3.13192e-08
-2.7496e-08 3.13192e-08 0.127791

0.118899 0.000454869 -5.53227e-08
0.000454869 0.134489 2.53804e-08
-5.53227e-08 2.53804e-08 0.124418

0.116623 0.00526928 -8.21769e-08
0.00526928 0.132547 -1.57887e-07
-8.21769e-08 -1.57887e-07 0.124834

0.133091 0.00431741 5.85709e-08
0.00431741 0.115926 -9.33349e-08
5.85709e-08 -9.33349e-08 0.124801

0.118172 -0.00711697 3.30773e-08
-0.00711697 0.119741 5.09585e-08
3.30773e-08 5.09585e-08 0.119592

0.121256 0.00550336 2.32571e-08
0.00550336 0.106097 1.37119e-07
2.32571e-08 1.37119e-07 0.102268

0.125651 -0.00145498 2.47226e-08
-0.00145498 0.139123 -4.80842e-08
2.47226e-08 -4.80842e-08 0.126453

0.12729 -0.0052106 -1.22016e-07
-0.0052106 0.114419 -1.7201e-07
-1.22016e-07 -1.7201e-07 0.121119

0.123301 -0.00441293 -2.24867e-07
-0.00441293 0.108324 3.86503e-08
-2.24867e-07 3.86503e-08 0.110001

0.105351 0.0037734 -1.84674e-07
0.0037734 0.122152 -1.51018e-07
-1.84674e-07 -1.51018e-07 0.102443

0.109143 -0.00828788 -1.54669e-09
-0.00828788 0.117153 -1.89763e-07
-1.54669e-09 -1.89763e-07 0.100209

0.128695 -0.00684332 2.59392e-07
-0.00684332 0.126257 -1.07534e-07
2.59392e-07 -1.07534e-07 0.124355

0.113156 0.00994342 2.42791e-07
0.00994342 0.111137 5.91873e-08
2.42791e-07 5.91873e-08 0.101055

0.130255 -0.00684962 3.01105e-09
-0.00684962 0.122315 -2.01431e-07
3.01105e-09 -2.01431e-07 0.124078

0.12247 0.000824122 1.68366e-07
0.000824122 0.104306 -1.85827e-07
1.68366e-07 -1.85827e-07 0.100987

0.0883042 -0.0121815 -4.33752e-09
-0.0121815 0.116263 -1.71131e-07
-4.33752e-09 -1.71131e-07 0.069742

0.114734 -0.00921099 2.27767e-07
-0.00921099 0.112569 1.01683e-07
2.27767e-07 1.01683e-07 0.102017

0.101335 0.0138892 6.75586e-08
0.0138892 0.118083 1.93001e-08
6.75586e-08 1.93001e-08 0.0745834

0.114775 -0.00319015 -2.39036e-08
-0.00319015 0.130883 -1.79042e-07
-2.39036e-08 -1.79042e-07 0.121974

0.103159 -0.00423225 1.45086e-07
-0.00423225 0.121245 2.30061e-07
1.45086e-07 2.30061e-07 0.100995

0.140824 -0.00648654 -1.69182e-07
-0.00648654 0.140865 -1.81402e-07
-1.69182e-07 -1.81402e-07 0.127809

0.107998 0.00762816 1.19268e-07
0.00762816 0.118734 -3.98669e-08
1.19268e-07 -3.98669e-08 0.101059

0.122471 -0.00887382 9.1901e-08
-0.00887382 0.120866 2.15684e-09
9.1901e-08 2.15684e-09 0.121792

0.102509 -0.00365392 -3.01441e-08
-0.00365392 0.121416 1.48692e-07
-3.01441e-08 1.48692e-07 0.100179

0.128161 -0.00523807 7.83987e-08
-0.00523807 0.114361 1.66376e-07
7.83987e-08 1.66376e-07 0.121699

0.10883 0.00773355 -1.46769e-07
0.00773355 0.118068 2.21017e-07
-1.46769e-07 2.21017e-07 0.100566

0.124967 -0.00135996 -7.85087e-08
-0.00135996 0.10968 -3.03406e-08
-7.85087e-08 -3.03406e-08 0.114846

0.0887604 -0.0165783 -1.37333e-07
-0.0165783 0.134095 1.37295e-07
-1.37333e-07 1.37295e-07 0.0564165

0.111235 0.00593315 -1.4091e-07
0.00593315 0.121087 2.13031e-08
-1.4091e-07 2.13031e-08 0.114872

0.120099 -0.00609303 -7.24862e-08
-0.00609303 0.104144 2.33719e-07
-7.24862e-08 2.33719e-07 0.100877

0.133967 -0.00584643 5.26507e-09
-0.00584643 0.120044 8.53698e-08
5.26507e-09 8.53698e-08 0.124786

0.113868 0.00992651 1.09696e-08
0.00992651 0.110187 1.38615e-07
1.09696e-08 1.38615e-07 0.100404

0.118875 -0.00863099 -2.27566e-07
-0.00863099 0.11253 8.0798e-08
-2.27566e-07 8.0798e-08 0.110112

0.126682 0.00572324 7.59518e-08
0.00572324 0.117195 -1.96558e-08
7.59518e-08 -1.96558e-08 0.120606

0.114631 -0.00730736 1.17259e-08
-0.00730736 0.120863 9.09696e-08
1.17259e-08 9.09696e-08 0.121333

0.109738 -0.00842429 -2.42785e-07
-0.00842429 0.116995 -6.92572e-08
-2.42785e-07 -6.92572e-08 0.100827

0.112838 0.00911591 2.12411e-07
0.00911591 0.114337 1.052e-07
2.12411e-07 1.052e-07 0.102263

0.119632 0.00781079 -6.7595e-08
0.00781079 0.108975 -9.69951e-08
-6.7595e-08 -9.69951e-08 0.105334

0.128826 -0.00397664 -5.19314e-08
-0.00397664 0.11672 -1.10208e-07
-5.19314e-08 -1.10208e-07 0.121942

0.106081 -0.00537636 8.89405e-08
-0.00537636 0.121029 2.25501e-07
8.89405e-08 2.25501e-07 0.102168

0.1255 -0.00483548 1.66618e-09
-0.00483548 0.111905 2.53022e-08
1.66618e-09 2.53022e-08 0.116955

0.124418 0.00473996 1.44611e-07
0.00473996 0.11004 -1.99657e-07
1.44611e-07 -1.99657e-07 0.114912

0.12292 -0.00254761 1.90872e-07
-0.00254761 0.134465 2.54796e-08
1.90872e-07 2.54796e-08 0.124746

0.121866 -0.00407558 -1.04857e-07
-0.00407558 0.105392 1.72189e-07
-1.04857e-07 1.72189e-07 0.102241

0.104743 0.000340562 -1.14744e-07
0.000340562 0.123633 1.30801e-07
-1.14744e-07 1.30801e-07 0.105037

0.123123 0.00528422 1.07704e-07
0.00528422 0.109518 -1.54951e-07
1.07704e-07 -1.54951e-07 0.110634

0.118932 0.0082303 -4.73752e-08
0.0082303 0.109875 -1.17855e-07
-4.73752e-08 -1.17855e-07 0.105797

0.105512 -0.00511271 8.2875e-08
-0.00511271 0.121347 1.51456e-07
8.2875e-08 1.51456e-07 0.101458

0.105159 -0.000234608 -1.06554e-07
-0.000234608 0.123848 -7.64997e-08
-1.06554e-07 -7.64997e-08 0.105847

0.126588 0.00792503 -1.85058e-07
0.00792503 0.121587 1.71026e-07
-1.85058e-07 1.71026e-07 0.122504

0.110409 -0.00311495 6.54623e-09
-0.00311495 0.126721 2.22089e-07
6.54623e-09 2.22089e-07 0.116914

0.118998 -0.00809503 -1.77367e-08
-0.00809503 0.109402 -1.5841e-07
-1.77367e-08 -1.5841e-07 0.105463

0.119841 0.00671858 -4.91338e-09
0.00671858 0.104617 1.04143e-08
-4.91338e-09 1.04143e-08 0.100386

0.125169 0.00653864 2.4621e-07
0.00653864 0.114125 -1.28349e-08
2.4621e-07 -1.28349e-08 0.117733

0.111241 0.00156274 -9.38357e-08
0.00156274 0.12819 5.59237e-08
-9.38357e-08 5.59237e-08 0.11778

0.113568 0.009199 1.74623e-07
0.009199 0.113487 -1.36654e-07
1.74623e-07 -1.36654e-07 0.101786

0.129334 0.00624478 1.51812e-07
0.00624478 0.127984 3.20064e-08
1.51812e-07 3.20064e-08 0.124702

0.10369 -0.0312692 -1.13012e-07
-0.0312692 0.0890487 -4.1789e-07
-1.13012e-07 -4.1789e-07 0.0476558

0.122694 -0.00714342 -1.13696e-08
-0.00714342 0.112747 9.86851e-08
-1.13696e-08 9.86851e-08 0.113666

0.0936293 0.00338253 -4.50119e-08
0.00338253 0.123017 1.25286e-07
-4.50119e-08 1.25286e-07 0.0773604

0.118598 -0.00840575 -2.03938e-07
-0.00840575 0.114221 1.23363e-07
-2.03938e-07 1.23363e-07 0.110899

0.00777168 -0.0332416 -2.72745e-08
-0.0332416 0.142099 1.19498e-07
-2.72745e-08 1.19498e-07 0.012874

0.00747751 0.0325542 -3.55637e-08
0.0325542 0.141723 -1.55815e-07
-3.55637e-08 -1.55815e-07 0.0132775

0.0617461 0.0748221 9.20421e-08
0.0748221 0.0905572 1.15417e-07
9.20421e-08 1.15417e-07 0.0122833

0.0624282 -0.0747078 1.28696e-07
-0.0747078 0.0891981 -1.61379e-07
1.28696e-07 -1.61379e-07 0.0124216

0.150916 -0.000688156 1.94706e-07
-0.000688156 0 0
1.94706e-07 0 0.0130583

0.120401 -0.0578434 5.54949e-08
-0.0578434 0.0277891 -2.67249e-08
5.54949e-08 -2.67249e-08 0.0131262

0.120223 0.0579719 -1.19716e-08
0.0579719 0.0279541 -5.7652e-09
-1.19716e-08 -5.7652e-09 0.0133836

0.129556 0.0038811 1.15222e-07
0.0038811 0.115899 -8.43749e-09
1.15222e-07 -8.43749e-09 0.122486

0.133273 0.0069955 2.05487e-08
0.0069955 0.128995 1.45884e-07
2.05487e-08 1.45884e-07 0.126137

0.124627 0.00179573 2.28336e-07
0.00179573 0.110053 -2.80441e-08
2.28336e-07 -2.80441e-08 0.117552

0.122143 0.0063248 7.50304e-08
0.0063248 0.108949 -9.60976e-08
7.50304e-08 -9.60976e-08 0.109905

0.106266 0.00525561 8.04727e-08
0.00525561 0.121325 -1.85184e-07
8.04727e-08 -1.85184e-07 0.107232

0.11773 0.00873555 -1.54552e-07
0.00873555 0.111015 4.08815e-08
-1.54552e-07 4.08815e-08 0.105782

0.122388 -0.00825301 1.52667e-07
-0.00825301 0.116521 -1.18312e-07
1.52667e-07 -1.18312e-07 0.117329

0.118427 0.00854127 -1.99841e-07
0.00854127 0.110148 1.36273e-07
-1.99841e-07 1.36273e-07 0.105216

0.104709 -0.00102073 -3.88172e-08
-0.00102073 0.123546 1.33231e-07
-3.88172e-08 1.33231e-07 0.104991

0.132919 -0.00711247 8.45786e-08
-0.00711247 0.129531 1.53671e-07
8.45786e-08 1.53671e-07 0.126151

0.105147 -0.00162776 -9.57385e-10
-0.00162776 0.123612 -6.75358e-08
-9.57385e-10 -6.75358e-08 0.105735

0.127851 0.00623276 -1.32748e-07
0.00623276 0.121614 3.12208e-08
-1.32748e-07 3.12208e-08 0.122953

0.117603 0.00884786 -1.31778e-07
0.00884786 0.104378 1.76775e-08
-1.31778e-07 1.76775e-08 0.0934618

0.116377 -0.00327001 -7.23111e-08
-0.00327001 0.130517 -1.39112e-07
-7.23111e-08 -1.39112e-07 0.124356

0.123988 0.00386473 -2.73593e-07
0.00386473 0.109492 -1.58998e-07
-2.73593e-07 -1.58998e-07 0.114214

0.118548 -0.0086509 -1.24225e-07
-0.0086509 0.112526 1.92872e-08
-1.24225e-07 1.92872e-08 0.109832

0.120031 -0.00733474 6.57212e-08
-0.00733474 0.108503 2.14993e-09
6.57212e-08 2.14993e-09 0.105574

0.132799 -0.00438348 1.45936e-07
-0.00438348 0.122461 7.14048e-08
1.45936e-07 7.14048e-08 0.124358

0.121486 0.00788685 -1.0595e-07
0.00788685 0.1139 -4.2225e-08
-1.0595e-07 -4.2225e-08 0.113769

0.121591 0.00697105 -1.45306e-07
0.00697105 0.109769 -1.22263e-07
-1.45306e-07 -1.22263e-07 0.110295

0.109045 -0.000726187 9.51476e-08
-0.000726187 0.126416 -6.38195e-08
9.51476e-08 -6.38195e-08 0.113792

0.106723 0.0016383 -1.95673e-08
0.0016383 0.124632 1.12239e-07
-1.95673e-08 1.12239e-07 0.110377

0.122357 0.000768525 1.12417e-07
0.000768525 0.1043 -1.90166e-07
1.12417e-07 -1.90166e-07 0.106749

0.120768 -0.00235374 1.56428e-07
-0.00235374 0.0998266 -1.92251e-07
1.56428e-07 -1.92251e-07 0.0962696

0.117839 0.00881657 -1.90152e-07
0.00881657 0.11312 1.55905e-07
-1.90152e-07 1.55905e-07 0.109835

0.122333 -0.00746021 1.9848e-07
-0.00746021 0.112549 2.25549e-08
1.9848e-07 2.25549e-08 0.113301

0.128569 -0.00578938 1.49026e-07
-0.00578938 0.121095 2.02701e-08
1.49026e-07 2.02701e-08 0.123061

0.114183 -0.00929631 1.96701e-07
-0.00929631 0.114117 1.51205e-07
1.96701e-07 1.51205e-07 0.107533

0.10914 -0.00827963 -7.64038e-08
-0.00827963 0.117133 -6.56214e-08
-7.64038e-08 -6.56214e-08 0.106091

0.112203 0.00884102 2.43221e-08
0.00884102 0.115752 -2.6993e-07
2.43221e-08 -2.6993e-07 0.107561

0.10674 -0.00273853 1.77839e-07
-0.00273853 0.12391 -2.08492e-07
1.77839e-07 -2.08492e-07 0.109571

0.108429 -0.000534277 1.52915e-07
-0.000534277 0.126295 -2.56048e-07
1.52915e-07 -2.56048e-07 0.113174

0.110764 0.00154782 1.49835e-07
0.00154782 0.12819 5.40621e-08
1.49835e-07 5.40621e-08 0.117394

0.107491 -0.00622984 1.84581e-07
-0.00622984 0.120438 8.44549e-08
1.84581e-07 8.44549e-08 0.107448

0.125098 0.00670557 2.50716e-07
0.00670557 0.113749 -2.14639e-08
2.50716e-07 -2.14639e-08 0.117344

0.123988 -0.00271976 -3.57818e-08
-0.00271976 0.108951 7.53266e-08
-3.57818e-08 7.53266e-08 0.113913

0.106502 0.00211314 -9.31492e-08
0.00211314 0.124352 1.7065e-07
-9.31492e-08 1.7065e-07 0.10963

0.110891 -0.00264744 -1.34884e-07
-0.00264744 0.126892 1.93188e-07
-1.34884e-07 1.93188e-07 0.116714

0.109737 -0.00460149 -4.6543e-08
-0.00460149 0.123432 1.0782e-07
-4.6543e-08 1.0782e-07 0.11399

0.122585 -0.00250657 -1.10575e-07
-0.00250657 0.105416 -6.62896e-08
-1.10575e-07 -6.62896e-08 0.106172

0.122173 -0.00878463 3.21596e-08
-0.00878463 0.120226 5.12291e-08
3.21596e-08 5.12291e-08 0.121725

0.10808 0.00284174 -1.37152e-07
0.00284174 0.124371 1.70198e-07
-1.37152e-07 1.70198e-07 0.110354

0.135552 -0.004981 -1.30082e-07
-0.004981 0.126118 -9.39638e-08
-1.30082e-07 -9.39638e-08 0.125893

0.087524 0.0103927 1.64786e-08
0.0103927 0.117546 1.44289e-08
1.64786e-08 1.44289e-08 0.0696498

0.123237 -0.00719817 -1.08802e-07
-0.00719817 0.12258 -1.73318e-07
-1.08802e-07 -1.73318e-07 0.122147

0.126417 -0.00821481 -1.29782e-07
-0.00821481 0.121695 4.10209e-08
-1.29782e-07 4.10209e-08 0.122524

0.108482 -0.000105108 1.67753e-07
-0.000105108 0.126314 -2.5571e-07
1.67753e-07 -2.5571e-07 0.113186

0.123149 -0.00478088 8.49648e-08
-0.00478088 0.10945 -1.73663e-07
8.49648e-08 -1.73663e-07 0.110618

0.114021 0.0034469 -1.53084e-07
0.0034469 0.127434 -3.44787e-08
-1.53084e-07 -3.44787e-08 0.120263

0.0654151 -0.000504755 3.48059e-08
-0.000504755 0.127277 9.15268e-08
3.48059e-08 9.15268e-08 0.0489621

0.109362 0.00402351 -1.86355e-07
0.00402351 0.12427 7.8832e-08
-1.86355e-07 7.8832e-08 0.11417

0.118202 -0.00861047 -1.14795e-07
-0.00861047 0.114096 3.84135e-08
-1.14795e-07 3.84135e-08 0.110341

0.0874798 0.0135247 6.3232e-08
0.0135247 0.135146 1.43624e-07
6.3232e-08 1.43624e-07 0.0571301

0.141116 0.00714005 -2.15152e-07
0.00714005 0.139752 3.1993e-07
-2.15152e-07 3.1993e-07 0.128022

0.142405 -0.00764232 -2.34016e-07
-0.00764232 0.138886 2.13289e-07
-2.34016e-07 2.13289e-07 0.127992

0.117818 -0.00852716 -5.41575e-08
-0.00852716 0.116537 -1.13041e-07
-5.41575e-08 -1.13041e-07 0.114547

0.113552 -0.00920851 1.00842e-07
-0.00920851 0.114085 4.02809e-08
1.00842e-07 4.02809e-08 0.107123

0.122647 0.00597165 -8.48027e-08
0.00597165 0.110269 -2.19054e-07
-8.48027e-08 -2.19054e-07 0.111048

0.122187 0.00441715 1.03902e-07
0.00441715 0.106014 1.40769e-07
1.03902e-07 1.40769e-07 0.107754

0.149085 0.00118761 8.3615e-07
0.00118761 0.149257 3.66181e-07
8.3615e-07 3.66181e-07 0.128465

0.150256 -0.00231103 -4.34763e-07
-0.00231103 0.147967 2.6105e-07
-4.34763e-07 2.6105e-07 0.1286

0.125291 0.0013746 5.43386e-08
0.0013746 0.110284 1.23351e-07
5.43386e-08 1.23351e-07 0.118781

0.110757 0.0019433 2.88908e-08
0.0019433 0.127312 -2.87749e-07
2.88908e-08 -2.87749e-07 0.11668

0.110427 0.00183564 1.5179e-07
0.00183564 0.127306 -2.84178e-07
1.5179e-07 -2.84178e-07 0.116422

0.109178 0.0302128 -5.35579e-08
0.0302128 0.0849417 1.50782e-07
-5.35579e-08 1.50782e-07 0.0478752

0.10976 -0.00839635 -1.20347e-07
-0.00839635 0.116863 -2.53275e-07
-1.20347e-07 -2.53275e-07 0.10638

0.128749 0.00494303 6.91467e-08
0.00494303 0.114503 5.0496e-08
6.91467e-08 5.0496e-08 0.12229

0.123401 0.00273382 1.96423e-07
0.00273382 0.107996 -3.67641e-08
1.96423e-07 -3.67641e-08 0.109387

0.114008 -0.00795208 4.86457e-08
-0.00795208 0.117154 -5.53421e-08
4.86457e-08 -5.53421e-08 0.108688

0.122063 -0.00589638 2.01616e-07
-0.00589638 0.108595 6.59544e-09
2.01616e-07 6.59544e-09 0.109782

0.102581 0.0309957 4.19625e-08
0.0309957 0.0882319 2.70947e-07
4.19625e-08 2.70947e-07 0.0478864

0.12187 0.00844618 2.44182e-07
0.00844618 0.120827 -8.04258e-08
2.44182e-07 -8.04258e-08 0.120924

0.10669 -0.00585604 2.2586e-07
-0.00585604 0.120613 -8.20725e-08
2.2586e-07 -8.20725e-08 0.106889

0.12089 0.00821032 -9.26284e-08
0.00821032 0.114119 -6.03067e-08
-9.26284e-08 -6.03067e-08 0.113754

0.108759 -0.00127757 1.43316e-07
-0.00127757 0.126307 -5.88919e-08
1.43316e-07 -5.88919e-08 0.113726

0.109215 0.00587303 1.47253e-07
0.00587303 0.121409 2.06935e-07
1.47253e-07 2.06935e-07 0.108986

0.117019 0.00882902 -2.10919e-07
0.00882902 0.114267 -7.11623e-08
-2.10919e-07 -7.11623e-08 0.110265

0.110618 -0.00670789 2.68643e-08
-0.00670789 0.12017 5.65371e-08
2.68643e-08 5.65371e-08 0.108892

0.114635 -0.00810257 -3.6523e-08
-0.00810257 0.116881 -2.48404e-07
-3.6523e-08 -2.48404e-07 0.109021

0.085109 0.0055447 -7.22575e-08
0.0055447 0.124089 4.91151e-09
-7.22575e-08 4.91151e-09 0.0571129

0.102775 -0.0144444 -1.28056e-07
-0.0144444 0.116375 -1.68568e-07
-1.28056e-07 -1.68568e-07 0.0750363

0.107398 -0.00335135 8.40311e-08
-0.00335135 0.123867 -1.91282e-07
8.40311e-08 -1.91282e-07 0.110199

0.122137 0.00757481 2.19088e-07
0.00757481 0.113301 1.21432e-07
2.19088e-07 1.21432e-07 0.11353

0.11639 0.00855287 -3.12094e-08
0.00855287 0.115694 -2.74409e-07
-3.12094e-08 -2.74409e-07 0.110834

0.110167 -0.00641324 -9.73968e-08
-0.00641324 0.120513 -1.05685e-07
-9.73968e-08 -1.05685e-07 0.108598

0.108229 -0.00355924 1.58296e-07
-0.00355924 0.123823 -2.09601e-07
1.58296e-07 -2.09601e-07 0.110186

0.117865 0.00831126 -1.32683e-07
0.00831126 0.115006 4.29161e-08
-1.32683e-07 4.29161e-08 0.110669

0.108687 -0.00415281 7.05375e-08
-0.00415281 0.123465 -1.94263e-07
7.05375e-08 -1.94263e-07 0.110736

0.0882355 0.0113635 3.01855e-07
0.0113635 0.116586 -1.35977e-07
3.01855e-07 -1.35977e-07 0.0696662

0.117224 -0.00110226 -9.43796e-08
-0.00110226 0.133536 -7.30746e-08
-9.43796e-08 -7.30746e-08 0.123379

0.112911 0.00914889 2.63904e-07
0.00914889 0.114881 -1.48689e-09
2.63904e-07 -1.48689e-09 0.107435

0.126916 0.00412011 -2.41763e-07
0.00412011 0.114372 1.26031e-08
-2.41763e-07 1.26031e-08 0.120182

0.128272 -0.00435009 1.08013e-07
-0.00435009 0.114894 1.5227e-07
1.08013e-07 1.5227e-07 0.121011

0.120293 -0.010838 -1.67603e-07
-0.010838 0.0868011 1.56585e-07
-1.67603e-07 1.56585e-07 0.0674921

0.112042 -0.00604873 -7.32827e-08
-0.00604873 0.121425 -3.81889e-08
-7.32827e-08 -3.81889e-08 0.114846

0.113724 0.00748438 1.10239e-07
0.00748438 0.119005 1.87248e-07
1.10239e-07 1.87248e-07 0.114648

0.125546 -0.00579969 -1.50052e-07
-0.00579969 0.131221 4.70283e-08
-1.50052e-07 4.70283e-08 0.125428

0.134964 0.00387846 2.57072e-07
0.00387846 0.145134 -8.39186e-08
2.57072e-07 -8.39186e-08 0.127914

0.145928 0.00246937 3.88476e-07
0.00246937 0.134145 -1.91559e-07
3.88476e-07 -1.91559e-07 0.127874

0.126844 0.00881579 -1.69009e-07
0.00881579 0.12589 5.12423e-09
-1.69009e-07 5.12423e-09 0.12493

0.108235 0.00774136 1.91216e-07
0.00774136 0.118359 8.98151e-08
1.91216e-07 8.98151e-08 0.106224

0.122292 0.00750353 2.10096e-07
0.00750353 0.112677 1.44013e-07
2.10096e-07 1.44013e-07 0.113481

0.0981543 0.0193657 -1.30451e-07
0.0193657 0.105045 -9.05719e-08
-1.30451e-07 -9.05719e-08 0.0688072

0.133209 -0.00311515 -5.54214e-08
-0.00311515 0.144723 2.32927e-07
-5.54214e-08 2.32927e-07 0.127768

0.148812 -0.00109988 9.49659e-08
-0.00109988 0.14691 -2.05353e-08
9.49659e-08 -2.05353e-08 0.128444

0.146412 -0.000275231 3.88505e-07
-0.000275231 0.149295 -1.90755e-07
3.88505e-07 -1.90755e-07 0.128404

0.0842659 -0.0282964 -1.2784e-07
-0.0282964 0.105201 1.52863e-07
-1.2784e-07 1.52863e-07 0.0472215

0.134407 -0.00311398 -1.98612e-07
-0.00311398 0.133502 1.58597e-07
-1.98612e-07 1.58597e-07 0.126732

0.132634 0.0024345 2.52463e-07
0.0024345 0.139049 2.07718e-07
2.52463e-07 2.07718e-07 0.127285

0.122571 -0.00736689 1.95554e-07
-0.00736689 0.111712 1.58594e-08
1.95554e-07 1.58594e-08 0.113139

0.11922 0.00031709 5.86493e-08
0.00031709 0.133227 -8.86495e-08
5.86493e-08 -8.86495e-08 0.123722

0.112349 -0.00555564 4.8404e-08
-0.00555564 0.122505 -1.48124e-07
4.8404e-08 -1.48124e-07 0.117319

0.126899 0.00168306 -1.07701e-07
0.00168306 0.109841 1.8278e-09
-1.07701e-07 1.8278e-09 0.120568

0.113033 0.00419251 1.94975e-07
0.00419251 0.129311 -7.42439e-08
1.94975e-07 -7.42439e-08 0.122039

0.115154 0.00192811 -1.64087e-07
0.00192811 0.130699 9.06537e-08
-1.64087e-07 9.06537e-08 0.121324

0.124851 0.00571788 -2.55547e-07
0.00571788 0.11309 2.03666e-07
-2.55547e-07 2.03666e-07 0.116387

0.0658023 -0.00250534 -2.84884e-07
-0.00250534 0.125888 5.82553e-09
-2.84884e-07 5.82553e-09 0.0491666

0.117631 -0.00781266 -1.60616e-07
-0.00781266 0.117564 -3.77422e-08
-1.60616e-07 -3.77422e-08 0.114932

0.121539 -0.00715899 1.22926e-07
-0.00715899 0.119596 -1.08699e-08
1.22926e-07 -1.08699e-08 0.119563

0.122669 -0.00853978 8.59159e-08
-0.00853978 0.120497 -2.1039e-08
8.59159e-08 -2.1039e-08 0.122181

0.118773 0.0153782 -1.48926e-07
0.0153782 0.0834585 -1.54484e-07
-1.48926e-07 -1.54484e-07 0.0550625

0.133542 -0.00553093 -1.95516e-07
-0.00553093 0.13506 2.70155e-08
-1.95516e-07 2.70155e-08 0.126942

0.106594 0.029543 -2.33324e-08
0.029543 0.117177 5.14168e-08
-2.33324e-08 5.14168e-08 0.05498

0.117124 -0.00563579 1.8829e-07
-0.00563579 0.124788 1.32005e-07
1.8829e-07 1.32005e-07 0.122675

0.126709 0.0040201 1.74085e-07
0.0040201 0.112165 -1.05793e-07
1.74085e-07 -1.05793e-07 0.119053

0.121504 -0.00437661 5.31173e-08
-0.00437661 0.104489 -2.21532e-08
5.31173e-08 -2.21532e-08 0.100784

0.113958 0.00675179 1.49725e-07
0.00675179 0.121291 7.25012e-08
1.49725e-07 7.25012e-08 0.116591

0.124988 0.0056685 -1.65298e-07
0.0056685 0.112555 -1.05443e-08
-1.65298e-07 -1.05443e-08 0.116389

0.120653 0.00297675 -1.78959e-08
0.00297675 0.136591 5.69398e-08
-1.78959e-08 5.69398e-08 0.125632

0.119425 -0.00872738 1.09621e-07
-0.00872738 0.11803 -1.80578e-07
1.09621e-07 -1.80578e-07 0.117821

0.135119 0.00542063 -7.0675e-08
0.00542063 0.122085 1.29701e-07
-7.0675e-08 1.29701e-07 0.125587

0.111217 -0.00527193 -1.73195e-07
-0.00527193 0.123182 8.77944e-08
-1.73195e-07 8.77944e-08 0.114604

0.114078 0.0011594 9.41804e-08
0.0011594 0.130549 1.17974e-07
9.41804e-08 1.17974e-07 0.121084

0.139911 0.00275623 -3.10303e-07
0.00275623 0.129982 1.88877e-07
-3.10303e-07 1.88877e-07 0.127267

0.140259 -0.00234422 -1.50183e-07
-0.00234422 0.130438 1.2951e-07
-1.50183e-07 1.2951e-07 0.127233

0.119255 0.00853565 -7.51351e-08
0.00853565 0.0854879 -1.67597e-07
-7.51351e-08 -1.67597e-07 0.0684093

0.125547 0.00216818 -5.42929e-08
0.00216818 0.112379 -9.29828e-08
-5.42929e-08 -9.29828e-08 0.120688

0.0636389 0.00333156 -2.65262e-07
0.00333156 0.161871 -9.93267e-08
-2.65262e-07 -9.93267e-08 0.0271106

0.0651529 -0.00621592 2.75858e-08
-0.00621592 0.165056 -2.14504e-07
2.75858e-08 -2.14504e-07 0.0270777

0.0780505 0.03845 1.8548e-07
0.03845 0.143933 -2.08875e-07
1.8548e-07 -2.08875e-07 0.0265118

0.125282 -0.00792146 -2.45838e-07
-0.00792146 0.118076 8.47543e-08
-2.45838e-07 8.47543e-08 0.120379

0.0743406 -0.0252549 4.70743e-08
-0.0252549 0.120924 -3.15379e-07
4.70743e-08 -3.15379e-07 0.0461307

0.0791296 -0.0379314 1.26841e-07
-0.0379314 0.138719 -1.76313e-07
1.26841e-07 -1.76313e-07 0.0262104

0.112347 0.00778524 -2.39102e-07
0.00778524 0.118359 8.83519e-08
-2.39102e-07 8.83519e-08 0.108638

0.127399 0.049153 -6.54434e-08
0.049153 0.0979281 1.47067e-07
-6.54434e-08 1.47067e-07 0.0263067

0.129078 0.00343567 -2.56079e-07
0.00343567 0.132729 -1.17793e-07
-2.56079e-07 -1.17793e-07 0.12593

0.134757 -0.000100293 -1.71918e-10
-0.000100293 0.127012 9.87087e-08
-1.71918e-10 9.87087e-08 0.125888

0.132164 -0.0489712 -2.78896e-07
-0.0489712 0.0969233 -2.49308e-07
-2.78896e-07 -2.49308e-07 0.0260993

0.110592 -0.00665913 -1.91356e-07
-0.00665913 0.120143 5.12113e-08
-1.91356e-07 5.12113e-08 0.112513

0.117008 0.0174734 -2.47942e-07
0.0174734 0.093461 2.25382e-07
-2.47942e-07 2.25382e-07 0.0567398

0.0862284 0.0412683 2.68677e-07
0.0412683 0.139973 -6.75309e-08
2.68677e-07 -6.75309e-08 0.0265363

0.0857032 0.0110173 3.41046e-07
0.0110173 0.122241 -6.42085e-08
3.41046e-07 -6.42085e-08 0.0560183

0.0863707 -0.0427155 -1.75688e-07
-0.0427155 0.140465 1.66665e-07
-1.75688e-07 1.66665e-07 0.0257719

0.0845775 -0.00661431 1.4151e-07
-0.00661431 0.124786 -2.27556e-07
1.4151e-07 -2.27556e-07 0.055328

0.129866 0.00196423 7.42181e-08
0.00196423 0.138546 -5.20703e-08
7.42181e-08 -5.20703e-08 0.126627

0.0984112 -0.0204884 -5.42956e-08
-0.0204884 0.104524 -1.46271e-07
-5.42956e-08 -1.46271e-07 0.0652398

0.0747992 0.0241718 3.08359e-07
0.0241718 0.119275 5.14217e-09
3.08359e-07 5.14217e-09 0.0473235

0.15544 0.0236756 8.59004e-08
0.0236756 0.0708245 -1.93038e-07
8.59004e-08 -1.93038e-07 0.0270922

0.121712 -0.00822187 2.16298e-07
-0.00822187 0.115851 2.88119e-08
2.16298e-07 2.88119e-08 0.115976

0.117266 0.00345012 -1.61037e-08
0.00345012 0.129368 -6.51686e-08
-1.61037e-08 -6.51686e-08 0.122643

0.116059 -0.0192016 1.81217e-07
-0.0192016 0.0899855 1.81289e-07
1.81217e-07 1.81289e-07 0.0552671

0.121913 -0.00802402 2.07563e-07
-0.00802402 0.115656 8.03051e-09
2.07563e-07 8.03051e-09 0.116151

0.154152 -0.0223062 -4.80807e-08
-0.0223062 0.0651767 4.24987e-07
-4.80807e-08 4.24987e-07 0.0267445

0.120609 -0.00780674 2.32374e-07
-0.00780674 0.118184 -6.1053e-10
2.32374e-07 -6.1053e-10 0.118186

0.111453 -0.00717489 -2.0541e-08
-0.00717489 0.119956 1.19107e-07
-2.0541e-08 1.19107e-07 0.11251

0.119327 0.0457857 -5.74254e-09
0.0457857 0.103478 1.8561e-07
-5.74254e-09 1.8561e-07 0.0266438

0.0856965 -0.011824 7.37801e-08
-0.011824 0.120375 -2.546e-07
7.37801e-08 -2.546e-07 0.0536471

0.119065 -0.0470231 3.54028e-08
-0.0470231 0.101874 3.69954e-07
3.54028e-08 3.69954e-07 0.0260272

0.081645 0.0264667 2.29216e-07
0.0264667 0.107336 -1.61712e-07
2.29216e-07 -1.61712e-07 0.0476155

0.117337 -0.00852659 -1.28405e-07
-0.00852659 0.115939 5.92606e-08
-1.28405e-07 5.92606e-08 0.113636

0.133563 -0.00401998 9.38514e-09
-0.00401998 0.129776 3.94354e-08
9.38514e-09 3.94354e-08 0.125976

0.147573 0.00317305 1.88908e-09
0.00317305 0.145832 -4.35083e-07
1.88908e-09 -4.35083e-07 0.128301

0.143049 -0.00125107 -1.3399e-07
-0.00125107 0.148885 3.35824e-07
-1.3399e-07 3.35824e-07 0.128235

0.112528 0.00356924 1.67271e-07
0.00356924 0.126983 -2.09618e-08
1.67271e-07 -2.09618e-08 0.11914

0.147072 -0.00300938 -1.50023e-07
-0.00300938 0.14584 7.60102e-08
-1.50023e-07 7.60102e-08 0.128339

0.143525 0.000966948 3.93837e-08
0.000966948 0.14938 9.59543e-08
3.93837e-08 9.59543e-08 0.128297

0.149521 0.00225556 -2.75275e-07
0.00225556 0.142936 -1.94868e-07
-2.75275e-07 -1.94868e-07 0.128253

0.135462 -0.00339026 3.29624e-07
-0.00339026 0.148218 -2.77938e-08
3.29624e-07 -2.77938e-08 0.128024

0.0881222 -0.0132939 -1.71349e-07
-0.0132939 0.116168 2.481e-07
-1.71349e-07 2.481e-07 0.0664987

0.140302 -0.00356131 -2.7809e-07
-0.00356131 0.129317 9.74654e-08
-2.7809e-07 9.74654e-08 0.127042

0.127617 -0.00922017 -1.02245e-07
-0.00922017 0.125915 -1.41665e-07
-1.02245e-07 -1.41665e-07 0.124853

0.135513 -0.00482436 -4.97649e-08
-0.00482436 0.127768 -1.26951e-07
-4.97649e-08 -1.26951e-07 0.126117

0.126228 0.00423647 8.42634e-08
0.00423647 0.112367 5.37514e-09
8.42634e-08 5.37514e-09 0.118776

0.13537 0.00269479 -4.18421e-08
0.00269479 0.150681 -6.40122e-08
-4.18421e-08 -6.40122e-08 0.12816

0.149175 0.00528139 4.88343e-08
0.00528139 0.136862 1.1898e-07
4.88343e-08 1.1898e-07 0.128118

0.136174 0.00301391 1.1257e-07
0.00301391 0.129021 -1.06388e-07
1.1257e-07 -1.06388e-07 0.126219

0.126313 -0.00682888 3.12426e-07
-0.00682888 0.0622011 3.94588e-07
3.12426e-07 3.94588e-07 0.0467993

0.112023 0.00719051 -2.49612e-07
0.00719051 0.119033 4.75093e-08
-2.49612e-07 4.75093e-08 0.111965

0.109082 -0.0325198 2.622e-07
-0.0325198 0.0850575 1.95768e-07
2.622e-07 1.95768e-07 0.0453406

0.106723 -0.0320336 1.22825e-07
-0.0320336 0.118773 -3.07887e-07
1.22825e-07 -3.07887e-07 0.0522803

0.131758 -0.0193118 4.43056e-07
-0.0193118 0.089557 4.16022e-08
4.43056e-07 4.16022e-08 0.0550181

0.131141 -0.00122716 -4.42611e-08
-0.00122716 0.145654 6.10691e-08
-4.42611e-08 6.10691e-08 0.127636

0.131139 0.000612331 -4.87883e-08
0.000612331 0.145433 -4.43085e-07
-4.87883e-08 -4.43085e-07 0.127595

0.141184 -0.00639812 -1.52772e-07
-0.00639812 0.134739 2.8019e-07
-1.52772e-07 2.8019e-07 0.127501

0.141783 -0.00587184 -2.44864e-08
-0.00587184 0.1344 7.01532e-08
-2.44864e-08 7.01532e-08 0.127518

0.140955 0.00688897 2.37289e-08
0.00688897 0.135813 1.34642e-07
2.37289e-08 1.34642e-07 0.127589

0.144914 0.00110922 -3.38993e-07
0.00110922 0.146408 -7.62531e-07
-3.38993e-07 -7.62531e-07 0.12834

0.141181 -0.0054351 9.80759e-08
-0.0054351 0.134955 -2.95481e-08
9.80759e-08 -2.95481e-08 0.12763

0.141139 -0.0050368 -1.54551e-07
-0.0050368 0.144782 -1.87427e-07
-1.54551e-07 -1.87427e-07 0.128196

0.146173 0.000942899 1.5712e-07
0.000942899 0.147421 -2.97412e-07
1.5712e-07 -2.97412e-07 0.128381

0.14311 -0.00551071 2.17329e-07
-0.00551071 0.133822 -1.71513e-07
2.17329e-07 -1.71513e-07 0.127717

0.142889 0.0056362 3.05581e-07
0.0056362 0.134154 1.63727e-07
3.05581e-07 1.63727e-07 0.127792

0.146401 -0.00126533 5.69543e-07
-0.00126533 0.147712 -3.45207e-07
5.69543e-07 -3.45207e-07 0.128476

0.146728 -0.00120195 1.37683e-07
-0.00120195 0.144841 -4.20768e-07
1.37683e-07 -4.20768e-07 0.128499

0.141534 0.00316882 -2.06167e-07
0.00316882 0.144753 1.54461e-07
-2.06167e-07 1.54461e-07 0.128275

0.138073 0.00722282 -1.98963e-10
0.00722282 0.136958 -2.60038e-07
-1.98963e-10 -2.60038e-07 0.127684

SCALARS pressure float
LOOKUP_TABLE default
-52.3569
33.0929
15.1773
35.5773
29.0045
15.3115
-47.2163
17.2632
4.23624
26.8353
52.8864
17.0298
14.477
23.1854
37.6311
14.5706
31.0213
24.5418
9.91759
16.8245
6.94131
55.6313
15.7596
15.6015
16.5683
26.5261
-5.85704
16.2997
6.54778
49.2162
14.0818
5.7788
-13.7823
44.0774
36.2351
44.1295
50.875
34.8419
13.5926
-14.7324
2.84471
50.9688
51.0856
14.9772
21.5036
3.61516
8.57433
4.20228
16.2512
11.54
3.48494
-2.09723
34.9074
-2.37779
34.2916
-8.87375
36.7422
-2.61373
36.7563
17.0912
35.6674
28.7879
-35.6719
24.1777
29.115
21.0655
35.4464
25.2225
15.6915
36.4299
34.9914
34.9708
2.58387
22.04
12.7357
16.4499
26.2848
21.2082
25.5718
6.51191
-10.4321
28.0579
33.8905
6.02485
-9.75583
5.94948
16.8633
19.4485
20.2331
60.245
-2.65187
61.0956
31.1751
20.9778
-2.73043
8.88312
-13.9683
26.4457
26.3059
13.3101
-1.64289
-9.65939
0.299403
28.5327
25.5403
26.709
31.1702
12.3714
1.67305
41.9857
17.2425
18.457
5.19459
26.6946
26.7916
-4.06593
35.5643
-11.8441
36.117
-5.12574
7.68865
38.2097
36.3494
27.9416
42.1312
36.6617
37.0462
27.7294
-13.0124
-4.1051
38.7243
36.2304
34.9865
36.8342
-10.0515
40.2449
-15.8386
14.2013
35.9265
40.3041
-10.4392
15.6465
2.95451
26.7952
-13.6031
27.3759
17.3208
10.8422
14.2974
1.6213
8.32465
37.5865
6.33182
14.235
26.96
36.1501
22.0659
-9.85582
-10.4487
21.3673
4.87301
5.90051
19.379
9.14526
-9.4378
27.1186
-9.14867
-9.97271
6.63209
-9.88747
32.0261
-3.43471
9.89046
22.952
-1.29494
31.3068
32.0992
16.84
31.5599
22.4123
4.70434
27.1716
26.6931
-9.79427
20.5015
11.3949
27.9838
26.1145
29.6296
26.4931
20.3938
-7.95375
-3.79308
4.99667
36.6371
26.3173
26.3638
34.9247
37.3554
19.2273
36.3902
9.68394
6.62291
34.7262
1.68747
33.6812
20.3873
-8.6917
27.5188
37.3991
26.3789
19.1962
25.6918
35.1536
3.85215
18.419
6.2872
26.1932
42.5208
42.0072
43.8228
41.857
42.2383
41.7331
25.1686
37.7769
38.4634
38.4288
37.7391
35.3842
36.1292
3.46852
27.8618
44.4839
4.51557
37.9411
37.5379
43.9523
6.09578
44.3611
27.2297
3.73955
29.7249
3.04462
34.0211
46.3176
3.80905
5.82881
-11.7179
10.4653
33.198
-15.3355
14.7638
6.47076
8.98915
44.5331
42.1769
48.859
42.3355
-20.052
6.10613
44.5749
17.6362
6.51726
41.8648
2.24677
48.9234
6.23
42.6732
26.023
26.6459
38.2678
20.0016
31.5006
17.5374
-3.26945
13.9381
29.6329
10.3948
17.7791
-4.57574
29.6459
22.473
6.01592
19.1756
-2.24898
16.8246
-2.16884
5.99459
54.0928
32.3337
39.7487
40.0217
25.1755
-2.01449
42.7581
26.2031
6.56911
-1.86236
-3.78353
30.5427
3.84611
30.1812
-3.61325
21.7818
-2.08194
-20.8989
27.2364
3.48799
55.3456
-3.11666
28.9113
3.16736
27.774
-4.45095
13.0362
-47.0037
18.7103
3.65552
35.2337
3.45817
8.7164
20.9116
35.6934
-3.53209
-1.57608
2.58227
25.7369
-1.55021
16.077
15.9367
29.3741
-1.93798
2.3879
6.22914
2.95171
-2.45977
2.63071
26.8951
17.308
3.30984
2.32478
17.1813
17.0216
-2.05138
29.3925
49.0093
10.594
-9.18309
7.03169
201.53
204.172
190.981
193.774
196.616
209.833
210.417
28.6819
40.2656
22.9506
8.66147
9.37328
3.00474
16.6179
2.38632
2.5123
40.5546
2.92379
25.5823
-3.50077
38.9363
15.4486
8.40139
3.13062
29.0084
10.8044
9.02568
10.7383
9.35733
9.85768
4.91201
8.87837
10.4769
26.8293
8.61509
9.37121
8.85335
8.47139
10.2699
17.5158
8.66854
17.56
15.1142
8.43496
16.3426
14.8953
5.38137
28.4553
5.95083
38.0758
19.9547
26.7018
27.4089
10.374
5.66242
23.3795
49.3912
15.2384
6.28808
-45.8962
50.6819
50.7352
15.2365
8.93224
6.7994
9.06627
56.7452
56.5637
24.3277
14.9995
15.8422
43.4109
9.29862
28.7717
4.59821
3.3169
8.8955
55.7527
25.6217
8.93021
11.3664
11.1349
5.5618
8.67298
4.71045
3.64892
-3.60839
-19.4305
8.56601
10.0253
7.67886
4.12975
5.98871
5.82711
7.23274
20.9127
29.5783
9.41214
23.3845
25.5043
11.7142
15.804
16.9504
32.0173
57.6525
57.7072
36.5424
8.75136
11.0912
25.2845
57.0576
55.4385
55.5277
59.4324
37.2825
48.7293
11.2515
27.9567
20.9041
29.5751
30.0571
23.2795
14.549
52.7092
12.876
20.5773
28.4335
17.2768
45.4832
-51.1555
32.2878
20.543
-1.10027
16.8246
14.3262
39.3119
19.301
39.2407
12.9246
23.1007
48.5872
47.231
20.2318
29.821
-82.4631
-99.6889
-71.682
22.0819
39.0598
-56.9855
4.16128
-83.1408
30.2704
30.2185
-96.3909
15.1078
-8.86277
-85.9193
-0.600062
-88.8238
-6.04876
37.0115
23.6008
43.4803
-85.2679
13.5394
27.7391
5.07551
15.0231
-61.9071
19.7727
13.4535
-72.4417
4.23891
-66.7735
61.5442
14.3611
35.3711
58.7335
60.1237
22.3202
60.7196
60.7914
59.9833
58.3184
20.3051
45.4125
34.4517
37.0788
22.017
58.0691
58.1196
32.7822
62.5744
12.5698
42.2463
-58.3837
-42.5316
56.8488
56.3466
55.7327
55.7931
56.8716
58.5736
52.8448
59.7108
58.8023
56.7109
56.179
57.1873
57.1173
57.9987
55.5776
